----------------------------------------------
LOG MATLAB Estruturas Copyright Charles 2020
----------------------------------------------

VISÃO GERAL POR SEÇÃO
--------------------------------------------------------------------------------------------------------------------------------------------------------------------------------------------------------------------------------------------------------------------------------------------------------------------------------------------------------------------------------
SEÇÃO,POSIÇÃO .25c,, ESFORÇOS,,,,,INÉRCIAS,,,,CENTROS GEOMÉTRICOS,,,DEFLEXÇOES,,,,,TENSÕES NORMAIS,,,,,,,,TENSÕES CISALHAMENTO,,,TENSÕES DE VON MISES
NUMERO,X,Y,MFz,MFy,MTx,Vz,Vy,EIzz,EIyy,EIzy,GJ,Zcg,Ycg,Zcc,Z,Y,Z´,Y´,Theta,Sigma_Chap+,Sigma_Chap-,Sigma_Lam+,Sigma_Lam-,Sigma_Mesa+,Sigma_Mesa-,Sigma_Alma+,Sigma_Alma-,  Tau_Alma,  Tau_Chap,  Tau_Lam, Von Mises_Alma,  Von Mises_Chap,  Von Mises_Lam
--------------------------------------------------------------------------------------------------------------------------------------------------------------------------------------------------------------------------------------------------------------------------------------------------------------------------------------------------------------------------------
01,0.00000e+00,0.00000e+00,2.38586e+05,-3.40450e+04,-1.04073e+04,-4.31012e+01,2.71691e+02,2.43720e+09,3.02407e+09,6.88619e+08,3.59145e+07,8.66395e+01,2.17434e+01,7.43235e+01,0.00000e+00,0.00000e+00,0.00000e+00,0.00000e+00,0.00000e+00,4.04898e+00,-3.15353e+00,0.00000e+00,0.00000e+00,1.58550e+02,-1.73182e+02,1.98343e-01,-2.16648e-01,8.04602e-01,7.23275e-01,0.00000e+00,1.40856e+00,4.12334e+00,0.00000e+00
02,1.07300e+02,0.00000e+00,2.10379e+05,-2.95824e+04,-9.67168e+03,-4.00783e+01,2.54063e+02,2.38487e+09,2.93941e+09,6.69313e+08,3.49296e+07,8.58583e+01,2.15452e+01,7.36225e+01,-1.95914e-01,5.90856e-01,-3.65171e-03,1.10132e-02,-3.04019e-02,3.60604e+00,-2.81397e+00,0.00000e+00,0.00000e+00,1.41586e+02,-1.54426e+02,1.77122e-01,-1.93184e-01,7.60569e-01,6.82652e-01,0.00000e+00,1.32975e+00,3.68166e+00,0.00000e+00
03,2.14300e+02,0.00000e+00,1.84119e+05,-2.54552e+04,-8.95473e+03,-3.70656e+01,2.36776e+02,2.33333e+09,2.85653e+09,6.50412e+08,3.39615e+07,8.50782e+01,2.13473e+01,7.29231e+01,-7.60983e-01,2.29638e+00,-6.91032e-03,2.08658e-02,-5.93221e-02,3.18603e+00,-2.49277e+00,0.00000e+00,0.00000e+00,1.25520e+02,-1.36676e+02,1.57024e-01,-1.70979e-01,7.16536e-01,6.42077e-01,0.00000e+00,1.25123e+00,3.26295e+00,0.00000e+00
04,3.20700e+02,0.00000e+00,1.59848e+05,-2.16750e+04,-8.25700e+03,-3.39905e+01,2.19447e+02,2.28273e+09,2.77562e+09,6.31961e+08,3.30328e+07,8.43013e+01,2.11503e+01,7.22271e+01,-1.64922e+00,4.98052e+00,-9.78579e-03,2.95880e-02,-8.66476e-02,2.79088e+00,-2.19104e+00,0.00000e+00,0.00000e+00,1.10410e+02,-1.20000e+02,1.38121e-01,-1.50118e-01,6.71527e-01,6.01194e-01,0.00000e+00,1.17131e+00,2.86910e+00,0.00000e+00
05,4.26200e+02,0.00000e+00,1.37595e+05,-1.82494e+04,-7.57864e+03,-3.09497e+01,2.02400e+02,2.23318e+09,2.69686e+09,6.14002e+08,3.21306e+07,8.35299e+01,2.09548e+01,7.15366e+01,-2.81388e+00,8.50485e+00,-1.22932e-02,3.72239e-02,-1.12275e-01,2.42252e+00,-1.90982e+00,0.00000e+00,0.00000e+00,9.63102e+01,-1.04460e+02,1.20482e-01,-1.30677e-01,6.26335e-01,5.60311e-01,0.00000e+00,1.09133e+00,2.50183e+00,0.00000e+00
06,5.30600e+02,0.00000e+00,1.17337e+05,-1.51742e+04,-6.92022e+03,-2.79630e+01,1.85684e+02,2.18477e+09,2.62035e+09,5.96558e+08,3.12550e+07,8.27655e+01,2.07610e+01,7.08528e+01,-4.21009e+00,1.27362e+01,-1.44541e-02,4.38359e-02,-1.36145e-01,2.08205e+00,-1.64951e+00,0.00000e+00,0.00000e+00,8.32432e+01,-9.00806e+01,1.04136e-01,-1.12689e-01,5.81091e-01,5.19505e-01,0.00000e+00,1.01153e+00,2.16195e+00,0.00000e+00
07,6.33500e+02,0.00000e+00,9.90688e+04,-1.24471e+04,-6.28698e+03,-2.50410e+01,1.69391e+02,2.13765e+09,2.54632e+09,5.79679e+08,3.04124e+07,8.20110e+01,2.05698e+01,7.01785e+01,-5.79183e+00,1.75374e+01,-1.62891e-02,4.94830e-02,-1.58173e-01,1.77018e+00,-1.41079e+00,0.00000e+00,0.00000e+00,7.12453e+01,-7.69023e+01,8.91267e-02,-9.62034e-02,5.36108e-01,4.79129e-01,0.00000e+00,9.32399e-01,1.85066e+00,0.00000e+00
08,7.34700e+02,0.00000e+00,8.27281e+04,-1.00569e+04,-5.67869e+03,-2.21969e+01,1.53549e+02,2.09189e+09,2.47483e+09,5.63383e+08,2.96027e+07,8.12680e+01,2.03815e+01,6.95148e+01,-7.51806e+00,2.27860e+01,-1.78261e-02,5.42446e-02,-1.78340e-01,1.48714e+00,-1.19374e+00,0.00000e+00,0.00000e+00,6.03168e+01,-6.49245e+01,7.54553e-02,-8.12194e-02,4.91488e-01,4.39234e-01,0.00000e+00,8.54115e-01,1.56912e+00,0.00000e+00
09,8.33800e+02,0.00000e+00,6.82705e+04,-7.99260e+03,-5.09458e+03,-1.94641e+01,1.38228e+02,2.04762e+09,2.40610e+09,5.47713e+08,2.88240e+07,8.05393e+01,2.01969e+01,6.88645e+01,-9.34732e+00,2.83575e+01,-1.90915e-02,5.81960e-02,-1.96603e-01,1.23334e+00,-9.98718e-01,0.00000e+00,0.00000e+00,5.04692e+01,-5.41585e+01,6.31361e-02,-6.77514e-02,4.47423e-01,3.99876e-01,0.00000e+00,7.76982e-01,1.31657e+00,0.00000e+00
10,9.30700e+02,0.00000e+00,5.55941e+04,-6.23284e+03,-4.53111e+03,-1.68570e+01,1.23410e+02,2.00486e+09,2.34009e+09,5.32666e+08,2.80706e+07,7.98259e+01,2.00162e+01,6.82283e+01,-1.12470e+01,3.41533e+01,-2.01173e-02,6.14284e-02,-2.12987e-01,1.00809e+00,-8.24705e-01,0.00000e+00,0.00000e+00,4.16751e+01,-4.45714e+01,5.21349e-02,-5.57581e-02,4.03865e-01,3.60903e-01,0.00000e+00,7.00899e-01,1.09305e+00,0.00000e+00
11,1.02500e+03,0.00000e+00,4.46216e+04,-4.75673e+03,-3.98667e+03,-1.44496e+01,1.09305e+02,1.96375e+09,2.27699e+09,5.18282e+08,2.73227e+07,7.91308e+01,1.98401e+01,6.76088e+01,-1.31825e+01,4.00683e+01,-2.09320e-02,6.40231e-02,-2.27478e-01,8.10937e-01,-6.71812e-01,0.00000e+00,0.00000e+00,3.39229e+01,-3.61457e+01,4.24370e-02,-4.52176e-02,3.61391e-01,3.22459e-01,0.00000e+00,6.26838e-01,8.96633e-01,0.00000e+00
12,1.11650e+03,0.00000e+00,3.52461e+04,-3.53782e+03,-3.45874e+03,-1.21932e+01,9.56258e+01,1.92432e+09,2.21681e+09,5.04566e+08,2.65928e+07,7.84554e+01,1.96691e+01,6.70073e+01,-1.51267e+01,4.60200e+01,-2.15659e-02,6.60674e-02,-2.40103e-01,6.40765e-01,-5.38813e-01,0.00000e+00,0.00000e+00,2.71788e+01,-2.88388e+01,3.40002e-02,-3.60768e-02,3.19248e-01,2.84179e-01,0.00000e+00,5.53481e-01,7.26907e-01,0.00000e+00
13,1.20500e+03,0.00000e+00,2.73534e+04,-2.54820e+03,-2.95417e+03,-1.01711e+01,8.27393e+01,1.32148e+09,1.95268e+09,4.45208e+08,2.42220e+07,7.39632e+01,1.86188e+01,6.42675e+01,-1.70601e+01,5.19508e+01,-2.21259e-02,6.79622e-02,-2.51256e-01,6.73416e-01,-6.23192e-01,0.00000e+00,0.00000e+00,3.05903e+01,-3.23012e+01,3.82679e-02,-4.04082e-02,2.80662e-01,2.84799e-01,0.00000e+00,4.87013e-01,7.61359e-01,0.00000e+00
14,1.29010e+03,0.00000e+00,2.08222e+04,-1.76297e+03,-2.49896e+03,-8.28318e+00,7.07559e+01,1.21619e+09,1.75686e+09,4.00479e+08,2.19159e+07,7.15330e+01,1.79989e+01,6.20379e+01,-1.89644e+01,5.78100e+01,-2.26293e-02,6.97393e-02,-2.61297e-01,5.32027e-01,-4.98596e-01,0.00000e+00,0.00000e+00,2.44596e+01,-2.56764e+01,3.05985e-02,-3.21208e-02,2.50631e-01,2.53909e-01,0.00000e+00,4.34616e-01,6.36190e-01,0.00000e+00
15,1.37170e+03,0.00000e+00,1.55003e+04,-1.15935e+03,-2.09702e+03,-6.51147e+00,5.96827e+01,1.12002e+09,1.58132e+09,3.60391e+08,1.98715e+07,6.91884e+01,1.74013e+01,5.98941e+01,-2.08268e+01,6.35574e+01,-2.30169e-02,7.11289e-02,-2.70255e-01,4.09798e-01,-3.90569e-01,0.00000e+00,0.00000e+00,1.91315e+01,-1.99484e+01,2.39332e-02,-2.49552e-02,2.20966e-01,2.24186e-01,0.00000e+00,3.82961e-01,5.27136e-01,0.00000e+00
16,1.44960e+03,0.00000e+00,1.12431e+04,-7.14343e+02,-1.74108e+03,-4.91356e+00,4.96146e+01,1.03251e+09,1.42458e+09,3.24609e+08,1.80515e+07,6.69366e+01,1.68278e+01,5.78421e+01,-2.26311e+01,6.91394e+01,-2.33054e-02,7.21839e-02,-2.78122e-01,3.06750e-01,-2.98628e-01,0.00000e+00,0.00000e+00,1.45825e+01,-1.50902e+01,1.82424e-02,-1.88776e-02,1.92080e-01,1.95639e-01,0.00000e+00,3.32756e-01,4.33072e-01,0.00000e+00
17,1.52340e+03,0.00000e+00,7.92259e+03,-4.04037e+02,-1.42287e+03,-3.49581e+00,4.03733e+01,9.53418e+08,1.28561e+09,2.92889e+08,1.64483e+07,6.47909e+01,1.62818e+01,5.58929e+01,-2.43586e+01,7.44951e+01,-2.35115e-02,7.29566e-02,-2.84873e-01,2.22259e-01,-2.22107e-01,0.00000e+00,0.00000e+00,1.07947e+01,-1.10778e+01,1.35040e-02,-1.38582e-02,1.63521e-01,1.67736e-01,0.00000e+00,2.83266e-01,3.51567e-01,0.00000e+00
18,1.59310e+03,0.00000e+00,5.40062e+03,-2.02814e+02,-1.13811e+03,-2.27818e+00,3.19932e+01,8.82075e+08,1.16263e+09,2.64824e+08,1.50340e+07,6.27531e+01,1.57637e+01,5.40474e+01,-2.60023e+01,7.95992e+01,-2.36529e-02,7.35026e-02,-2.90526e-01,1.55353e-01,-1.60048e-01,0.00000e+00,0.00000e+00,7.72505e+00,-7.85797e+00,9.66390e-03,-9.83019e-03,1.35606e-01,1.40519e-01,0.00000e+00,2.34901e-01,2.80994e-01,0.00000e+00
19,1.65850e+03,0.00000e+00,3.55303e+03,-8.55905e+01,-8.81148e+02,-1.30664e+00,2.45081e+01,8.18049e+08,1.05434e+09,2.40117e+08,1.37760e+07,6.08309e+01,1.52752e+01,5.23116e+01,-2.75522e+01,8.44184e+01,-2.37455e-02,7.38723e-02,-2.95093e-01,1.04623e-01,-1.11253e-01,0.00000e+00,0.00000e+00,5.32785e+00,-5.37245e+00,6.66505e-03,-6.72084e-03,1.08636e-01,1.13860e-01,0.00000e+00,1.88176e-01,2.19341e-01,0.00000e+00
20,1.71930e+03,0.00000e+00,2.26311e+03,-2.80154e+01,-6.49208e+02,-5.87282e-01,1.79236e+01,7.61023e+08,9.59670e+08,2.18523e+08,1.26500e+07,5.90349e+01,1.48192e+01,5.06943e+01,-2.89977e+01,8.89171e+01,-2.38034e-02,7.41116e-02,-2.98597e-01,6.82229e-02,-7.46912e-02,0.00000e+00,0.00000e+00,3.54781e+00,-3.55087e+00,4.43825e-03,-4.44208e-03,8.29123e-02,8.77999e-02,0.00000e+00,1.43616e-01,1.64783e-01,0.00000e+00
21,1.77540e+03,0.00000e+00,1.41182e+03,-6.68392e+00,-4.42597e+02,-1.73199e-01,1.24254e+01,3.98519e+08,7.29057e+08,1.66652e+08,8.82904e+06,5.21005e+01,1.31900e+01,4.07358e+01,-3.03344e+01,9.30803e+01,-2.38500e-02,7.43111e-02,-3.01443e-01,7.82419e-02,-8.76621e-02,0.00000e+00,0.00000e+00,4.14510e+00,-4.10510e+00,5.18544e-03,-5.13541e-03,1.00107e-01,7.86271e-02,0.00000e+00,1.73399e-01,1.54689e-01,0.00000e+00
22,1.82660e+03,0.00000e+00,8.86062e+02,-2.91916e+00,-2.76280e+02,2.61376e-02,8.11205e+00,3.22692e+08,5.63581e+08,1.28741e+08,6.84759e+06,4.80842e+01,1.21552e+01,3.73499e+01,-3.15565e+01,9.68896e+01,-2.38910e-02,7.44889e-02,-3.03759e-01,5.50360e-02,-6.17825e-02,0.00000e+00,0.00000e+00,2.91887e+00,-2.89068e+00,3.65146e-03,-3.61619e-03,7.27257e-02,5.64489e-02,0.00000e+00,1.25971e-01,1.10581e-01,0.00000e+00
23,1.87280e+03,0.00000e+00,5.73243e+02,-3.22888e+00,-1.63162e+02,-1.27298e-02,5.42989e+00,2.62353e+08,4.36581e+08,9.96683e+07,5.17478e+06,4.43938e+01,1.12070e+01,3.42731e+01,-3.26610e+01,1.00334e+02,-2.39198e-02,7.46141e-02,-3.05420e-01,3.98913e-02,-4.46024e-02,0.00000e+00,0.00000e+00,2.10816e+00,-2.09311e+00,2.63727e-03,-2.61845e-03,5.30322e-02,3.94571e-02,0.00000e+00,9.18587e-02,7.79091e-02,0.00000e+00
24,1.91380e+03,0.00000e+00,3.50538e+02,-2.68704e+00,-1.63162e+02,-1.37014e-02,5.43378e+00,2.14932e+08,3.40501e+08,7.76906e+07,4.11244e+06,4.10625e+01,1.03532e+01,3.15244e+01,-3.36421e+01,1.03395e+02,-2.39397e-02,7.46997e-02,-3.06879e-01,2.72037e-02,-3.02908e-02,0.00000e+00,0.00000e+00,1.43271e+00,-1.42562e+00,1.79229e-03,-1.78342e-03,5.93991e-02,4.46243e-02,0.00000e+00,1.02884e-01,8.13823e-02,0.00000e+00
25,1.94970e+03,0.00000e+00,1.80463e+02,-1.29988e+00,-1.11178e+02,-6.35776e-02,4.04117e+00,1.77937e+08,2.68420e+08,6.12136e+07,3.20470e+06,3.80992e+01,9.59536e+00,2.91026e+01,-3.45017e+01,1.06077e+02,-2.39517e-02,7.47514e-02,-3.08214e-01,1.54946e-02,-1.72538e-02,0.00000e+00,0.00000e+00,8.15890e-01,-8.12173e-01,1.02066e-03,-1.01601e-03,4.81287e-02,3.52454e-02,0.00000e+00,8.33620e-02,6.27486e-02,0.00000e+00
26,1.98010e+03,0.00000e+00,7.96778e+01,1.65049e-01,-6.85177e+01,-3.27991e-02,2.58941e+00,1.49784e+08,2.15653e+08,4.91590e+07,2.58404e+06,3.55543e+01,8.94582e+00,2.70403e+01,-3.52300e+01,1.08350e+02,-2.39576e-02,7.47769e-02,-3.09145e-01,7.43665e-03,-8.43399e-03,0.00000e+00,0.00000e+00,3.96748e-01,-3.92748e-01,4.96325e-04,-4.91321e-04,3.37128e-02,2.45871e-02,0.00000e+00,5.83925e-02,4.31606e-02,0.00000e+00
27,2.00520e+03,0.00000e+00,2.87653e+01,5.61164e-01,-3.89977e+01,1.23614e-03,1.46736e+00,1.28656e+08,1.77484e+08,4.04436e+07,2.15978e+06,3.34272e+01,8.40385e+00,2.53292e+01,-3.58313e+01,1.10227e+02,-2.39599e-02,7.47871e-02,-3.09704e-01,2.86363e-03,-3.37351e-03,0.00000e+00,0.00000e+00,1.56718e-01,-1.53459e-01,1.96052e-04,-1.91974e-04,2.08968e-02,1.54843e-02,0.00000e+00,3.61943e-02,2.69595e-02,0.00000e+00
28,2.02480e+03,0.00000e+00,7.66965e+00,3.59002e-01,-1.92433e+01,1.93927e-02,6.85255e-01,1.13447e+08,1.50904e+08,3.43767e+07,1.88664e+06,3.17493e+01,7.97693e+00,2.39876e+01,-3.63009e+01,1.11693e+02,-2.39605e-02,7.47902e-02,-3.09981e-01,8.07445e-04,-9.97384e-04,0.00000e+00,0.00000e+00,4.53139e-02,-4.36193e-02,5.66869e-05,-5.45669e-05,1.06794e-02,8.22971e-03,0.00000e+00,1.84973e-02,1.42756e-02,0.00000e+00
29,2.03880e+03,0.00000e+00,1.25705e+00,1.12514e-01,-6.90105e+00,1.58199e-02,2.30830e-01,1.03260e+08,1.33576e+08,3.04229e+07,1.71105e+06,3.05414e+01,7.66993e+00,2.30264e+01,-3.66364e+01,1.12740e+02,-2.39606e-02,7.47908e-02,-3.10080e-01,1.41499e-04,-1.82499e-04,0.00000e+00,0.00000e+00,7.98214e-03,-7.48239e-03,9.98552e-06,-9.36034e-06,3.88133e-03,3.11563e-03,0.00000e+00,6.72267e-03,5.39808e-03,0.00000e+00
30,2.04720e+03,0.00000e+00,1.43783e-01,2.30351e-02,-1.27403e+00,5.48455e-03,3.42341e-02,9.74134e+07,1.23821e+08,2.81976e+07,1.67749e+06,2.98129e+01,7.48488e+00,2.24484e+01,-3.68377e+01,1.13369e+02,-2.39606e-02,7.47909e-02,-3.10101e-01,1.71641e-05,-2.38474e-05,0.00000e+00,0.00000e+00,9.76248e-04,-8.76471e-04,1.22127e-06,-1.09645e-06,6.43753e-04,5.76882e-04,0.00000e+00,1.11501e-03,9.99312e-04,0.00000e+00
31,2.05000e+03,0.00000e+00,0.00000e+00,0.00000e+00,0.00000e+00,0.00000e+00,0.00000e+00,5.74754e+07,1.08343e+08,2.47732e+07,NaN,2.74871e+01,6.96602e+00,2.15905e+01,-3.69048e+01,1.13578e+02,-2.39606e-02,7.47909e-02,-3.10102e-01,0.00000e+00,0.00000e+00,0.00000e+00,0.00000e+00,0.00000e+00,0.00000e+00,0.00000e+00,0.00000e+00,0.00000e+00,0.00000e+00,0.00000e+00,0.00000e+00,0.00000e+00,0.00000e+00
--------------------------------------------------------------------------------------------------------------------------------------------------------------------------------------------------------------------------------------------------------------------------------------------------------------------------------------------------------------------------------

CHAPEADO 
--------------------------------------------------------------------------------------------------------------------------------------------------------------------------------------------------------------------------------------------------------------------------------------------------------------------------------------------------------------------------------
X,Y,Z,Sigma,Tau,Von Mises
0.00000e+00,4.31008e+01,0.00000e+00,-3.09498e+00,7.23275e-01,3.33890e+00
0.00000e+00,4.28837e+01,-3.27521e+00,-3.11995e+00,7.11550e-01,3.35455e+00
0.00000e+00,4.25950e+01,-6.55041e+00,-3.13404e+00,6.99540e-01,3.36010e+00
0.00000e+00,4.23033e+01,-9.82562e+00,-3.14769e+00,6.87256e-01,3.36525e+00
0.00000e+00,4.19484e+01,-1.31008e+01,-3.15173e+00,6.74724e-01,3.36142e+00
0.00000e+00,4.15787e+01,-1.63760e+01,-3.15353e+00,6.61958e-01,3.35549e+00
0.00000e+00,4.11605e+01,-1.96512e+01,-3.14796e+00,6.48980e-01,3.34263e+00
0.00000e+00,4.07187e+01,-2.29264e+01,-3.13881e+00,6.35806e-01,3.32639e+00
0.00000e+00,4.02378e+01,-2.62017e+01,-3.12373e+00,6.22455e-01,3.30455e+00
0.00000e+00,3.97249e+01,-2.94769e+01,-3.10378e+00,6.08945e-01,3.27809e+00
0.00000e+00,3.91766e+01,-3.27521e+01,-3.07847e+00,5.95292e-01,3.24655e+00
0.00000e+00,3.85857e+01,-3.60273e+01,-3.04668e+00,5.81515e-01,3.20885e+00
0.00000e+00,3.79511e+01,-3.93025e+01,-3.00825e+00,5.67631e-01,3.16484e+00
0.00000e+00,3.72545e+01,-4.25777e+01,-2.96042e+00,5.53666e-01,3.11187e+00
0.00000e+00,3.64976e+01,-4.58529e+01,-2.90343e+00,5.39645e-01,3.05017e+00
0.00000e+00,3.56687e+01,-4.91281e+01,-2.83549e+00,5.25590e-01,2.97804e+00
0.00000e+00,3.47420e+01,-5.24033e+01,-2.75272e+00,5.11550e-01,2.89181e+00
0.00000e+00,3.37474e+01,-5.56785e+01,-2.65965e+00,4.97535e-01,2.79577e+00
0.00000e+00,3.26000e+01,-5.89537e+01,-2.54335e+00,4.83620e-01,2.67774e+00
0.00000e+00,3.13892e+01,-6.22289e+01,-2.41744e+00,4.69838e-01,2.55073e+00
0.00000e+00,3.00018e+01,-6.55041e+01,-2.26472e+00,4.56224e-01,2.39862e+00
0.00000e+00,2.84730e+01,-6.87793e+01,-2.09052e+00,4.42891e-01,2.22682e+00
0.00000e+00,2.68002e+01,-7.20546e+01,-1.89445e+00,4.29863e-01,2.03551e+00
0.00000e+00,2.48857e+01,-7.53298e+01,-1.66170e+00,4.17187e-01,1.81201e+00
0.00000e+00,2.26913e+01,-7.86050e+01,-1.38644e+00,4.05017e-01,1.55381e+00
0.00000e+00,2.01805e+01,-8.18802e+01,-1.06314e+00,3.93499e-01,1.26285e+00
0.00000e+00,1.72108e+01,-8.51554e+01,-6.70153e-01,3.82730e-01,9.42630e-01
0.00000e+00,1.33989e+01,-8.84306e+01,-1.49302e-01,3.73235e-01,6.63480e-01
0.00000e+00,8.24350e+00,-9.17058e+01,5.75552e-01,3.67436e-01,8.58071e-01
0.00000e+00,-3.34020e+00,-9.49810e+01,2.27646e+00,3.69735e-01,2.36482e+00
0.00000e+00,-4.17620e+00,-9.49886e+01,2.40326e+00,3.76875e-01,2.49034e+00
0.00000e+00,-1.17928e+01,-9.15961e+01,3.61975e+00,3.90414e-01,3.68237e+00
0.00000e+00,-1.27149e+01,-8.82037e+01,3.81978e+00,4.00416e-01,3.88223e+00
0.00000e+00,-1.30332e+01,-8.48113e+01,3.92810e+00,4.10942e-01,3.99207e+00
0.00000e+00,-1.30814e+01,-8.14188e+01,3.99544e+00,4.21955e-01,4.06174e+00
0.00000e+00,-1.29264e+01,-7.80264e+01,4.03190e+00,4.33370e-01,4.10118e+00
0.00000e+00,-1.26437e+01,-7.46339e+01,4.04898e+00,4.45118e-01,4.12173e+00
0.00000e+00,-1.22328e+01,-7.12415e+01,4.04661e+00,4.57133e-01,4.12334e+00
0.00000e+00,-1.17438e+01,-6.78490e+01,4.03236e+00,4.69356e-01,4.11349e+00
0.00000e+00,-1.12094e+01,-6.44565e+01,4.01123e+00,4.81754e-01,4.09710e+00
0.00000e+00,-1.06068e+01,-6.10641e+01,3.97973e+00,4.94294e-01,4.07078e+00
0.00000e+00,-9.96142e+00,-5.76716e+01,3.94175e+00,5.06941e-01,4.03836e+00
0.00000e+00,-9.27449e+00,-5.42792e+01,3.89746e+00,5.19671e-01,4.00004e+00
0.00000e+00,-8.54615e+00,-5.08867e+01,3.84688e+00,5.32456e-01,3.95588e+00
0.00000e+00,-7.79185e+00,-4.74943e+01,3.79235e+00,5.45276e-01,3.90818e+00
0.00000e+00,-7.00429e+00,-4.41018e+01,3.73278e+00,5.58109e-01,3.85592e+00
0.00000e+00,-6.19544e+00,-4.07094e+01,3.66997e+00,5.70938e-01,3.80087e+00
0.00000e+00,-5.36748e+00,-3.73169e+01,3.60426e+00,5.83748e-01,3.74339e+00
0.00000e+00,-4.52248e+00,-3.39245e+01,3.53596e+00,5.96524e-01,3.68383e+00
0.00000e+00,-3.67026e+00,-3.05320e+01,3.46657e+00,6.09258e-01,3.62363e+00
0.00000e+00,-2.80686e+00,-2.71396e+01,3.39548e+00,6.21942e-01,3.56227e+00
0.00000e+00,-1.94159e+00,-2.37472e+01,3.32411e+00,6.34572e-01,3.50111e+00
0.00000e+00,-1.06964e+00,-2.03547e+01,3.25172e+00,6.47143e-01,3.43949e+00
0.00000e+00,-1.97780e-01,-1.69622e+01,3.17935e+00,6.59650e-01,3.37841e+00
0.00000e+00,6.70785e-01,-1.35698e+01,3.10747e+00,6.72095e-01,3.31836e+00
0.00000e+00,1.53935e+00,-1.01774e+01,3.03560e+00,6.84474e-01,3.25889e+00
0.00000e+00,2.38735e+00,-6.78490e+00,2.96685e+00,6.96793e-01,3.20293e+00
0.00000e+00,3.23151e+00,-3.39245e+00,2.89868e+00,7.09060e-01,3.14812e+00
1.07300e+02,4.26785e+01,0.00000e+00,-2.75977e+00,6.82652e-01,3.00239e+00
1.07300e+02,4.24636e+01,-3.24312e+00,-2.78245e+00,6.71671e-01,3.01586e+00
1.07300e+02,4.21777e+01,-6.48624e+00,-2.79541e+00,6.60422e-01,3.02039e+00
1.07300e+02,4.18889e+01,-9.72936e+00,-2.80798e+00,6.48918e-01,3.02457e+00
1.07300e+02,4.15374e+01,-1.29725e+01,-2.81197e+00,6.37180e-01,3.02079e+00
1.07300e+02,4.11714e+01,-1.62156e+01,-2.81397e+00,6.25224e-01,3.01516e+00
1.07300e+02,4.07572e+01,-1.94587e+01,-2.80939e+00,6.13068e-01,3.00337e+00
1.07300e+02,4.03197e+01,-2.27018e+01,-2.80161e+00,6.00730e-01,2.98859e+00
1.07300e+02,3.98436e+01,-2.59450e+01,-2.78855e+00,5.88226e-01,2.96884e+00
1.07300e+02,3.93357e+01,-2.91881e+01,-2.77114e+00,5.75572e-01,2.94500e+00
1.07300e+02,3.87928e+01,-3.24312e+01,-2.74894e+00,5.62785e-01,2.91665e+00
1.07300e+02,3.82077e+01,-3.56743e+01,-2.72097e+00,5.49882e-01,2.88284e+00
1.07300e+02,3.75793e+01,-3.89174e+01,-2.68706e+00,5.36879e-01,2.84342e+00
1.07300e+02,3.68895e+01,-4.21606e+01,-2.64477e+00,5.23798e-01,2.79605e+00
1.07300e+02,3.61401e+01,-4.54037e+01,-2.59431e+00,5.10667e-01,2.74095e+00
1.07300e+02,3.53192e+01,-4.86468e+01,-2.53408e+00,4.97503e-01,2.67658e+00
1.07300e+02,3.44016e+01,-5.18899e+01,-2.46061e+00,4.84354e-01,2.59970e+00
1.07300e+02,3.34168e+01,-5.51330e+01,-2.37795e+00,4.71228e-01,2.51412e+00
1.07300e+02,3.22806e+01,-5.83762e+01,-2.27457e+00,4.58196e-01,2.40904e+00
1.07300e+02,3.10816e+01,-6.16193e+01,-2.16260e+00,4.45288e-01,2.29601e+00
1.07300e+02,2.97079e+01,-6.48624e+01,-2.02672e+00,4.32537e-01,2.16075e+00
1.07300e+02,2.81940e+01,-6.81055e+01,-1.87166e+00,4.20050e-01,2.00810e+00
1.07300e+02,2.65376e+01,-7.13486e+01,-1.69710e+00,4.07848e-01,1.83825e+00
1.07300e+02,2.46419e+01,-7.45918e+01,-1.48980e+00,3.95976e-01,1.64009e+00
1.07300e+02,2.24690e+01,-7.78349e+01,-1.24457e+00,3.84578e-01,1.41161e+00
1.07300e+02,1.99828e+01,-8.10780e+01,-9.56471e-01,3.73791e-01,1.15499e+00
1.07300e+02,1.70422e+01,-8.43211e+01,-6.06195e-01,3.63705e-01,8.74252e-01
1.07300e+02,1.32676e+01,-8.75642e+01,-1.41819e-01,3.54813e-01,6.30706e-01
1.07300e+02,8.16273e+00,-9.08074e+01,5.04593e-01,3.49382e-01,7.87919e-01
1.07300e+02,-3.30748e+00,-9.40505e+01,2.02196e+00,3.51536e-01,2.11165e+00
1.07300e+02,-4.13529e+00,-9.40580e+01,2.13511e+00,3.58223e-01,2.22343e+00
1.07300e+02,-1.16772e+01,-9.06988e+01,3.22101e+00,3.70904e-01,3.28445e+00
1.07300e+02,-1.25904e+01,-8.73396e+01,3.39990e+00,3.80272e-01,3.46311e+00
1.07300e+02,-1.29055e+01,-8.39804e+01,3.49696e+00,3.90130e-01,3.56165e+00
1.07300e+02,-1.29533e+01,-8.06211e+01,3.55746e+00,4.00444e-01,3.62444e+00
1.07300e+02,-1.27997e+01,-7.72619e+01,3.59039e+00,4.11135e-01,3.66033e+00
1.07300e+02,-1.25198e+01,-7.39027e+01,3.60604e+00,4.22138e-01,3.67942e+00
1.07300e+02,-1.21130e+01,-7.05435e+01,3.60432e+00,4.33391e-01,3.68166e+00
1.07300e+02,-1.16287e+01,-6.71843e+01,3.59202e+00,4.44838e-01,3.67372e+00
1.07300e+02,-1.10996e+01,-6.38251e+01,3.57357e+00,4.56450e-01,3.65998e+00
1.07300e+02,-1.05029e+01,-6.04659e+01,3.54586e+00,4.68195e-01,3.63741e+00
1.07300e+02,-9.86382e+00,-5.71066e+01,3.51238e+00,4.80040e-01,3.60945e+00
1.07300e+02,-9.18363e+00,-5.37474e+01,3.47326e+00,4.91962e-01,3.57625e+00
1.07300e+02,-8.46243e+00,-5.03882e+01,3.42852e+00,5.03936e-01,3.53789e+00
1.07300e+02,-7.71552e+00,-4.70290e+01,3.38028e+00,5.15942e-01,3.49641e+00
1.07300e+02,-6.93567e+00,-4.36698e+01,3.32752e+00,5.27962e-01,3.45089e+00
1.07300e+02,-6.13474e+00,-4.03106e+01,3.27188e+00,5.39977e-01,3.40293e+00
1.07300e+02,-5.31490e+00,-3.69514e+01,3.21365e+00,5.51974e-01,3.35285e+00
1.07300e+02,-4.47818e+00,-3.35921e+01,3.15311e+00,5.63940e-01,3.30094e+00
1.07300e+02,-3.63431e+00,-3.02329e+01,3.09160e+00,5.75866e-01,3.24851e+00
1.07300e+02,-2.77936e+00,-2.68737e+01,3.02857e+00,5.87745e-01,3.19508e+00
1.07300e+02,-1.92257e+00,-2.35145e+01,2.96528e+00,5.99573e-01,3.14187e+00
1.07300e+02,-1.05916e+00,-2.01553e+01,2.90109e+00,6.11346e-01,3.08830e+00
1.07300e+02,-1.95842e-01,-1.67961e+01,2.83692e+00,6.23060e-01,3.03524e+00
1.07300e+02,6.64213e-01,-1.34369e+01,2.77319e+00,6.34716e-01,2.98314e+00
1.07300e+02,1.52427e+00,-1.00776e+01,2.70945e+00,6.46309e-01,2.93160e+00
1.07300e+02,2.36396e+00,-6.71843e+00,2.64851e+00,6.57847e-01,2.88321e+00
1.07300e+02,3.19985e+00,-3.35921e+00,2.58809e+00,6.69334e-01,2.83588e+00
2.14300e+02,4.22575e+01,0.00000e+00,-2.44256e+00,6.42077e-01,2.68382e+00
2.14300e+02,4.20447e+01,-3.21112e+00,-2.46309e+00,6.31827e-01,2.69526e+00
2.14300e+02,4.17615e+01,-6.42224e+00,-2.47500e+00,6.21327e-01,2.69885e+00
2.14300e+02,4.14756e+01,-9.63337e+00,-2.48658e+00,6.10588e-01,2.70213e+00
2.14300e+02,4.11276e+01,-1.28445e+01,-2.49055e+00,5.99631e-01,2.69843e+00
2.14300e+02,4.07652e+01,-1.60556e+01,-2.49277e+00,5.88471e-01,2.69310e+00
2.14300e+02,4.03551e+01,-1.92667e+01,-2.48915e+00,5.77125e-01,2.68236e+00
2.14300e+02,3.99219e+01,-2.24779e+01,-2.48270e+00,5.65608e-01,2.66900e+00
2.14300e+02,3.94505e+01,-2.56890e+01,-2.47156e+00,5.53936e-01,2.65126e+00
2.14300e+02,3.89476e+01,-2.89001e+01,-2.45658e+00,5.42125e-01,2.62992e+00
2.14300e+02,3.84101e+01,-3.21112e+01,-2.43736e+00,5.30189e-01,2.60462e+00
2.14300e+02,3.78307e+01,-3.53223e+01,-2.41302e+00,5.18146e-01,2.57451e+00
2.14300e+02,3.72085e+01,-3.85335e+01,-2.38343e+00,5.06008e-01,2.53946e+00
2.14300e+02,3.65256e+01,-4.17446e+01,-2.34641e+00,4.93799e-01,2.49743e+00
2.14300e+02,3.57835e+01,-4.49557e+01,-2.30215e+00,4.81542e-01,2.44858e+00
2.14300e+02,3.49707e+01,-4.81668e+01,-2.24924e+00,4.69255e-01,2.39158e+00
2.14300e+02,3.40622e+01,-5.13780e+01,-2.18461e+00,4.56981e-01,2.32357e+00
2.14300e+02,3.30871e+01,-5.45891e+01,-2.11182e+00,4.44729e-01,2.24792e+00
2.14300e+02,3.19621e+01,-5.78002e+01,-2.02069e+00,4.32565e-01,2.15512e+00
2.14300e+02,3.07750e+01,-6.10113e+01,-1.92195e+00,4.20517e-01,2.05534e+00
2.14300e+02,2.94148e+01,-6.42224e+01,-1.80203e+00,4.08615e-01,1.93603e+00
2.14300e+02,2.79159e+01,-6.74336e+01,-1.66513e+00,3.96960e-01,1.80150e+00
2.14300e+02,2.62758e+01,-7.06447e+01,-1.51095e+00,3.85570e-01,1.65196e+00
2.14300e+02,2.43988e+01,-7.38558e+01,-1.32777e+00,3.74489e-01,1.47773e+00
2.14300e+02,2.22473e+01,-7.70669e+01,-1.11099e+00,3.63850e-01,1.27729e+00
2.14300e+02,1.97856e+01,-8.02781e+01,-8.56242e-01,3.53782e-01,1.05292e+00
2.14300e+02,1.68740e+01,-8.34892e+01,-5.46420e-01,3.44367e-01,8.08914e-01
2.14300e+02,1.31367e+01,-8.67003e+01,-1.35532e-01,3.36068e-01,5.97657e-01
2.14300e+02,8.08220e+00,-8.99114e+01,4.36596e-01,3.30998e-01,7.20622e-01
2.14300e+02,-3.27484e+00,-9.31226e+01,1.78018e+00,3.33009e-01,1.87129e+00
2.14300e+02,-4.09449e+00,-9.31300e+01,1.88040e+00,3.39251e-01,1.97007e+00
2.14300e+02,-1.15620e+01,-8.98039e+01,2.84271e+00,3.51088e-01,2.90702e+00
2.14300e+02,-1.24661e+01,-8.64779e+01,3.00162e+00,3.59832e-01,3.06564e+00
2.14300e+02,-1.27781e+01,-8.31518e+01,3.08805e+00,3.69034e-01,3.15351e+00
2.14300e+02,-1.28255e+01,-7.98257e+01,3.14209e+00,3.78662e-01,3.20981e+00
2.14300e+02,-1.26734e+01,-7.64996e+01,3.17172e+00,3.88640e-01,3.24236e+00
2.14300e+02,-1.23963e+01,-7.31736e+01,3.18603e+00,3.98911e-01,3.26009e+00
2.14300e+02,-1.19935e+01,-6.98475e+01,3.18497e+00,4.09415e-01,3.26295e+00
2.14300e+02,-1.15140e+01,-6.65214e+01,3.17452e+00,4.20099e-01,3.25684e+00
2.14300e+02,-1.09901e+01,-6.31954e+01,3.15863e+00,4.30938e-01,3.24563e+00
2.14300e+02,-1.03992e+01,-5.98693e+01,3.13455e+00,4.41900e-01,3.22664e+00
2.14300e+02,-9.76651e+00,-5.65432e+01,3.10534e+00,4.52956e-01,3.20291e+00
2.14300e+02,-9.09302e+00,-5.32171e+01,3.07114e+00,4.64085e-01,3.17459e+00
2.14300e+02,-8.37893e+00,-4.98911e+01,3.03198e+00,4.75261e-01,3.14174e+00
2.14300e+02,-7.63939e+00,-4.65650e+01,2.98970e+00,4.86468e-01,3.10616e+00
2.14300e+02,-6.86724e+00,-4.32389e+01,2.94342e+00,4.97687e-01,3.06705e+00
2.14300e+02,-6.07421e+00,-3.99129e+01,2.89459e+00,5.08901e-01,3.02582e+00
2.14300e+02,-5.26246e+00,-3.65868e+01,2.84347e+00,5.20099e-01,2.98276e+00
2.14300e+02,-4.43399e+00,-3.32607e+01,2.79030e+00,5.31268e-01,2.93812e+00
2.14300e+02,-3.59845e+00,-2.99346e+01,2.73627e+00,5.42400e-01,2.89305e+00
2.14300e+02,-2.75194e+00,-2.66086e+01,2.68089e+00,5.53488e-01,2.84714e+00
2.14300e+02,-1.90360e+00,-2.32825e+01,2.62529e+00,5.64528e-01,2.80147e+00
2.14300e+02,-1.04871e+00,-1.99564e+01,2.56889e+00,5.75517e-01,2.75551e+00
2.14300e+02,-1.93910e-01,-1.66304e+01,2.51250e+00,5.86450e-01,2.71006e+00
2.14300e+02,6.57660e-01,-1.33043e+01,2.45650e+00,5.97330e-01,2.66549e+00
2.14300e+02,1.50923e+00,-9.97821e+00,2.40051e+00,6.08151e-01,2.62145e+00
2.14300e+02,2.34063e+00,-6.65214e+00,2.34698e+00,6.18919e-01,2.58021e+00
2.14300e+02,3.16828e+00,-3.32607e+00,2.29392e+00,6.29642e-01,2.53996e+00
3.20700e+02,4.18388e+01,0.00000e+00,-2.14454e+00,6.01194e-01,2.38398e+00
3.20700e+02,4.16280e+01,-3.17930e+00,-2.16305e+00,5.91679e-01,2.39354e+00
3.20700e+02,4.13477e+01,-6.35861e+00,-2.17400e+00,5.81933e-01,2.39629e+00
3.20700e+02,4.10646e+01,-9.53791e+00,-2.18465e+00,5.71964e-01,2.39877e+00
3.20700e+02,4.07201e+01,-1.27172e+01,-2.18862e+00,5.61794e-01,2.39518e+00
3.20700e+02,4.03613e+01,-1.58965e+01,-2.19104e+00,5.51434e-01,2.39016e+00
3.20700e+02,3.99553e+01,-1.90758e+01,-2.18833e+00,5.40902e-01,2.38044e+00
3.20700e+02,3.95264e+01,-2.22551e+01,-2.18314e+00,5.30211e-01,2.36843e+00
3.20700e+02,3.90596e+01,-2.54344e+01,-2.17383e+00,5.19377e-01,2.35261e+00
3.20700e+02,3.85617e+01,-2.86137e+01,-2.16113e+00,5.08413e-01,2.33366e+00
3.20700e+02,3.80295e+01,-3.17930e+01,-2.14472e+00,4.97334e-01,2.31124e+00
3.20700e+02,3.74559e+01,-3.49724e+01,-2.12380e+00,4.86154e-01,2.28464e+00
3.20700e+02,3.68398e+01,-3.81517e+01,-2.09827e+00,4.74887e-01,2.25373e+00
3.20700e+02,3.61637e+01,-4.13310e+01,-2.06622e+00,4.63554e-01,2.21673e+00
3.20700e+02,3.54289e+01,-4.45103e+01,-2.02780e+00,4.52177e-01,2.17379e+00
3.20700e+02,3.46242e+01,-4.76896e+01,-1.98177e+00,4.40771e-01,2.12374e+00
3.20700e+02,3.37247e+01,-5.08689e+01,-1.92545e+00,4.29378e-01,2.06409e+00
3.20700e+02,3.27593e+01,-5.40482e+01,-1.86197e+00,4.18005e-01,1.99777e+00
3.20700e+02,3.16454e+01,-5.72275e+01,-1.78236e+00,4.06714e-01,1.91652e+00
3.20700e+02,3.04701e+01,-6.04068e+01,-1.69606e+00,3.95530e-01,1.82920e+00
3.20700e+02,2.91233e+01,-6.35861e+01,-1.59115e+00,3.84482e-01,1.72489e+00
3.20700e+02,2.76393e+01,-6.67654e+01,-1.47132e+00,3.73664e-01,1.60738e+00
3.20700e+02,2.60154e+01,-6.99447e+01,-1.33631e+00,3.63091e-01,1.47690e+00
3.20700e+02,2.41570e+01,-7.31240e+01,-1.17581e+00,3.52806e-01,1.32512e+00
3.20700e+02,2.20269e+01,-7.63033e+01,-9.85786e-01,3.42930e-01,1.15090e+00
3.20700e+02,1.95896e+01,-7.94826e+01,-7.62395e-01,3.33584e-01,9.56599e-01
3.20700e+02,1.67068e+01,-8.26619e+01,-4.90607e-01,3.24846e-01,7.46505e-01
3.20700e+02,1.30066e+01,-8.58412e+01,-1.30006e-01,3.17142e-01,5.64481e-01
3.20700e+02,8.00212e+00,-8.90205e+01,3.72289e-01,3.12436e-01,6.56848e-01
3.20700e+02,-3.24239e+00,-9.21998e+01,1.55252e+00,3.14303e-01,1.64520e+00
3.20700e+02,-4.05392e+00,-9.22072e+01,1.64059e+00,3.20097e-01,1.73174e+00
3.20700e+02,-1.14474e+01,-8.89141e+01,2.48672e+00,3.31085e-01,2.55199e+00
3.20700e+02,-1.23426e+01,-8.56210e+01,2.62686e+00,3.39202e-01,2.69176e+00
3.20700e+02,-1.26515e+01,-8.23279e+01,2.70331e+00,3.47743e-01,2.76959e+00
3.20700e+02,-1.26984e+01,-7.90348e+01,2.75128e+00,3.56680e-01,2.81979e+00
3.20700e+02,-1.25479e+01,-7.57416e+01,2.77781e+00,3.65943e-01,2.84921e+00
3.20700e+02,-1.22734e+01,-7.24485e+01,2.79088e+00,3.75477e-01,2.86566e+00
3.20700e+02,-1.18746e+01,-6.91554e+01,2.79044e+00,3.85227e-01,2.86910e+00
3.20700e+02,-1.13999e+01,-6.58623e+01,2.78175e+00,3.95145e-01,2.86471e+00
3.20700e+02,-1.08812e+01,-6.25692e+01,2.76828e+00,4.05206e-01,2.85586e+00
3.20700e+02,-1.02962e+01,-5.92761e+01,2.74761e+00,4.15381e-01,2.84024e+00
3.20700e+02,-9.66973e+00,-5.59829e+01,2.72243e+00,4.25644e-01,2.82049e+00
3.20700e+02,-9.00292e+00,-5.26898e+01,2.69287e+00,4.35974e-01,2.79675e+00
3.20700e+02,-8.29591e+00,-4.93967e+01,2.65895e+00,4.46348e-01,2.76906e+00
3.20700e+02,-7.56370e+00,-4.61036e+01,2.62228e+00,4.56751e-01,2.73902e+00
3.20700e+02,-6.79920e+00,-4.28105e+01,2.58211e+00,4.67164e-01,2.70592e+00
3.20700e+02,-6.01403e+00,-3.95174e+01,2.53969e+00,4.77574e-01,2.67100e+00
3.20700e+02,-5.21032e+00,-3.62243e+01,2.49526e+00,4.87968e-01,2.63451e+00
3.20700e+02,-4.39006e+00,-3.29311e+01,2.44903e+00,4.98335e-01,2.59668e+00
3.20700e+02,-3.56279e+00,-2.96380e+01,2.40204e+00,5.08668e-01,2.55852e+00
3.20700e+02,-2.72467e+00,-2.63449e+01,2.35386e+00,5.18961e-01,2.51965e+00
3.20700e+02,-1.88474e+00,-2.30518e+01,2.30550e+00,5.29208e-01,2.48103e+00
3.20700e+02,-1.03832e+00,-1.97587e+01,2.25642e+00,5.39408e-01,2.44220e+00
3.20700e+02,-1.91989e-01,-1.64656e+01,2.20736e+00,5.49557e-01,2.40385e+00
3.20700e+02,6.51143e-01,-1.31725e+01,2.15864e+00,5.59655e-01,2.36630e+00
3.20700e+02,1.49428e+00,-9.87934e+00,2.10993e+00,5.69700e-01,2.32926e+00
3.20700e+02,2.31744e+00,-6.58623e+00,2.06338e+00,5.79695e-01,2.29471e+00
3.20700e+02,3.13689e+00,-3.29311e+00,2.01724e+00,5.89648e-01,2.26104e+00
4.26200e+02,4.14236e+01,0.00000e+00,-1.86682e+00,5.60311e-01,2.10401e+00
4.26200e+02,4.12150e+01,-3.14776e+00,-1.88345e+00,5.51521e-01,2.11185e+00
4.26200e+02,4.09374e+01,-6.29551e+00,-1.89348e+00,5.42518e-01,2.11382e+00
4.26200e+02,4.06571e+01,-9.44327e+00,-1.90326e+00,5.33309e-01,2.11557e+00
4.26200e+02,4.03160e+01,-1.25910e+01,-1.90721e+00,5.23914e-01,2.11209e+00
4.26200e+02,3.99607e+01,-1.57388e+01,-1.90982e+00,5.14344e-01,2.10738e+00
4.26200e+02,3.95588e+01,-1.88865e+01,-1.90795e+00,5.04615e-01,2.09862e+00
4.26200e+02,3.91341e+01,-2.20343e+01,-1.90393e+00,4.94740e-01,2.08788e+00
4.26200e+02,3.86720e+01,-2.51820e+01,-1.89631e+00,4.84732e-01,2.07386e+00
4.26200e+02,3.81790e+01,-2.83298e+01,-1.88575e+00,4.74604e-01,2.05713e+00
4.26200e+02,3.76521e+01,-3.14776e+01,-1.87194e+00,4.64369e-01,2.03742e+00
4.26200e+02,3.70842e+01,-3.46253e+01,-1.85421e+00,4.54042e-01,2.01409e+00
4.26200e+02,3.64743e+01,-3.77731e+01,-1.83246e+00,4.43635e-01,1.98705e+00
4.26200e+02,3.58048e+01,-4.09208e+01,-1.80503e+00,4.33166e-01,1.95474e+00
4.26200e+02,3.50774e+01,-4.40686e+01,-1.77205e+00,4.22656e-01,1.91731e+00
4.26200e+02,3.42806e+01,-4.72163e+01,-1.73244e+00,4.12120e-01,1.87373e+00
4.26200e+02,3.33901e+01,-5.03641e+01,-1.68386e+00,4.01596e-01,1.82187e+00
4.26200e+02,3.24342e+01,-5.35118e+01,-1.62904e+00,3.91090e-01,1.76426e+00
4.26200e+02,3.13314e+01,-5.66596e+01,-1.56016e+00,3.80660e-01,1.69376e+00
4.26200e+02,3.01677e+01,-5.98074e+01,-1.48547e+00,3.70329e-01,1.61804e+00
4.26200e+02,2.88343e+01,-6.29551e+01,-1.39455e+00,3.60124e-01,1.52769e+00
4.26200e+02,2.73650e+01,-6.61029e+01,-1.29063e+00,3.50130e-01,1.42601e+00
4.26200e+02,2.57573e+01,-6.92506e+01,-1.17348e+00,3.40365e-01,1.31324e+00
4.26200e+02,2.39173e+01,-7.23984e+01,-1.03413e+00,3.30863e-01,1.18230e+00
4.26200e+02,2.18083e+01,-7.55461e+01,-8.69045e-01,3.21741e-01,1.03237e+00
4.26200e+02,1.93952e+01,-7.86939e+01,-6.74888e-01,3.13108e-01,8.65785e-01
4.26200e+02,1.65410e+01,-8.18417e+01,-4.38559e-01,3.05036e-01,6.86640e-01
4.26200e+02,1.28775e+01,-8.49894e+01,-1.24842e-01,2.97920e-01,5.30900e-01
4.26200e+02,7.92271e+00,-8.81372e+01,3.12341e-01,2.93574e-01,5.96753e-01
4.26200e+02,-3.21022e+00,-9.12849e+01,1.34025e+00,2.95299e-01,1.43453e+00
4.26200e+02,-4.01369e+00,-9.12922e+01,1.41699e+00,3.00651e-01,1.50964e+00
4.26200e+02,-1.13339e+01,-8.80318e+01,2.15479e+00,3.10801e-01,2.22102e+00
4.26200e+02,-1.22201e+01,-8.47713e+01,2.27742e+00,3.18299e-01,2.34320e+00
4.26200e+02,-1.25260e+01,-8.15109e+01,2.34454e+00,3.26189e-01,2.41165e+00
4.26200e+02,-1.25724e+01,-7.82505e+01,2.38686e+00,3.34444e-01,2.45615e+00
4.26200e+02,-1.24233e+01,-7.49900e+01,2.41049e+00,3.43001e-01,2.48262e+00
4.26200e+02,-1.21516e+01,-7.17296e+01,2.42239e+00,3.51807e-01,2.49786e+00
4.26200e+02,-1.17568e+01,-6.84692e+01,2.42252e+00,3.60814e-01,2.50183e+00
4.26200e+02,-1.12868e+01,-6.52087e+01,2.41547e+00,3.69975e-01,2.49902e+00
4.26200e+02,-1.07732e+01,-6.19483e+01,2.40424e+00,3.79269e-01,2.49237e+00
4.26200e+02,-1.01940e+01,-5.86879e+01,2.38674e+00,3.88668e-01,2.47987e+00
4.26200e+02,-9.57378e+00,-5.54274e+01,2.36532e+00,3.98148e-01,2.46380e+00
4.26200e+02,-8.91358e+00,-5.21670e+01,2.34008e+00,4.07690e-01,2.44430e+00
4.26200e+02,-8.21359e+00,-4.89065e+01,2.31103e+00,4.17274e-01,2.42141e+00
4.26200e+02,-7.48864e+00,-4.56461e+01,2.27960e+00,4.26882e-01,2.39651e+00
4.26200e+02,-6.73173e+00,-4.23857e+01,2.24511e+00,4.36502e-01,2.36899e+00
4.26200e+02,-5.95435e+00,-3.91252e+01,2.20866e+00,4.46117e-01,2.33992e+00
4.26200e+02,-5.15861e+00,-3.58648e+01,2.17046e+00,4.55719e-01,2.30953e+00
4.26200e+02,-4.34650e+00,-3.26044e+01,2.13069e+00,4.65295e-01,2.27801e+00
4.26200e+02,-3.52744e+00,-2.93439e+01,2.09025e+00,4.74840e-01,2.24624e+00
4.26200e+02,-2.69763e+00,-2.60835e+01,2.04879e+00,4.84347e-01,2.21389e+00
4.26200e+02,-1.86603e+00,-2.28231e+01,2.00716e+00,4.93813e-01,2.18180e+00
4.26200e+02,-1.02802e+00,-1.95626e+01,1.96492e+00,5.03235e-01,2.14957e+00
4.26200e+02,-1.90083e-01,-1.63022e+01,1.92268e+00,5.12609e-01,2.11778e+00
4.26200e+02,6.44682e-01,-1.30417e+01,1.88074e+00,5.21937e-01,2.08673e+00
4.26200e+02,1.47945e+00,-9.78131e+00,1.83881e+00,5.31215e-01,2.05616e+00
4.26200e+02,2.29445e+00,-6.52087e+00,1.79877e+00,5.40448e-01,2.02776e+00
4.26200e+02,3.10576e+00,-3.26044e+00,1.75907e+00,5.49642e-01,2.00016e+00
5.30600e+02,4.10127e+01,0.00000e+00,-1.60985e+00,5.19505e-01,1.84425e+00
5.30600e+02,4.08062e+01,-3.11654e+00,-1.62471e+00,5.11429e-01,1.85050e+00
5.30600e+02,4.05314e+01,-6.23307e+00,-1.63388e+00,5.03156e-01,1.85178e+00
5.30600e+02,4.02539e+01,-9.34961e+00,-1.64283e+00,4.94695e-01,1.85285e+00
5.30600e+02,3.99161e+01,-1.24661e+01,-1.64675e+00,4.86063e-01,1.84948e+00
5.30600e+02,3.95644e+01,-1.55827e+01,-1.64951e+00,4.77270e-01,1.84506e+00
5.30600e+02,3.91664e+01,-1.86992e+01,-1.64841e+00,4.68330e-01,1.83719e+00
5.30600e+02,3.87460e+01,-2.18158e+01,-1.64544e+00,4.59257e-01,1.82763e+00
5.30600e+02,3.82884e+01,-2.49323e+01,-1.63938e+00,4.50061e-01,1.81528e+00
5.30600e+02,3.78003e+01,-2.80488e+01,-1.63077e+00,4.40755e-01,1.80061e+00
5.30600e+02,3.72787e+01,-3.11654e+01,-1.61936e+00,4.31351e-01,1.78340e+00
5.30600e+02,3.67164e+01,-3.42819e+01,-1.60456e+00,4.21863e-01,1.76310e+00
5.30600e+02,3.61125e+01,-3.73984e+01,-1.58630e+00,4.12300e-01,1.73963e+00
5.30600e+02,3.54497e+01,-4.05150e+01,-1.56312e+00,4.02681e-01,1.71167e+00
5.30600e+02,3.47295e+01,-4.36315e+01,-1.53516e+00,3.93024e-01,1.67932e+00
5.30600e+02,3.39406e+01,-4.67480e+01,-1.50147e+00,3.83344e-01,1.64173e+00
5.30600e+02,3.30589e+01,-4.98646e+01,-1.46004e+00,3.73674e-01,1.59707e+00
5.30600e+02,3.21125e+01,-5.29811e+01,-1.41322e+00,3.64022e-01,1.54749e+00
5.30600e+02,3.10206e+01,-5.60976e+01,-1.35428e+00,3.54438e-01,1.48693e+00
5.30600e+02,2.98685e+01,-5.92142e+01,-1.29030e+00,3.44946e-01,1.42192e+00
5.30600e+02,2.85484e+01,-6.23307e+01,-1.21232e+00,3.35570e-01,1.34445e+00
5.30600e+02,2.70936e+01,-6.54473e+01,-1.12312e+00,3.26387e-01,1.25737e+00
5.30600e+02,2.55018e+01,-6.85638e+01,-1.02249e+00,3.17415e-01,1.16093e+00
5.30600e+02,2.36801e+01,-7.16803e+01,-9.02699e-01,3.08685e-01,1.04915e+00
5.30600e+02,2.15920e+01,-7.47969e+01,-7.60693e-01,3.00303e-01,9.21521e-01
5.30600e+02,1.92028e+01,-7.79134e+01,-5.93587e-01,2.92371e-01,7.80249e-01
5.30600e+02,1.63770e+01,-8.10299e+01,-3.90075e-01,2.84955e-01,6.29092e-01
5.30600e+02,1.27498e+01,-8.41465e+01,-1.19754e-01,2.78417e-01,4.96879e-01
5.30600e+02,7.84413e+00,-8.72630e+01,2.57155e-01,2.74424e-01,5.40420e-01
5.30600e+02,-3.17838e+00,-9.03795e+01,1.14403e+00,2.76008e-01,1.23990e+00
5.30600e+02,-3.97388e+00,-9.03868e+01,1.21028e+00,2.80926e-01,1.30443e+00
5.30600e+02,-1.12214e+01,-8.71587e+01,1.84775e+00,2.90252e-01,1.91492e+00
5.30600e+02,-1.20989e+01,-8.39306e+01,1.95414e+00,2.97142e-01,2.02078e+00
5.30600e+02,-1.24018e+01,-8.07025e+01,2.01262e+00,3.04391e-01,2.08052e+00
5.30600e+02,-1.24477e+01,-7.74744e+01,2.04968e+00,3.11976e-01,2.11971e+00
5.30600e+02,-1.23001e+01,-7.42463e+01,2.07060e+00,3.19838e-01,2.14343e+00
5.30600e+02,-1.20311e+01,-7.10182e+01,2.08141e+00,3.27930e-01,2.15752e+00
5.30600e+02,-1.16402e+01,-6.77901e+01,2.08205e+00,3.36205e-01,2.16195e+00
5.30600e+02,-1.11748e+01,-6.45620e+01,2.07648e+00,3.44623e-01,2.16057e+00
5.30600e+02,-1.06664e+01,-6.13339e+01,2.06732e+00,3.53162e-01,2.15592e+00
5.30600e+02,-1.00929e+01,-5.81058e+01,2.05274e+00,3.61798e-01,2.14626e+00
5.30600e+02,-9.47882e+00,-5.48777e+01,2.03477e+00,3.70508e-01,2.13357e+00
5.30600e+02,-8.82518e+00,-5.16496e+01,2.01351e+00,3.79276e-01,2.11796e+00
5.30600e+02,-8.13212e+00,-4.84215e+01,1.98896e+00,3.88081e-01,2.09947e+00
5.30600e+02,-7.41437e+00,-4.51934e+01,1.96235e+00,3.96909e-01,2.07929e+00
5.30600e+02,-6.66496e+00,-4.19653e+01,1.93310e+00,4.05748e-01,2.05689e+00
5.30600e+02,-5.89529e+00,-3.87372e+01,1.90216e+00,4.14582e-01,2.03319e+00
5.30600e+02,-5.10745e+00,-3.55091e+01,1.86971e+00,4.23404e-01,2.00839e+00
5.30600e+02,-4.30339e+00,-3.22810e+01,1.83591e+00,4.32203e-01,1.98266e+00
5.30600e+02,-3.49245e+00,-2.90529e+01,1.80153e+00,4.40972e-01,1.95675e+00
5.30600e+02,-2.67088e+00,-2.58248e+01,1.76626e+00,4.49707e-01,1.93039e+00
5.30600e+02,-1.84753e+00,-2.25967e+01,1.73085e+00,4.58405e-01,1.90427e+00
5.30600e+02,-1.01782e+00,-1.93686e+01,1.69491e+00,4.67062e-01,1.87807e+00
5.30600e+02,-1.88198e-01,-1.61405e+01,1.65897e+00,4.75675e-01,1.85229e+00
5.30600e+02,6.38288e-01,-1.29124e+01,1.62330e+00,4.84245e-01,1.82718e+00
5.30600e+02,1.46477e+00,-9.68430e+00,1.58762e+00,4.92769e-01,1.80250e+00
5.30600e+02,2.27169e+00,-6.45620e+00,1.55358e+00,5.01253e-01,1.77971e+00
5.30600e+02,3.07496e+00,-3.22810e+00,1.51984e+00,5.09699e-01,1.75764e+00
6.33500e+02,4.06078e+01,0.00000e+00,-1.37433e+00,4.79129e-01,1.60546e+00
6.33500e+02,4.04033e+01,-3.08576e+00,-1.38755e+00,4.71750e-01,1.61026e+00
6.33500e+02,4.01312e+01,-6.17153e+00,-1.39590e+00,4.64192e-01,1.61089e+00
6.33500e+02,3.98564e+01,-9.25729e+00,-1.40406e+00,4.56461e-01,1.61135e+00
6.33500e+02,3.95220e+01,-1.23431e+01,-1.40792e+00,4.48574e-01,1.60807e+00
6.33500e+02,3.91738e+01,-1.54288e+01,-1.41079e+00,4.40541e-01,1.60392e+00
6.33500e+02,3.87797e+01,-1.85146e+01,-1.41036e+00,4.32373e-01,1.59686e+00
6.33500e+02,3.83634e+01,-2.16004e+01,-1.40834e+00,4.24083e-01,1.58838e+00
6.33500e+02,3.79104e+01,-2.46861e+01,-1.40366e+00,4.15681e-01,1.57754e+00
6.33500e+02,3.74271e+01,-2.77719e+01,-1.39681e+00,4.07180e-01,1.56476e+00
6.33500e+02,3.69106e+01,-3.08576e+01,-1.38757e+00,3.98588e-01,1.54983e+00
6.33500e+02,3.63539e+01,-3.39434e+01,-1.37544e+00,3.89919e-01,1.53230e+00
6.33500e+02,3.57559e+01,-3.70292e+01,-1.36033e+00,3.81182e-01,1.51209e+00
6.33500e+02,3.50997e+01,-4.01149e+01,-1.34103e+00,3.72394e-01,1.48809e+00
6.33500e+02,3.43866e+01,-4.32007e+01,-1.31764e+00,3.63571e-01,1.46039e+00
6.33500e+02,3.36055e+01,-4.62865e+01,-1.28937e+00,3.54727e-01,1.42827e+00
6.33500e+02,3.27325e+01,-4.93722e+01,-1.25446e+00,3.45892e-01,1.39018e+00
6.33500e+02,3.17954e+01,-5.24580e+01,-1.21496e+00,3.37074e-01,1.34795e+00
6.33500e+02,3.07144e+01,-5.55438e+01,-1.16508e+00,3.28318e-01,1.29645e+00
6.33500e+02,2.95736e+01,-5.86295e+01,-1.11091e+00,3.19646e-01,1.24123e+00
6.33500e+02,2.82665e+01,-6.17153e+01,-1.04477e+00,3.11079e-01,1.17552e+00
6.33500e+02,2.68261e+01,-6.48011e+01,-9.69034e-01,3.02690e-01,1.10177e+00
6.33500e+02,2.52500e+01,-6.78868e+01,-8.83536e-01,2.94492e-01,1.02020e+00
6.33500e+02,2.34463e+01,-7.09726e+01,-7.81651e-01,2.86517e-01,9.25880e-01
6.33500e+02,2.13788e+01,-7.40584e+01,-6.60784e-01,2.78859e-01,8.18488e-01
6.33500e+02,1.90132e+01,-7.71441e+01,-5.18462e-01,2.71612e-01,7.00088e-01
6.33500e+02,1.62153e+01,-8.02299e+01,-3.45022e-01,2.64837e-01,5.73982e-01
6.33500e+02,1.26239e+01,-8.33156e+01,-1.14477e-01,2.58864e-01,4.62748e-01
6.33500e+02,7.76668e+00,-8.64014e+01,2.07173e-01,2.55216e-01,4.88186e-01
6.33500e+02,-3.14700e+00,-8.94872e+01,9.64717e-01,2.56664e-01,1.06222e+00
6.33500e+02,-3.93464e+00,-8.94943e+01,1.02134e+00,2.61157e-01,1.11702e+00
6.33500e+02,-1.11106e+01,-8.62981e+01,1.56674e+00,2.69678e-01,1.63489e+00
6.33500e+02,-1.19795e+01,-8.31019e+01,1.65821e+00,2.75972e-01,1.72573e+00
6.33500e+02,-1.22793e+01,-7.99057e+01,1.70872e+00,2.82595e-01,1.77744e+00
6.33500e+02,-1.23248e+01,-7.67094e+01,1.74093e+00,2.89526e-01,1.81171e+00
6.33500e+02,-1.21787e+01,-7.35132e+01,1.75934e+00,2.96708e-01,1.83287e+00
6.33500e+02,-1.19123e+01,-7.03170e+01,1.76911e+00,3.04101e-01,1.84585e+00
6.33500e+02,-1.15252e+01,-6.71208e+01,1.77018e+00,3.11661e-01,1.85066e+00
6.33500e+02,-1.10645e+01,-6.39245e+01,1.76595e+00,3.19352e-01,1.85055e+00
6.33500e+02,-1.05611e+01,-6.07283e+01,1.75865e+00,3.27153e-01,1.84769e+00
6.33500e+02,-9.99326e+00,-5.75321e+01,1.74672e+00,3.35044e-01,1.84059e+00
6.33500e+02,-9.38524e+00,-5.43358e+01,1.73189e+00,3.43002e-01,1.83096e+00
6.33500e+02,-8.73804e+00,-5.11396e+01,1.71424e+00,3.51012e-01,1.81886e+00
6.33500e+02,-8.05183e+00,-4.79434e+01,1.69379e+00,3.59056e-01,1.80435e+00
6.33500e+02,-7.34116e+00,-4.47472e+01,1.67157e+00,3.67122e-01,1.78843e+00
6.33500e+02,-6.59916e+00,-4.15509e+01,1.64710e+00,3.75197e-01,1.77067e+00
6.33500e+02,-5.83709e+00,-3.83547e+01,1.62119e+00,3.83268e-01,1.75184e+00
6.33500e+02,-5.05702e+00,-3.51585e+01,1.59398e+00,3.91328e-01,1.73210e+00
6.33500e+02,-4.26090e+00,-3.19623e+01,1.56561e+00,3.99366e-01,1.71162e+00
6.33500e+02,-3.45797e+00,-2.87660e+01,1.53676e+00,4.07378e-01,1.69101e+00
6.33500e+02,-2.64450e+00,-2.55698e+01,1.50715e+00,4.15359e-01,1.67005e+00
6.33500e+02,-1.82928e+00,-2.23736e+01,1.47741e+00,4.23305e-01,1.64933e+00
6.33500e+02,-1.00777e+00,-1.91774e+01,1.44721e+00,4.31213e-01,1.62858e+00
6.33500e+02,-1.86340e-01,-1.59811e+01,1.41703e+00,4.39082e-01,1.60821e+00
6.33500e+02,6.31986e-01,-1.27849e+01,1.38706e+00,4.46912e-01,1.58844e+00
6.33500e+02,1.45031e+00,-9.58868e+00,1.35710e+00,4.54700e-01,1.56907e+00
6.33500e+02,2.24926e+00,-6.39245e+00,1.32853e+00,4.62450e-01,1.55131e+00
6.33500e+02,3.04460e+00,-3.19623e+00,1.30022e+00,4.70167e-01,1.53419e+00
7.34700e+02,4.02095e+01,0.00000e+00,-1.16028e+00,4.39234e-01,1.38745e+00
7.34700e+02,4.00070e+01,-3.05550e+00,-1.17195e+00,4.32535e-01,1.39094e+00
7.34700e+02,3.97376e+01,-6.11100e+00,-1.17951e+00,4.25673e-01,1.39099e+00
7.34700e+02,3.94656e+01,-9.16651e+00,-1.18691e+00,4.18655e-01,1.39089e+00
7.34700e+02,3.91344e+01,-1.22220e+01,-1.19068e+00,4.11495e-01,1.38769e+00
7.34700e+02,3.87896e+01,-1.52775e+01,-1.19360e+00,4.04202e-01,1.38377e+00
7.34700e+02,3.83994e+01,-1.83330e+01,-1.19374e+00,3.96787e-01,1.37744e+00
7.34700e+02,3.79872e+01,-2.13885e+01,-1.19253e+00,3.89261e-01,1.36993e+00
7.34700e+02,3.75386e+01,-2.44440e+01,-1.18908e+00,3.81634e-01,1.36046e+00
7.34700e+02,3.70601e+01,-2.74995e+01,-1.18379e+00,3.73916e-01,1.34937e+00
7.34700e+02,3.65486e+01,-3.05550e+01,-1.17648e+00,3.66116e-01,1.33650e+00
7.34700e+02,3.59973e+01,-3.36105e+01,-1.16672e+00,3.58246e-01,1.32146e+00
7.34700e+02,3.54053e+01,-3.66660e+01,-1.15446e+00,3.50314e-01,1.30420e+00
7.34700e+02,3.47554e+01,-3.97215e+01,-1.13864e+00,3.42336e-01,1.28378e+00
7.34700e+02,3.40493e+01,-4.27770e+01,-1.11937e+00,3.34327e-01,1.26028e+00
7.34700e+02,3.32760e+01,-4.58325e+01,-1.09596e+00,3.26298e-01,1.23310e+00
7.34700e+02,3.24115e+01,-4.88880e+01,-1.06696e+00,3.18277e-01,1.20096e+00
7.34700e+02,3.14836e+01,-5.19435e+01,-1.03406e+00,3.10271e-01,1.16537e+00
7.34700e+02,3.04131e+01,-5.49990e+01,-9.92400e-01,3.02323e-01,1.12208e+00
7.34700e+02,2.92835e+01,-5.80545e+01,-9.47106e-01,2.94450e-01,1.07569e+00
7.34700e+02,2.79893e+01,-6.11100e+01,-8.91692e-01,2.86673e-01,1.02062e+00
7.34700e+02,2.65630e+01,-6.41655e+01,-8.28168e-01,2.79057e-01,9.58896e-01
7.34700e+02,2.50024e+01,-6.72210e+01,-7.56391e-01,2.71615e-01,8.90759e-01
7.34700e+02,2.32164e+01,-7.02765e+01,-6.70761e-01,2.64375e-01,8.12159e-01
7.34700e+02,2.11691e+01,-7.33320e+01,-5.69083e-01,2.57423e-01,7.22949e-01
7.34700e+02,1.88268e+01,-7.63875e+01,-4.49268e-01,2.50845e-01,6.24988e-01
7.34700e+02,1.60563e+01,-7.94430e+01,-3.03146e-01,2.44694e-01,5.21078e-01
7.34700e+02,1.25001e+01,-8.24985e+01,-1.08749e-01,2.39271e-01,4.28460e-01
7.34700e+02,7.69051e+00,-8.55540e+01,1.62667e-01,2.35960e-01,4.39877e-01
7.34700e+02,-3.11614e+00,-8.86096e+01,8.02580e-01,2.37275e-01,9.01683e-01
7.34700e+02,-3.89606e+00,-8.86166e+01,8.50447e-01,2.41354e-01,9.47636e-01
7.34700e+02,-1.10017e+01,-8.54518e+01,1.31204e+00,2.49089e-01,1.38115e+00
7.34700e+02,-1.18620e+01,-8.22869e+01,1.38988e+00,2.54803e-01,1.45827e+00
7.34700e+02,-1.21589e+01,-7.91220e+01,1.43310e+00,2.60816e-01,1.50262e+00
7.34700e+02,-1.22039e+01,-7.59571e+01,1.46085e+00,2.67108e-01,1.53236e+00
7.34700e+02,-1.20592e+01,-7.27922e+01,1.47694e+00,2.73628e-01,1.55112e+00
7.34700e+02,-1.17955e+01,-6.96274e+01,1.48571e+00,2.80340e-01,1.56304e+00
7.34700e+02,-1.14122e+01,-6.64625e+01,1.48714e+00,2.87203e-01,1.56813e+00
7.34700e+02,-1.09560e+01,-6.32976e+01,1.48408e+00,2.94185e-01,1.56912e+00
7.34700e+02,-1.04575e+01,-6.01327e+01,1.47843e+00,3.01267e-01,1.56781e+00
7.34700e+02,-9.89525e+00,-5.69678e+01,1.46886e+00,3.08430e-01,1.56299e+00
7.34700e+02,-9.29319e+00,-5.38030e+01,1.45684e+00,3.15654e-01,1.55606e+00
7.34700e+02,-8.65235e+00,-5.06381e+01,1.44245e+00,3.22926e-01,1.54709e+00
7.34700e+02,-7.97287e+00,-4.74732e+01,1.42567e+00,3.30229e-01,1.53613e+00
7.34700e+02,-7.26917e+00,-4.43083e+01,1.40741e+00,3.37551e-01,1.52402e+00
7.34700e+02,-6.53444e+00,-4.11434e+01,1.38724e+00,3.44882e-01,1.51039e+00
7.34700e+02,-5.77984e+00,-3.79786e+01,1.36585e+00,3.52209e-01,1.49590e+00
7.34700e+02,-5.00742e+00,-3.48137e+01,1.34337e+00,3.59526e-01,1.48068e+00
7.34700e+02,-4.21911e+00,-3.16488e+01,1.31991e+00,3.66823e-01,1.46487e+00
7.34700e+02,-3.42406e+00,-2.84839e+01,1.29604e+00,3.74096e-01,1.44898e+00
7.34700e+02,-2.61857e+00,-2.53190e+01,1.27152e+00,3.81341e-01,1.43284e+00
7.34700e+02,-1.81134e+00,-2.21542e+01,1.24690e+00,3.88554e-01,1.41693e+00
7.34700e+02,-9.97887e-01,-1.89893e+01,1.22189e+00,3.95734e-01,1.40101e+00
7.34700e+02,-1.84513e-01,-1.58244e+01,1.19689e+00,4.02877e-01,1.38545e+00
7.34700e+02,6.25788e-01,-1.26595e+01,1.17208e+00,4.09985e-01,1.37042e+00
7.34700e+02,1.43609e+00,-9.49464e+00,1.14727e+00,4.17055e-01,1.35574e+00
7.34700e+02,2.22720e+00,-6.32976e+00,1.12364e+00,4.24091e-01,1.34243e+00
7.34700e+02,3.01474e+00,-3.16488e+00,1.10022e+00,4.31096e-01,1.32967e+00
8.33800e+02,3.98196e+01,0.00000e+00,-9.67877e-01,3.99876e-01,1.19016e+00
8.33800e+02,3.96190e+01,-3.02587e+00,-9.78109e-01,3.93837e-01,1.19248e+00
8.33800e+02,3.93522e+01,-6.05173e+00,-9.84906e-01,3.87651e-01,1.19200e+00
8.33800e+02,3.90828e+01,-9.07760e+00,-9.91567e-01,3.81324e-01,1.19140e+00
8.33800e+02,3.87549e+01,-1.21035e+01,-9.95196e-01,3.74868e-01,1.18827e+00
8.33800e+02,3.84134e+01,-1.51293e+01,-9.98121e-01,3.68293e-01,1.18455e+00
8.33800e+02,3.80270e+01,-1.81552e+01,-9.98718e-01,3.61609e-01,1.17886e+00
8.33800e+02,3.76188e+01,-2.11811e+01,-9.98187e-01,3.54824e-01,1.17221e+00
8.33800e+02,3.71745e+01,-2.42069e+01,-9.95786e-01,3.47947e-01,1.16395e+00
8.33800e+02,3.67006e+01,-2.72328e+01,-9.91848e-01,3.40989e-01,1.15438e+00
8.33800e+02,3.61941e+01,-3.02587e+01,-9.86221e-01,3.33957e-01,1.14334e+00
8.33800e+02,3.56482e+01,-3.32845e+01,-9.78550e-01,3.26862e-01,1.13052e+00
8.33800e+02,3.50619e+01,-3.63104e+01,-9.68784e-01,3.19712e-01,1.11588e+00
8.33800e+02,3.44183e+01,-3.93363e+01,-9.56053e-01,3.12519e-01,1.09865e+00
8.33800e+02,3.37191e+01,-4.23621e+01,-9.40434e-01,3.05298e-01,1.07891e+00
8.33800e+02,3.29532e+01,-4.53880e+01,-9.21361e-01,2.98060e-01,1.05614e+00
8.33800e+02,3.20971e+01,-4.84139e+01,-8.97612e-01,2.90829e-01,1.02930e+00
8.33800e+02,3.11783e+01,-5.14397e+01,-8.70610e-01,2.83612e-01,9.99634e-01
8.33800e+02,3.01182e+01,-5.44656e+01,-8.36286e-01,2.76446e-01,9.63660e-01
8.33800e+02,2.89995e+01,-5.74915e+01,-7.98928e-01,2.69349e-01,9.25166e-01
8.33800e+02,2.77178e+01,-6.05173e+01,-7.53115e-01,2.62338e-01,8.79572e-01
8.33800e+02,2.63054e+01,-6.35432e+01,-7.00528e-01,2.55472e-01,8.28575e-01
8.33800e+02,2.47599e+01,-6.65691e+01,-6.41045e-01,2.48763e-01,7.72391e-01
8.33800e+02,2.29912e+01,-6.95949e+01,-5.69990e-01,2.42235e-01,7.07758e-01
8.33800e+02,2.09638e+01,-7.26208e+01,-4.85528e-01,2.35968e-01,6.34650e-01
8.33800e+02,1.86442e+01,-7.56467e+01,-3.85914e-01,2.30037e-01,5.54690e-01
8.33800e+02,1.59005e+01,-7.86725e+01,-2.64323e-01,2.24492e-01,4.70167e-01
8.33800e+02,1.23789e+01,-8.16984e+01,-1.02403e-01,2.19604e-01,3.93909e-01
8.33800e+02,7.61592e+00,-8.47243e+01,1.23859e-01,2.16619e-01,3.95111e-01
8.33800e+02,-3.08591e+00,-8.77501e+01,6.57967e-01,2.17804e-01,7.58444e-01
8.33800e+02,-3.85827e+00,-8.77572e+01,6.97955e-01,2.21482e-01,7.96432e-01
8.33800e+02,-1.08950e+01,-8.46230e+01,1.08407e+00,2.28456e-01,1.15403e+00
8.33800e+02,-1.17470e+01,-8.14888e+01,1.14960e+00,2.33607e-01,1.21873e+00
8.33800e+02,-1.20409e+01,-7.83546e+01,1.18620e+00,2.39028e-01,1.25638e+00
8.33800e+02,-1.20856e+01,-7.52204e+01,1.20988e+00,2.44700e-01,1.28197e+00
8.33800e+02,-1.19423e+01,-7.20862e+01,1.22382e+00,2.50578e-01,1.29850e+00
8.33800e+02,-1.16811e+01,-6.89521e+01,1.23165e+00,2.56629e-01,1.30940e+00
8.33800e+02,-1.13015e+01,-6.58179e+01,1.23334e+00,2.62817e-01,1.31466e+00
8.33800e+02,-1.08497e+01,-6.26837e+01,1.23128e+00,2.69111e-01,1.31656e+00
8.33800e+02,-1.03561e+01,-5.95495e+01,1.22706e+00,2.75496e-01,1.31657e+00
8.33800e+02,-9.79928e+00,-5.64153e+01,1.21956e+00,2.81953e-01,1.31371e+00
8.33800e+02,-9.20306e+00,-5.32811e+01,1.21002e+00,2.88466e-01,1.30912e+00
8.33800e+02,-8.56843e+00,-5.01469e+01,1.19849e+00,2.95022e-01,1.30288e+00
8.33800e+02,-7.89554e+00,-4.70128e+01,1.18498e+00,3.01605e-01,1.29502e+00
8.33800e+02,-7.19866e+00,-4.38786e+01,1.17022e+00,3.08206e-01,1.28623e+00
8.33800e+02,-6.47106e+00,-4.07444e+01,1.15387e+00,3.14815e-01,1.27622e+00
8.33800e+02,-5.72378e+00,-3.76102e+01,1.13650e+00,3.21421e-01,1.26553e+00
8.33800e+02,-4.95886e+00,-3.44760e+01,1.11822e+00,3.28017e-01,1.25427e+00
8.33800e+02,-4.17819e+00,-3.13418e+01,1.09911e+00,3.34595e-01,1.24254e+00
8.33800e+02,-3.39085e+00,-2.82077e+01,1.07967e+00,3.41152e-01,1.23079e+00
8.33800e+02,-2.59317e+00,-2.50735e+01,1.05969e+00,3.47683e-01,1.21885e+00
8.33800e+02,-1.79378e+00,-2.19393e+01,1.03961e+00,3.54186e-01,1.20712e+00
8.33800e+02,-9.88209e-01,-1.88051e+01,1.01922e+00,3.60659e-01,1.19542e+00
8.33800e+02,-1.82723e-01,-1.56709e+01,9.98834e-01,3.67099e-01,1.18404e+00
8.33800e+02,6.19718e-01,-1.25367e+01,9.78605e-01,3.73506e-01,1.17311e+00
8.33800e+02,1.42216e+00,-9.40255e+00,9.58375e-01,3.79880e-01,1.16250e+00
8.33800e+02,2.20560e+00,-6.26837e+00,9.39131e-01,3.86222e-01,1.15303e+00
8.33800e+02,2.98550e+00,-3.13418e+00,9.20070e-01,3.92538e-01,1.14402e+00
9.30700e+02,3.94382e+01,0.00000e+00,-7.96544e-01,3.60903e-01,1.01254e+00
9.30700e+02,3.92396e+01,-2.99689e+00,-8.05432e-01,3.55504e-01,1.01384e+00
9.30700e+02,3.89754e+01,-5.99378e+00,-8.11489e-01,3.49972e-01,1.01290e+00
9.30700e+02,3.87085e+01,-8.99067e+00,-8.17433e-01,3.44316e-01,1.01186e+00
9.30700e+02,3.83837e+01,-1.19876e+01,-8.20878e-01,3.38544e-01,1.00880e+00
9.30700e+02,3.80455e+01,-1.49844e+01,-8.23743e-01,3.32665e-01,1.00526e+00
9.30700e+02,3.76628e+01,-1.79813e+01,-8.24689e-01,3.26689e-01,1.00014e+00
9.30700e+02,3.72585e+01,-2.09782e+01,-8.24705e-01,3.20622e-01,9.94251e-01
9.30700e+02,3.68185e+01,-2.39751e+01,-8.23179e-01,3.14474e-01,9.87070e-01
9.30700e+02,3.63492e+01,-2.69720e+01,-8.20387e-01,3.08253e-01,9.78823e-01
9.30700e+02,3.58475e+01,-2.99689e+01,-8.16203e-01,3.01966e-01,9.69400e-01
9.30700e+02,3.53068e+01,-3.29658e+01,-8.10333e-01,2.95622e-01,9.58549e-01
9.30700e+02,3.47261e+01,-3.59627e+01,-8.02736e-01,2.89229e-01,9.46227e-01
9.30700e+02,3.40887e+01,-3.89596e+01,-7.92696e-01,2.82798e-01,9.31822e-01
9.30700e+02,3.33962e+01,-4.19565e+01,-7.80274e-01,2.76343e-01,9.15382e-01
9.30700e+02,3.26376e+01,-4.49533e+01,-7.65006e-01,2.69871e-01,8.96507e-01
9.30700e+02,3.17897e+01,-4.79502e+01,-7.45883e-01,2.63406e-01,8.74351e-01
9.30700e+02,3.08797e+01,-5.09471e+01,-7.24078e-01,2.56953e-01,8.49920e-01
9.30700e+02,2.98297e+01,-5.39440e+01,-6.96238e-01,2.50546e-01,8.20407e-01
9.30700e+02,2.87218e+01,-5.69409e+01,-6.65897e-01,2.44201e-01,7.88873e-01
9.30700e+02,2.74524e+01,-5.99378e+01,-6.28587e-01,2.37933e-01,7.51636e-01
9.30700e+02,2.60534e+01,-6.29347e+01,-5.85692e-01,2.31794e-01,7.10085e-01
9.30700e+02,2.45228e+01,-6.59316e+01,-5.37113e-01,2.25796e-01,6.64410e-01
9.30700e+02,2.27710e+01,-6.89285e+01,-4.78994e-01,2.19960e-01,6.12031e-01
9.30700e+02,2.07631e+01,-7.19254e+01,-4.09825e-01,2.14357e-01,5.52994e-01
9.30700e+02,1.84656e+01,-7.49222e+01,-3.28165e-01,2.09054e-01,4.88675e-01
9.30700e+02,1.57483e+01,-7.79191e+01,-2.28389e-01,2.04096e-01,4.20865e-01
9.30700e+02,1.22603e+01,-8.09160e+01,-9.53689e-02,1.99726e-01,3.58841e-01
9.30700e+02,7.54299e+00,-8.39129e+01,9.06895e-02,1.97057e-01,3.53156e-01
9.30700e+02,-3.05636e+00,-8.69098e+01,5.30511e-01,1.98117e-01,6.31817e-01
9.30700e+02,-3.82132e+00,-8.69168e+01,5.63472e-01,2.01406e-01,6.62717e-01
9.30700e+02,-1.07906e+01,-8.38126e+01,8.82225e-01,2.07641e-01,9.52714e-01
9.30700e+02,-1.16345e+01,-8.07084e+01,9.36711e-01,2.12246e-01,1.00627e+00
9.30700e+02,-1.19256e+01,-7.76042e+01,9.67355e-01,2.17093e-01,1.03787e+00
9.30700e+02,-1.19698e+01,-7.45001e+01,9.87343e-01,2.22164e-01,1.05968e+00
9.30700e+02,-1.18279e+01,-7.13959e+01,9.99303e-01,2.27420e-01,1.07413e+00
9.30700e+02,-1.15692e+01,-6.82917e+01,1.00622e+00,2.32830e-01,1.08403e+00
9.30700e+02,-1.11933e+01,-6.51876e+01,1.00809e+00,2.38362e-01,1.08935e+00
9.30700e+02,-1.07458e+01,-6.20834e+01,1.00686e+00,2.43989e-01,1.09196e+00
9.30700e+02,-1.02569e+01,-5.89792e+01,1.00385e+00,2.49698e-01,1.09305e+00
9.30700e+02,-9.70544e+00,-5.58751e+01,9.98144e-01,2.55471e-01,1.09183e+00
9.30700e+02,-9.11493e+00,-5.27709e+01,9.90750e-01,2.61294e-01,1.08922e+00
9.30700e+02,-8.48637e+00,-4.96667e+01,9.81714e-01,2.67155e-01,1.08530e+00
9.30700e+02,-7.81993e+00,-4.65625e+01,9.71044e-01,2.73042e-01,1.08008e+00
9.30700e+02,-7.12973e+00,-4.34584e+01,9.59349e-01,2.78943e-01,1.07414e+00
9.30700e+02,-6.40909e+00,-4.03542e+01,9.46342e-01,2.84852e-01,1.06723e+00
9.30700e+02,-5.66897e+00,-3.72500e+01,9.32493e-01,2.90758e-01,1.05979e+00
9.30700e+02,-4.91137e+00,-3.41459e+01,9.17890e-01,2.96655e-01,1.05192e+00
9.30700e+02,-4.13818e+00,-3.10417e+01,9.02615e-01,3.02537e-01,1.04370e+00
9.30700e+02,-3.35837e+00,-2.79375e+01,8.87055e-01,3.08399e-01,1.03547e+00
9.30700e+02,-2.56834e+00,-2.48334e+01,8.71053e-01,3.14238e-01,1.02712e+00
9.30700e+02,-1.77660e+00,-2.17292e+01,8.54977e-01,3.20052e-01,1.01896e+00
9.30700e+02,-9.78745e-01,-1.86250e+01,8.38638e-01,3.25839e-01,1.01085e+00
9.30700e+02,-1.80973e-01,-1.55208e+01,8.22302e-01,3.31596e-01,1.00302e+00
9.30700e+02,6.13784e-01,-1.24167e+01,8.06097e-01,3.37325e-01,9.95569e-01
9.30700e+02,1.40854e+00,-9.31251e+00,7.89891e-01,3.43023e-01,9.88394e-01
9.30700e+02,2.18448e+00,-6.20834e+00,7.74497e-01,3.48694e-01,9.82145e-01
9.30700e+02,2.95691e+00,-3.10417e+00,7.59255e-01,3.54340e-01,9.76288e-01
1.02500e+03,3.90671e+01,0.00000e+00,-6.45966e-01,3.22459e-01,8.53939e-01
1.02500e+03,3.88704e+01,-2.96869e+00,-6.53611e-01,3.17670e-01,8.54371e-01
1.02500e+03,3.86086e+01,-5.93738e+00,-6.58956e-01,3.12764e-01,8.53046e-01
1.02500e+03,3.83443e+01,-8.90607e+00,-6.64209e-01,3.07747e-01,8.51644e-01
1.02500e+03,3.80226e+01,-1.18748e+01,-6.67432e-01,3.02628e-01,8.48655e-01
1.02500e+03,3.76875e+01,-1.48435e+01,-6.70183e-01,2.97414e-01,8.45287e-01
1.02500e+03,3.73084e+01,-1.78121e+01,-6.71376e-01,2.92113e-01,8.40675e-01
1.02500e+03,3.69079e+01,-2.07808e+01,-6.71812e-01,2.86732e-01,8.35451e-01
1.02500e+03,3.64721e+01,-2.37495e+01,-6.70997e-01,2.81279e-01,8.29211e-01
1.02500e+03,3.60071e+01,-2.67182e+01,-6.69152e-01,2.75761e-01,8.22130e-01
1.02500e+03,3.55102e+01,-2.96869e+01,-6.66177e-01,2.70185e-01,8.14120e-01
1.02500e+03,3.49746e+01,-3.26556e+01,-6.61831e-01,2.64559e-01,8.04981e-01
1.02500e+03,3.43994e+01,-3.56243e+01,-6.56084e-01,2.58889e-01,7.94680e-01
1.02500e+03,3.37680e+01,-3.85930e+01,-6.48350e-01,2.53185e-01,7.82730e-01
1.02500e+03,3.30819e+01,-4.15617e+01,-6.38683e-01,2.47459e-01,7.69171e-01
1.02500e+03,3.23305e+01,-4.45304e+01,-6.26703e-01,2.41719e-01,7.53684e-01
1.02500e+03,3.14906e+01,-4.74990e+01,-6.11590e-01,2.35985e-01,7.35602e-01
1.02500e+03,3.05891e+01,-5.04677e+01,-5.94300e-01,2.30262e-01,7.15719e-01
1.02500e+03,2.95491e+01,-5.34364e+01,-5.72106e-01,2.24580e-01,6.91818e-01
1.02500e+03,2.84516e+01,-5.64051e+01,-5.47879e-01,2.18951e-01,6.66327e-01
1.02500e+03,2.71940e+01,-5.93738e+01,-5.17992e-01,2.13392e-01,6.36336e-01
1.02500e+03,2.58083e+01,-6.23425e+01,-4.83567e-01,2.07948e-01,6.02962e-01
1.02500e+03,2.42920e+01,-6.53112e+01,-4.44524e-01,2.02627e-01,5.66370e-01
1.02500e+03,2.25567e+01,-6.82799e+01,-3.97731e-01,1.97451e-01,5.24548e-01
1.02500e+03,2.05677e+01,-7.12486e+01,-3.41960e-01,1.92482e-01,4.77582e-01
1.02500e+03,1.82919e+01,-7.42173e+01,-2.76042e-01,1.87779e-01,4.26593e-01
1.02500e+03,1.56001e+01,-7.71859e+01,-1.95405e-01,1.83382e-01,3.72921e-01
1.02500e+03,1.21450e+01,-8.01546e+01,-8.77607e-02,1.79506e-01,3.23062e-01
1.02500e+03,7.47201e+00,-8.31233e+01,6.29735e-02,1.77139e-01,3.13210e-01
1.02500e+03,-3.02760e+00,-8.60920e+01,4.19870e-01,1.78079e-01,5.20987e-01
1.02500e+03,-3.78536e+00,-8.60989e+01,4.46648e-01,1.80996e-01,5.45686e-01
1.02500e+03,-1.06891e+01,-8.30239e+01,7.06049e-01,1.86526e-01,7.76454e-01
1.02500e+03,-1.15250e+01,-7.99490e+01,7.50754e-01,1.90611e-01,8.20139e-01
1.02500e+03,-1.18134e+01,-7.68740e+01,7.76089e-01,1.94910e-01,8.46335e-01
1.02500e+03,-1.18572e+01,-7.37991e+01,7.92766e-01,1.99408e-01,8.64736e-01
1.02500e+03,-1.17166e+01,-7.07241e+01,8.02922e-01,2.04069e-01,8.77278e-01
1.02500e+03,-1.14604e+01,-6.76491e+01,8.08984e-01,2.08867e-01,8.86189e-01
1.02500e+03,-1.10880e+01,-6.45742e+01,8.10937e-01,2.13774e-01,8.91469e-01
1.02500e+03,-1.06447e+01,-6.14992e+01,8.10383e-01,2.18765e-01,8.94592e-01
1.02500e+03,-1.01604e+01,-5.84243e+01,8.08374e-01,2.23828e-01,8.96530e-01
1.02500e+03,-9.61411e+00,-5.53493e+01,8.04175e-01,2.28949e-01,8.96633e-01
1.02500e+03,-9.02916e+00,-5.22743e+01,7.98607e-01,2.34113e-01,8.95656e-01
1.02500e+03,-8.40652e+00,-4.91994e+01,7.91706e-01,2.39311e-01,8.93649e-01
1.02500e+03,-7.74634e+00,-4.61244e+01,7.83476e-01,2.44532e-01,8.90630e-01
1.02500e+03,-7.06264e+00,-4.30495e+01,7.74414e-01,2.49766e-01,8.87055e-01
1.02500e+03,-6.34878e+00,-3.99745e+01,7.64285e-01,2.55007e-01,8.82733e-01
1.02500e+03,-5.61563e+00,-3.68995e+01,7.53473e-01,2.60245e-01,8.78012e-01
1.02500e+03,-4.86516e+00,-3.38246e+01,7.42049e-01,2.65475e-01,8.72965e-01
1.02500e+03,-4.09924e+00,-3.07496e+01,7.30078e-01,2.70692e-01,8.67661e-01
1.02500e+03,-3.32677e+00,-2.76746e+01,7.17875e-01,2.75891e-01,8.62376e-01
1.02500e+03,-2.54417e+00,-2.45997e+01,7.05314e-01,2.81070e-01,8.57012e-01
1.02500e+03,-1.75988e+00,-2.15247e+01,6.92693e-01,2.86226e-01,8.51822e-01
1.02500e+03,-9.69535e-01,-1.84498e+01,6.79858e-01,2.91359e-01,8.46685e-01
1.02500e+03,-1.79270e-01,-1.53748e+01,6.67025e-01,2.96465e-01,8.41782e-01
1.02500e+03,6.08008e-01,-1.22998e+01,6.54299e-01,3.01546e-01,8.37196e-01
1.02500e+03,1.39529e+00,-9.22488e+00,6.41572e-01,3.06600e-01,8.32841e-01
1.02500e+03,2.16392e+00,-6.14992e+00,6.29505e-01,3.11629e-01,8.29225e-01
1.02500e+03,2.92908e+00,-3.07496e+00,6.17560e-01,3.16637e-01,8.25928e-01
1.11650e+03,3.87070e+01,0.00000e+00,-5.15383e-01,2.84179e-01,7.12666e-01
1.11650e+03,3.85121e+01,-2.94133e+00,-5.21890e-01,2.79983e-01,7.12419e-01
1.11650e+03,3.82528e+01,-5.88266e+00,-5.26558e-01,2.75685e-01,7.10824e-01
1.11650e+03,3.79909e+01,-8.82398e+00,-5.31153e-01,2.71290e-01,7.09168e-01
1.11650e+03,3.76721e+01,-1.17653e+01,-5.34125e-01,2.66805e-01,7.06289e-01
1.11650e+03,3.73401e+01,-1.47066e+01,-5.36720e-01,2.62238e-01,7.03117e-01
1.11650e+03,3.69645e+01,-1.76480e+01,-5.38069e-01,2.57594e-01,6.98986e-01
1.11650e+03,3.65678e+01,-2.05893e+01,-5.38813e-01,2.52880e-01,6.94381e-01
1.11650e+03,3.61359e+01,-2.35306e+01,-5.38556e-01,2.48103e-01,6.88991e-01
1.11650e+03,3.56753e+01,-2.64720e+01,-5.37477e-01,2.43269e-01,6.82950e-01
1.11650e+03,3.51829e+01,-2.94133e+01,-5.35493e-01,2.38384e-01,6.76191e-01
1.11650e+03,3.46522e+01,-3.23546e+01,-5.32415e-01,2.33455e-01,6.68558e-01
1.11650e+03,3.40823e+01,-3.52959e+01,-5.28215e-01,2.28488e-01,6.60024e-01
1.11650e+03,3.34567e+01,-3.82373e+01,-5.22428e-01,2.23491e-01,6.50212e-01
1.11650e+03,3.27770e+01,-4.11786e+01,-5.15094e-01,2.18475e-01,6.39153e-01
1.11650e+03,3.20325e+01,-4.41199e+01,-5.05911e-01,2.13447e-01,6.26598e-01
1.11650e+03,3.12004e+01,-4.70612e+01,-4.94225e-01,2.08424e-01,6.12029e-01
1.11650e+03,3.03072e+01,-5.00026e+01,-4.80797e-01,2.03410e-01,5.96064e-01
1.11650e+03,2.92767e+01,-5.29439e+01,-4.63449e-01,1.98432e-01,5.76984e-01
1.11650e+03,2.81893e+01,-5.58852e+01,-4.44476e-01,1.93502e-01,5.56675e-01
1.11650e+03,2.69434e+01,-5.88266e+01,-4.20977e-01,1.88631e-01,5.32886e-01
1.11650e+03,2.55704e+01,-6.17679e+01,-3.93851e-01,1.83862e-01,5.06492e-01
1.11650e+03,2.40681e+01,-6.47092e+01,-3.63033e-01,1.79201e-01,4.77631e-01
1.11650e+03,2.23488e+01,-6.76505e+01,-3.26018e-01,1.74667e-01,4.44762e-01
1.11650e+03,2.03781e+01,-7.05919e+01,-2.81827e-01,1.70313e-01,4.07978e-01
1.11650e+03,1.81233e+01,-7.35332e+01,-2.29522e-01,1.66194e-01,3.68159e-01
1.11650e+03,1.54563e+01,-7.64745e+01,-1.65452e-01,1.62342e-01,3.26249e-01
1.11650e+03,1.20330e+01,-7.94159e+01,-7.97884e-02,1.58946e-01,2.86632e-01
1.11650e+03,7.40314e+00,-8.23572e+01,4.03234e-02,1.56873e-01,2.74688e-01
1.11650e+03,-2.99970e+00,-8.52985e+01,3.25255e-01,1.57697e-01,4.24730e-01
1.11650e+03,-3.75047e+00,-8.53053e+01,3.46662e-01,1.60252e-01,4.44091e-01
1.11650e+03,-1.05906e+01,-8.22587e+01,5.54454e-01,1.65096e-01,6.23851e-01
1.11650e+03,-1.14188e+01,-7.92121e+01,5.90604e-01,1.68675e-01,6.58913e-01
1.11650e+03,-1.17045e+01,-7.61655e+01,6.11268e-01,1.72441e-01,6.80335e-01
1.11650e+03,-1.17479e+01,-7.31189e+01,6.25010e-01,1.76381e-01,6.95679e-01
1.11650e+03,-1.16086e+01,-7.00722e+01,6.33539e-01,1.80465e-01,7.06452e-01
1.11650e+03,-1.13547e+01,-6.70256e+01,6.38795e-01,1.84668e-01,7.14399e-01
1.11650e+03,-1.09858e+01,-6.39790e+01,6.40765e-01,1.88967e-01,7.19517e-01
1.11650e+03,-1.05466e+01,-6.09324e+01,6.40732e-01,1.93339e-01,7.22964e-01
1.11650e+03,-1.00667e+01,-5.78858e+01,6.39535e-01,1.97774e-01,7.25500e-01
1.11650e+03,-9.52550e+00,-5.48391e+01,6.36588e-01,2.02260e-01,7.26617e-01
1.11650e+03,-8.94594e+00,-5.17925e+01,6.32546e-01,2.06784e-01,7.26907e-01
1.11650e+03,-8.32904e+00,-4.87459e+01,6.27438e-01,2.11338e-01,7.26409e-01
1.11650e+03,-7.67495e+00,-4.56993e+01,6.21268e-01,2.15912e-01,7.25140e-01
1.11650e+03,-6.99754e+00,-4.26527e+01,6.14433e-01,2.20497e-01,7.23453e-01
1.11650e+03,-6.29027e+00,-3.96060e+01,6.06744e-01,2.25088e-01,7.21202e-01
1.11650e+03,-5.56387e+00,-3.65594e+01,5.98510e-01,2.29677e-01,7.18657e-01
1.11650e+03,-4.82031e+00,-3.35128e+01,5.89786e-01,2.34258e-01,7.15876e-01
1.11650e+03,-4.06146e+00,-3.04662e+01,5.80625e-01,2.38828e-01,7.12911e-01
1.11650e+03,-3.29611e+00,-2.74196e+01,5.71279e-01,2.43383e-01,7.09976e-01
1.11650e+03,-2.52072e+00,-2.43730e+01,5.61646e-01,2.47920e-01,7.06993e-01
1.11650e+03,-1.74366e+00,-2.13263e+01,5.51965e-01,2.52437e-01,7.04158e-01
1.11650e+03,-9.60599e-01,-1.82797e+01,5.42113e-01,2.56933e-01,7.01377e-01
1.11650e+03,-1.77618e-01,-1.52331e+01,5.32264e-01,2.61406e-01,6.98788e-01
1.11650e+03,6.02404e-01,-1.21865e+01,5.22498e-01,2.65857e-01,6.96452e-01
1.11650e+03,1.38243e+00,-9.13986e+00,5.12733e-01,2.70284e-01,6.94303e-01
1.11650e+03,2.14398e+00,-6.09324e+00,5.03495e-01,2.74690e-01,6.92727e-01
1.11650e+03,2.90209e+00,-3.04662e+00,4.94356e-01,2.79077e-01,6.91404e-01
1.20500e+03,3.76912e+01,0.00000e+00,-5.77260e-01,2.84799e-01,7.59315e-01
1.20500e+03,3.75014e+01,-2.86413e+00,-5.86901e-01,2.79699e-01,7.61018e-01
1.20500e+03,3.72488e+01,-5.72827e+00,-5.94478e-01,2.74476e-01,7.61193e-01
1.20500e+03,3.69938e+01,-8.59240e+00,-6.01972e-01,2.69133e-01,7.61359e-01
1.20500e+03,3.66834e+01,-1.14565e+01,-6.07643e-01,2.63681e-01,7.60141e-01
1.20500e+03,3.63602e+01,-1.43207e+01,-6.12892e-01,2.58128e-01,7.58635e-01
1.20500e+03,3.59944e+01,-1.71848e+01,-6.16742e-01,2.52482e-01,7.56051e-01
1.20500e+03,3.56080e+01,-2.00489e+01,-6.19913e-01,2.46751e-01,7.52961e-01
1.20500e+03,3.51875e+01,-2.29131e+01,-6.21960e-01,2.40942e-01,7.48995e-01
1.20500e+03,3.47390e+01,-2.57772e+01,-6.23084e-01,2.35064e-01,7.44311e-01
1.20500e+03,3.42596e+01,-2.86413e+01,-6.23192e-01,2.29123e-01,7.38824e-01
1.20500e+03,3.37428e+01,-3.15055e+01,-6.22071e-01,2.23129e-01,7.32347e-01
1.20500e+03,3.31878e+01,-3.43696e+01,-6.19692e-01,2.17087e-01,7.24843e-01
1.20500e+03,3.25787e+01,-3.72337e+01,-6.15530e-01,2.11010e-01,7.15857e-01
1.20500e+03,3.19168e+01,-4.00979e+01,-6.09631e-01,2.04908e-01,7.05416e-01
1.20500e+03,3.11919e+01,-4.29620e+01,-6.01657e-01,1.98791e-01,6.93214e-01
1.20500e+03,3.03815e+01,-4.58261e+01,-5.90872e-01,1.92680e-01,6.78607e-01
1.20500e+03,2.95118e+01,-4.86903e+01,-5.78132e-01,1.86581e-01,6.62324e-01
1.20500e+03,2.85084e+01,-5.15544e+01,-5.60991e-01,1.80524e-01,6.42244e-01
1.20500e+03,2.74495e+01,-5.44186e+01,-5.42025e-01,1.74525e-01,6.20619e-01
1.20500e+03,2.62363e+01,-5.72827e+01,-5.17978e-01,1.68599e-01,5.94624e-01
1.20500e+03,2.48993e+01,-6.01468e+01,-4.89858e-01,1.62795e-01,5.65215e-01
1.20500e+03,2.34365e+01,-6.30110e+01,-4.57594e-01,1.57124e-01,5.32406e-01
1.20500e+03,2.17623e+01,-6.58751e+01,-4.18373e-01,1.51605e-01,4.93952e-01
1.20500e+03,1.98433e+01,-6.87392e+01,-3.71094e-01,1.46306e-01,4.49363e-01
1.20500e+03,1.76476e+01,-7.16034e+01,-3.14707e-01,1.41291e-01,3.98660e-01
1.20500e+03,1.50506e+01,-7.44675e+01,-2.45109e-01,1.36602e-01,3.40674e-01
1.20500e+03,1.17172e+01,-7.73316e+01,-1.51270e-01,1.32466e-01,2.74818e-01
1.20500e+03,7.20885e+00,-8.01958e+01,-1.87549e-02,1.29937e-01,2.25838e-01
1.20500e+03,-2.92097e+00,-8.30599e+01,2.98805e-01,1.30935e-01,3.75122e-01
1.20500e+03,-3.65204e+00,-8.30665e+01,3.22834e-01,1.34040e-01,3.97646e-01
1.20500e+03,-1.03126e+01,-8.00999e+01,5.58543e-01,1.39931e-01,6.08862e-01
1.20500e+03,-1.11191e+01,-7.71332e+01,6.01547e-01,1.44284e-01,6.51393e-01
1.20500e+03,-1.13974e+01,-7.41666e+01,6.27166e-01,1.48865e-01,6.78100e-01
1.20500e+03,-1.14396e+01,-7.11999e+01,6.45014e-01,1.53658e-01,6.97764e-01
1.20500e+03,-1.13040e+01,-6.82332e+01,6.57008e-01,1.58626e-01,7.12142e-01
1.20500e+03,-1.10567e+01,-6.52666e+01,6.65328e-01,1.63740e-01,7.23252e-01
1.20500e+03,-1.06975e+01,-6.22999e+01,6.69959e-01,1.68971e-01,7.31094e-01
1.20500e+03,-1.02698e+01,-5.93332e+01,6.72340e-01,1.74291e-01,7.37003e-01
1.20500e+03,-9.80253e+00,-5.63666e+01,6.73416e-01,1.79689e-01,7.41858e-01
1.20500e+03,-9.27551e+00,-5.33999e+01,6.72526e-01,1.85148e-01,7.45071e-01
1.20500e+03,-8.71115e+00,-5.04333e+01,6.70407e-01,1.90655e-01,7.47324e-01
1.20500e+03,-8.11045e+00,-4.74666e+01,6.67091e-01,1.96198e-01,7.48660e-01
1.20500e+03,-7.47352e+00,-4.44999e+01,6.62583e-01,2.01765e-01,7.49095e-01
1.20500e+03,-6.81389e+00,-4.15333e+01,6.57328e-01,2.07347e-01,7.49039e-01
1.20500e+03,-6.12518e+00,-3.85666e+01,6.51116e-01,2.12936e-01,7.48316e-01
1.20500e+03,-5.41785e+00,-3.55999e+01,6.44290e-01,2.18522e-01,7.47239e-01
1.20500e+03,-4.69381e+00,-3.26333e+01,6.36914e-01,2.24101e-01,7.45871e-01
1.20500e+03,-3.95486e+00,-2.96666e+01,6.29048e-01,2.29666e-01,7.44272e-01
1.20500e+03,-3.20961e+00,-2.67000e+01,6.20974e-01,2.35212e-01,7.42687e-01
1.20500e+03,-2.45457e+00,-2.37333e+01,6.12578e-01,2.40737e-01,7.41023e-01
1.20500e+03,-1.69790e+00,-2.07666e+01,6.04129e-01,2.46239e-01,7.39508e-01
1.20500e+03,-9.35389e-01,-1.78000e+01,5.95487e-01,2.51715e-01,7.38028e-01
1.20500e+03,-1.72956e-01,-1.48333e+01,5.86848e-01,2.57163e-01,7.36742e-01
1.20500e+03,5.86594e-01,-1.18666e+01,5.78303e-01,2.62586e-01,7.35723e-01
1.20500e+03,1.34615e+00,-8.89999e+00,5.69759e-01,2.67979e-01,7.34890e-01
1.20500e+03,2.08771e+00,-5.93332e+00,5.61806e-01,2.73346e-01,7.34698e-01
1.20500e+03,2.82592e+00,-2.96666e+00,5.53964e-01,2.78691e-01,7.34767e-01
1.29010e+03,3.63234e+01,0.00000e+00,-4.58868e-01,2.53909e-01,6.35586e-01
1.29010e+03,3.61405e+01,-2.76019e+00,-4.66865e-01,2.49516e-01,6.36190e-01
1.29010e+03,3.58971e+01,-5.52039e+00,-4.73216e-01,2.45016e-01,6.35635e-01
1.29010e+03,3.56513e+01,-8.28058e+00,-4.79501e-01,2.40414e-01,6.35073e-01
1.29010e+03,3.53522e+01,-1.10408e+01,-4.84334e-01,2.35717e-01,6.33457e-01
1.29010e+03,3.50407e+01,-1.38010e+01,-4.88829e-01,2.30934e-01,6.31621e-01
1.29010e+03,3.46882e+01,-1.65612e+01,-4.92209e-01,2.26070e-01,6.28962e-01
1.29010e+03,3.43158e+01,-1.93214e+01,-4.95048e-01,2.21133e-01,6.25917e-01
1.29010e+03,3.39106e+01,-2.20816e+01,-4.96992e-01,2.16129e-01,6.22203e-01
1.29010e+03,3.34783e+01,-2.48418e+01,-4.98199e-01,2.11066e-01,6.17938e-01
1.29010e+03,3.30163e+01,-2.76019e+01,-4.98596e-01,2.05948e-01,6.13059e-01
1.29010e+03,3.25183e+01,-3.03621e+01,-4.98014e-01,2.00784e-01,6.07421e-01
1.29010e+03,3.19834e+01,-3.31223e+01,-4.96428e-01,1.95580e-01,6.00995e-01
1.29010e+03,3.13964e+01,-3.58825e+01,-4.93421e-01,1.90345e-01,5.93429e-01
1.29010e+03,3.07585e+01,-3.86427e+01,-4.89030e-01,1.85089e-01,5.84743e-01
1.29010e+03,3.00599e+01,-4.14029e+01,-4.82985e-01,1.79820e-01,5.74700e-01
1.29010e+03,2.92790e+01,-4.41631e+01,-4.74698e-01,1.74557e-01,5.62804e-01
1.29010e+03,2.84408e+01,-4.69233e+01,-4.64853e-01,1.69303e-01,5.49616e-01
1.29010e+03,2.74738e+01,-4.96835e+01,-4.51499e-01,1.64086e-01,5.33502e-01
1.29010e+03,2.64534e+01,-5.24437e+01,-4.36691e-01,1.58919e-01,5.16202e-01
1.29010e+03,2.52842e+01,-5.52039e+01,-4.17833e-01,1.53814e-01,4.95540e-01
1.29010e+03,2.39957e+01,-5.79641e+01,-3.95727e-01,1.48815e-01,4.72269e-01
1.29010e+03,2.25860e+01,-6.07243e+01,-3.70318e-01,1.43930e-01,4.46411e-01
1.29010e+03,2.09725e+01,-6.34845e+01,-3.39363e-01,1.39176e-01,4.16266e-01
1.29010e+03,1.91232e+01,-6.62447e+01,-3.01984e-01,1.34613e-01,3.81518e-01
1.29010e+03,1.70072e+01,-6.90049e+01,-2.57344e-01,1.30293e-01,3.42279e-01
1.29010e+03,1.45045e+01,-7.17651e+01,-2.02173e-01,1.26254e-01,2.97816e-01
1.29010e+03,1.12920e+01,-7.45253e+01,-1.27677e-01,1.22692e-01,2.47915e-01
1.29010e+03,6.94724e+00,-7.72855e+01,-2.23495e-02,1.20515e-01,2.09931e-01
1.29010e+03,-2.81497e+00,-8.00457e+01,2.30493e-01,1.21375e-01,3.11965e-01
1.29010e+03,-3.51951e+00,-8.00521e+01,2.49647e-01,1.24050e-01,3.29377e-01
1.29010e+03,-9.93839e+00,-7.71931e+01,4.37873e-01,1.29125e-01,4.91683e-01
1.29010e+03,-1.07156e+01,-7.43341e+01,4.72478e-01,1.32874e-01,5.25549e-01
1.29010e+03,-1.09838e+01,-7.14751e+01,4.93223e-01,1.36820e-01,5.47200e-01
1.29010e+03,-1.10244e+01,-6.86160e+01,5.07773e-01,1.40949e-01,5.63412e-01
1.29010e+03,-1.08937e+01,-6.57570e+01,5.17657e-01,1.45229e-01,5.75537e-01
1.29010e+03,-1.06555e+01,-6.28980e+01,5.24612e-01,1.49634e-01,5.85139e-01
1.29010e+03,-1.03093e+01,-6.00390e+01,5.28626e-01,1.54139e-01,5.92218e-01
1.29010e+03,-9.89713e+00,-5.71800e+01,5.30847e-01,1.58722e-01,5.97809e-01
1.29010e+03,-9.44680e+00,-5.43210e+01,5.32027e-01,1.63371e-01,6.02596e-01
1.29010e+03,-8.93890e+00,-5.14620e+01,5.31639e-01,1.68073e-01,6.06124e-01
1.29010e+03,-8.39503e+00,-4.86030e+01,5.30272e-01,1.72816e-01,6.08921e-01
1.29010e+03,-7.81612e+00,-4.57440e+01,5.27951e-01,1.77591e-01,6.11022e-01
1.29010e+03,-7.20231e+00,-4.28850e+01,5.24680e-01,1.82386e-01,6.12440e-01
1.29010e+03,-6.56662e+00,-4.00260e+01,5.20813e-01,1.87194e-01,6.13490e-01
1.29010e+03,-5.90290e+00,-3.71670e+01,5.16182e-01,1.92007e-01,6.14040e-01
1.29010e+03,-5.22123e+00,-3.43080e+01,5.11063e-01,1.96819e-01,6.14328e-01
1.29010e+03,-4.52347e+00,-3.14490e+01,5.05506e-01,2.01624e-01,6.14405e-01
1.29010e+03,-3.81134e+00,-2.85900e+01,4.99558e-01,2.06417e-01,6.14314e-01
1.29010e+03,-3.09313e+00,-2.57310e+01,4.93443e-01,2.11194e-01,6.14244e-01
1.29010e+03,-2.36549e+00,-2.28720e+01,4.87073e-01,2.15952e-01,6.14122e-01
1.29010e+03,-1.63628e+00,-2.00130e+01,4.80659e-01,2.20691e-01,6.14122e-01
1.29010e+03,-9.01444e-01,-1.71540e+01,4.74092e-01,2.25407e-01,6.14157e-01
1.29010e+03,-1.66680e-01,-1.42950e+01,4.67527e-01,2.30100e-01,6.14345e-01
1.29010e+03,5.65307e-01,-1.14360e+01,4.61038e-01,2.34770e-01,6.14741e-01
1.29010e+03,1.29729e+00,-8.57701e+00,4.54549e-01,2.39415e-01,6.15283e-01
1.29010e+03,2.01195e+00,-5.71800e+00,4.48532e-01,2.44037e-01,6.16314e-01
1.29010e+03,2.72337e+00,-2.85900e+00,4.42602e-01,2.48640e-01,6.17546e-01
1.37170e+03,3.50118e+01,0.00000e+00,-3.56502e-01,2.24186e-01,5.27136e-01
1.37170e+03,3.48355e+01,-2.66053e+00,-3.63046e-01,2.20454e-01,5.26880e-01
1.37170e+03,3.46009e+01,-5.32106e+00,-3.68306e-01,2.16632e-01,5.25773e-01
1.37170e+03,3.43640e+01,-7.98159e+00,-3.73515e-01,2.12722e-01,5.24657e-01
1.37170e+03,3.40757e+01,-1.06421e+01,-3.77592e-01,2.08732e-01,5.22765e-01
1.37170e+03,3.37754e+01,-1.33027e+01,-3.81406e-01,2.04669e-01,5.20710e-01
1.37170e+03,3.34357e+01,-1.59632e+01,-3.84351e-01,2.00537e-01,5.18045e-01
1.37170e+03,3.30768e+01,-1.86237e+01,-3.86874e-01,1.96343e-01,5.15096e-01
1.37170e+03,3.26861e+01,-2.12842e+01,-3.88698e-01,1.92093e-01,5.11650e-01
1.37170e+03,3.22695e+01,-2.39448e+01,-3.89949e-01,1.87791e-01,5.07797e-01
1.37170e+03,3.18241e+01,-2.66053e+01,-3.90569e-01,1.83445e-01,5.03488e-01
1.37170e+03,3.13441e+01,-2.92658e+01,-3.90425e-01,1.79058e-01,4.98615e-01
1.37170e+03,3.08286e+01,-3.19264e+01,-3.89499e-01,1.74638e-01,4.93157e-01
1.37170e+03,3.02627e+01,-3.45869e+01,-3.87465e-01,1.70191e-01,4.86851e-01
1.37170e+03,2.96479e+01,-3.72474e+01,-3.84353e-01,1.65726e-01,4.79711e-01
1.37170e+03,2.89745e+01,-3.99080e+01,-3.79950e-01,1.61251e-01,4.71558e-01
1.37170e+03,2.82218e+01,-4.25685e+01,-3.73801e-01,1.56780e-01,4.62025e-01
1.37170e+03,2.74139e+01,-4.52290e+01,-3.66437e-01,1.52317e-01,4.51528e-01
1.37170e+03,2.64818e+01,-4.78895e+01,-3.56338e-01,1.47886e-01,4.38848e-01
1.37170e+03,2.54982e+01,-5.05501e+01,-3.45105e-01,1.43497e-01,4.25290e-01
1.37170e+03,2.43712e+01,-5.32106e+01,-3.30715e-01,1.39161e-01,4.09231e-01
1.37170e+03,2.31293e+01,-5.58711e+01,-3.13794e-01,1.34915e-01,3.91245e-01
1.37170e+03,2.17704e+01,-5.85317e+01,-2.94298e-01,1.30765e-01,3.71363e-01
1.37170e+03,2.02153e+01,-6.11922e+01,-2.70480e-01,1.26728e-01,3.48338e-01
1.37170e+03,1.84327e+01,-6.38527e+01,-2.41653e-01,1.22852e-01,3.21985e-01
1.37170e+03,1.63931e+01,-6.65133e+01,-2.07168e-01,1.19183e-01,2.92459e-01
1.37170e+03,1.39807e+01,-6.91738e+01,-1.64473e-01,1.15753e-01,2.59321e-01
1.37170e+03,1.08843e+01,-7.18343e+01,-1.06715e-01,1.12728e-01,2.22510e-01
1.37170e+03,6.69639e+00,-7.44949e+01,-2.49243e-02,1.10879e-01,1.93658e-01
1.37170e+03,-2.71333e+00,-7.71554e+01,1.71851e-01,1.11609e-01,2.58656e-01
1.37170e+03,-3.39243e+00,-7.71616e+01,1.86781e-01,1.13882e-01,2.71652e-01
1.37170e+03,-9.57954e+00,-7.44058e+01,3.33820e-01,1.18193e-01,3.91592e-01
1.37170e+03,-1.03287e+01,-7.16500e+01,3.61114e-01,1.21378e-01,4.17853e-01
1.37170e+03,-1.05872e+01,-6.88942e+01,3.77606e-01,1.24730e-01,4.35039e-01
1.37170e+03,-1.06264e+01,-6.61385e+01,3.89269e-01,1.28237e-01,4.48179e-01
1.37170e+03,-1.05004e+01,-6.33827e+01,3.97294e-01,1.31872e-01,4.58272e-01
1.37170e+03,-1.02708e+01,-6.06269e+01,4.03036e-01,1.35614e-01,4.66488e-01
1.37170e+03,-9.93701e+00,-5.78712e+01,4.06486e-01,1.39441e-01,4.72824e-01
1.37170e+03,-9.53977e+00,-5.51154e+01,4.08538e-01,1.43333e-01,4.78055e-01
1.37170e+03,-9.10569e+00,-5.23596e+01,4.09779e-01,1.47282e-01,4.82696e-01
1.37170e+03,-8.61613e+00,-4.96039e+01,4.09798e-01,1.51277e-01,4.86404e-01
1.37170e+03,-8.09190e+00,-4.68481e+01,4.09054e-01,1.55305e-01,4.89575e-01
1.37170e+03,-7.53389e+00,-4.40923e+01,4.07566e-01,1.59360e-01,4.92237e-01
1.37170e+03,-6.94225e+00,-4.13365e+01,4.05337e-01,1.63433e-01,4.94397e-01
1.37170e+03,-6.32951e+00,-3.85808e+01,4.02643e-01,1.67517e-01,4.96294e-01
1.37170e+03,-5.68976e+00,-3.58250e+01,3.99355e-01,1.71605e-01,4.97825e-01
1.37170e+03,-5.03271e+00,-3.30692e+01,3.95686e-01,1.75692e-01,4.99170e-01
1.37170e+03,-4.36014e+00,-3.03135e+01,3.91675e-01,1.79773e-01,5.00365e-01
1.37170e+03,-3.67372e+00,-2.75577e+01,3.87360e-01,1.83844e-01,5.01441e-01
1.37170e+03,-2.98144e+00,-2.48019e+01,3.82915e-01,1.87901e-01,5.02538e-01
1.37170e+03,-2.28008e+00,-2.20462e+01,3.78270e-01,1.91943e-01,5.03601e-01
1.37170e+03,-1.57720e+00,-1.92904e+01,3.73592e-01,1.95967e-01,5.04757e-01
1.37170e+03,-8.68894e-01,-1.65346e+01,3.68794e-01,1.99973e-01,5.05941e-01
1.37170e+03,-1.60661e-01,-1.37788e+01,3.63998e-01,2.03958e-01,5.07239e-01
1.37170e+03,5.44895e-01,-1.10231e+01,3.59261e-01,2.07924e-01,5.08690e-01
1.37170e+03,1.25045e+00,-8.26731e+00,3.54524e-01,2.11869e-01,5.10248e-01
1.37170e+03,1.93930e+00,-5.51154e+00,3.50154e-01,2.15795e-01,5.12163e-01
1.37170e+03,2.62503e+00,-2.75577e+00,3.45854e-01,2.19704e-01,5.14223e-01
1.44960e+03,3.37597e+01,0.00000e+00,-2.69680e-01,1.95639e-01,4.33072e-01
1.44960e+03,3.35897e+01,-2.56538e+00,-2.74939e-01,1.92515e-01,4.32178e-01
1.44960e+03,3.33635e+01,-5.13077e+00,-2.79223e-01,1.89316e-01,4.30682e-01
1.44960e+03,3.31351e+01,-7.69615e+00,-2.83468e-01,1.86043e-01,4.29174e-01
1.44960e+03,3.28571e+01,-1.02615e+01,-2.86854e-01,1.82704e-01,4.27116e-01
1.44960e+03,3.25675e+01,-1.28269e+01,-2.90040e-01,1.79303e-01,4.24938e-01
1.44960e+03,3.22399e+01,-1.53923e+01,-2.92566e-01,1.75845e-01,4.22326e-01
1.44960e+03,3.18939e+01,-1.79577e+01,-2.94771e-01,1.72335e-01,4.19510e-01
1.44960e+03,3.15172e+01,-2.05231e+01,-2.96447e-01,1.68778e-01,4.16339e-01
1.44960e+03,3.11155e+01,-2.30885e+01,-2.97686e-01,1.65178e-01,4.12878e-01
1.44960e+03,3.06860e+01,-2.56538e+01,-2.98447e-01,1.61540e-01,4.09092e-01
1.44960e+03,3.02232e+01,-2.82192e+01,-2.98628e-01,1.57869e-01,4.04902e-01
1.44960e+03,2.97261e+01,-3.07846e+01,-2.98214e-01,1.54169e-01,4.00295e-01
1.44960e+03,2.91805e+01,-3.33500e+01,-2.96960e-01,1.50447e-01,3.95080e-01
1.44960e+03,2.85877e+01,-3.59154e+01,-2.94887e-01,1.46711e-01,3.89269e-01
1.44960e+03,2.79383e+01,-3.84808e+01,-2.91834e-01,1.42965e-01,3.82733e-01
1.44960e+03,2.72125e+01,-4.10462e+01,-2.87455e-01,1.39224e-01,3.75207e-01
1.44960e+03,2.64335e+01,-4.36115e+01,-2.82154e-01,1.35489e-01,3.66991e-01
1.44960e+03,2.55347e+01,-4.61769e+01,-2.74776e-01,1.31780e-01,3.57211e-01
1.44960e+03,2.45863e+01,-4.87423e+01,-2.66537e-01,1.28107e-01,3.46809e-01
1.44960e+03,2.34997e+01,-5.13077e+01,-2.55901e-01,1.24479e-01,3.34620e-01
1.44960e+03,2.23022e+01,-5.38731e+01,-2.43344e-01,1.20925e-01,3.21068e-01
1.44960e+03,2.09919e+01,-5.64385e+01,-2.28831e-01,1.17453e-01,3.06184e-01
1.44960e+03,1.94923e+01,-5.90039e+01,-2.11036e-01,1.14074e-01,2.89093e-01
1.44960e+03,1.77735e+01,-6.15692e+01,-1.89438e-01,1.10830e-01,2.69698e-01
1.44960e+03,1.58069e+01,-6.41346e+01,-1.63544e-01,1.07760e-01,2.48160e-01
1.44960e+03,1.34808e+01,-6.67000e+01,-1.31417e-01,1.04889e-01,2.24222e-01
1.44960e+03,1.04950e+01,-6.92654e+01,-8.78523e-02,1.02358e-01,1.97862e-01
1.44960e+03,6.45692e+00,-7.18308e+01,-2.60402e-02,1.00811e-01,1.76541e-01
1.44960e+03,-2.61629e+00,-7.43962e+01,1.23078e-01,1.01423e-01,2.14495e-01
1.44960e+03,-3.27111e+00,-7.44021e+01,1.34413e-01,1.03325e-01,2.23820e-01
1.44960e+03,-9.23696e+00,-7.17449e+01,2.46357e-01,1.06933e-01,3.08214e-01
1.44960e+03,-9.95928e+00,-6.90877e+01,2.67382e-01,1.09599e-01,3.27916e-01
1.44960e+03,-1.02085e+01,-6.64305e+01,2.80204e-01,1.12404e-01,3.41201e-01
1.44960e+03,-1.02464e+01,-6.37732e+01,2.89360e-01,1.15339e-01,3.51623e-01
1.44960e+03,-1.01249e+01,-6.11160e+01,2.95754e-01,1.18382e-01,3.59879e-01
1.44960e+03,-9.90345e+00,-5.84588e+01,3.00414e-01,1.21513e-01,3.66804e-01
1.44960e+03,-9.58164e+00,-5.58016e+01,3.03334e-01,1.24716e-01,3.72389e-01
1.44960e+03,-9.19861e+00,-5.31444e+01,3.05192e-01,1.27974e-01,3.77193e-01
1.44960e+03,-8.78006e+00,-5.04872e+01,3.06435e-01,1.31279e-01,3.81582e-01
1.44960e+03,-8.30801e+00,-4.78299e+01,3.06750e-01,1.34621e-01,3.85310e-01
1.44960e+03,-7.80252e+00,-4.51727e+01,3.06485e-01,1.37993e-01,3.88663e-01
1.44960e+03,-7.26447e+00,-4.25155e+01,3.05656e-01,1.41386e-01,3.91657e-01
1.44960e+03,-6.69398e+00,-3.98583e+01,3.04264e-01,1.44795e-01,3.94300e-01
1.44960e+03,-6.10316e+00,-3.72011e+01,3.02519e-01,1.48212e-01,3.96760e-01
1.44960e+03,-5.48628e+00,-3.45438e+01,3.00323e-01,1.51633e-01,3.98964e-01
1.44960e+03,-4.85273e+00,-3.18866e+01,2.97837e-01,1.55054e-01,4.01039e-01
1.44960e+03,-4.20421e+00,-2.92294e+01,2.95093e-01,1.58469e-01,4.03010e-01
1.44960e+03,-3.54234e+00,-2.65722e+01,2.92116e-01,1.61875e-01,4.04898e-01
1.44960e+03,-2.87482e+00,-2.39150e+01,2.89042e-01,1.65271e-01,4.06802e-01
1.44960e+03,-2.19854e+00,-2.12577e+01,2.85815e-01,1.68653e-01,4.08683e-01
1.44960e+03,-1.52080e+00,-1.86005e+01,2.82564e-01,1.72020e-01,4.10627e-01
1.44960e+03,-8.37821e-01,-1.59433e+01,2.79221e-01,1.75372e-01,4.12590e-01
1.44960e+03,-1.54916e-01,-1.32861e+01,2.75880e-01,1.78707e-01,4.14631e-01
1.44960e+03,5.25408e-01,-1.06289e+01,2.72584e-01,1.82026e-01,4.16776e-01
1.44960e+03,1.20573e+00,-7.97166e+00,2.69287e-01,1.85327e-01,4.18991e-01
1.44960e+03,1.86995e+00,-5.31444e+00,2.66270e-01,1.88612e-01,4.21454e-01
1.44960e+03,2.53116e+00,-2.65722e+00,2.63305e-01,1.91883e-01,4.24013e-01
1.52340e+03,3.25736e+01,0.00000e+00,-1.97974e-01,1.67736e-01,3.51567e-01
1.52340e+03,3.24095e+01,-2.47525e+00,-2.02104e-01,1.65177e-01,3.50281e-01
1.52340e+03,3.21913e+01,-4.95049e+00,-2.05516e-01,1.62557e-01,3.48584e-01
1.52340e+03,3.19709e+01,-7.42574e+00,-2.08899e-01,1.59876e-01,3.46872e-01
1.52340e+03,3.17026e+01,-9.90099e+00,-2.11649e-01,1.57142e-01,3.44784e-01
1.52340e+03,3.14232e+01,-1.23762e+01,-2.14252e-01,1.54356e-01,3.42609e-01
1.52340e+03,3.11072e+01,-1.48515e+01,-2.16368e-01,1.51524e-01,3.40137e-01
1.52340e+03,3.07733e+01,-1.73267e+01,-2.18247e-01,1.48649e-01,3.37523e-01
1.52340e+03,3.04098e+01,-1.98020e+01,-2.19737e-01,1.45736e-01,3.34665e-01
1.52340e+03,3.00222e+01,-2.22772e+01,-2.20904e-01,1.42787e-01,3.31607e-01
1.52340e+03,2.96079e+01,-2.47525e+01,-2.21719e-01,1.39808e-01,3.28326e-01
1.52340e+03,2.91613e+01,-2.72277e+01,-2.22107e-01,1.36801e-01,3.24769e-01
1.52340e+03,2.86816e+01,-2.97030e+01,-2.22056e-01,1.33771e-01,3.20925e-01
1.52340e+03,2.81552e+01,-3.21782e+01,-2.21386e-01,1.30723e-01,3.16666e-01
1.52340e+03,2.75832e+01,-3.46535e+01,-2.20111e-01,1.27663e-01,3.11998e-01
1.52340e+03,2.69567e+01,-3.71287e+01,-2.18115e-01,1.24596e-01,3.06833e-01
1.52340e+03,2.62564e+01,-3.96040e+01,-2.15142e-01,1.21531e-01,3.00991e-01
1.52340e+03,2.55047e+01,-4.20792e+01,-2.11488e-01,1.18473e-01,2.94677e-01
1.52340e+03,2.46375e+01,-4.45544e+01,-2.06304e-01,1.15436e-01,2.87293e-01
1.52340e+03,2.37225e+01,-4.70297e+01,-2.00485e-01,1.12427e-01,2.79489e-01
1.52340e+03,2.26740e+01,-4.95049e+01,-1.92899e-01,1.09456e-01,2.70466e-01
1.52340e+03,2.15185e+01,-5.19802e+01,-1.83896e-01,1.06546e-01,2.60526e-01
1.52340e+03,2.02543e+01,-5.44554e+01,-1.73453e-01,1.03702e-01,2.49696e-01
1.52340e+03,1.88075e+01,-5.69307e+01,-1.60589e-01,1.00935e-01,2.37387e-01
1.52340e+03,1.71490e+01,-5.94059e+01,-1.44924e-01,9.82787e-02,2.23560e-01
1.52340e+03,1.52515e+01,-6.18812e+01,-1.26090e-01,9.57646e-02,2.08354e-01
1.52340e+03,1.30071e+01,-6.43564e+01,-1.02663e-01,9.34137e-02,1.91619e-01
1.52340e+03,1.01263e+01,-6.68317e+01,-7.08042e-02,9.13411e-02,1.73329e-01
1.52340e+03,6.23005e+00,-6.93069e+01,-2.54949e-02,9.00745e-02,1.58083e-01
1.52340e+03,-2.52437e+00,-7.17822e+01,8.41698e-02,9.05761e-02,1.78035e-01
1.52340e+03,-3.15618e+00,-7.17879e+01,9.25246e-02,9.21342e-02,1.84464e-01
1.52340e+03,-8.91241e+00,-6.92241e+01,1.75305e-01,9.50893e-02,2.40536e-01
1.52340e+03,-9.60935e+00,-6.66602e+01,1.91066e-01,9.72725e-02,2.54739e-01
1.52340e+03,-9.84985e+00,-6.40963e+01,2.00781e-01,9.95699e-02,2.64680e-01
1.52340e+03,-9.88634e+00,-6.15325e+01,2.07793e-01,1.01974e-01,2.72716e-01
1.52340e+03,-9.76914e+00,-5.89686e+01,2.12769e-01,1.04465e-01,2.79302e-01
1.52340e+03,-9.55548e+00,-5.64048e+01,2.16467e-01,1.07030e-01,2.84999e-01
1.52340e+03,-9.24498e+00,-5.38409e+01,2.18883e-01,1.09653e-01,2.89795e-01
1.52340e+03,-8.87540e+00,-5.12771e+01,2.20516e-01,1.12321e-01,2.94067e-01
1.52340e+03,-8.47156e+00,-4.87132e+01,2.21695e-01,1.15027e-01,2.98065e-01
1.52340e+03,-8.01609e+00,-4.61494e+01,2.22191e-01,1.17765e-01,3.01619e-01
1.52340e+03,-7.52837e+00,-4.35855e+01,2.22259e-01,1.20526e-01,3.04923e-01
1.52340e+03,-7.00922e+00,-4.10217e+01,2.21910e-01,1.23305e-01,3.07988e-01
1.52340e+03,-6.45878e+00,-3.84578e+01,2.21148e-01,1.26096e-01,3.10816e-01
1.52340e+03,-5.88872e+00,-3.58940e+01,2.20125e-01,1.28895e-01,3.13523e-01
1.52340e+03,-5.29352e+00,-3.33301e+01,2.18769e-01,1.31697e-01,3.16057e-01
1.52340e+03,-4.68222e+00,-3.07662e+01,2.17200e-01,1.34497e-01,3.18504e-01
1.52340e+03,-4.05649e+00,-2.82024e+01,2.15440e-01,1.37294e-01,3.20879e-01
1.52340e+03,-3.41788e+00,-2.56385e+01,2.13509e-01,1.40084e-01,3.23197e-01
1.52340e+03,-2.77381e+00,-2.30747e+01,2.11506e-01,1.42864e-01,3.25523e-01
1.52340e+03,-2.12129e+00,-2.05108e+01,2.09391e-01,1.45633e-01,3.27829e-01
1.52340e+03,-1.46736e+00,-1.79470e+01,2.07258e-01,1.48391e-01,3.30175e-01
1.52340e+03,-8.08383e-01,-1.53831e+01,2.05057e-01,1.51136e-01,3.32527e-01
1.52340e+03,-1.49473e-01,-1.28193e+01,2.02857e-01,1.53867e-01,3.34927e-01
1.52340e+03,5.06948e-01,-1.02554e+01,2.00691e-01,1.56584e-01,3.37391e-01
1.52340e+03,1.16337e+00,-7.69156e+00,1.98524e-01,1.59287e-01,3.39896e-01
1.52340e+03,1.80424e+00,-5.12771e+00,1.96563e-01,1.61977e-01,3.42560e-01
1.52340e+03,2.44222e+00,-2.56385e+00,1.94641e-01,1.64656e-01,3.45282e-01
1.59310e+03,3.14533e+01,0.00000e+00,-1.40431e-01,1.40519e-01,2.80994e-01
1.59310e+03,3.12949e+01,-2.39012e+00,-1.43579e-01,1.38479e-01,2.79543e-01
1.59310e+03,3.10841e+01,-4.78023e+00,-1.46215e-01,1.36390e-01,2.77822e-01
1.59310e+03,3.08713e+01,-7.17035e+00,-1.48830e-01,1.34252e-01,2.76083e-01
1.59310e+03,3.06123e+01,-9.56047e+00,-1.50994e-01,1.32072e-01,2.74095e-01
1.59310e+03,3.03425e+01,-1.19506e+01,-1.53053e-01,1.29851e-01,2.72046e-01
1.59310e+03,3.00373e+01,-1.43407e+01,-1.54766e-01,1.27593e-01,2.69800e-01
1.59310e+03,2.97149e+01,-1.67308e+01,-1.56310e-01,1.25301e-01,2.67458e-01
1.59310e+03,2.93640e+01,-1.91209e+01,-1.57576e-01,1.22978e-01,2.64954e-01
1.59310e+03,2.89896e+01,-2.15111e+01,-1.58613e-01,1.20627e-01,2.62318e-01
1.59310e+03,2.85896e+01,-2.39012e+01,-1.59399e-01,1.18252e-01,2.59534e-01
1.59310e+03,2.81583e+01,-2.62913e+01,-1.59879e-01,1.15854e-01,2.56570e-01
1.59310e+03,2.76952e+01,-2.86814e+01,-1.60048e-01,1.13439e-01,2.53418e-01
1.59310e+03,2.71869e+01,-3.10715e+01,-1.59776e-01,1.11009e-01,2.49994e-01
1.59310e+03,2.66345e+01,-3.34616e+01,-1.59073e-01,1.08569e-01,2.46304e-01
1.59310e+03,2.60296e+01,-3.58518e+01,-1.57856e-01,1.06123e-01,2.42291e-01
1.59310e+03,2.53533e+01,-3.82419e+01,-1.55942e-01,1.03680e-01,2.37838e-01
1.59310e+03,2.46276e+01,-4.06320e+01,-1.53544e-01,1.01241e-01,2.33078e-01
1.59310e+03,2.37902e+01,-4.30221e+01,-1.50056e-01,9.88202e-02,2.27625e-01
1.59310e+03,2.29066e+01,-4.54122e+01,-1.46115e-01,9.64220e-02,2.21904e-01
1.59310e+03,2.18941e+01,-4.78023e+01,-1.40915e-01,9.40529e-02,2.15395e-01
1.59310e+03,2.07785e+01,-5.01925e+01,-1.34707e-01,9.17329e-02,2.08304e-01
1.59310e+03,1.95577e+01,-5.25826e+01,-1.27471e-01,8.94657e-02,2.00652e-01
1.59310e+03,1.81606e+01,-5.49727e+01,-1.18512e-01,8.72599e-02,1.92062e-01
1.59310e+03,1.65592e+01,-5.73628e+01,-1.07555e-01,8.51421e-02,1.82526e-01
1.59310e+03,1.47269e+01,-5.97529e+01,-9.43427e-02,8.31378e-02,1.72152e-01
1.59310e+03,1.25597e+01,-6.21430e+01,-7.78567e-02,8.12637e-02,1.60851e-01
1.59310e+03,9.77800e+00,-6.45332e+01,-5.53642e-02,7.96114e-02,1.48590e-01
1.59310e+03,6.01578e+00,-6.69233e+01,-2.32887e-02,7.86020e-02,1.38120e-01
1.59310e+03,-2.43755e+00,-6.93134e+01,5.46367e-02,7.90021e-02,1.47340e-01
1.59310e+03,-3.04763e+00,-6.93189e+01,6.05886e-02,8.02445e-02,1.51620e-01
1.59310e+03,-8.60589e+00,-6.68433e+01,1.19778e-01,8.26007e-02,1.86589e-01
1.59310e+03,-9.27886e+00,-6.43676e+01,1.31219e-01,8.43413e-02,1.96364e-01
1.59310e+03,-9.51109e+00,-6.18919e+01,1.38352e-01,8.61731e-02,2.03516e-01
1.59310e+03,-9.54632e+00,-5.94162e+01,1.43560e-01,8.80897e-02,2.09497e-01
1.59310e+03,-9.43315e+00,-5.69406e+01,1.47318e-01,9.00761e-02,2.14578e-01
1.59310e+03,-9.22684e+00,-5.44649e+01,1.50165e-01,9.21208e-02,2.19108e-01
1.59310e+03,-8.92702e+00,-5.19892e+01,1.52099e-01,9.42119e-02,2.23073e-01
1.59310e+03,-8.57016e+00,-4.95135e+01,1.53474e-01,9.63390e-02,2.26711e-01
1.59310e+03,-8.18020e+00,-4.70379e+01,1.54527e-01,9.84967e-02,2.30181e-01
1.59310e+03,-7.74040e+00,-4.45622e+01,1.55092e-01,1.00679e-01,2.33372e-01
1.59310e+03,-7.26945e+00,-4.20865e+01,1.55353e-01,1.02880e-01,2.36406e-01
1.59310e+03,-6.76816e+00,-3.96108e+01,1.55317e-01,1.05096e-01,2.39288e-01
1.59310e+03,-6.23665e+00,-3.71351e+01,1.54986e-01,1.07321e-01,2.42021e-01
1.59310e+03,-5.68619e+00,-3.46595e+01,1.54470e-01,1.09552e-01,2.44675e-01
1.59310e+03,-5.11146e+00,-3.21838e+01,1.53716e-01,1.11786e-01,2.47218e-01
1.59310e+03,-4.52119e+00,-2.97081e+01,1.52811e-01,1.14019e-01,2.49704e-01
1.59310e+03,-3.91698e+00,-2.72324e+01,1.51769e-01,1.16248e-01,2.52141e-01
1.59310e+03,-3.30033e+00,-2.47568e+01,1.50606e-01,1.18472e-01,2.54537e-01
1.59310e+03,-2.67841e+00,-2.22811e+01,1.49391e-01,1.20689e-01,2.56934e-01
1.59310e+03,-2.04833e+00,-1.98054e+01,1.48096e-01,1.22897e-01,2.59313e-01
1.59310e+03,-1.41689e+00,-1.73297e+01,1.46788e-01,1.25095e-01,2.61712e-01
1.59310e+03,-7.80581e-01,-1.48541e+01,1.45433e-01,1.27283e-01,2.64109e-01
1.59310e+03,-1.44332e-01,-1.23784e+01,1.44078e-01,1.29460e-01,2.66530e-01
1.59310e+03,4.89512e-01,-9.90271e+00,1.42747e-01,1.31626e-01,2.68986e-01
1.59310e+03,1.12336e+00,-7.42703e+00,1.41416e-01,1.33781e-01,2.71460e-01
1.59310e+03,1.74219e+00,-4.95135e+00,1.40231e-01,1.35926e-01,2.74029e-01
1.59310e+03,2.35823e+00,-2.47568e+00,1.39074e-01,1.38061e-01,2.76630e-01
1.65850e+03,3.04021e+01,0.00000e+00,-9.60120e-02,1.13860e-01,2.19341e-01
1.65850e+03,3.02490e+01,-2.31024e+00,-9.83208e-02,1.12288e-01,2.17928e-01
1.65850e+03,3.00453e+01,-4.62048e+00,-1.00278e-01,1.10678e-01,2.16344e-01
1.65850e+03,2.98396e+01,-6.93072e+00,-1.02222e-01,1.09031e-01,2.14739e-01
1.65850e+03,2.95892e+01,-9.24096e+00,-1.03855e-01,1.07351e-01,2.12976e-01
1.65850e+03,2.93285e+01,-1.15512e+01,-1.05417e-01,1.05640e-01,2.11168e-01
1.65850e+03,2.90335e+01,-1.38614e+01,-1.06740e-01,1.03900e-01,2.09235e-01
1.65850e+03,2.87218e+01,-1.61717e+01,-1.07948e-01,1.02134e-01,2.07237e-01
1.65850e+03,2.83826e+01,-1.84819e+01,-1.08965e-01,1.00344e-01,2.05135e-01
1.65850e+03,2.80208e+01,-2.07921e+01,-1.09825e-01,9.85332e-02,2.02948e-01
1.65850e+03,2.76341e+01,-2.31024e+01,-1.10511e-01,9.67028e-02,2.00667e-01
1.65850e+03,2.72173e+01,-2.54126e+01,-1.10989e-01,9.48559e-02,1.98271e-01
1.65850e+03,2.67696e+01,-2.77229e+01,-1.11253e-01,9.29947e-02,1.95758e-01
1.65850e+03,2.62783e+01,-3.00331e+01,-1.11213e-01,9.11224e-02,1.93076e-01
1.65850e+03,2.57444e+01,-3.23433e+01,-1.10878e-01,8.92427e-02,1.90228e-01
1.65850e+03,2.51597e+01,-3.46536e+01,-1.10190e-01,8.73584e-02,1.87180e-01
1.65850e+03,2.45060e+01,-3.69638e+01,-1.09023e-01,8.54762e-02,1.83860e-01
1.65850e+03,2.38045e+01,-3.92741e+01,-1.07524e-01,8.35973e-02,1.80352e-01
1.65850e+03,2.29951e+01,-4.15843e+01,-1.05276e-01,8.17319e-02,1.76418e-01
1.65850e+03,2.21410e+01,-4.38945e+01,-1.02718e-01,7.98842e-02,1.72323e-01
1.65850e+03,2.11624e+01,-4.62048e+01,-9.92949e-02,7.80590e-02,1.67747e-01
1.65850e+03,2.00840e+01,-4.85150e+01,-9.51790e-02,7.62716e-02,1.62822e-01
1.65850e+03,1.89041e+01,-5.08253e+01,-9.03581e-02,7.45249e-02,1.57564e-01
1.65850e+03,1.75537e+01,-5.31355e+01,-8.43535e-02,7.28255e-02,1.51744e-01
1.65850e+03,1.60058e+01,-5.54457e+01,-7.69779e-02,7.11939e-02,1.45366e-01
1.65850e+03,1.42348e+01,-5.77560e+01,-6.80527e-02,6.96498e-02,1.38508e-01
1.65850e+03,1.21400e+01,-6.00662e+01,-5.68799e-02,6.82060e-02,1.31116e-01
1.65850e+03,9.45122e+00,-6.23764e+01,-4.15826e-02,6.69332e-02,1.23164e-01
1.65850e+03,5.81473e+00,-6.46867e+01,-1.97051e-02,6.61558e-02,1.16267e-01
1.65850e+03,-2.35608e+00,-6.69969e+01,3.36559e-02,6.64642e-02,1.19938e-01
1.65850e+03,-2.94577e+00,-6.70023e+01,3.77425e-02,6.74215e-02,1.22725e-01
1.65850e+03,-8.31828e+00,-6.46093e+01,7.85383e-02,6.92370e-02,1.43351e-01
1.65850e+03,-8.96876e+00,-6.22164e+01,8.65473e-02,7.05781e-02,1.49781e-01
1.65850e+03,-9.19322e+00,-5.98235e+01,9.15984e-02,7.19894e-02,1.54718e-01
1.65850e+03,-9.22728e+00,-5.74305e+01,9.53275e-02,7.34661e-02,1.58994e-01
1.65850e+03,-9.11789e+00,-5.50376e+01,9.80605e-02,7.49966e-02,1.62755e-01
1.65850e+03,-8.91848e+00,-5.26447e+01,1.00168e-01,7.65719e-02,1.66203e-01
1.65850e+03,-8.62868e+00,-5.02517e+01,1.01649e-01,7.81829e-02,1.69323e-01
1.65850e+03,-8.28374e+00,-4.78588e+01,1.02746e-01,7.98217e-02,1.72254e-01
1.65850e+03,-7.90682e+00,-4.54658e+01,1.03622e-01,8.14842e-02,1.75090e-01
1.65850e+03,-7.48171e+00,-4.30729e+01,1.04163e-01,8.31656e-02,1.77762e-01
1.65850e+03,-7.02650e+00,-4.06800e+01,1.04495e-01,8.48614e-02,1.80343e-01
1.65850e+03,-6.54196e+00,-3.82870e+01,1.04623e-01,8.65684e-02,1.82834e-01
1.65850e+03,-6.02822e+00,-3.58941e+01,1.04548e-01,8.82827e-02,1.85235e-01
1.65850e+03,-5.49615e+00,-3.35011e+01,1.04346e-01,9.00017e-02,1.87588e-01
1.65850e+03,-4.94063e+00,-3.11082e+01,1.03982e-01,9.17225e-02,1.89872e-01
1.65850e+03,-4.37009e+00,-2.87153e+01,1.03513e-01,9.34427e-02,1.92119e-01
1.65850e+03,-3.78607e+00,-2.63223e+01,1.02950e-01,9.51604e-02,1.94333e-01
1.65850e+03,-3.19003e+00,-2.39294e+01,1.02304e-01,9.68736e-02,1.96519e-01
1.65850e+03,-2.58890e+00,-2.15364e+01,1.01623e-01,9.85811e-02,1.98701e-01
1.65850e+03,-1.97988e+00,-1.91435e+01,1.00887e-01,1.00282e-01,2.00867e-01
1.65850e+03,-1.36954e+00,-1.67506e+01,1.00142e-01,1.01976e-01,2.03040e-01
1.65850e+03,-7.54494e-01,-1.43576e+01,9.93638e-02,1.03661e-01,2.05207e-01
1.65850e+03,-1.39508e-01,-1.19647e+01,9.85863e-02,1.05338e-01,2.07383e-01
1.65850e+03,4.73153e-01,-9.57176e+00,9.78250e-02,1.07007e-01,2.09574e-01
1.65850e+03,1.08581e+00,-7.17882e+00,9.70636e-02,1.08667e-01,2.11771e-01
1.65850e+03,1.68397e+00,-4.78588e+00,9.64030e-02,1.10319e-01,2.14020e-01
1.65850e+03,2.27942e+00,-2.39294e+00,9.57611e-02,1.11964e-01,2.16282e-01
1.71930e+03,2.94249e+01,0.00000e+00,-6.34583e-02,8.77999e-02,1.64783e-01
1.71930e+03,2.92767e+01,-2.23598e+00,-6.50783e-02,8.66442e-02,1.63575e-01
1.71930e+03,2.90795e+01,-4.47196e+00,-6.64653e-02,8.54603e-02,1.62259e-01
1.71930e+03,2.88804e+01,-6.70794e+00,-6.78430e-02,8.42495e-02,1.60924e-01
1.71930e+03,2.86381e+01,-8.94392e+00,-6.90149e-02,8.30141e-02,1.59490e-01
1.71930e+03,2.83857e+01,-1.11799e+01,-7.01392e-02,8.17558e-02,1.58024e-01
1.71930e+03,2.81002e+01,-1.34159e+01,-7.11055e-02,8.04764e-02,1.56478e-01
1.71930e+03,2.77986e+01,-1.56519e+01,-7.19952e-02,7.91779e-02,1.54889e-01
1.71930e+03,2.74703e+01,-1.78878e+01,-7.27581e-02,7.78618e-02,1.53236e-01
1.71930e+03,2.71201e+01,-2.01238e+01,-7.34167e-02,7.65301e-02,1.51527e-01
1.71930e+03,2.67458e+01,-2.23598e+01,-7.39607e-02,7.51843e-02,1.49761e-01
1.71930e+03,2.63424e+01,-2.45958e+01,-7.43660e-02,7.38263e-02,1.47923e-01
1.71930e+03,2.59091e+01,-2.68317e+01,-7.46292e-02,7.24577e-02,1.46013e-01
1.71930e+03,2.54336e+01,-2.90677e+01,-7.46912e-02,7.10811e-02,1.44001e-01
1.71930e+03,2.49169e+01,-3.13037e+01,-7.45572e-02,6.96990e-02,1.41890e-01
1.71930e+03,2.43509e+01,-3.35397e+01,-7.41890e-02,6.83135e-02,1.39658e-01
1.71930e+03,2.37183e+01,-3.57757e+01,-7.35034e-02,6.69296e-02,1.37264e-01
1.71930e+03,2.30393e+01,-3.80116e+01,-7.25972e-02,6.55481e-02,1.34759e-01
1.71930e+03,2.22560e+01,-4.02476e+01,-7.11942e-02,6.41765e-02,1.32002e-01
1.71930e+03,2.14293e+01,-4.24836e+01,-6.95853e-02,6.28180e-02,1.29153e-01
1.71930e+03,2.04822e+01,-4.47196e+01,-6.74029e-02,6.14761e-02,1.26020e-01
1.71930e+03,1.94385e+01,-4.69556e+01,-6.47607e-02,6.01618e-02,1.22688e-01
1.71930e+03,1.82964e+01,-4.91915e+01,-6.16508e-02,5.88776e-02,1.19166e-01
1.71930e+03,1.69894e+01,-5.14275e+01,-5.77557e-02,5.76282e-02,1.15320e-01
1.71930e+03,1.54913e+01,-5.36635e+01,-5.29510e-02,5.64286e-02,1.11159e-01
1.71930e+03,1.37772e+01,-5.58995e+01,-4.71182e-02,5.52933e-02,1.06734e-01
1.71930e+03,1.17498e+01,-5.81355e+01,-3.97944e-02,5.42318e-02,1.02014e-01
1.71930e+03,9.14742e+00,-6.03714e+01,-2.97344e-02,5.32961e-02,9.69822e-02
1.71930e+03,5.62782e+00,-6.26074e+01,-1.53089e-02,5.27246e-02,9.25960e-02
1.71930e+03,-2.28035e+00,-6.48434e+01,2.00030e-02,5.29515e-02,9.38707e-02
1.71930e+03,-2.85109e+00,-6.48486e+01,2.27139e-02,5.36555e-02,9.56695e-02
1.71930e+03,-8.05090e+00,-6.25326e+01,4.98697e-02,5.49904e-02,1.07512e-01
1.71930e+03,-8.68047e+00,-6.02165e+01,5.52745e-02,5.59766e-02,1.11604e-01
1.71930e+03,-8.89772e+00,-5.79005e+01,5.87169e-02,5.70143e-02,1.14889e-01
1.71930e+03,-8.93068e+00,-5.55845e+01,6.12823e-02,5.81000e-02,1.17823e-01
1.71930e+03,-8.82481e+00,-5.32685e+01,6.31869e-02,5.92254e-02,1.20480e-01
1.71930e+03,-8.63181e+00,-5.09525e+01,6.46768e-02,6.03837e-02,1.22970e-01
1.71930e+03,-8.35132e+00,-4.86364e+01,6.57504e-02,6.15682e-02,1.25280e-01
1.71930e+03,-8.01747e+00,-4.63204e+01,6.65700e-02,6.27732e-02,1.27487e-01
1.71930e+03,-7.65266e+00,-4.40044e+01,6.72423e-02,6.39955e-02,1.29645e-01
1.71930e+03,-7.24122e+00,-4.16884e+01,6.76926e-02,6.52318e-02,1.31711e-01
1.71930e+03,-6.80064e+00,-3.93724e+01,6.80043e-02,6.64786e-02,1.33727e-01
1.71930e+03,-6.33168e+00,-3.70563e+01,6.81809e-02,6.77337e-02,1.35692e-01
1.71930e+03,-5.83445e+00,-3.47403e+01,6.82229e-02,6.89941e-02,1.37604e-01
1.71930e+03,-5.31949e+00,-3.24243e+01,6.81805e-02,7.02579e-02,1.39489e-01
1.71930e+03,-4.78182e+00,-3.01083e+01,6.80301e-02,7.15232e-02,1.41332e-01
1.71930e+03,-4.22962e+00,-2.77922e+01,6.78105e-02,7.27879e-02,1.43152e-01
1.71930e+03,-3.66437e+00,-2.54762e+01,6.75289e-02,7.40508e-02,1.44951e-01
1.71930e+03,-3.08749e+00,-2.31602e+01,6.71918e-02,7.53103e-02,1.46730e-01
1.71930e+03,-2.50568e+00,-2.08442e+01,6.68313e-02,7.65658e-02,1.48504e-01
1.71930e+03,-1.91624e+00,-1.85282e+01,6.64345e-02,7.78163e-02,1.50265e-01
1.71930e+03,-1.32552e+00,-1.62121e+01,6.60316e-02,7.90613e-02,1.52027e-01
1.71930e+03,-7.30242e-01,-1.38961e+01,6.56070e-02,8.03007e-02,1.53782e-01
1.71930e+03,-1.35024e-01,-1.15801e+01,6.51827e-02,8.15337e-02,1.55538e-01
1.71930e+03,4.57944e-01,-9.26408e+00,6.47691e-02,8.27607e-02,1.57299e-01
1.71930e+03,1.05091e+00,-6.94806e+00,6.43555e-02,8.39810e-02,1.59060e-01
1.71930e+03,1.62984e+00,-4.63204e+00,6.40087e-02,8.51955e-02,1.60848e-01
1.71930e+03,2.20615e+00,-2.31602e+00,6.36744e-02,8.64048e-02,1.62640e-01
1.77540e+03,2.77303e+01,0.00000e+00,-7.33630e-02,7.86271e-02,1.54689e-01
1.77540e+03,2.75906e+01,-2.10721e+00,-7.53415e-02,7.72267e-02,1.53519e-01
1.77540e+03,2.74048e+01,-4.21442e+00,-7.70492e-02,7.57919e-02,1.52216e-01
1.77540e+03,2.72172e+01,-6.32163e+00,-7.87460e-02,7.43242e-02,1.50908e-01
1.77540e+03,2.69888e+01,-8.42884e+00,-8.02038e-02,7.28264e-02,1.49478e-01
1.77540e+03,2.67510e+01,-1.05361e+01,-8.16061e-02,7.13005e-02,1.48023e-01
1.77540e+03,2.64819e+01,-1.26433e+01,-8.28249e-02,6.97490e-02,1.46474e-01
1.77540e+03,2.61977e+01,-1.47505e+01,-8.39546e-02,6.81739e-02,1.44884e-01
1.77540e+03,2.58883e+01,-1.68577e+01,-8.49369e-02,6.65772e-02,1.43220e-01
1.77540e+03,2.55583e+01,-1.89649e+01,-8.57981e-02,6.49614e-02,1.41496e-01
1.77540e+03,2.52056e+01,-2.10721e+01,-8.65260e-02,6.33282e-02,1.39707e-01
1.77540e+03,2.48254e+01,-2.31793e+01,-8.70927e-02,6.16800e-02,1.37835e-01
1.77540e+03,2.44171e+01,-2.52865e+01,-8.74943e-02,6.00189e-02,1.35875e-01
1.77540e+03,2.39689e+01,-2.73937e+01,-8.76621e-02,5.83476e-02,1.33783e-01
1.77540e+03,2.34819e+01,-2.95009e+01,-8.76021e-02,5.66697e-02,1.31562e-01
1.77540e+03,2.29486e+01,-3.16082e+01,-8.72699e-02,5.49873e-02,1.29178e-01
1.77540e+03,2.23524e+01,-3.37154e+01,-8.65688e-02,5.33066e-02,1.26566e-01
1.77540e+03,2.17125e+01,-3.58226e+01,-8.56113e-02,5.16287e-02,1.23798e-01
1.77540e+03,2.09743e+01,-3.79298e+01,-8.40764e-02,4.99626e-02,1.20655e-01
1.77540e+03,2.01952e+01,-4.00370e+01,-8.23022e-02,4.83122e-02,1.17371e-01
1.77540e+03,1.93026e+01,-4.21442e+01,-7.98615e-02,4.66817e-02,1.13646e-01
1.77540e+03,1.83190e+01,-4.42514e+01,-7.68864e-02,4.50846e-02,1.09587e-01
1.77540e+03,1.72428e+01,-4.63586e+01,-7.33677e-02,4.35238e-02,1.05194e-01
1.77540e+03,1.60110e+01,-4.84658e+01,-6.89364e-02,4.20049e-02,1.00227e-01
1.77540e+03,1.45992e+01,-5.05731e+01,-6.34480e-02,4.05464e-02,9.46450e-02
1.77540e+03,1.29838e+01,-5.26803e+01,-5.67648e-02,3.91657e-02,8.84539e-02
1.77540e+03,1.10731e+01,-5.47875e+01,-4.83487e-02,3.78742e-02,8.14921e-02
1.77540e+03,8.62063e+00,-5.68947e+01,-3.67525e-02,3.67348e-02,7.34784e-02
1.77540e+03,5.30372e+00,-5.90019e+01,-2.00827e-02,3.60359e-02,6.55673e-02
1.77540e+03,-2.14903e+00,-6.11091e+01,2.08616e-02,3.63081e-02,6.62574e-02
1.77540e+03,-2.68689e+00,-6.11140e+01,2.40120e-02,3.71610e-02,6.86978e-02
1.77540e+03,-7.58725e+00,-5.89314e+01,5.56720e-02,3.87799e-02,8.72412e-02
1.77540e+03,-8.18057e+00,-5.67487e+01,6.20527e-02,3.99766e-02,9.29781e-02
1.77540e+03,-8.38530e+00,-5.45661e+01,6.61527e-02,4.12362e-02,9.73522e-02
1.77540e+03,-8.41637e+00,-5.23834e+01,6.92333e-02,4.25544e-02,1.01123e-01
1.77540e+03,-8.31659e+00,-5.02008e+01,7.15460e-02,4.39209e-02,1.04432e-01
1.77540e+03,-8.13471e+00,-4.80181e+01,7.33768e-02,4.53277e-02,1.07461e-01
1.77540e+03,-7.87037e+00,-4.58355e+01,7.47236e-02,4.67665e-02,1.10204e-01
1.77540e+03,-7.55575e+00,-4.36529e+01,7.57753e-02,4.82304e-02,1.12785e-01
1.77540e+03,-7.21195e+00,-4.14702e+01,7.66558e-02,4.97156e-02,1.15287e-01
1.77540e+03,-6.82421e+00,-3.92876e+01,7.72783e-02,5.12180e-02,1.17651e-01
1.77540e+03,-6.40900e+00,-3.71049e+01,7.77396e-02,5.27334e-02,1.19941e-01
1.77540e+03,-5.96704e+00,-3.49223e+01,7.80440e-02,5.42591e-02,1.22160e-01
1.77540e+03,-5.49844e+00,-3.27396e+01,7.81919e-02,5.57915e-02,1.24306e-01
1.77540e+03,-5.01314e+00,-3.05570e+01,7.82419e-02,5.73282e-02,1.26417e-01
1.77540e+03,-4.50644e+00,-2.83744e+01,7.81662e-02,5.88669e-02,1.28475e-01
1.77540e+03,-3.98604e+00,-2.61917e+01,7.80101e-02,6.04052e-02,1.30506e-01
1.77540e+03,-3.45334e+00,-2.40091e+01,7.77819e-02,6.19414e-02,1.32515e-01
1.77540e+03,-2.90969e+00,-2.18264e+01,7.74893e-02,6.34739e-02,1.34504e-01
1.77540e+03,-2.36138e+00,-1.96438e+01,7.71694e-02,6.50016e-02,1.36494e-01
1.77540e+03,-1.80588e+00,-1.74611e+01,7.68073e-02,6.65234e-02,1.38476e-01
1.77540e+03,-1.24918e+00,-1.52785e+01,7.64382e-02,6.80390e-02,1.40466e-01
1.77540e+03,-6.88187e-01,-1.30959e+01,7.60439e-02,6.95478e-02,1.42455e-01
1.77540e+03,-1.27248e-01,-1.09132e+01,7.56499e-02,7.10491e-02,1.44454e-01
1.77540e+03,4.31571e-01,-8.73057e+00,7.52683e-02,7.25433e-02,1.46468e-01
1.77540e+03,9.90390e-01,-6.54793e+00,7.48867e-02,7.40297e-02,1.48490e-01
1.77540e+03,1.53598e+00,-4.36529e+00,7.45828e-02,7.55092e-02,1.50557e-01
1.77540e+03,2.07910e+00,-2.18264e+00,7.42934e-02,7.69826e-02,1.52638e-01
1.82660e+03,2.53092e+01,0.00000e+00,-5.16598e-02,5.64489e-02,1.10581e-01
1.82660e+03,2.51817e+01,-1.92323e+00,-5.30571e-02,5.55125e-02,1.09818e-01
1.82660e+03,2.50121e+01,-3.84646e+00,-5.42638e-02,5.45531e-02,1.08962e-01
1.82660e+03,2.48409e+01,-5.76969e+00,-5.54628e-02,5.35718e-02,1.08101e-01
1.82660e+03,2.46324e+01,-7.69292e+00,-5.64934e-02,5.25704e-02,1.07156e-01
1.82660e+03,2.44154e+01,-9.61614e+00,-5.74850e-02,5.15502e-02,1.06192e-01
1.82660e+03,2.41698e+01,-1.15394e+01,-5.83474e-02,5.05129e-02,1.05162e-01
1.82660e+03,2.39103e+01,-1.34626e+01,-5.91470e-02,4.94599e-02,1.04102e-01
1.82660e+03,2.36280e+01,-1.53858e+01,-5.98429e-02,4.83926e-02,1.02989e-01
1.82660e+03,2.33268e+01,-1.73091e+01,-6.04534e-02,4.73124e-02,1.01833e-01
1.82660e+03,2.30049e+01,-1.92323e+01,-6.09701e-02,4.62206e-02,1.00630e-01
1.82660e+03,2.26579e+01,-2.11555e+01,-6.13733e-02,4.51188e-02,9.93671e-02
1.82660e+03,2.22852e+01,-2.30787e+01,-6.16603e-02,4.40084e-02,9.80419e-02
1.82660e+03,2.18762e+01,-2.50020e+01,-6.17825e-02,4.28913e-02,9.66234e-02
1.82660e+03,2.14317e+01,-2.69252e+01,-6.17444e-02,4.17697e-02,9.51131e-02
1.82660e+03,2.09449e+01,-2.88484e+01,-6.15146e-02,4.06452e-02,9.34887e-02
1.82660e+03,2.04008e+01,-3.07717e+01,-6.10251e-02,3.95218e-02,9.17060e-02
1.82660e+03,1.98168e+01,-3.26949e+01,-6.03549e-02,3.84004e-02,8.98136e-02
1.82660e+03,1.91430e+01,-3.46181e+01,-5.92782e-02,3.72868e-02,8.76631e-02
1.82660e+03,1.84320e+01,-3.65413e+01,-5.80331e-02,3.61837e-02,8.54144e-02
1.82660e+03,1.76173e+01,-3.84646e+01,-5.63185e-02,3.50940e-02,8.28645e-02
1.82660e+03,1.67196e+01,-4.03878e+01,-5.42277e-02,3.40266e-02,8.00879e-02
1.82660e+03,1.57373e+01,-4.23110e+01,-5.17540e-02,3.29835e-02,7.70858e-02
1.82660e+03,1.46131e+01,-4.42343e+01,-4.86378e-02,3.19685e-02,7.36993e-02
1.82660e+03,1.33245e+01,-4.61575e+01,-4.47771e-02,3.09938e-02,6.99059e-02
1.82660e+03,1.18502e+01,-4.80807e+01,-4.00752e-02,3.00712e-02,6.57179e-02
1.82660e+03,1.01063e+01,-5.00040e+01,-3.41529e-02,2.92082e-02,6.10392e-02
1.82660e+03,7.86795e+00,-5.19272e+01,-2.59913e-02,2.84470e-02,5.57067e-02
1.82660e+03,4.84065e+00,-5.38504e+01,-1.42571e-02,2.79804e-02,5.05170e-02
1.82660e+03,-1.96139e+00,-5.57736e+01,1.45706e-02,2.81627e-02,5.09089e-02
1.82660e+03,-2.45230e+00,-5.57781e+01,1.67890e-02,2.87329e-02,5.25225e-02
1.82660e+03,-6.92480e+00,-5.37860e+01,3.90873e-02,2.98153e-02,6.47663e-02
1.82660e+03,-7.46632e+00,-5.17940e+01,4.35847e-02,3.06152e-02,6.86404e-02
1.82660e+03,-7.65318e+00,-4.98019e+01,4.64761e-02,3.14572e-02,7.16148e-02
1.82660e+03,-7.68153e+00,-4.78098e+01,4.86496e-02,3.23383e-02,7.41895e-02
1.82660e+03,-7.59047e+00,-4.58177e+01,5.02824e-02,3.32516e-02,7.64548e-02
1.82660e+03,-7.42446e+00,-4.38257e+01,5.15759e-02,3.41919e-02,7.85323e-02
1.82660e+03,-7.18321e+00,-4.18336e+01,5.25286e-02,3.51535e-02,8.04150e-02
1.82660e+03,-6.89605e+00,-3.98415e+01,5.32734e-02,3.61319e-02,8.21864e-02
1.82660e+03,-6.58227e+00,-3.78494e+01,5.38977e-02,3.71245e-02,8.39026e-02
1.82660e+03,-6.22838e+00,-3.58574e+01,5.43403e-02,3.81285e-02,8.55233e-02
1.82660e+03,-5.84943e+00,-3.38653e+01,5.46695e-02,3.91413e-02,8.70912e-02
1.82660e+03,-5.44606e+00,-3.18732e+01,5.48881e-02,4.01608e-02,8.86080e-02
1.82660e+03,-5.01837e+00,-2.98811e+01,5.49965e-02,4.11849e-02,9.00733e-02
1.82660e+03,-4.57544e+00,-2.78891e+01,5.50360e-02,4.22118e-02,9.15120e-02
1.82660e+03,-4.11298e+00,-2.58970e+01,5.49870e-02,4.32399e-02,9.29120e-02
1.82660e+03,-3.63801e+00,-2.39049e+01,5.48813e-02,4.42678e-02,9.42915e-02
1.82660e+03,-3.15183e+00,-2.19128e+01,5.47249e-02,4.52943e-02,9.56532e-02
1.82660e+03,-2.65564e+00,-1.99208e+01,5.45232e-02,4.63183e-02,9.69996e-02
1.82660e+03,-2.15521e+00,-1.79287e+01,5.43022e-02,4.73390e-02,9.83446e-02
1.82660e+03,-1.64821e+00,-1.59366e+01,5.40515e-02,4.83558e-02,9.96816e-02
1.82660e+03,-1.14012e+00,-1.39445e+01,5.37959e-02,4.93684e-02,1.01023e-01
1.82660e+03,-6.28101e-01,-1.19525e+01,5.35225e-02,5.03764e-02,1.02362e-01
1.82660e+03,-1.16138e-01,-9.96038e+00,5.32493e-02,5.13794e-02,1.03706e-01
1.82660e+03,3.93890e-01,-7.96830e+00,5.29849e-02,5.23776e-02,1.05060e-01
1.82660e+03,9.03919e-01,-5.97623e+00,5.27205e-02,5.33706e-02,1.06418e-01
1.82660e+03,1.40187e+00,-3.98415e+00,5.25107e-02,5.43589e-02,1.07806e-01
1.82660e+03,1.89757e+00,-1.99208e+00,5.23112e-02,5.53431e-02,1.09202e-01
1.87280e+03,2.31244e+01,0.00000e+00,-3.74064e-02,3.94571e-02,7.79091e-02
1.87280e+03,2.30080e+01,-1.75721e+00,-3.84073e-02,3.88163e-02,7.74289e-02
1.87280e+03,2.28531e+01,-3.51443e+00,-3.92703e-02,3.81598e-02,7.68810e-02
1.87280e+03,2.26966e+01,-5.27164e+00,-4.01278e-02,3.74884e-02,7.63307e-02
1.87280e+03,2.25061e+01,-7.02886e+00,-4.08636e-02,3.68032e-02,7.57183e-02
1.87280e+03,2.23078e+01,-8.78607e+00,-4.15711e-02,3.61052e-02,7.50927e-02
1.87280e+03,2.20834e+01,-1.05433e+01,-4.21852e-02,3.53955e-02,7.44184e-02
1.87280e+03,2.18464e+01,-1.23005e+01,-4.27539e-02,3.46750e-02,7.37222e-02
1.87280e+03,2.15884e+01,-1.40577e+01,-4.32475e-02,3.39447e-02,7.29869e-02
1.87280e+03,2.13132e+01,-1.58149e+01,-4.36795e-02,3.32057e-02,7.22202e-02
1.87280e+03,2.10191e+01,-1.75721e+01,-4.40436e-02,3.24588e-02,7.14182e-02
1.87280e+03,2.07020e+01,-1.93294e+01,-4.43256e-02,3.17051e-02,7.05719e-02
1.87280e+03,2.03615e+01,-2.10866e+01,-4.45235e-02,3.09455e-02,6.96793e-02
1.87280e+03,1.99878e+01,-2.28438e+01,-4.46024e-02,3.01813e-02,6.87175e-02
1.87280e+03,1.95817e+01,-2.46010e+01,-4.45652e-02,2.94140e-02,6.76876e-02
1.87280e+03,1.91369e+01,-2.63582e+01,-4.43894e-02,2.86448e-02,6.65732e-02
1.87280e+03,1.86398e+01,-2.81154e+01,-4.40258e-02,2.78763e-02,6.53417e-02
1.87280e+03,1.81062e+01,-2.98726e+01,-4.35317e-02,2.71092e-02,6.40291e-02
1.87280e+03,1.74905e+01,-3.16299e+01,-4.27435e-02,2.63475e-02,6.25266e-02
1.87280e+03,1.68409e+01,-3.33871e+01,-4.18334e-02,2.55930e-02,6.09511e-02
1.87280e+03,1.60966e+01,-3.51443e+01,-4.05839e-02,2.48476e-02,5.91546e-02
1.87280e+03,1.52763e+01,-3.69015e+01,-3.90623e-02,2.41176e-02,5.71912e-02
1.87280e+03,1.43788e+01,-3.86587e+01,-3.72639e-02,2.34041e-02,5.50623e-02
1.87280e+03,1.33517e+01,-4.04159e+01,-3.50008e-02,2.27099e-02,5.26523e-02
1.87280e+03,1.21743e+01,-4.21731e+01,-3.21993e-02,2.20433e-02,4.99451e-02
1.87280e+03,1.08272e+01,-4.39304e+01,-2.87894e-02,2.14123e-02,4.69498e-02
1.87280e+03,9.23393e+00,-4.56876e+01,-2.44970e-02,2.08221e-02,4.35981e-02
1.87280e+03,7.18879e+00,-4.74448e+01,-1.85853e-02,2.03016e-02,3.97729e-02
1.87280e+03,4.42280e+00,-4.92020e+01,-1.00899e-02,1.99828e-02,3.60519e-02
1.87280e+03,-1.79208e+00,-5.09592e+01,1.07669e-02,2.01077e-02,3.64539e-02
1.87280e+03,-2.24062e+00,-5.09633e+01,1.23712e-02,2.04980e-02,3.75972e-02
1.87280e+03,-6.32705e+00,-4.91432e+01,2.84867e-02,2.12385e-02,4.65264e-02
1.87280e+03,-6.82182e+00,-4.73231e+01,3.17291e-02,2.17857e-02,4.93010e-02
1.87280e+03,-6.99255e+00,-4.55029e+01,3.38101e-02,2.23617e-02,5.14127e-02
1.87280e+03,-7.01846e+00,-4.36828e+01,3.53721e-02,2.29644e-02,5.32286e-02
1.87280e+03,-6.93525e+00,-4.18627e+01,3.65429e-02,2.35892e-02,5.48155e-02
1.87280e+03,-6.78358e+00,-4.00426e+01,3.74684e-02,2.42324e-02,5.62628e-02
1.87280e+03,-6.56315e+00,-3.82225e+01,3.81474e-02,2.48902e-02,5.75655e-02
1.87280e+03,-6.30078e+00,-3.64024e+01,3.86762e-02,2.55594e-02,5.87851e-02
1.87280e+03,-6.01408e+00,-3.45822e+01,3.91177e-02,2.62383e-02,5.99628e-02
1.87280e+03,-5.69074e+00,-3.27621e+01,3.94279e-02,2.69250e-02,6.10690e-02
1.87280e+03,-5.34450e+00,-3.09420e+01,3.96560e-02,2.76177e-02,6.21354e-02
1.87280e+03,-4.97595e+00,-2.91219e+01,3.98042e-02,2.83149e-02,6.31631e-02
1.87280e+03,-4.58518e+00,-2.73018e+01,3.98727e-02,2.90153e-02,6.41521e-02
1.87280e+03,-4.18049e+00,-2.54816e+01,3.98913e-02,2.97176e-02,6.51208e-02
1.87280e+03,-3.75794e+00,-2.36615e+01,3.98459e-02,3.04207e-02,6.60603e-02
1.87280e+03,-3.32398e+00,-2.18414e+01,3.97596e-02,3.11237e-02,6.69842e-02
1.87280e+03,-2.87976e+00,-2.00213e+01,3.96366e-02,3.18257e-02,6.78946e-02
1.87280e+03,-2.42640e+00,-1.82012e+01,3.94807e-02,3.25259e-02,6.87934e-02
1.87280e+03,-1.96917e+00,-1.63811e+01,3.93110e-02,3.32239e-02,6.96910e-02
1.87280e+03,-1.50594e+00,-1.45609e+01,3.91198e-02,3.39192e-02,7.05825e-02
1.87280e+03,-1.04170e+00,-1.27408e+01,3.89250e-02,3.46115e-02,7.14775e-02
1.87280e+03,-5.73883e-01,-1.09207e+01,3.87174e-02,3.53008e-02,7.23704e-02
1.87280e+03,-1.06113e-01,-9.10059e+00,3.85099e-02,3.59866e-02,7.32675e-02
1.87280e+03,3.59890e-01,-7.28047e+00,3.83088e-02,3.66691e-02,7.41716e-02
1.87280e+03,8.25892e-01,-5.46035e+00,3.81077e-02,3.73480e-02,7.50787e-02
1.87280e+03,1.28086e+00,-3.64024e+00,3.79461e-02,3.80237e-02,7.60087e-02
1.87280e+03,1.73377e+00,-1.82012e+00,3.77919e-02,3.86966e-02,7.69449e-02
1.91380e+03,2.11856e+01,0.00000e+00,-2.54775e-02,4.46243e-02,8.13823e-02
1.91380e+03,2.10789e+01,-1.60989e+00,-2.61521e-02,4.39701e-02,8.05236e-02
1.91380e+03,2.09370e+01,-3.21977e+00,-2.67329e-02,4.32999e-02,7.96197e-02
1.91380e+03,2.07936e+01,-4.82966e+00,-2.73100e-02,4.26144e-02,7.87007e-02
1.91380e+03,2.06192e+01,-6.43954e+00,-2.78042e-02,4.19150e-02,7.77410e-02
1.91380e+03,2.04375e+01,-8.04943e+00,-2.82792e-02,4.12024e-02,7.67635e-02
1.91380e+03,2.02319e+01,-9.65931e+00,-2.86906e-02,4.04780e-02,7.57532e-02
1.91380e+03,2.00147e+01,-1.12692e+01,-2.90712e-02,3.97426e-02,7.47232e-02
1.91380e+03,1.97784e+01,-1.28791e+01,-2.94007e-02,3.89972e-02,7.36664e-02
1.91380e+03,1.95262e+01,-1.44890e+01,-2.96883e-02,3.82428e-02,7.25874e-02
1.91380e+03,1.92568e+01,-1.60989e+01,-2.99296e-02,3.74805e-02,7.14853e-02
1.91380e+03,1.89663e+01,-1.77087e+01,-3.01152e-02,3.67112e-02,7.03566e-02
1.91380e+03,1.86544e+01,-1.93186e+01,-3.02435e-02,3.59358e-02,6.92013e-02
1.91380e+03,1.83120e+01,-2.09285e+01,-3.02908e-02,3.51558e-02,6.80098e-02
1.91380e+03,1.79399e+01,-2.25384e+01,-3.02592e-02,3.43727e-02,6.67838e-02
1.91380e+03,1.75325e+01,-2.41483e+01,-3.01332e-02,3.35877e-02,6.55165e-02
1.91380e+03,1.70770e+01,-2.57582e+01,-2.98795e-02,3.28034e-02,6.41948e-02
1.91380e+03,1.65881e+01,-2.73680e+01,-2.95370e-02,3.20205e-02,6.28360e-02
1.91380e+03,1.60241e+01,-2.89779e+01,-2.89944e-02,3.12431e-02,6.13928e-02
1.91380e+03,1.54289e+01,-3.05878e+01,-2.83689e-02,3.04731e-02,5.99219e-02
1.91380e+03,1.47470e+01,-3.21977e+01,-2.75125e-02,2.97124e-02,5.83560e-02
1.91380e+03,1.39955e+01,-3.38076e+01,-2.64709e-02,2.89675e-02,5.67279e-02
1.91380e+03,1.31733e+01,-3.54175e+01,-2.52410e-02,2.82394e-02,5.50409e-02
1.91380e+03,1.22322e+01,-3.70274e+01,-2.36950e-02,2.75310e-02,5.32477e-02
1.91380e+03,1.11536e+01,-3.86372e+01,-2.17827e-02,2.68507e-02,5.13554e-02
1.91380e+03,9.91946e+00,-4.02471e+01,-1.94564e-02,2.62069e-02,4.93858e-02
1.91380e+03,8.45973e+00,-4.18570e+01,-1.65298e-02,2.56048e-02,4.73292e-02
1.91380e+03,6.58606e+00,-4.34669e+01,-1.25014e-02,2.50738e-02,4.51925e-02
1.91380e+03,4.05198e+00,-4.50768e+01,-6.71524e-03,2.47487e-02,4.33888e-02
1.91380e+03,-1.64183e+00,-4.66867e+01,7.48093e-03,2.48764e-02,4.37318e-02
1.91380e+03,-2.05276e+00,-4.66904e+01,8.57244e-03,2.52748e-02,4.46087e-02
1.91380e+03,-5.79657e+00,-4.50229e+01,1.95300e-02,2.60307e-02,4.91346e-02
1.91380e+03,-6.24986e+00,-4.33554e+01,2.17294e-02,2.65893e-02,5.09228e-02
1.91380e+03,-6.40628e+00,-4.16879e+01,2.31387e-02,2.71771e-02,5.24517e-02
1.91380e+03,-6.43001e+00,-4.00204e+01,2.41948e-02,2.77923e-02,5.38760e-02
1.91380e+03,-6.35378e+00,-3.83528e+01,2.49848e-02,2.84299e-02,5.52180e-02
1.91380e+03,-6.21483e+00,-3.66853e+01,2.56079e-02,2.90863e-02,5.65137e-02
1.91380e+03,-6.01288e+00,-3.50178e+01,2.60633e-02,2.97576e-02,5.77567e-02
1.91380e+03,-5.77251e+00,-3.33503e+01,2.64164e-02,3.04405e-02,5.89721e-02
1.91380e+03,-5.50985e+00,-3.16828e+01,2.67103e-02,3.11334e-02,6.01772e-02
1.91380e+03,-5.21362e+00,-3.00153e+01,2.69147e-02,3.18342e-02,6.13567e-02
1.91380e+03,-4.89640e+00,-2.83477e+01,2.70633e-02,3.25410e-02,6.25234e-02
1.91380e+03,-4.55876e+00,-2.66802e+01,2.71576e-02,3.32525e-02,6.36767e-02
1.91380e+03,-4.20075e+00,-2.50127e+01,2.71976e-02,3.39672e-02,6.48153e-02
1.91380e+03,-3.82998e+00,-2.33452e+01,2.72037e-02,3.46838e-02,6.59465e-02
1.91380e+03,-3.44287e+00,-2.16777e+01,2.71663e-02,3.54013e-02,6.70653e-02
1.91380e+03,-3.04529e+00,-2.00102e+01,2.71010e-02,3.61185e-02,6.81770e-02
1.91380e+03,-2.63832e+00,-1.83427e+01,2.70107e-02,3.68348e-02,6.92819e-02
1.91380e+03,-2.22297e+00,-1.66751e+01,2.68982e-02,3.75492e-02,7.03799e-02
1.91380e+03,-1.80407e+00,-1.50076e+01,2.67761e-02,3.82613e-02,7.14755e-02
1.91380e+03,-1.37967e+00,-1.33401e+01,2.66395e-02,3.89707e-02,7.25659e-02
1.91380e+03,-9.54362e-01,-1.16726e+01,2.65004e-02,3.96771e-02,7.36552e-02
1.91380e+03,-5.25768e-01,-1.00051e+01,2.63526e-02,4.03803e-02,7.47406e-02
1.91380e+03,-9.72161e-02,-8.33757e+00,2.62048e-02,4.10799e-02,7.58246e-02
1.91380e+03,3.29716e-01,-6.67006e+00,2.60614e-02,4.17762e-02,7.69087e-02
1.91380e+03,7.56647e-01,-5.00254e+00,2.59180e-02,4.24688e-02,7.79906e-02
1.91380e+03,1.17347e+00,-3.33503e+00,2.58015e-02,4.31581e-02,7.90796e-02
1.91380e+03,1.58841e+00,-1.66751e+00,2.56901e-02,4.38445e-02,8.01686e-02
1.94970e+03,1.94880e+01,0.00000e+00,-1.45145e-02,3.52454e-02,6.27486e-02
1.94970e+03,1.93899e+01,-1.48088e+00,-1.48986e-02,3.47501e-02,6.20055e-02
1.94970e+03,1.92593e+01,-2.96177e+00,-1.52292e-02,3.42428e-02,6.12342e-02
1.94970e+03,1.91274e+01,-4.44265e+00,-1.55577e-02,3.37238e-02,6.04477e-02
1.94970e+03,1.89669e+01,-5.92353e+00,-1.58390e-02,3.31943e-02,5.96360e-02
1.94970e+03,1.87998e+01,-7.40441e+00,-1.61094e-02,3.26549e-02,5.88093e-02
1.94970e+03,1.86107e+01,-8.88530e+00,-1.63436e-02,3.21065e-02,5.79620e-02
1.94970e+03,1.84109e+01,-1.03662e+01,-1.65602e-02,3.15498e-02,5.70999e-02
1.94970e+03,1.81935e+01,-1.18471e+01,-1.67477e-02,3.09855e-02,5.62209e-02
1.94970e+03,1.79616e+01,-1.33279e+01,-1.69113e-02,3.04145e-02,5.53274e-02
1.94970e+03,1.77137e+01,-1.48088e+01,-1.70486e-02,2.98375e-02,5.44195e-02
1.94970e+03,1.74465e+01,-1.62897e+01,-1.71541e-02,2.92551e-02,5.34963e-02
1.94970e+03,1.71596e+01,-1.77706e+01,-1.72270e-02,2.86683e-02,5.25583e-02
1.94970e+03,1.68446e+01,-1.92515e+01,-1.72538e-02,2.80779e-02,5.16023e-02
1.94970e+03,1.65024e+01,-2.07324e+01,-1.72356e-02,2.74852e-02,5.06298e-02
1.94970e+03,1.61276e+01,-2.22132e+01,-1.71637e-02,2.68910e-02,4.96384e-02
1.94970e+03,1.57086e+01,-2.36941e+01,-1.70190e-02,2.62974e-02,4.86241e-02
1.94970e+03,1.52589e+01,-2.51750e+01,-1.68237e-02,2.57048e-02,4.75947e-02
1.94970e+03,1.47401e+01,-2.66559e+01,-1.65144e-02,2.51165e-02,4.65322e-02
1.94970e+03,1.41926e+01,-2.81368e+01,-1.61580e-02,2.45337e-02,4.54620e-02
1.94970e+03,1.35653e+01,-2.96177e+01,-1.56700e-02,2.39580e-02,4.43566e-02
1.94970e+03,1.28740e+01,-3.10985e+01,-1.50766e-02,2.33942e-02,4.32339e-02
1.94970e+03,1.21177e+01,-3.25794e+01,-1.43759e-02,2.28432e-02,4.20964e-02
1.94970e+03,1.12521e+01,-3.40603e+01,-1.34951e-02,2.23071e-02,4.09260e-02
1.94970e+03,1.02599e+01,-3.55412e+01,-1.24057e-02,2.17924e-02,3.97319e-02
1.94970e+03,9.12460e+00,-3.70221e+01,-1.10805e-02,2.13051e-02,3.85293e-02
1.94970e+03,7.78184e+00,-3.85029e+01,-9.41333e-03,2.08495e-02,3.73191e-02
1.94970e+03,6.05831e+00,-3.99838e+01,-7.11863e-03,2.04477e-02,3.61248e-02
1.94970e+03,3.72729e+00,-4.14647e+01,-3.82273e-03,2.02019e-02,3.51989e-02
1.94970e+03,-1.51027e+00,-4.29456e+01,4.26340e-03,2.02987e-02,3.54160e-02
1.94970e+03,-1.88827e+00,-4.29490e+01,4.88511e-03,2.06004e-02,3.60137e-02
1.94970e+03,-5.33209e+00,-4.14151e+01,1.11262e-02,2.11726e-02,3.83226e-02
1.94970e+03,-5.74905e+00,-3.98812e+01,1.23788e-02,2.15954e-02,3.93994e-02
1.94970e+03,-5.89293e+00,-3.83473e+01,1.31813e-02,2.20403e-02,4.03866e-02
1.94970e+03,-5.91477e+00,-3.68135e+01,1.37826e-02,2.25059e-02,4.13463e-02
1.94970e+03,-5.84465e+00,-3.52796e+01,1.42324e-02,2.29886e-02,4.22846e-02
1.94970e+03,-5.71682e+00,-3.37457e+01,1.45871e-02,2.34853e-02,4.32142e-02
1.94970e+03,-5.53106e+00,-3.22118e+01,1.48464e-02,2.39934e-02,4.41301e-02
1.94970e+03,-5.30995e+00,-3.06779e+01,1.50473e-02,2.45103e-02,4.50409e-02
1.94970e+03,-5.06834e+00,-2.91440e+01,1.52145e-02,2.50346e-02,4.59530e-02
1.94970e+03,-4.79584e+00,-2.76101e+01,1.53308e-02,2.55650e-02,4.68587e-02
1.94970e+03,-4.50405e+00,-2.60762e+01,1.54152e-02,2.60999e-02,4.77624e-02
1.94970e+03,-4.19345e+00,-2.45423e+01,1.54687e-02,2.66384e-02,4.86630e-02
1.94970e+03,-3.86414e+00,-2.30084e+01,1.54913e-02,2.71792e-02,4.95591e-02
1.94970e+03,-3.52308e+00,-2.14745e+01,1.54946e-02,2.77215e-02,5.04532e-02
1.94970e+03,-3.16699e+00,-1.99406e+01,1.54731e-02,2.82644e-02,5.13425e-02
1.94970e+03,-2.80126e+00,-1.84067e+01,1.54358e-02,2.88071e-02,5.22285e-02
1.94970e+03,-2.42690e+00,-1.68728e+01,1.53841e-02,2.93491e-02,5.31111e-02
1.94970e+03,-2.04484e+00,-1.53389e+01,1.53198e-02,2.98897e-02,5.39897e-02
1.94970e+03,-1.65951e+00,-1.38050e+01,1.52501e-02,3.04286e-02,5.48659e-02
1.94970e+03,-1.26912e+00,-1.22712e+01,1.51721e-02,3.09653e-02,5.57382e-02
1.94970e+03,-8.77888e-01,-1.07373e+01,1.50927e-02,3.14998e-02,5.66084e-02
1.94970e+03,-4.83637e-01,-9.20336e+00,1.50083e-02,3.20318e-02,5.74749e-02
1.94970e+03,-8.94260e-02,-7.66947e+00,1.49240e-02,3.25612e-02,5.83389e-02
1.94970e+03,3.03295e-01,-6.13558e+00,1.48421e-02,3.30880e-02,5.92008e-02
1.94970e+03,6.96016e-01,-4.60168e+00,1.47603e-02,3.36120e-02,6.00597e-02
1.94970e+03,1.07944e+00,-3.06779e+00,1.46937e-02,3.41335e-02,6.09196e-02
1.94970e+03,1.46113e+00,-1.53389e+00,1.46300e-02,3.46528e-02,6.17778e-02
1.98010e+03,1.80504e+01,0.00000e+00,-7.01887e-03,2.45871e-02,4.31606e-02
1.98010e+03,1.79595e+01,-1.37164e+00,-7.21179e-03,2.42648e-02,4.26421e-02
1.98010e+03,1.78386e+01,-2.74329e+00,-7.37881e-03,2.39347e-02,4.21076e-02
1.98010e+03,1.77165e+01,-4.11493e+00,-7.54478e-03,2.35970e-02,4.15618e-02
1.98010e+03,1.75678e+01,-5.48657e+00,-7.68788e-03,2.32525e-02,4.10017e-02
1.98010e+03,1.74130e+01,-6.85822e+00,-7.82568e-03,2.29016e-02,4.04313e-02
1.98010e+03,1.72378e+01,-8.22986e+00,-7.94590e-03,2.25448e-02,3.98489e-02
1.98010e+03,1.70528e+01,-9.60150e+00,-8.05761e-03,2.21826e-02,3.92572e-02
1.98010e+03,1.68514e+01,-1.09731e+01,-8.15521e-03,2.18155e-02,3.86556e-02
1.98010e+03,1.66366e+01,-1.23448e+01,-8.24122e-03,2.14440e-02,3.80455e-02
1.98010e+03,1.64070e+01,-1.37164e+01,-8.31448e-03,2.10686e-02,3.74272e-02
1.98010e+03,1.61595e+01,-1.50881e+01,-8.37231e-03,2.06898e-02,3.68008e-02
1.98010e+03,1.58938e+01,-1.64597e+01,-8.41434e-03,2.03080e-02,3.61670e-02
1.98010e+03,1.56020e+01,-1.78314e+01,-8.43399e-03,1.99240e-02,3.55250e-02
1.98010e+03,1.52851e+01,-1.92030e+01,-8.43185e-03,1.95384e-02,3.48761e-02
1.98010e+03,1.49379e+01,-2.05747e+01,-8.40365e-03,1.91519e-02,3.42199e-02
1.98010e+03,1.45498e+01,-2.19463e+01,-8.34016e-03,1.87657e-02,3.35562e-02
1.98010e+03,1.41333e+01,-2.33179e+01,-8.25213e-03,1.83803e-02,3.28877e-02
1.98010e+03,1.36527e+01,-2.46896e+01,-8.10885e-03,1.79976e-02,3.22101e-02
1.98010e+03,1.31457e+01,-2.60612e+01,-7.94267e-03,1.76185e-02,3.15328e-02
1.98010e+03,1.25646e+01,-2.74329e+01,-7.71271e-03,1.72440e-02,3.08473e-02
1.98010e+03,1.19244e+01,-2.88045e+01,-7.43161e-03,1.68773e-02,3.01622e-02
1.98010e+03,1.12238e+01,-3.01762e+01,-7.09849e-03,1.65189e-02,2.94790e-02
1.98010e+03,1.04220e+01,-3.15478e+01,-6.67804e-03,1.61702e-02,2.87927e-02
1.98010e+03,9.50303e+00,-3.29194e+01,-6.15643e-03,1.58354e-02,2.81101e-02
1.98010e+03,8.45151e+00,-3.42911e+01,-5.52049e-03,1.55185e-02,2.74399e-02
1.98010e+03,7.20780e+00,-3.56627e+01,-4.71871e-03,1.52222e-02,2.67845e-02
1.98010e+03,5.61141e+00,-3.70344e+01,-3.61262e-03,1.49609e-02,2.61636e-02
1.98010e+03,3.45234e+00,-3.84060e+01,-2.02101e-03,1.48011e-02,2.57158e-02
1.98010e+03,-1.39886e+00,-3.97777e+01,1.89352e-03,1.48642e-02,2.58151e-02
1.98010e+03,-1.74898e+00,-3.97808e+01,2.19498e-03,1.50604e-02,2.61776e-02
1.98010e+03,-4.93876e+00,-3.83601e+01,5.22839e-03,1.54327e-02,2.72368e-02
1.98010e+03,-5.32496e+00,-3.69394e+01,5.84271e-03,1.57078e-02,2.78270e-02
1.98010e+03,-5.45823e+00,-3.55186e+01,6.23878e-03,1.59972e-02,2.84017e-02
1.98010e+03,-5.47846e+00,-3.40979e+01,6.53731e-03,1.63001e-02,2.89796e-02
1.98010e+03,-5.41351e+00,-3.26771e+01,6.76235e-03,1.66141e-02,2.95603e-02
1.98010e+03,-5.29511e+00,-3.12564e+01,6.94127e-03,1.69372e-02,3.01462e-02
1.98010e+03,-5.12305e+00,-2.98356e+01,7.07388e-03,1.72677e-02,3.07337e-02
1.98010e+03,-4.91825e+00,-2.84149e+01,7.17825e-03,1.76039e-02,3.13245e-02
1.98010e+03,-4.69446e+00,-2.69941e+01,7.26623e-03,1.79450e-02,3.19197e-02
1.98010e+03,-4.44207e+00,-2.55734e+01,7.32953e-03,1.82900e-02,3.25160e-02
1.98010e+03,-4.17180e+00,-2.41527e+01,7.37741e-03,1.86379e-02,3.31141e-02
1.98010e+03,-3.88412e+00,-2.27319e+01,7.41026e-03,1.89881e-02,3.37129e-02
1.98010e+03,-3.57909e+00,-2.13112e+01,7.42814e-03,1.93399e-02,3.43114e-02
1.98010e+03,-3.26320e+00,-1.98904e+01,7.43665e-03,1.96926e-02,3.49099e-02
1.98010e+03,-2.93337e+00,-1.84697e+01,7.43314e-03,2.00457e-02,3.55070e-02
1.98010e+03,-2.59462e+00,-1.70489e+01,7.42193e-03,2.03987e-02,3.61028e-02
1.98010e+03,-2.24788e+00,-1.56282e+01,7.40381e-03,2.07512e-02,3.66968e-02
1.98010e+03,-1.89400e+00,-1.42074e+01,7.37954e-03,2.11028e-02,3.72887e-02
1.98010e+03,-1.53709e+00,-1.27867e+01,7.35266e-03,2.14533e-02,3.78786e-02
1.98010e+03,-1.17550e+00,-1.13660e+01,7.32174e-03,2.18023e-02,3.84660e-02
1.98010e+03,-8.13129e-01,-9.94521e+00,7.29015e-03,2.21499e-02,3.90513e-02
1.98010e+03,-4.47961e-01,-8.52447e+00,7.25614e-03,2.24959e-02,3.96340e-02
1.98010e+03,-8.28294e-02,-7.10372e+00,7.22216e-03,2.28402e-02,4.02142e-02
1.98010e+03,2.80922e-01,-5.68298e+00,7.18937e-03,2.31828e-02,4.07922e-02
1.98010e+03,6.44673e-01,-4.26223e+00,7.15659e-03,2.35235e-02,4.13676e-02
1.98010e+03,9.99811e-01,-2.84149e+00,7.13123e-03,2.38626e-02,4.19420e-02
1.98010e+03,1.35334e+00,-1.42074e+00,7.10726e-03,2.42003e-02,4.25144e-02
2.00520e+03,1.68635e+01,0.00000e+00,-2.74249e-03,1.54843e-02,2.69595e-02
2.00520e+03,1.67786e+01,-1.28145e+00,-2.82370e-03,1.52994e-02,2.66493e-02
2.00520e+03,1.66656e+01,-2.56290e+00,-2.89474e-03,1.51099e-02,2.63307e-02
2.00520e+03,1.65515e+01,-3.84435e+00,-2.96537e-03,1.49161e-02,2.60050e-02
2.00520e+03,1.64126e+01,-5.12580e+00,-3.02701e-03,1.47183e-02,2.56720e-02
2.00520e+03,1.62680e+01,-6.40725e+00,-3.08657e-03,1.45169e-02,2.53328e-02
2.00520e+03,1.61044e+01,-7.68870e+00,-3.13922e-03,1.43121e-02,2.49873e-02
2.00520e+03,1.59315e+01,-8.97015e+00,-3.18853e-03,1.41043e-02,2.46365e-02
2.00520e+03,1.57433e+01,-1.02516e+01,-3.23230e-03,1.38936e-02,2.42805e-02
2.00520e+03,1.55427e+01,-1.15330e+01,-3.27151e-03,1.36804e-02,2.39199e-02
2.00520e+03,1.53282e+01,-1.28145e+01,-3.30571e-03,1.34649e-02,2.35550e-02
2.00520e+03,1.50970e+01,-1.40959e+01,-3.33385e-03,1.32475e-02,2.31863e-02
2.00520e+03,1.48486e+01,-1.53774e+01,-3.35578e-03,1.30284e-02,2.28140e-02
2.00520e+03,1.45761e+01,-1.66588e+01,-3.36893e-03,1.28080e-02,2.24384e-02
2.00520e+03,1.42800e+01,-1.79403e+01,-3.37351e-03,1.25867e-02,2.20603e-02
2.00520e+03,1.39556e+01,-1.92217e+01,-3.36785e-03,1.23649e-02,2.16798e-02
2.00520e+03,1.35931e+01,-2.05032e+01,-3.34833e-03,1.21433e-02,2.12976e-02
2.00520e+03,1.32039e+01,-2.17846e+01,-3.31916e-03,1.19221e-02,2.09147e-02
2.00520e+03,1.27550e+01,-2.30661e+01,-3.26829e-03,1.17025e-02,2.05311e-02
2.00520e+03,1.22812e+01,-2.43475e+01,-3.20842e-03,1.14849e-02,2.01496e-02
2.00520e+03,1.17384e+01,-2.56290e+01,-3.12349e-03,1.12700e-02,1.97686e-02
2.00520e+03,1.11403e+01,-2.69104e+01,-3.01848e-03,1.10596e-02,1.93921e-02
2.00520e+03,1.04858e+01,-2.81919e+01,-2.89302e-03,1.08539e-02,1.90208e-02
2.00520e+03,9.73672e+00,-2.94733e+01,-2.73325e-03,1.06538e-02,1.86543e-02
2.00520e+03,8.87814e+00,-3.07548e+01,-2.53374e-03,1.04617e-02,1.82965e-02
2.00520e+03,7.89577e+00,-3.20362e+01,-2.28932e-03,1.02799e-02,1.79518e-02
2.00520e+03,6.73385e+00,-3.33177e+01,-1.97973e-03,1.01099e-02,1.76223e-02
2.00520e+03,5.24243e+00,-3.45991e+01,-1.55059e-03,9.95995e-03,1.73207e-02
2.00520e+03,3.22533e+00,-3.58806e+01,-9.30707e-04,9.86832e-03,1.71177e-02
2.00520e+03,-1.30688e+00,-3.71620e+01,6.01812e-04,9.90455e-03,1.71657e-02
2.00520e+03,-1.63397e+00,-3.71650e+01,7.20240e-04,1.00172e-02,1.73653e-02
2.00520e+03,-4.61400e+00,-3.58377e+01,1.91762e-03,1.02309e-02,1.78239e-02
2.00520e+03,-4.97481e+00,-3.45104e+01,2.16458e-03,1.03887e-02,1.81236e-02
2.00520e+03,-5.09932e+00,-3.31830e+01,2.32581e-03,1.05549e-02,1.84289e-02
2.00520e+03,-5.11821e+00,-3.18557e+01,2.44871e-03,1.07287e-02,1.87433e-02
2.00520e+03,-5.05754e+00,-3.05284e+01,2.54274e-03,1.09089e-02,1.90650e-02
2.00520e+03,-4.94693e+00,-2.92011e+01,2.61864e-03,1.10943e-02,1.93935e-02
2.00520e+03,-4.78618e+00,-2.78738e+01,2.67636e-03,1.12840e-02,1.97268e-02
2.00520e+03,-4.59485e+00,-2.65464e+01,2.72298e-03,1.14769e-02,2.00642e-02
2.00520e+03,-4.38577e+00,-2.52191e+01,2.76316e-03,1.16726e-02,2.04055e-02
2.00520e+03,-4.14998e+00,-2.38918e+01,2.79364e-03,1.18706e-02,2.07494e-02
2.00520e+03,-3.89748e+00,-2.25645e+01,2.81807e-03,1.20703e-02,2.10954e-02
2.00520e+03,-3.62871e+00,-2.12371e+01,2.83659e-03,1.22712e-02,2.14428e-02
2.00520e+03,-3.34375e+00,-1.99098e+01,2.84923e-03,1.24731e-02,2.17911e-02
2.00520e+03,-3.04862e+00,-1.85825e+01,2.85818e-03,1.26755e-02,2.21398e-02
2.00520e+03,-2.74048e+00,-1.72552e+01,2.86242e-03,1.28781e-02,2.24884e-02
2.00520e+03,-2.42401e+00,-1.59279e+01,2.86363e-03,1.30806e-02,2.28366e-02
2.00520e+03,-2.10007e+00,-1.46005e+01,2.86213e-03,1.32829e-02,2.31840e-02
2.00520e+03,-1.76946e+00,-1.32732e+01,2.85821e-03,1.34846e-02,2.35303e-02
2.00520e+03,-1.43602e+00,-1.19459e+01,2.85326e-03,1.36857e-02,2.38755e-02
2.00520e+03,-1.09820e+00,-1.06186e+01,2.84673e-03,1.38860e-02,2.42192e-02
2.00520e+03,-7.59661e-01,-9.29125e+00,2.83993e-03,1.40854e-02,2.45614e-02
2.00520e+03,-4.18505e-01,-7.96393e+00,2.83218e-03,1.42840e-02,2.49021e-02
2.00520e+03,-7.73829e-02,-6.63661e+00,2.82445e-03,1.44815e-02,2.52412e-02
2.00520e+03,2.62450e-01,-5.30929e+00,2.81718e-03,1.46780e-02,2.55787e-02
2.00520e+03,6.02282e-01,-3.98196e+00,2.80991e-03,1.48735e-02,2.59145e-02
2.00520e+03,9.34067e-01,-2.65464e+00,2.80557e-03,1.50681e-02,2.62490e-02
2.00520e+03,1.26435e+00,-1.32732e+00,2.80176e-03,1.52618e-02,2.65823e-02
2.02480e+03,1.59367e+01,0.00000e+00,-7.79528e-04,8.22971e-03,1.42756e-02
2.02480e+03,1.58564e+01,-1.21102e+00,-8.05385e-04,8.14244e-03,1.41261e-02
2.02480e+03,1.57496e+01,-2.42204e+00,-8.28322e-04,8.05305e-03,1.39729e-02
2.02480e+03,1.56418e+01,-3.63306e+00,-8.51143e-04,7.96163e-03,1.38162e-02
2.02480e+03,1.55106e+01,-4.84408e+00,-8.71387e-04,7.86834e-03,1.36562e-02
2.02480e+03,1.53739e+01,-6.05509e+00,-8.91033e-04,7.77333e-03,1.34932e-02
2.02480e+03,1.52192e+01,-7.26611e+00,-9.08701e-04,7.67672e-03,1.33275e-02
2.02480e+03,1.50559e+01,-8.47713e+00,-9.25409e-04,7.57866e-03,1.31592e-02
2.02480e+03,1.48781e+01,-9.68815e+00,-9.40527e-04,7.47928e-03,1.29886e-02
2.02480e+03,1.46884e+01,-1.08992e+01,-9.54340e-04,7.37871e-03,1.28159e-02
2.02480e+03,1.44857e+01,-1.21102e+01,-9.66717e-04,7.27708e-03,1.26413e-02
2.02480e+03,1.42672e+01,-1.33212e+01,-9.77356e-04,7.17453e-03,1.24650e-02
2.02480e+03,1.40325e+01,-1.45322e+01,-9.86214e-04,7.07118e-03,1.22873e-02
2.02480e+03,1.37750e+01,-1.57432e+01,-9.92553e-04,6.96721e-03,1.21083e-02
2.02480e+03,1.34951e+01,-1.69543e+01,-9.96436e-04,6.86284e-03,1.19285e-02
2.02480e+03,1.31886e+01,-1.81653e+01,-9.97384e-04,6.75820e-03,1.17480e-02
2.02480e+03,1.28460e+01,-1.93763e+01,-9.94357e-04,6.65368e-03,1.15673e-02
2.02480e+03,1.24782e+01,-2.05873e+01,-9.88565e-04,6.54935e-03,1.13868e-02
2.02480e+03,1.20540e+01,-2.17983e+01,-9.76549e-04,6.44576e-03,1.12070e-02
2.02480e+03,1.16063e+01,-2.30094e+01,-9.61954e-04,6.34315e-03,1.10287e-02
2.02480e+03,1.10933e+01,-2.42204e+01,-9.40174e-04,6.24180e-03,1.08519e-02
2.02480e+03,1.05280e+01,-2.54314e+01,-9.12634e-04,6.14254e-03,1.06783e-02
2.02480e+03,9.90946e+00,-2.66424e+01,-8.79234e-04,6.04554e-03,1.05080e-02
2.02480e+03,9.20158e+00,-2.78534e+01,-8.35997e-04,5.95116e-03,1.03416e-02
2.02480e+03,8.39019e+00,-2.90645e+01,-7.81364e-04,5.86055e-03,1.01808e-02
2.02480e+03,7.46181e+00,-3.02755e+01,-7.13852e-04,5.77480e-03,1.00277e-02
2.02480e+03,6.36374e+00,-3.14865e+01,-6.27660e-04,5.69461e-03,9.88331e-03
2.02480e+03,4.95429e+00,-3.26975e+01,-5.07188e-04,5.62392e-03,9.75411e-03
2.02480e+03,3.04806e+00,-3.39085e+01,-3.32026e-04,5.58072e-03,9.67179e-03
2.02480e+03,-1.23505e+00,-3.51195e+01,1.04804e-04,5.59783e-03,9.69629e-03
2.02480e+03,-1.54416e+00,-3.51224e+01,1.38753e-04,5.65098e-03,9.78876e-03
2.02480e+03,-4.36041e+00,-3.38680e+01,4.84725e-04,5.75177e-03,9.97414e-03
2.02480e+03,-4.70139e+00,-3.26136e+01,5.58197e-04,5.82624e-03,1.01068e-02
2.02480e+03,-4.81905e+00,-3.13592e+01,6.07085e-04,5.90460e-03,1.02451e-02
2.02480e+03,-4.83691e+00,-3.01049e+01,6.44985e-04,5.98659e-03,1.03891e-02
2.02480e+03,-4.77957e+00,-2.88505e+01,6.74606e-04,6.07158e-03,1.05379e-02
2.02480e+03,-4.67504e+00,-2.75961e+01,6.99033e-04,6.15905e-03,1.06907e-02
2.02480e+03,-4.52312e+00,-2.63418e+01,7.18244e-04,6.24851e-03,1.08465e-02
2.02480e+03,-4.34231e+00,-2.50874e+01,7.34272e-04,6.33951e-03,1.10049e-02
2.02480e+03,-4.14473e+00,-2.38330e+01,7.48455e-04,6.43182e-03,1.11654e-02
2.02480e+03,-3.92189e+00,-2.25787e+01,7.59857e-04,6.52519e-03,1.13275e-02
2.02480e+03,-3.68327e+00,-2.13243e+01,7.69522e-04,6.61936e-03,1.14909e-02
2.02480e+03,-3.42927e+00,-2.00699e+01,7.77495e-04,6.71415e-03,1.16552e-02
2.02480e+03,-3.15997e+00,-1.88155e+01,7.83782e-04,6.80935e-03,1.18202e-02
2.02480e+03,-2.88106e+00,-1.75612e+01,7.89012e-04,6.90481e-03,1.19855e-02
2.02480e+03,-2.58986e+00,-1.63068e+01,7.92888e-04,7.00038e-03,1.21509e-02
2.02480e+03,-2.29078e+00,-1.50524e+01,7.95897e-04,7.09590e-03,1.23162e-02
2.02480e+03,-1.98465e+00,-1.37981e+01,7.98129e-04,7.19129e-03,1.24812e-02
2.02480e+03,-1.67220e+00,-1.25437e+01,7.99667e-04,7.28643e-03,1.26458e-02
2.02480e+03,-1.35709e+00,-1.12893e+01,8.00911e-04,7.38126e-03,1.28098e-02
2.02480e+03,-1.03784e+00,-1.00350e+01,8.01700e-04,7.47572e-03,1.29731e-02
2.02480e+03,-7.17909e-01,-8.78059e+00,8.02413e-04,7.56978e-03,1.31358e-02
2.02480e+03,-3.95503e-01,-7.52622e+00,8.02854e-04,7.66339e-03,1.32976e-02
2.02480e+03,-7.31298e-02,-6.27185e+00,8.03299e-04,7.75654e-03,1.34587e-02
2.02480e+03,2.48025e-01,-5.01748e+00,8.03878e-04,7.84923e-03,1.36190e-02
2.02480e+03,5.69180e-01,-3.76311e+00,8.04457e-04,7.94142e-03,1.37784e-02
2.02480e+03,8.82730e-01,-2.50874e+00,8.05873e-04,8.03317e-03,1.39372e-02
2.02480e+03,1.19486e+00,-1.25437e+00,8.07445e-04,8.12453e-03,1.40952e-02
2.03880e+03,1.52746e+01,0.00000e+00,-1.33719e-04,3.11563e-03,5.39808e-03
2.03880e+03,1.51977e+01,-1.16071e+00,-1.38929e-04,3.08602e-03,5.34695e-03
2.03880e+03,1.50954e+01,-2.32142e+00,-1.43632e-04,3.05569e-03,5.29455e-03
2.03880e+03,1.49920e+01,-3.48213e+00,-1.48314e-04,3.02466e-03,5.24097e-03
2.03880e+03,1.48662e+01,-4.64285e+00,-1.52548e-04,2.99301e-03,5.18629e-03
2.03880e+03,1.47352e+01,-5.80356e+00,-1.56679e-04,2.96077e-03,5.13060e-03
2.03880e+03,1.45870e+01,-6.96427e+00,-1.60465e-04,2.92799e-03,5.07397e-03
2.03880e+03,1.44304e+01,-8.12498e+00,-1.64084e-04,2.89472e-03,5.01649e-03
2.03880e+03,1.42600e+01,-9.28569e+00,-1.67427e-04,2.86100e-03,4.95823e-03
2.03880e+03,1.40782e+01,-1.04464e+01,-1.70543e-04,2.82688e-03,4.89927e-03
2.03880e+03,1.38839e+01,-1.16071e+01,-1.73409e-04,2.79240e-03,4.83968e-03
2.03880e+03,1.36745e+01,-1.27678e+01,-1.75973e-04,2.75760e-03,4.77954e-03
2.03880e+03,1.34496e+01,-1.39285e+01,-1.78227e-04,2.72253e-03,4.71893e-03
2.03880e+03,1.32028e+01,-1.50892e+01,-1.80043e-04,2.68726e-03,4.65795e-03
2.03880e+03,1.29345e+01,-1.62500e+01,-1.81433e-04,2.65185e-03,4.59671e-03
2.03880e+03,1.26407e+01,-1.74107e+01,-1.82311e-04,2.61635e-03,4.53531e-03
2.03880e+03,1.23123e+01,-1.85714e+01,-1.82499e-04,2.58088e-03,4.47395e-03
2.03880e+03,1.19599e+01,-1.97321e+01,-1.82206e-04,2.54549e-03,4.41267e-03
2.03880e+03,1.15532e+01,-2.08928e+01,-1.80830e-04,2.51034e-03,4.35179e-03
2.03880e+03,1.11241e+01,-2.20535e+01,-1.79007e-04,2.47553e-03,4.29148e-03
2.03880e+03,1.06324e+01,-2.32142e+01,-1.75933e-04,2.44114e-03,4.23184e-03
2.03880e+03,1.00906e+01,-2.43749e+01,-1.71858e-04,2.40746e-03,4.17339e-03
2.03880e+03,9.49781e+00,-2.55357e+01,-1.66764e-04,2.37456e-03,4.11623e-03
2.03880e+03,8.81933e+00,-2.66964e+01,-1.59960e-04,2.34254e-03,4.06055e-03
2.03880e+03,8.04165e+00,-2.78571e+01,-1.51174e-04,2.31180e-03,4.00700e-03
2.03880e+03,7.15183e+00,-2.90178e+01,-1.40148e-04,2.28271e-03,3.95625e-03
2.03880e+03,6.09938e+00,-3.01785e+01,-1.25874e-04,2.25550e-03,3.90867e-03
2.03880e+03,4.74849e+00,-3.13392e+01,-1.05639e-04,2.23152e-03,3.86655e-03
2.03880e+03,2.92144e+00,-3.24999e+01,-7.58944e-05,2.21687e-03,3.84048e-03
2.03880e+03,-1.18374e+00,-3.36606e+01,-6.48303e-07,2.22268e-03,3.84979e-03
2.03880e+03,-1.48002e+00,-3.36633e+01,5.25349e-06,2.24071e-03,3.88103e-03
2.03880e+03,-4.17927e+00,-3.24611e+01,6.61537e-05,2.27491e-03,3.94082e-03
2.03880e+03,-4.50609e+00,-3.12588e+01,7.96693e-05,2.30018e-03,3.98483e-03
2.03880e+03,-4.61886e+00,-3.00565e+01,8.89099e-05,2.32677e-03,4.03106e-03
2.03880e+03,-4.63598e+00,-2.88543e+01,9.62399e-05,2.35459e-03,4.07940e-03
2.03880e+03,-4.58102e+00,-2.76520e+01,1.02130e-04,2.38342e-03,4.12947e-03
2.03880e+03,-4.48083e+00,-2.64498e+01,1.07117e-04,2.41310e-03,4.18098e-03
2.03880e+03,-4.33523e+00,-2.52475e+01,1.11197e-04,2.44345e-03,4.23364e-03
2.03880e+03,-4.16192e+00,-2.40452e+01,1.14724e-04,2.47433e-03,4.28719e-03
2.03880e+03,-3.97255e+00,-2.28430e+01,1.17930e-04,2.50565e-03,4.34151e-03
2.03880e+03,-3.75897e+00,-2.16407e+01,1.20652e-04,2.53732e-03,4.39643e-03
2.03880e+03,-3.53026e+00,-2.04384e+01,1.23072e-04,2.56927e-03,4.45181e-03
2.03880e+03,-3.28682e+00,-1.92362e+01,1.25198e-04,2.60143e-03,4.50755e-03
2.03880e+03,-3.02870e+00,-1.80339e+01,1.27031e-04,2.63373e-03,4.56352e-03
2.03880e+03,-2.76138e+00,-1.68317e+01,1.28680e-04,2.66611e-03,4.61964e-03
2.03880e+03,-2.48228e+00,-1.56294e+01,1.30093e-04,2.69854e-03,4.67581e-03
2.03880e+03,-2.19562e+00,-1.44271e+01,1.31356e-04,2.73094e-03,4.73196e-03
2.03880e+03,-1.90220e+00,-1.32249e+01,1.32484e-04,2.76331e-03,4.78802e-03
2.03880e+03,-1.60274e+00,-1.20226e+01,1.33491e-04,2.79558e-03,4.84393e-03
2.03880e+03,-1.30072e+00,-1.08204e+01,1.34447e-04,2.82775e-03,4.89966e-03
2.03880e+03,-9.94731e-01,-9.61809e+00,1.35323e-04,2.85980e-03,4.95516e-03
2.03880e+03,-6.88086e-01,-8.41583e+00,1.36187e-04,2.89170e-03,5.01043e-03
2.03880e+03,-3.79073e-01,-7.21357e+00,1.37003e-04,2.92346e-03,5.06544e-03
2.03880e+03,-7.00919e-02,-6.01131e+00,1.37820e-04,2.95506e-03,5.12017e-03
2.03880e+03,2.37722e-01,-4.80905e+00,1.38660e-04,2.98651e-03,5.17464e-03
2.03880e+03,5.45535e-01,-3.60678e+00,1.39500e-04,3.01778e-03,5.22881e-03
2.03880e+03,8.46060e-01,-2.40452e+00,1.40486e-04,3.04890e-03,5.28272e-03
2.03880e+03,1.14523e+00,-1.20226e+00,1.41499e-04,3.07989e-03,5.33641e-03
2.04720e+03,1.48774e+01,0.00000e+00,-1.56636e-05,5.76882e-04,9.99312e-04
2.04720e+03,1.48025e+01,-1.13053e+00,-1.64275e-05,5.72471e-04,9.91686e-04
2.04720e+03,1.47028e+01,-2.26105e+00,-1.71306e-05,5.67953e-04,9.83873e-04
2.04720e+03,1.46021e+01,-3.39158e+00,-1.78312e-05,5.63332e-04,9.75882e-04
2.04720e+03,1.44796e+01,-4.52211e+00,-1.84782e-05,5.58617e-04,9.67729e-04
2.04720e+03,1.43520e+01,-5.65264e+00,-1.91127e-05,5.53814e-04,9.59425e-04
2.04720e+03,1.42077e+01,-6.78316e+00,-1.97060e-05,5.48932e-04,9.50982e-04
2.04720e+03,1.40552e+01,-7.91369e+00,-2.02793e-05,5.43976e-04,9.42412e-04
2.04720e+03,1.38892e+01,-9.04422e+00,-2.08195e-05,5.38953e-04,9.33726e-04
2.04720e+03,1.37121e+01,-1.01747e+01,-2.13325e-05,5.33870e-04,9.24936e-04
2.04720e+03,1.35229e+01,-1.13053e+01,-2.18156e-05,5.28733e-04,9.16053e-04
2.04720e+03,1.33189e+01,-1.24358e+01,-2.22625e-05,5.23550e-04,9.07089e-04
2.04720e+03,1.30998e+01,-1.35663e+01,-2.26723e-05,5.18327e-04,8.98055e-04
2.04720e+03,1.28594e+01,-1.46969e+01,-2.30295e-05,5.13073e-04,8.88967e-04
2.04720e+03,1.25982e+01,-1.58274e+01,-2.33357e-05,5.07798e-04,8.79841e-04
2.04720e+03,1.23120e+01,-1.69579e+01,-2.35807e-05,5.02510e-04,8.70692e-04
2.04720e+03,1.19922e+01,-1.80884e+01,-2.37428e-05,4.97228e-04,8.61551e-04
2.04720e+03,1.16489e+01,-1.92190e+01,-2.38474e-05,4.91955e-04,8.52425e-04
2.04720e+03,1.12528e+01,-2.03495e+01,-2.38223e-05,4.86720e-04,8.43361e-04
2.04720e+03,1.08348e+01,-2.14800e+01,-2.37435e-05,4.81535e-04,8.34381e-04
2.04720e+03,1.03559e+01,-2.26105e+01,-2.35150e-05,4.76413e-04,8.25506e-04
2.04720e+03,9.82823e+00,-2.37411e+01,-2.31665e-05,4.71397e-04,8.16812e-04
2.04720e+03,9.25081e+00,-2.48716e+01,-2.26959e-05,4.66495e-04,8.08312e-04
2.04720e+03,8.58998e+00,-2.60021e+01,-2.20204e-05,4.61726e-04,8.00036e-04
2.04720e+03,7.83252e+00,-2.71326e+01,-2.11075e-05,4.57148e-04,7.92084e-04
2.04720e+03,6.96585e+00,-2.82632e+01,-1.99263e-05,4.52814e-04,7.84551e-04
2.04720e+03,5.94077e+00,-2.93937e+01,-1.83559e-05,4.48763e-04,7.77497e-04
2.04720e+03,4.62500e+00,-3.05242e+01,-1.60714e-05,4.45191e-04,7.71261e-04
2.04720e+03,2.84547e+00,-3.16548e+01,-1.26475e-05,4.43009e-04,7.67419e-04
2.04720e+03,-1.15296e+00,-3.27853e+01,-3.77241e-06,4.43875e-04,7.68823e-04
2.04720e+03,-1.44153e+00,-3.27879e+01,-3.06567e-06,4.46561e-04,7.73473e-04
2.04720e+03,-4.07059e+00,-3.16169e+01,4.37515e-06,4.51656e-04,7.82303e-04
2.04720e+03,-4.38891e+00,-3.04459e+01,6.13908e-06,4.55419e-04,7.88833e-04
2.04720e+03,-4.49875e+00,-2.92749e+01,7.39085e-06,4.59380e-04,7.95704e-04
2.04720e+03,-4.51542e+00,-2.81039e+01,8.41371e-06,4.63524e-04,8.02891e-04
2.04720e+03,-4.46189e+00,-2.69329e+01,9.26410e-06,4.67819e-04,8.10339e-04
2.04720e+03,-4.36430e+00,-2.57619e+01,1.00063e-05,4.72239e-04,8.18004e-04
2.04720e+03,-4.22249e+00,-2.45909e+01,1.06398e-05,4.76760e-04,8.25842e-04
2.04720e+03,-4.05369e+00,-2.34199e+01,1.12070e-05,4.81359e-04,8.33814e-04
2.04720e+03,-3.86924e+00,-2.22489e+01,1.17358e-05,4.86024e-04,8.41901e-04
2.04720e+03,-3.66121e+00,-2.10779e+01,1.22066e-05,4.90743e-04,8.50079e-04
2.04720e+03,-3.43845e+00,-1.99069e+01,1.26413e-05,4.95501e-04,8.58327e-04
2.04720e+03,-3.20134e+00,-1.87359e+01,1.30406e-05,5.00292e-04,8.66629e-04
2.04720e+03,-2.94994e+00,-1.75649e+01,1.34049e-05,5.05102e-04,8.74965e-04
2.04720e+03,-2.68957e+00,-1.63940e+01,1.37472e-05,5.09926e-04,8.83325e-04
2.04720e+03,-2.41772e+00,-1.52230e+01,1.40612e-05,5.14755e-04,8.91693e-04
2.04720e+03,-2.13852e+00,-1.40520e+01,1.43572e-05,5.19582e-04,9.00057e-04
2.04720e+03,-1.85273e+00,-1.28810e+01,1.46370e-05,5.24402e-04,9.08409e-04
2.04720e+03,-1.56106e+00,-1.17100e+01,1.49024e-05,5.29210e-04,9.16739e-04
2.04720e+03,-1.26689e+00,-1.05390e+01,1.51616e-05,5.34001e-04,9.25042e-04
2.04720e+03,-9.68863e-01,-9.36797e+00,1.54113e-05,5.38774e-04,9.33311e-04
2.04720e+03,-6.70192e-01,-8.19698e+00,1.56595e-05,5.43526e-04,9.41545e-04
2.04720e+03,-3.69215e-01,-7.02598e+00,1.59020e-05,5.48257e-04,9.49741e-04
2.04720e+03,-6.82691e-02,-5.85498e+00,1.61445e-05,5.52963e-04,9.57896e-04
2.04720e+03,2.31540e-01,-4.68399e+00,1.63899e-05,5.57646e-04,9.66010e-04
2.04720e+03,5.31348e-01,-3.51299e+00,1.66352e-05,5.62304e-04,9.74081e-04
2.04720e+03,8.24058e-01,-2.34199e+00,1.68980e-05,5.66940e-04,9.82114e-04
2.04720e+03,1.11544e+00,-1.17100e+00,1.71641e-05,5.71555e-04,9.90112e-04
2.05000e+03,1.47450e+01,0.00000e+00,0.00000e+00,0.00000e+00,0.00000e+00
2.05000e+03,1.46708e+01,-1.12047e+00,0.00000e+00,0.00000e+00,0.00000e+00
2.05000e+03,1.45720e+01,-2.24093e+00,0.00000e+00,0.00000e+00,0.00000e+00
2.05000e+03,1.44722e+01,-3.36140e+00,0.00000e+00,0.00000e+00,0.00000e+00
2.05000e+03,1.43508e+01,-4.48186e+00,0.00000e+00,0.00000e+00,0.00000e+00
2.05000e+03,1.42243e+01,-5.60233e+00,0.00000e+00,0.00000e+00,0.00000e+00
2.05000e+03,1.40812e+01,-6.72279e+00,0.00000e+00,0.00000e+00,0.00000e+00
2.05000e+03,1.39301e+01,-7.84326e+00,0.00000e+00,0.00000e+00,0.00000e+00
2.05000e+03,1.37656e+01,-8.96372e+00,0.00000e+00,0.00000e+00,0.00000e+00
2.05000e+03,1.35901e+01,-1.00842e+01,0.00000e+00,0.00000e+00,0.00000e+00
2.05000e+03,1.34025e+01,-1.12047e+01,0.00000e+00,0.00000e+00,0.00000e+00
2.05000e+03,1.32004e+01,-1.23251e+01,0.00000e+00,0.00000e+00,0.00000e+00
2.05000e+03,1.29833e+01,-1.34456e+01,0.00000e+00,0.00000e+00,0.00000e+00
2.05000e+03,1.27450e+01,-1.45661e+01,0.00000e+00,0.00000e+00,0.00000e+00
2.05000e+03,1.24860e+01,-1.56865e+01,0.00000e+00,0.00000e+00,0.00000e+00
2.05000e+03,1.22024e+01,-1.68070e+01,0.00000e+00,0.00000e+00,0.00000e+00
2.05000e+03,1.18854e+01,-1.79274e+01,0.00000e+00,0.00000e+00,0.00000e+00
2.05000e+03,1.15452e+01,-1.90479e+01,0.00000e+00,0.00000e+00,0.00000e+00
2.05000e+03,1.11526e+01,-2.01684e+01,0.00000e+00,0.00000e+00,0.00000e+00
2.05000e+03,1.07384e+01,-2.12888e+01,0.00000e+00,0.00000e+00,0.00000e+00
2.05000e+03,1.02638e+01,-2.24093e+01,0.00000e+00,0.00000e+00,0.00000e+00
2.05000e+03,9.74076e+00,-2.35298e+01,0.00000e+00,0.00000e+00,0.00000e+00
2.05000e+03,9.16848e+00,-2.46502e+01,0.00000e+00,0.00000e+00,0.00000e+00
2.05000e+03,8.51353e+00,-2.57707e+01,0.00000e+00,0.00000e+00,0.00000e+00
2.05000e+03,7.76281e+00,-2.68912e+01,0.00000e+00,0.00000e+00,0.00000e+00
2.05000e+03,6.90385e+00,-2.80116e+01,0.00000e+00,0.00000e+00,0.00000e+00
2.05000e+03,5.88790e+00,-2.91321e+01,0.00000e+00,0.00000e+00,0.00000e+00
2.05000e+03,4.58384e+00,-3.02526e+01,0.00000e+00,0.00000e+00,0.00000e+00
2.05000e+03,2.82014e+00,-3.13730e+01,0.00000e+00,0.00000e+00,0.00000e+00
2.05000e+03,-1.14270e+00,-3.24935e+01,0.00000e+00,0.00000e+00,0.00000e+00
2.05000e+03,-1.42870e+00,-3.24961e+01,0.00000e+00,0.00000e+00,0.00000e+00
2.05000e+03,-4.03436e+00,-3.13355e+01,0.00000e+00,0.00000e+00,0.00000e+00
2.05000e+03,-4.34985e+00,-3.01749e+01,0.00000e+00,0.00000e+00,0.00000e+00
2.05000e+03,-4.45871e+00,-2.90144e+01,0.00000e+00,0.00000e+00,0.00000e+00
2.05000e+03,-4.47523e+00,-2.78538e+01,0.00000e+00,0.00000e+00,0.00000e+00
2.05000e+03,-4.42218e+00,-2.66932e+01,0.00000e+00,0.00000e+00,0.00000e+00
2.05000e+03,-4.32546e+00,-2.55327e+01,0.00000e+00,0.00000e+00,0.00000e+00
2.05000e+03,-4.18491e+00,-2.43721e+01,0.00000e+00,0.00000e+00,0.00000e+00
2.05000e+03,-4.01761e+00,-2.32115e+01,0.00000e+00,0.00000e+00,0.00000e+00
2.05000e+03,-3.83480e+00,-2.20509e+01,0.00000e+00,0.00000e+00,0.00000e+00
2.05000e+03,-3.62863e+00,-2.08903e+01,0.00000e+00,0.00000e+00,0.00000e+00
2.05000e+03,-3.40785e+00,-1.97298e+01,0.00000e+00,0.00000e+00,0.00000e+00
2.05000e+03,-3.17285e+00,-1.85692e+01,0.00000e+00,0.00000e+00,0.00000e+00
2.05000e+03,-2.92368e+00,-1.74086e+01,0.00000e+00,0.00000e+00,0.00000e+00
2.05000e+03,-2.66563e+00,-1.62480e+01,0.00000e+00,0.00000e+00,0.00000e+00
2.05000e+03,-2.39621e+00,-1.50875e+01,0.00000e+00,0.00000e+00,0.00000e+00
2.05000e+03,-2.11949e+00,-1.39269e+01,0.00000e+00,0.00000e+00,0.00000e+00
2.05000e+03,-1.83624e+00,-1.27663e+01,0.00000e+00,0.00000e+00,0.00000e+00
2.05000e+03,-1.54717e+00,-1.16057e+01,0.00000e+00,0.00000e+00,0.00000e+00
2.05000e+03,-1.25562e+00,-1.04452e+01,0.00000e+00,0.00000e+00,0.00000e+00
2.05000e+03,-9.60241e-01,-9.28460e+00,0.00000e+00,0.00000e+00,0.00000e+00
2.05000e+03,-6.64227e-01,-8.12402e+00,0.00000e+00,0.00000e+00,0.00000e+00
2.05000e+03,-3.65929e-01,-6.96345e+00,0.00000e+00,0.00000e+00,0.00000e+00
2.05000e+03,-6.76615e-02,-5.80287e+00,0.00000e+00,0.00000e+00,0.00000e+00
2.05000e+03,2.29479e-01,-4.64230e+00,0.00000e+00,0.00000e+00,0.00000e+00
2.05000e+03,5.26620e-01,-3.48173e+00,0.00000e+00,0.00000e+00,0.00000e+00
2.05000e+03,8.16724e-01,-2.32115e+00,0.00000e+00,0.00000e+00,0.00000e+00
2.05000e+03,1.10552e+00,-1.16058e+00,0.00000e+00,0.00000e+00,0.00000e+00
--------------------------------------------------------------------------------------------------------------------------------------------------------------------------------------------------------------------------------------------------------------------------------------------------------------------------------------------------------------------------------

LAMINADO 
--------------------------------------------------------------------------------------------------------------------------------------------------------------------------------------------------------------------------------------------------------------------------------------------------------------------------------------------------------------------------------
X,Y,Z,Sigma,Tau,Von Mises
0.00000e+00,4.31008e+01,0.00000e+00,0.00000e+00,0.00000e+00,0.00000e+00
0.00000e+00,4.28837e+01,-3.27521e+00,0.00000e+00,0.00000e+00,0.00000e+00
0.00000e+00,4.25950e+01,-6.55041e+00,0.00000e+00,0.00000e+00,0.00000e+00
0.00000e+00,4.23033e+01,-9.82562e+00,0.00000e+00,0.00000e+00,0.00000e+00
0.00000e+00,4.19484e+01,-1.31008e+01,0.00000e+00,0.00000e+00,0.00000e+00
0.00000e+00,4.15787e+01,-1.63760e+01,0.00000e+00,0.00000e+00,0.00000e+00
0.00000e+00,4.11605e+01,-1.96512e+01,0.00000e+00,0.00000e+00,0.00000e+00
0.00000e+00,4.07187e+01,-2.29264e+01,0.00000e+00,0.00000e+00,0.00000e+00
0.00000e+00,4.02378e+01,-2.62017e+01,0.00000e+00,0.00000e+00,0.00000e+00
0.00000e+00,3.97249e+01,-2.94769e+01,0.00000e+00,0.00000e+00,0.00000e+00
0.00000e+00,3.91766e+01,-3.27521e+01,0.00000e+00,0.00000e+00,0.00000e+00
0.00000e+00,3.85857e+01,-3.60273e+01,0.00000e+00,0.00000e+00,0.00000e+00
0.00000e+00,3.79511e+01,-3.93025e+01,0.00000e+00,0.00000e+00,0.00000e+00
0.00000e+00,3.72545e+01,-4.25777e+01,0.00000e+00,0.00000e+00,0.00000e+00
0.00000e+00,3.64976e+01,-4.58529e+01,0.00000e+00,0.00000e+00,0.00000e+00
0.00000e+00,3.56687e+01,-4.91281e+01,0.00000e+00,0.00000e+00,0.00000e+00
0.00000e+00,3.47420e+01,-5.24033e+01,0.00000e+00,0.00000e+00,0.00000e+00
0.00000e+00,3.37474e+01,-5.56785e+01,0.00000e+00,0.00000e+00,0.00000e+00
0.00000e+00,3.26000e+01,-5.89537e+01,0.00000e+00,0.00000e+00,0.00000e+00
0.00000e+00,3.13892e+01,-6.22289e+01,0.00000e+00,0.00000e+00,0.00000e+00
0.00000e+00,3.00018e+01,-6.55041e+01,0.00000e+00,0.00000e+00,0.00000e+00
0.00000e+00,2.84730e+01,-6.87793e+01,0.00000e+00,0.00000e+00,0.00000e+00
0.00000e+00,2.68002e+01,-7.20546e+01,0.00000e+00,0.00000e+00,0.00000e+00
0.00000e+00,2.48857e+01,-7.53298e+01,0.00000e+00,0.00000e+00,0.00000e+00
0.00000e+00,2.26913e+01,-7.86050e+01,0.00000e+00,0.00000e+00,0.00000e+00
0.00000e+00,2.01805e+01,-8.18802e+01,0.00000e+00,0.00000e+00,0.00000e+00
0.00000e+00,1.72108e+01,-8.51554e+01,0.00000e+00,0.00000e+00,0.00000e+00
0.00000e+00,1.33989e+01,-8.84306e+01,0.00000e+00,0.00000e+00,0.00000e+00
0.00000e+00,8.24350e+00,-9.17058e+01,0.00000e+00,0.00000e+00,0.00000e+00
0.00000e+00,-3.34020e+00,-9.49810e+01,0.00000e+00,0.00000e+00,0.00000e+00
0.00000e+00,-4.17620e+00,-9.49886e+01,0.00000e+00,0.00000e+00,0.00000e+00
0.00000e+00,-1.17928e+01,-9.15961e+01,0.00000e+00,0.00000e+00,0.00000e+00
0.00000e+00,-1.27149e+01,-8.82037e+01,0.00000e+00,0.00000e+00,0.00000e+00
0.00000e+00,-1.30332e+01,-8.48113e+01,0.00000e+00,0.00000e+00,0.00000e+00
0.00000e+00,-1.30814e+01,-8.14188e+01,0.00000e+00,0.00000e+00,0.00000e+00
0.00000e+00,-1.29264e+01,-7.80264e+01,0.00000e+00,0.00000e+00,0.00000e+00
0.00000e+00,-1.26437e+01,-7.46339e+01,0.00000e+00,0.00000e+00,0.00000e+00
0.00000e+00,-1.22328e+01,-7.12415e+01,0.00000e+00,0.00000e+00,0.00000e+00
0.00000e+00,-1.17438e+01,-6.78490e+01,0.00000e+00,0.00000e+00,0.00000e+00
0.00000e+00,-1.12094e+01,-6.44565e+01,0.00000e+00,0.00000e+00,0.00000e+00
0.00000e+00,-1.06068e+01,-6.10641e+01,0.00000e+00,0.00000e+00,0.00000e+00
0.00000e+00,-9.96142e+00,-5.76716e+01,0.00000e+00,0.00000e+00,0.00000e+00
0.00000e+00,-9.27449e+00,-5.42792e+01,0.00000e+00,0.00000e+00,0.00000e+00
0.00000e+00,-8.54615e+00,-5.08867e+01,0.00000e+00,0.00000e+00,0.00000e+00
0.00000e+00,-7.79185e+00,-4.74943e+01,0.00000e+00,0.00000e+00,0.00000e+00
0.00000e+00,-7.00429e+00,-4.41018e+01,0.00000e+00,0.00000e+00,0.00000e+00
0.00000e+00,-6.19544e+00,-4.07094e+01,0.00000e+00,0.00000e+00,0.00000e+00
0.00000e+00,-5.36748e+00,-3.73169e+01,0.00000e+00,0.00000e+00,0.00000e+00
0.00000e+00,-4.52248e+00,-3.39245e+01,0.00000e+00,0.00000e+00,0.00000e+00
0.00000e+00,-3.67026e+00,-3.05320e+01,0.00000e+00,0.00000e+00,0.00000e+00
0.00000e+00,-2.80686e+00,-2.71396e+01,0.00000e+00,0.00000e+00,0.00000e+00
0.00000e+00,-1.94159e+00,-2.37472e+01,0.00000e+00,0.00000e+00,0.00000e+00
0.00000e+00,-1.06964e+00,-2.03547e+01,0.00000e+00,0.00000e+00,0.00000e+00
0.00000e+00,-1.97780e-01,-1.69622e+01,0.00000e+00,0.00000e+00,0.00000e+00
0.00000e+00,6.70785e-01,-1.35698e+01,0.00000e+00,0.00000e+00,0.00000e+00
0.00000e+00,1.53935e+00,-1.01774e+01,0.00000e+00,0.00000e+00,0.00000e+00
0.00000e+00,2.38735e+00,-6.78490e+00,0.00000e+00,0.00000e+00,0.00000e+00
0.00000e+00,3.23151e+00,-3.39245e+00,0.00000e+00,0.00000e+00,0.00000e+00
1.07300e+02,4.26785e+01,0.00000e+00,0.00000e+00,0.00000e+00,0.00000e+00
1.07300e+02,4.24636e+01,-3.24312e+00,0.00000e+00,0.00000e+00,0.00000e+00
1.07300e+02,4.21777e+01,-6.48624e+00,0.00000e+00,0.00000e+00,0.00000e+00
1.07300e+02,4.18889e+01,-9.72936e+00,0.00000e+00,0.00000e+00,0.00000e+00
1.07300e+02,4.15374e+01,-1.29725e+01,0.00000e+00,0.00000e+00,0.00000e+00
1.07300e+02,4.11714e+01,-1.62156e+01,0.00000e+00,0.00000e+00,0.00000e+00
1.07300e+02,4.07572e+01,-1.94587e+01,0.00000e+00,0.00000e+00,0.00000e+00
1.07300e+02,4.03197e+01,-2.27018e+01,0.00000e+00,0.00000e+00,0.00000e+00
1.07300e+02,3.98436e+01,-2.59450e+01,0.00000e+00,0.00000e+00,0.00000e+00
1.07300e+02,3.93357e+01,-2.91881e+01,0.00000e+00,0.00000e+00,0.00000e+00
1.07300e+02,3.87928e+01,-3.24312e+01,0.00000e+00,0.00000e+00,0.00000e+00
1.07300e+02,3.82077e+01,-3.56743e+01,0.00000e+00,0.00000e+00,0.00000e+00
1.07300e+02,3.75793e+01,-3.89174e+01,0.00000e+00,0.00000e+00,0.00000e+00
1.07300e+02,3.68895e+01,-4.21606e+01,0.00000e+00,0.00000e+00,0.00000e+00
1.07300e+02,3.61401e+01,-4.54037e+01,0.00000e+00,0.00000e+00,0.00000e+00
1.07300e+02,3.53192e+01,-4.86468e+01,0.00000e+00,0.00000e+00,0.00000e+00
1.07300e+02,3.44016e+01,-5.18899e+01,0.00000e+00,0.00000e+00,0.00000e+00
1.07300e+02,3.34168e+01,-5.51330e+01,0.00000e+00,0.00000e+00,0.00000e+00
1.07300e+02,3.22806e+01,-5.83762e+01,0.00000e+00,0.00000e+00,0.00000e+00
1.07300e+02,3.10816e+01,-6.16193e+01,0.00000e+00,0.00000e+00,0.00000e+00
1.07300e+02,2.97079e+01,-6.48624e+01,0.00000e+00,0.00000e+00,0.00000e+00
1.07300e+02,2.81940e+01,-6.81055e+01,0.00000e+00,0.00000e+00,0.00000e+00
1.07300e+02,2.65376e+01,-7.13486e+01,0.00000e+00,0.00000e+00,0.00000e+00
1.07300e+02,2.46419e+01,-7.45918e+01,0.00000e+00,0.00000e+00,0.00000e+00
1.07300e+02,2.24690e+01,-7.78349e+01,0.00000e+00,0.00000e+00,0.00000e+00
1.07300e+02,1.99828e+01,-8.10780e+01,0.00000e+00,0.00000e+00,0.00000e+00
1.07300e+02,1.70422e+01,-8.43211e+01,0.00000e+00,0.00000e+00,0.00000e+00
1.07300e+02,1.32676e+01,-8.75642e+01,0.00000e+00,0.00000e+00,0.00000e+00
1.07300e+02,8.16273e+00,-9.08074e+01,0.00000e+00,0.00000e+00,0.00000e+00
1.07300e+02,-3.30748e+00,-9.40505e+01,0.00000e+00,0.00000e+00,0.00000e+00
1.07300e+02,-4.13529e+00,-9.40580e+01,0.00000e+00,0.00000e+00,0.00000e+00
1.07300e+02,-1.16772e+01,-9.06988e+01,0.00000e+00,0.00000e+00,0.00000e+00
1.07300e+02,-1.25904e+01,-8.73396e+01,0.00000e+00,0.00000e+00,0.00000e+00
1.07300e+02,-1.29055e+01,-8.39804e+01,0.00000e+00,0.00000e+00,0.00000e+00
1.07300e+02,-1.29533e+01,-8.06211e+01,0.00000e+00,0.00000e+00,0.00000e+00
1.07300e+02,-1.27997e+01,-7.72619e+01,0.00000e+00,0.00000e+00,0.00000e+00
1.07300e+02,-1.25198e+01,-7.39027e+01,0.00000e+00,0.00000e+00,0.00000e+00
1.07300e+02,-1.21130e+01,-7.05435e+01,0.00000e+00,0.00000e+00,0.00000e+00
1.07300e+02,-1.16287e+01,-6.71843e+01,0.00000e+00,0.00000e+00,0.00000e+00
1.07300e+02,-1.10996e+01,-6.38251e+01,0.00000e+00,0.00000e+00,0.00000e+00
1.07300e+02,-1.05029e+01,-6.04659e+01,0.00000e+00,0.00000e+00,0.00000e+00
1.07300e+02,-9.86382e+00,-5.71066e+01,0.00000e+00,0.00000e+00,0.00000e+00
1.07300e+02,-9.18363e+00,-5.37474e+01,0.00000e+00,0.00000e+00,0.00000e+00
1.07300e+02,-8.46243e+00,-5.03882e+01,0.00000e+00,0.00000e+00,0.00000e+00
1.07300e+02,-7.71552e+00,-4.70290e+01,0.00000e+00,0.00000e+00,0.00000e+00
1.07300e+02,-6.93567e+00,-4.36698e+01,0.00000e+00,0.00000e+00,0.00000e+00
1.07300e+02,-6.13474e+00,-4.03106e+01,0.00000e+00,0.00000e+00,0.00000e+00
1.07300e+02,-5.31490e+00,-3.69514e+01,0.00000e+00,0.00000e+00,0.00000e+00
1.07300e+02,-4.47818e+00,-3.35921e+01,0.00000e+00,0.00000e+00,0.00000e+00
1.07300e+02,-3.63431e+00,-3.02329e+01,0.00000e+00,0.00000e+00,0.00000e+00
1.07300e+02,-2.77936e+00,-2.68737e+01,0.00000e+00,0.00000e+00,0.00000e+00
1.07300e+02,-1.92257e+00,-2.35145e+01,0.00000e+00,0.00000e+00,0.00000e+00
1.07300e+02,-1.05916e+00,-2.01553e+01,0.00000e+00,0.00000e+00,0.00000e+00
1.07300e+02,-1.95842e-01,-1.67961e+01,0.00000e+00,0.00000e+00,0.00000e+00
1.07300e+02,6.64213e-01,-1.34369e+01,0.00000e+00,0.00000e+00,0.00000e+00
1.07300e+02,1.52427e+00,-1.00776e+01,0.00000e+00,0.00000e+00,0.00000e+00
1.07300e+02,2.36396e+00,-6.71843e+00,0.00000e+00,0.00000e+00,0.00000e+00
1.07300e+02,3.19985e+00,-3.35921e+00,0.00000e+00,0.00000e+00,0.00000e+00
2.14300e+02,4.22575e+01,0.00000e+00,0.00000e+00,0.00000e+00,0.00000e+00
2.14300e+02,4.20447e+01,-3.21112e+00,0.00000e+00,0.00000e+00,0.00000e+00
2.14300e+02,4.17615e+01,-6.42224e+00,0.00000e+00,0.00000e+00,0.00000e+00
2.14300e+02,4.14756e+01,-9.63337e+00,0.00000e+00,0.00000e+00,0.00000e+00
2.14300e+02,4.11276e+01,-1.28445e+01,0.00000e+00,0.00000e+00,0.00000e+00
2.14300e+02,4.07652e+01,-1.60556e+01,0.00000e+00,0.00000e+00,0.00000e+00
2.14300e+02,4.03551e+01,-1.92667e+01,0.00000e+00,0.00000e+00,0.00000e+00
2.14300e+02,3.99219e+01,-2.24779e+01,0.00000e+00,0.00000e+00,0.00000e+00
2.14300e+02,3.94505e+01,-2.56890e+01,0.00000e+00,0.00000e+00,0.00000e+00
2.14300e+02,3.89476e+01,-2.89001e+01,0.00000e+00,0.00000e+00,0.00000e+00
2.14300e+02,3.84101e+01,-3.21112e+01,0.00000e+00,0.00000e+00,0.00000e+00
2.14300e+02,3.78307e+01,-3.53223e+01,0.00000e+00,0.00000e+00,0.00000e+00
2.14300e+02,3.72085e+01,-3.85335e+01,0.00000e+00,0.00000e+00,0.00000e+00
2.14300e+02,3.65256e+01,-4.17446e+01,0.00000e+00,0.00000e+00,0.00000e+00
2.14300e+02,3.57835e+01,-4.49557e+01,0.00000e+00,0.00000e+00,0.00000e+00
2.14300e+02,3.49707e+01,-4.81668e+01,0.00000e+00,0.00000e+00,0.00000e+00
2.14300e+02,3.40622e+01,-5.13780e+01,0.00000e+00,0.00000e+00,0.00000e+00
2.14300e+02,3.30871e+01,-5.45891e+01,0.00000e+00,0.00000e+00,0.00000e+00
2.14300e+02,3.19621e+01,-5.78002e+01,0.00000e+00,0.00000e+00,0.00000e+00
2.14300e+02,3.07750e+01,-6.10113e+01,0.00000e+00,0.00000e+00,0.00000e+00
2.14300e+02,2.94148e+01,-6.42224e+01,0.00000e+00,0.00000e+00,0.00000e+00
2.14300e+02,2.79159e+01,-6.74336e+01,0.00000e+00,0.00000e+00,0.00000e+00
2.14300e+02,2.62758e+01,-7.06447e+01,0.00000e+00,0.00000e+00,0.00000e+00
2.14300e+02,2.43988e+01,-7.38558e+01,0.00000e+00,0.00000e+00,0.00000e+00
2.14300e+02,2.22473e+01,-7.70669e+01,0.00000e+00,0.00000e+00,0.00000e+00
2.14300e+02,1.97856e+01,-8.02781e+01,0.00000e+00,0.00000e+00,0.00000e+00
2.14300e+02,1.68740e+01,-8.34892e+01,0.00000e+00,0.00000e+00,0.00000e+00
2.14300e+02,1.31367e+01,-8.67003e+01,0.00000e+00,0.00000e+00,0.00000e+00
2.14300e+02,8.08220e+00,-8.99114e+01,0.00000e+00,0.00000e+00,0.00000e+00
2.14300e+02,-3.27484e+00,-9.31226e+01,0.00000e+00,0.00000e+00,0.00000e+00
2.14300e+02,-4.09449e+00,-9.31300e+01,0.00000e+00,0.00000e+00,0.00000e+00
2.14300e+02,-1.15620e+01,-8.98039e+01,0.00000e+00,0.00000e+00,0.00000e+00
2.14300e+02,-1.24661e+01,-8.64779e+01,0.00000e+00,0.00000e+00,0.00000e+00
2.14300e+02,-1.27781e+01,-8.31518e+01,0.00000e+00,0.00000e+00,0.00000e+00
2.14300e+02,-1.28255e+01,-7.98257e+01,0.00000e+00,0.00000e+00,0.00000e+00
2.14300e+02,-1.26734e+01,-7.64996e+01,0.00000e+00,0.00000e+00,0.00000e+00
2.14300e+02,-1.23963e+01,-7.31736e+01,0.00000e+00,0.00000e+00,0.00000e+00
2.14300e+02,-1.19935e+01,-6.98475e+01,0.00000e+00,0.00000e+00,0.00000e+00
2.14300e+02,-1.15140e+01,-6.65214e+01,0.00000e+00,0.00000e+00,0.00000e+00
2.14300e+02,-1.09901e+01,-6.31954e+01,0.00000e+00,0.00000e+00,0.00000e+00
2.14300e+02,-1.03992e+01,-5.98693e+01,0.00000e+00,0.00000e+00,0.00000e+00
2.14300e+02,-9.76651e+00,-5.65432e+01,0.00000e+00,0.00000e+00,0.00000e+00
2.14300e+02,-9.09302e+00,-5.32171e+01,0.00000e+00,0.00000e+00,0.00000e+00
2.14300e+02,-8.37893e+00,-4.98911e+01,0.00000e+00,0.00000e+00,0.00000e+00
2.14300e+02,-7.63939e+00,-4.65650e+01,0.00000e+00,0.00000e+00,0.00000e+00
2.14300e+02,-6.86724e+00,-4.32389e+01,0.00000e+00,0.00000e+00,0.00000e+00
2.14300e+02,-6.07421e+00,-3.99129e+01,0.00000e+00,0.00000e+00,0.00000e+00
2.14300e+02,-5.26246e+00,-3.65868e+01,0.00000e+00,0.00000e+00,0.00000e+00
2.14300e+02,-4.43399e+00,-3.32607e+01,0.00000e+00,0.00000e+00,0.00000e+00
2.14300e+02,-3.59845e+00,-2.99346e+01,0.00000e+00,0.00000e+00,0.00000e+00
2.14300e+02,-2.75194e+00,-2.66086e+01,0.00000e+00,0.00000e+00,0.00000e+00
2.14300e+02,-1.90360e+00,-2.32825e+01,0.00000e+00,0.00000e+00,0.00000e+00
2.14300e+02,-1.04871e+00,-1.99564e+01,0.00000e+00,0.00000e+00,0.00000e+00
2.14300e+02,-1.93910e-01,-1.66304e+01,0.00000e+00,0.00000e+00,0.00000e+00
2.14300e+02,6.57660e-01,-1.33043e+01,0.00000e+00,0.00000e+00,0.00000e+00
2.14300e+02,1.50923e+00,-9.97821e+00,0.00000e+00,0.00000e+00,0.00000e+00
2.14300e+02,2.34063e+00,-6.65214e+00,0.00000e+00,0.00000e+00,0.00000e+00
2.14300e+02,3.16828e+00,-3.32607e+00,0.00000e+00,0.00000e+00,0.00000e+00
3.20700e+02,4.18388e+01,0.00000e+00,0.00000e+00,0.00000e+00,0.00000e+00
3.20700e+02,4.16280e+01,-3.17930e+00,0.00000e+00,0.00000e+00,0.00000e+00
3.20700e+02,4.13477e+01,-6.35861e+00,0.00000e+00,0.00000e+00,0.00000e+00
3.20700e+02,4.10646e+01,-9.53791e+00,0.00000e+00,0.00000e+00,0.00000e+00
3.20700e+02,4.07201e+01,-1.27172e+01,0.00000e+00,0.00000e+00,0.00000e+00
3.20700e+02,4.03613e+01,-1.58965e+01,0.00000e+00,0.00000e+00,0.00000e+00
3.20700e+02,3.99553e+01,-1.90758e+01,0.00000e+00,0.00000e+00,0.00000e+00
3.20700e+02,3.95264e+01,-2.22551e+01,0.00000e+00,0.00000e+00,0.00000e+00
3.20700e+02,3.90596e+01,-2.54344e+01,0.00000e+00,0.00000e+00,0.00000e+00
3.20700e+02,3.85617e+01,-2.86137e+01,0.00000e+00,0.00000e+00,0.00000e+00
3.20700e+02,3.80295e+01,-3.17930e+01,0.00000e+00,0.00000e+00,0.00000e+00
3.20700e+02,3.74559e+01,-3.49724e+01,0.00000e+00,0.00000e+00,0.00000e+00
3.20700e+02,3.68398e+01,-3.81517e+01,0.00000e+00,0.00000e+00,0.00000e+00
3.20700e+02,3.61637e+01,-4.13310e+01,0.00000e+00,0.00000e+00,0.00000e+00
3.20700e+02,3.54289e+01,-4.45103e+01,0.00000e+00,0.00000e+00,0.00000e+00
3.20700e+02,3.46242e+01,-4.76896e+01,0.00000e+00,0.00000e+00,0.00000e+00
3.20700e+02,3.37247e+01,-5.08689e+01,0.00000e+00,0.00000e+00,0.00000e+00
3.20700e+02,3.27593e+01,-5.40482e+01,0.00000e+00,0.00000e+00,0.00000e+00
3.20700e+02,3.16454e+01,-5.72275e+01,0.00000e+00,0.00000e+00,0.00000e+00
3.20700e+02,3.04701e+01,-6.04068e+01,0.00000e+00,0.00000e+00,0.00000e+00
3.20700e+02,2.91233e+01,-6.35861e+01,0.00000e+00,0.00000e+00,0.00000e+00
3.20700e+02,2.76393e+01,-6.67654e+01,0.00000e+00,0.00000e+00,0.00000e+00
3.20700e+02,2.60154e+01,-6.99447e+01,0.00000e+00,0.00000e+00,0.00000e+00
3.20700e+02,2.41570e+01,-7.31240e+01,0.00000e+00,0.00000e+00,0.00000e+00
3.20700e+02,2.20269e+01,-7.63033e+01,0.00000e+00,0.00000e+00,0.00000e+00
3.20700e+02,1.95896e+01,-7.94826e+01,0.00000e+00,0.00000e+00,0.00000e+00
3.20700e+02,1.67068e+01,-8.26619e+01,0.00000e+00,0.00000e+00,0.00000e+00
3.20700e+02,1.30066e+01,-8.58412e+01,0.00000e+00,0.00000e+00,0.00000e+00
3.20700e+02,8.00212e+00,-8.90205e+01,0.00000e+00,0.00000e+00,0.00000e+00
3.20700e+02,-3.24239e+00,-9.21998e+01,0.00000e+00,0.00000e+00,0.00000e+00
3.20700e+02,-4.05392e+00,-9.22072e+01,0.00000e+00,0.00000e+00,0.00000e+00
3.20700e+02,-1.14474e+01,-8.89141e+01,0.00000e+00,0.00000e+00,0.00000e+00
3.20700e+02,-1.23426e+01,-8.56210e+01,0.00000e+00,0.00000e+00,0.00000e+00
3.20700e+02,-1.26515e+01,-8.23279e+01,0.00000e+00,0.00000e+00,0.00000e+00
3.20700e+02,-1.26984e+01,-7.90348e+01,0.00000e+00,0.00000e+00,0.00000e+00
3.20700e+02,-1.25479e+01,-7.57416e+01,0.00000e+00,0.00000e+00,0.00000e+00
3.20700e+02,-1.22734e+01,-7.24485e+01,0.00000e+00,0.00000e+00,0.00000e+00
3.20700e+02,-1.18746e+01,-6.91554e+01,0.00000e+00,0.00000e+00,0.00000e+00
3.20700e+02,-1.13999e+01,-6.58623e+01,0.00000e+00,0.00000e+00,0.00000e+00
3.20700e+02,-1.08812e+01,-6.25692e+01,0.00000e+00,0.00000e+00,0.00000e+00
3.20700e+02,-1.02962e+01,-5.92761e+01,0.00000e+00,0.00000e+00,0.00000e+00
3.20700e+02,-9.66973e+00,-5.59829e+01,0.00000e+00,0.00000e+00,0.00000e+00
3.20700e+02,-9.00292e+00,-5.26898e+01,0.00000e+00,0.00000e+00,0.00000e+00
3.20700e+02,-8.29591e+00,-4.93967e+01,0.00000e+00,0.00000e+00,0.00000e+00
3.20700e+02,-7.56370e+00,-4.61036e+01,0.00000e+00,0.00000e+00,0.00000e+00
3.20700e+02,-6.79920e+00,-4.28105e+01,0.00000e+00,0.00000e+00,0.00000e+00
3.20700e+02,-6.01403e+00,-3.95174e+01,0.00000e+00,0.00000e+00,0.00000e+00
3.20700e+02,-5.21032e+00,-3.62243e+01,0.00000e+00,0.00000e+00,0.00000e+00
3.20700e+02,-4.39006e+00,-3.29311e+01,0.00000e+00,0.00000e+00,0.00000e+00
3.20700e+02,-3.56279e+00,-2.96380e+01,0.00000e+00,0.00000e+00,0.00000e+00
3.20700e+02,-2.72467e+00,-2.63449e+01,0.00000e+00,0.00000e+00,0.00000e+00
3.20700e+02,-1.88474e+00,-2.30518e+01,0.00000e+00,0.00000e+00,0.00000e+00
3.20700e+02,-1.03832e+00,-1.97587e+01,0.00000e+00,0.00000e+00,0.00000e+00
3.20700e+02,-1.91989e-01,-1.64656e+01,0.00000e+00,0.00000e+00,0.00000e+00
3.20700e+02,6.51143e-01,-1.31725e+01,0.00000e+00,0.00000e+00,0.00000e+00
3.20700e+02,1.49428e+00,-9.87934e+00,0.00000e+00,0.00000e+00,0.00000e+00
3.20700e+02,2.31744e+00,-6.58623e+00,0.00000e+00,0.00000e+00,0.00000e+00
3.20700e+02,3.13689e+00,-3.29311e+00,0.00000e+00,0.00000e+00,0.00000e+00
4.26200e+02,4.14236e+01,0.00000e+00,0.00000e+00,0.00000e+00,0.00000e+00
4.26200e+02,4.12150e+01,-3.14776e+00,0.00000e+00,0.00000e+00,0.00000e+00
4.26200e+02,4.09374e+01,-6.29551e+00,0.00000e+00,0.00000e+00,0.00000e+00
4.26200e+02,4.06571e+01,-9.44327e+00,0.00000e+00,0.00000e+00,0.00000e+00
4.26200e+02,4.03160e+01,-1.25910e+01,0.00000e+00,0.00000e+00,0.00000e+00
4.26200e+02,3.99607e+01,-1.57388e+01,0.00000e+00,0.00000e+00,0.00000e+00
4.26200e+02,3.95588e+01,-1.88865e+01,0.00000e+00,0.00000e+00,0.00000e+00
4.26200e+02,3.91341e+01,-2.20343e+01,0.00000e+00,0.00000e+00,0.00000e+00
4.26200e+02,3.86720e+01,-2.51820e+01,0.00000e+00,0.00000e+00,0.00000e+00
4.26200e+02,3.81790e+01,-2.83298e+01,0.00000e+00,0.00000e+00,0.00000e+00
4.26200e+02,3.76521e+01,-3.14776e+01,0.00000e+00,0.00000e+00,0.00000e+00
4.26200e+02,3.70842e+01,-3.46253e+01,0.00000e+00,0.00000e+00,0.00000e+00
4.26200e+02,3.64743e+01,-3.77731e+01,0.00000e+00,0.00000e+00,0.00000e+00
4.26200e+02,3.58048e+01,-4.09208e+01,0.00000e+00,0.00000e+00,0.00000e+00
4.26200e+02,3.50774e+01,-4.40686e+01,0.00000e+00,0.00000e+00,0.00000e+00
4.26200e+02,3.42806e+01,-4.72163e+01,0.00000e+00,0.00000e+00,0.00000e+00
4.26200e+02,3.33901e+01,-5.03641e+01,0.00000e+00,0.00000e+00,0.00000e+00
4.26200e+02,3.24342e+01,-5.35118e+01,0.00000e+00,0.00000e+00,0.00000e+00
4.26200e+02,3.13314e+01,-5.66596e+01,0.00000e+00,0.00000e+00,0.00000e+00
4.26200e+02,3.01677e+01,-5.98074e+01,0.00000e+00,0.00000e+00,0.00000e+00
4.26200e+02,2.88343e+01,-6.29551e+01,0.00000e+00,0.00000e+00,0.00000e+00
4.26200e+02,2.73650e+01,-6.61029e+01,0.00000e+00,0.00000e+00,0.00000e+00
4.26200e+02,2.57573e+01,-6.92506e+01,0.00000e+00,0.00000e+00,0.00000e+00
4.26200e+02,2.39173e+01,-7.23984e+01,0.00000e+00,0.00000e+00,0.00000e+00
4.26200e+02,2.18083e+01,-7.55461e+01,0.00000e+00,0.00000e+00,0.00000e+00
4.26200e+02,1.93952e+01,-7.86939e+01,0.00000e+00,0.00000e+00,0.00000e+00
4.26200e+02,1.65410e+01,-8.18417e+01,0.00000e+00,0.00000e+00,0.00000e+00
4.26200e+02,1.28775e+01,-8.49894e+01,0.00000e+00,0.00000e+00,0.00000e+00
4.26200e+02,7.92271e+00,-8.81372e+01,0.00000e+00,0.00000e+00,0.00000e+00
4.26200e+02,-3.21022e+00,-9.12849e+01,0.00000e+00,0.00000e+00,0.00000e+00
4.26200e+02,-4.01369e+00,-9.12922e+01,0.00000e+00,0.00000e+00,0.00000e+00
4.26200e+02,-1.13339e+01,-8.80318e+01,0.00000e+00,0.00000e+00,0.00000e+00
4.26200e+02,-1.22201e+01,-8.47713e+01,0.00000e+00,0.00000e+00,0.00000e+00
4.26200e+02,-1.25260e+01,-8.15109e+01,0.00000e+00,0.00000e+00,0.00000e+00
4.26200e+02,-1.25724e+01,-7.82505e+01,0.00000e+00,0.00000e+00,0.00000e+00
4.26200e+02,-1.24233e+01,-7.49900e+01,0.00000e+00,0.00000e+00,0.00000e+00
4.26200e+02,-1.21516e+01,-7.17296e+01,0.00000e+00,0.00000e+00,0.00000e+00
4.26200e+02,-1.17568e+01,-6.84692e+01,0.00000e+00,0.00000e+00,0.00000e+00
4.26200e+02,-1.12868e+01,-6.52087e+01,0.00000e+00,0.00000e+00,0.00000e+00
4.26200e+02,-1.07732e+01,-6.19483e+01,0.00000e+00,0.00000e+00,0.00000e+00
4.26200e+02,-1.01940e+01,-5.86879e+01,0.00000e+00,0.00000e+00,0.00000e+00
4.26200e+02,-9.57378e+00,-5.54274e+01,0.00000e+00,0.00000e+00,0.00000e+00
4.26200e+02,-8.91358e+00,-5.21670e+01,0.00000e+00,0.00000e+00,0.00000e+00
4.26200e+02,-8.21359e+00,-4.89065e+01,0.00000e+00,0.00000e+00,0.00000e+00
4.26200e+02,-7.48864e+00,-4.56461e+01,0.00000e+00,0.00000e+00,0.00000e+00
4.26200e+02,-6.73173e+00,-4.23857e+01,0.00000e+00,0.00000e+00,0.00000e+00
4.26200e+02,-5.95435e+00,-3.91252e+01,0.00000e+00,0.00000e+00,0.00000e+00
4.26200e+02,-5.15861e+00,-3.58648e+01,0.00000e+00,0.00000e+00,0.00000e+00
4.26200e+02,-4.34650e+00,-3.26044e+01,0.00000e+00,0.00000e+00,0.00000e+00
4.26200e+02,-3.52744e+00,-2.93439e+01,0.00000e+00,0.00000e+00,0.00000e+00
4.26200e+02,-2.69763e+00,-2.60835e+01,0.00000e+00,0.00000e+00,0.00000e+00
4.26200e+02,-1.86603e+00,-2.28231e+01,0.00000e+00,0.00000e+00,0.00000e+00
4.26200e+02,-1.02802e+00,-1.95626e+01,0.00000e+00,0.00000e+00,0.00000e+00
4.26200e+02,-1.90083e-01,-1.63022e+01,0.00000e+00,0.00000e+00,0.00000e+00
4.26200e+02,6.44682e-01,-1.30417e+01,0.00000e+00,0.00000e+00,0.00000e+00
4.26200e+02,1.47945e+00,-9.78131e+00,0.00000e+00,0.00000e+00,0.00000e+00
4.26200e+02,2.29445e+00,-6.52087e+00,0.00000e+00,0.00000e+00,0.00000e+00
4.26200e+02,3.10576e+00,-3.26044e+00,0.00000e+00,0.00000e+00,0.00000e+00
5.30600e+02,4.10127e+01,0.00000e+00,0.00000e+00,0.00000e+00,0.00000e+00
5.30600e+02,4.08062e+01,-3.11654e+00,0.00000e+00,0.00000e+00,0.00000e+00
5.30600e+02,4.05314e+01,-6.23307e+00,0.00000e+00,0.00000e+00,0.00000e+00
5.30600e+02,4.02539e+01,-9.34961e+00,0.00000e+00,0.00000e+00,0.00000e+00
5.30600e+02,3.99161e+01,-1.24661e+01,0.00000e+00,0.00000e+00,0.00000e+00
5.30600e+02,3.95644e+01,-1.55827e+01,0.00000e+00,0.00000e+00,0.00000e+00
5.30600e+02,3.91664e+01,-1.86992e+01,0.00000e+00,0.00000e+00,0.00000e+00
5.30600e+02,3.87460e+01,-2.18158e+01,0.00000e+00,0.00000e+00,0.00000e+00
5.30600e+02,3.82884e+01,-2.49323e+01,0.00000e+00,0.00000e+00,0.00000e+00
5.30600e+02,3.78003e+01,-2.80488e+01,0.00000e+00,0.00000e+00,0.00000e+00
5.30600e+02,3.72787e+01,-3.11654e+01,0.00000e+00,0.00000e+00,0.00000e+00
5.30600e+02,3.67164e+01,-3.42819e+01,0.00000e+00,0.00000e+00,0.00000e+00
5.30600e+02,3.61125e+01,-3.73984e+01,0.00000e+00,0.00000e+00,0.00000e+00
5.30600e+02,3.54497e+01,-4.05150e+01,0.00000e+00,0.00000e+00,0.00000e+00
5.30600e+02,3.47295e+01,-4.36315e+01,0.00000e+00,0.00000e+00,0.00000e+00
5.30600e+02,3.39406e+01,-4.67480e+01,0.00000e+00,0.00000e+00,0.00000e+00
5.30600e+02,3.30589e+01,-4.98646e+01,0.00000e+00,0.00000e+00,0.00000e+00
5.30600e+02,3.21125e+01,-5.29811e+01,0.00000e+00,0.00000e+00,0.00000e+00
5.30600e+02,3.10206e+01,-5.60976e+01,0.00000e+00,0.00000e+00,0.00000e+00
5.30600e+02,2.98685e+01,-5.92142e+01,0.00000e+00,0.00000e+00,0.00000e+00
5.30600e+02,2.85484e+01,-6.23307e+01,0.00000e+00,0.00000e+00,0.00000e+00
5.30600e+02,2.70936e+01,-6.54473e+01,0.00000e+00,0.00000e+00,0.00000e+00
5.30600e+02,2.55018e+01,-6.85638e+01,0.00000e+00,0.00000e+00,0.00000e+00
5.30600e+02,2.36801e+01,-7.16803e+01,0.00000e+00,0.00000e+00,0.00000e+00
5.30600e+02,2.15920e+01,-7.47969e+01,0.00000e+00,0.00000e+00,0.00000e+00
5.30600e+02,1.92028e+01,-7.79134e+01,0.00000e+00,0.00000e+00,0.00000e+00
5.30600e+02,1.63770e+01,-8.10299e+01,0.00000e+00,0.00000e+00,0.00000e+00
5.30600e+02,1.27498e+01,-8.41465e+01,0.00000e+00,0.00000e+00,0.00000e+00
5.30600e+02,7.84413e+00,-8.72630e+01,0.00000e+00,0.00000e+00,0.00000e+00
5.30600e+02,-3.17838e+00,-9.03795e+01,0.00000e+00,0.00000e+00,0.00000e+00
5.30600e+02,-3.97388e+00,-9.03868e+01,0.00000e+00,0.00000e+00,0.00000e+00
5.30600e+02,-1.12214e+01,-8.71587e+01,0.00000e+00,0.00000e+00,0.00000e+00
5.30600e+02,-1.20989e+01,-8.39306e+01,0.00000e+00,0.00000e+00,0.00000e+00
5.30600e+02,-1.24018e+01,-8.07025e+01,0.00000e+00,0.00000e+00,0.00000e+00
5.30600e+02,-1.24477e+01,-7.74744e+01,0.00000e+00,0.00000e+00,0.00000e+00
5.30600e+02,-1.23001e+01,-7.42463e+01,0.00000e+00,0.00000e+00,0.00000e+00
5.30600e+02,-1.20311e+01,-7.10182e+01,0.00000e+00,0.00000e+00,0.00000e+00
5.30600e+02,-1.16402e+01,-6.77901e+01,0.00000e+00,0.00000e+00,0.00000e+00
5.30600e+02,-1.11748e+01,-6.45620e+01,0.00000e+00,0.00000e+00,0.00000e+00
5.30600e+02,-1.06664e+01,-6.13339e+01,0.00000e+00,0.00000e+00,0.00000e+00
5.30600e+02,-1.00929e+01,-5.81058e+01,0.00000e+00,0.00000e+00,0.00000e+00
5.30600e+02,-9.47882e+00,-5.48777e+01,0.00000e+00,0.00000e+00,0.00000e+00
5.30600e+02,-8.82518e+00,-5.16496e+01,0.00000e+00,0.00000e+00,0.00000e+00
5.30600e+02,-8.13212e+00,-4.84215e+01,0.00000e+00,0.00000e+00,0.00000e+00
5.30600e+02,-7.41437e+00,-4.51934e+01,0.00000e+00,0.00000e+00,0.00000e+00
5.30600e+02,-6.66496e+00,-4.19653e+01,0.00000e+00,0.00000e+00,0.00000e+00
5.30600e+02,-5.89529e+00,-3.87372e+01,0.00000e+00,0.00000e+00,0.00000e+00
5.30600e+02,-5.10745e+00,-3.55091e+01,0.00000e+00,0.00000e+00,0.00000e+00
5.30600e+02,-4.30339e+00,-3.22810e+01,0.00000e+00,0.00000e+00,0.00000e+00
5.30600e+02,-3.49245e+00,-2.90529e+01,0.00000e+00,0.00000e+00,0.00000e+00
5.30600e+02,-2.67088e+00,-2.58248e+01,0.00000e+00,0.00000e+00,0.00000e+00
5.30600e+02,-1.84753e+00,-2.25967e+01,0.00000e+00,0.00000e+00,0.00000e+00
5.30600e+02,-1.01782e+00,-1.93686e+01,0.00000e+00,0.00000e+00,0.00000e+00
5.30600e+02,-1.88198e-01,-1.61405e+01,0.00000e+00,0.00000e+00,0.00000e+00
5.30600e+02,6.38288e-01,-1.29124e+01,0.00000e+00,0.00000e+00,0.00000e+00
5.30600e+02,1.46477e+00,-9.68430e+00,0.00000e+00,0.00000e+00,0.00000e+00
5.30600e+02,2.27169e+00,-6.45620e+00,0.00000e+00,0.00000e+00,0.00000e+00
5.30600e+02,3.07496e+00,-3.22810e+00,0.00000e+00,0.00000e+00,0.00000e+00
6.33500e+02,4.06078e+01,0.00000e+00,0.00000e+00,0.00000e+00,0.00000e+00
6.33500e+02,4.04033e+01,-3.08576e+00,0.00000e+00,0.00000e+00,0.00000e+00
6.33500e+02,4.01312e+01,-6.17153e+00,0.00000e+00,0.00000e+00,0.00000e+00
6.33500e+02,3.98564e+01,-9.25729e+00,0.00000e+00,0.00000e+00,0.00000e+00
6.33500e+02,3.95220e+01,-1.23431e+01,0.00000e+00,0.00000e+00,0.00000e+00
6.33500e+02,3.91738e+01,-1.54288e+01,0.00000e+00,0.00000e+00,0.00000e+00
6.33500e+02,3.87797e+01,-1.85146e+01,0.00000e+00,0.00000e+00,0.00000e+00
6.33500e+02,3.83634e+01,-2.16004e+01,0.00000e+00,0.00000e+00,0.00000e+00
6.33500e+02,3.79104e+01,-2.46861e+01,0.00000e+00,0.00000e+00,0.00000e+00
6.33500e+02,3.74271e+01,-2.77719e+01,0.00000e+00,0.00000e+00,0.00000e+00
6.33500e+02,3.69106e+01,-3.08576e+01,0.00000e+00,0.00000e+00,0.00000e+00
6.33500e+02,3.63539e+01,-3.39434e+01,0.00000e+00,0.00000e+00,0.00000e+00
6.33500e+02,3.57559e+01,-3.70292e+01,0.00000e+00,0.00000e+00,0.00000e+00
6.33500e+02,3.50997e+01,-4.01149e+01,0.00000e+00,0.00000e+00,0.00000e+00
6.33500e+02,3.43866e+01,-4.32007e+01,0.00000e+00,0.00000e+00,0.00000e+00
6.33500e+02,3.36055e+01,-4.62865e+01,0.00000e+00,0.00000e+00,0.00000e+00
6.33500e+02,3.27325e+01,-4.93722e+01,0.00000e+00,0.00000e+00,0.00000e+00
6.33500e+02,3.17954e+01,-5.24580e+01,0.00000e+00,0.00000e+00,0.00000e+00
6.33500e+02,3.07144e+01,-5.55438e+01,0.00000e+00,0.00000e+00,0.00000e+00
6.33500e+02,2.95736e+01,-5.86295e+01,0.00000e+00,0.00000e+00,0.00000e+00
6.33500e+02,2.82665e+01,-6.17153e+01,0.00000e+00,0.00000e+00,0.00000e+00
6.33500e+02,2.68261e+01,-6.48011e+01,0.00000e+00,0.00000e+00,0.00000e+00
6.33500e+02,2.52500e+01,-6.78868e+01,0.00000e+00,0.00000e+00,0.00000e+00
6.33500e+02,2.34463e+01,-7.09726e+01,0.00000e+00,0.00000e+00,0.00000e+00
6.33500e+02,2.13788e+01,-7.40584e+01,0.00000e+00,0.00000e+00,0.00000e+00
6.33500e+02,1.90132e+01,-7.71441e+01,0.00000e+00,0.00000e+00,0.00000e+00
6.33500e+02,1.62153e+01,-8.02299e+01,0.00000e+00,0.00000e+00,0.00000e+00
6.33500e+02,1.26239e+01,-8.33156e+01,0.00000e+00,0.00000e+00,0.00000e+00
6.33500e+02,7.76668e+00,-8.64014e+01,0.00000e+00,0.00000e+00,0.00000e+00
6.33500e+02,-3.14700e+00,-8.94872e+01,0.00000e+00,0.00000e+00,0.00000e+00
6.33500e+02,-3.93464e+00,-8.94943e+01,0.00000e+00,0.00000e+00,0.00000e+00
6.33500e+02,-1.11106e+01,-8.62981e+01,0.00000e+00,0.00000e+00,0.00000e+00
6.33500e+02,-1.19795e+01,-8.31019e+01,0.00000e+00,0.00000e+00,0.00000e+00
6.33500e+02,-1.22793e+01,-7.99057e+01,0.00000e+00,0.00000e+00,0.00000e+00
6.33500e+02,-1.23248e+01,-7.67094e+01,0.00000e+00,0.00000e+00,0.00000e+00
6.33500e+02,-1.21787e+01,-7.35132e+01,0.00000e+00,0.00000e+00,0.00000e+00
6.33500e+02,-1.19123e+01,-7.03170e+01,0.00000e+00,0.00000e+00,0.00000e+00
6.33500e+02,-1.15252e+01,-6.71208e+01,0.00000e+00,0.00000e+00,0.00000e+00
6.33500e+02,-1.10645e+01,-6.39245e+01,0.00000e+00,0.00000e+00,0.00000e+00
6.33500e+02,-1.05611e+01,-6.07283e+01,0.00000e+00,0.00000e+00,0.00000e+00
6.33500e+02,-9.99326e+00,-5.75321e+01,0.00000e+00,0.00000e+00,0.00000e+00
6.33500e+02,-9.38524e+00,-5.43358e+01,0.00000e+00,0.00000e+00,0.00000e+00
6.33500e+02,-8.73804e+00,-5.11396e+01,0.00000e+00,0.00000e+00,0.00000e+00
6.33500e+02,-8.05183e+00,-4.79434e+01,0.00000e+00,0.00000e+00,0.00000e+00
6.33500e+02,-7.34116e+00,-4.47472e+01,0.00000e+00,0.00000e+00,0.00000e+00
6.33500e+02,-6.59916e+00,-4.15509e+01,0.00000e+00,0.00000e+00,0.00000e+00
6.33500e+02,-5.83709e+00,-3.83547e+01,0.00000e+00,0.00000e+00,0.00000e+00
6.33500e+02,-5.05702e+00,-3.51585e+01,0.00000e+00,0.00000e+00,0.00000e+00
6.33500e+02,-4.26090e+00,-3.19623e+01,0.00000e+00,0.00000e+00,0.00000e+00
6.33500e+02,-3.45797e+00,-2.87660e+01,0.00000e+00,0.00000e+00,0.00000e+00
6.33500e+02,-2.64450e+00,-2.55698e+01,0.00000e+00,0.00000e+00,0.00000e+00
6.33500e+02,-1.82928e+00,-2.23736e+01,0.00000e+00,0.00000e+00,0.00000e+00
6.33500e+02,-1.00777e+00,-1.91774e+01,0.00000e+00,0.00000e+00,0.00000e+00
6.33500e+02,-1.86340e-01,-1.59811e+01,0.00000e+00,0.00000e+00,0.00000e+00
6.33500e+02,6.31986e-01,-1.27849e+01,0.00000e+00,0.00000e+00,0.00000e+00
6.33500e+02,1.45031e+00,-9.58868e+00,0.00000e+00,0.00000e+00,0.00000e+00
6.33500e+02,2.24926e+00,-6.39245e+00,0.00000e+00,0.00000e+00,0.00000e+00
6.33500e+02,3.04460e+00,-3.19623e+00,0.00000e+00,0.00000e+00,0.00000e+00
7.34700e+02,4.02095e+01,0.00000e+00,0.00000e+00,0.00000e+00,0.00000e+00
7.34700e+02,4.00070e+01,-3.05550e+00,0.00000e+00,0.00000e+00,0.00000e+00
7.34700e+02,3.97376e+01,-6.11100e+00,0.00000e+00,0.00000e+00,0.00000e+00
7.34700e+02,3.94656e+01,-9.16651e+00,0.00000e+00,0.00000e+00,0.00000e+00
7.34700e+02,3.91344e+01,-1.22220e+01,0.00000e+00,0.00000e+00,0.00000e+00
7.34700e+02,3.87896e+01,-1.52775e+01,0.00000e+00,0.00000e+00,0.00000e+00
7.34700e+02,3.83994e+01,-1.83330e+01,0.00000e+00,0.00000e+00,0.00000e+00
7.34700e+02,3.79872e+01,-2.13885e+01,0.00000e+00,0.00000e+00,0.00000e+00
7.34700e+02,3.75386e+01,-2.44440e+01,0.00000e+00,0.00000e+00,0.00000e+00
7.34700e+02,3.70601e+01,-2.74995e+01,0.00000e+00,0.00000e+00,0.00000e+00
7.34700e+02,3.65486e+01,-3.05550e+01,0.00000e+00,0.00000e+00,0.00000e+00
7.34700e+02,3.59973e+01,-3.36105e+01,0.00000e+00,0.00000e+00,0.00000e+00
7.34700e+02,3.54053e+01,-3.66660e+01,0.00000e+00,0.00000e+00,0.00000e+00
7.34700e+02,3.47554e+01,-3.97215e+01,0.00000e+00,0.00000e+00,0.00000e+00
7.34700e+02,3.40493e+01,-4.27770e+01,0.00000e+00,0.00000e+00,0.00000e+00
7.34700e+02,3.32760e+01,-4.58325e+01,0.00000e+00,0.00000e+00,0.00000e+00
7.34700e+02,3.24115e+01,-4.88880e+01,0.00000e+00,0.00000e+00,0.00000e+00
7.34700e+02,3.14836e+01,-5.19435e+01,0.00000e+00,0.00000e+00,0.00000e+00
7.34700e+02,3.04131e+01,-5.49990e+01,0.00000e+00,0.00000e+00,0.00000e+00
7.34700e+02,2.92835e+01,-5.80545e+01,0.00000e+00,0.00000e+00,0.00000e+00
7.34700e+02,2.79893e+01,-6.11100e+01,0.00000e+00,0.00000e+00,0.00000e+00
7.34700e+02,2.65630e+01,-6.41655e+01,0.00000e+00,0.00000e+00,0.00000e+00
7.34700e+02,2.50024e+01,-6.72210e+01,0.00000e+00,0.00000e+00,0.00000e+00
7.34700e+02,2.32164e+01,-7.02765e+01,0.00000e+00,0.00000e+00,0.00000e+00
7.34700e+02,2.11691e+01,-7.33320e+01,0.00000e+00,0.00000e+00,0.00000e+00
7.34700e+02,1.88268e+01,-7.63875e+01,0.00000e+00,0.00000e+00,0.00000e+00
7.34700e+02,1.60563e+01,-7.94430e+01,0.00000e+00,0.00000e+00,0.00000e+00
7.34700e+02,1.25001e+01,-8.24985e+01,0.00000e+00,0.00000e+00,0.00000e+00
7.34700e+02,7.69051e+00,-8.55540e+01,0.00000e+00,0.00000e+00,0.00000e+00
7.34700e+02,-3.11614e+00,-8.86096e+01,0.00000e+00,0.00000e+00,0.00000e+00
7.34700e+02,-3.89606e+00,-8.86166e+01,0.00000e+00,0.00000e+00,0.00000e+00
7.34700e+02,-1.10017e+01,-8.54518e+01,0.00000e+00,0.00000e+00,0.00000e+00
7.34700e+02,-1.18620e+01,-8.22869e+01,0.00000e+00,0.00000e+00,0.00000e+00
7.34700e+02,-1.21589e+01,-7.91220e+01,0.00000e+00,0.00000e+00,0.00000e+00
7.34700e+02,-1.22039e+01,-7.59571e+01,0.00000e+00,0.00000e+00,0.00000e+00
7.34700e+02,-1.20592e+01,-7.27922e+01,0.00000e+00,0.00000e+00,0.00000e+00
7.34700e+02,-1.17955e+01,-6.96274e+01,0.00000e+00,0.00000e+00,0.00000e+00
7.34700e+02,-1.14122e+01,-6.64625e+01,0.00000e+00,0.00000e+00,0.00000e+00
7.34700e+02,-1.09560e+01,-6.32976e+01,0.00000e+00,0.00000e+00,0.00000e+00
7.34700e+02,-1.04575e+01,-6.01327e+01,0.00000e+00,0.00000e+00,0.00000e+00
7.34700e+02,-9.89525e+00,-5.69678e+01,0.00000e+00,0.00000e+00,0.00000e+00
7.34700e+02,-9.29319e+00,-5.38030e+01,0.00000e+00,0.00000e+00,0.00000e+00
7.34700e+02,-8.65235e+00,-5.06381e+01,0.00000e+00,0.00000e+00,0.00000e+00
7.34700e+02,-7.97287e+00,-4.74732e+01,0.00000e+00,0.00000e+00,0.00000e+00
7.34700e+02,-7.26917e+00,-4.43083e+01,0.00000e+00,0.00000e+00,0.00000e+00
7.34700e+02,-6.53444e+00,-4.11434e+01,0.00000e+00,0.00000e+00,0.00000e+00
7.34700e+02,-5.77984e+00,-3.79786e+01,0.00000e+00,0.00000e+00,0.00000e+00
7.34700e+02,-5.00742e+00,-3.48137e+01,0.00000e+00,0.00000e+00,0.00000e+00
7.34700e+02,-4.21911e+00,-3.16488e+01,0.00000e+00,0.00000e+00,0.00000e+00
7.34700e+02,-3.42406e+00,-2.84839e+01,0.00000e+00,0.00000e+00,0.00000e+00
7.34700e+02,-2.61857e+00,-2.53190e+01,0.00000e+00,0.00000e+00,0.00000e+00
7.34700e+02,-1.81134e+00,-2.21542e+01,0.00000e+00,0.00000e+00,0.00000e+00
7.34700e+02,-9.97887e-01,-1.89893e+01,0.00000e+00,0.00000e+00,0.00000e+00
7.34700e+02,-1.84513e-01,-1.58244e+01,0.00000e+00,0.00000e+00,0.00000e+00
7.34700e+02,6.25788e-01,-1.26595e+01,0.00000e+00,0.00000e+00,0.00000e+00
7.34700e+02,1.43609e+00,-9.49464e+00,0.00000e+00,0.00000e+00,0.00000e+00
7.34700e+02,2.22720e+00,-6.32976e+00,0.00000e+00,0.00000e+00,0.00000e+00
7.34700e+02,3.01474e+00,-3.16488e+00,0.00000e+00,0.00000e+00,0.00000e+00
8.33800e+02,3.98196e+01,0.00000e+00,0.00000e+00,0.00000e+00,0.00000e+00
8.33800e+02,3.96190e+01,-3.02587e+00,0.00000e+00,0.00000e+00,0.00000e+00
8.33800e+02,3.93522e+01,-6.05173e+00,0.00000e+00,0.00000e+00,0.00000e+00
8.33800e+02,3.90828e+01,-9.07760e+00,0.00000e+00,0.00000e+00,0.00000e+00
8.33800e+02,3.87549e+01,-1.21035e+01,0.00000e+00,0.00000e+00,0.00000e+00
8.33800e+02,3.84134e+01,-1.51293e+01,0.00000e+00,0.00000e+00,0.00000e+00
8.33800e+02,3.80270e+01,-1.81552e+01,0.00000e+00,0.00000e+00,0.00000e+00
8.33800e+02,3.76188e+01,-2.11811e+01,0.00000e+00,0.00000e+00,0.00000e+00
8.33800e+02,3.71745e+01,-2.42069e+01,0.00000e+00,0.00000e+00,0.00000e+00
8.33800e+02,3.67006e+01,-2.72328e+01,0.00000e+00,0.00000e+00,0.00000e+00
8.33800e+02,3.61941e+01,-3.02587e+01,0.00000e+00,0.00000e+00,0.00000e+00
8.33800e+02,3.56482e+01,-3.32845e+01,0.00000e+00,0.00000e+00,0.00000e+00
8.33800e+02,3.50619e+01,-3.63104e+01,0.00000e+00,0.00000e+00,0.00000e+00
8.33800e+02,3.44183e+01,-3.93363e+01,0.00000e+00,0.00000e+00,0.00000e+00
8.33800e+02,3.37191e+01,-4.23621e+01,0.00000e+00,0.00000e+00,0.00000e+00
8.33800e+02,3.29532e+01,-4.53880e+01,0.00000e+00,0.00000e+00,0.00000e+00
8.33800e+02,3.20971e+01,-4.84139e+01,0.00000e+00,0.00000e+00,0.00000e+00
8.33800e+02,3.11783e+01,-5.14397e+01,0.00000e+00,0.00000e+00,0.00000e+00
8.33800e+02,3.01182e+01,-5.44656e+01,0.00000e+00,0.00000e+00,0.00000e+00
8.33800e+02,2.89995e+01,-5.74915e+01,0.00000e+00,0.00000e+00,0.00000e+00
8.33800e+02,2.77178e+01,-6.05173e+01,0.00000e+00,0.00000e+00,0.00000e+00
8.33800e+02,2.63054e+01,-6.35432e+01,0.00000e+00,0.00000e+00,0.00000e+00
8.33800e+02,2.47599e+01,-6.65691e+01,0.00000e+00,0.00000e+00,0.00000e+00
8.33800e+02,2.29912e+01,-6.95949e+01,0.00000e+00,0.00000e+00,0.00000e+00
8.33800e+02,2.09638e+01,-7.26208e+01,0.00000e+00,0.00000e+00,0.00000e+00
8.33800e+02,1.86442e+01,-7.56467e+01,0.00000e+00,0.00000e+00,0.00000e+00
8.33800e+02,1.59005e+01,-7.86725e+01,0.00000e+00,0.00000e+00,0.00000e+00
8.33800e+02,1.23789e+01,-8.16984e+01,0.00000e+00,0.00000e+00,0.00000e+00
8.33800e+02,7.61592e+00,-8.47243e+01,0.00000e+00,0.00000e+00,0.00000e+00
8.33800e+02,-3.08591e+00,-8.77501e+01,0.00000e+00,0.00000e+00,0.00000e+00
8.33800e+02,-3.85827e+00,-8.77572e+01,0.00000e+00,0.00000e+00,0.00000e+00
8.33800e+02,-1.08950e+01,-8.46230e+01,0.00000e+00,0.00000e+00,0.00000e+00
8.33800e+02,-1.17470e+01,-8.14888e+01,0.00000e+00,0.00000e+00,0.00000e+00
8.33800e+02,-1.20409e+01,-7.83546e+01,0.00000e+00,0.00000e+00,0.00000e+00
8.33800e+02,-1.20856e+01,-7.52204e+01,0.00000e+00,0.00000e+00,0.00000e+00
8.33800e+02,-1.19423e+01,-7.20862e+01,0.00000e+00,0.00000e+00,0.00000e+00
8.33800e+02,-1.16811e+01,-6.89521e+01,0.00000e+00,0.00000e+00,0.00000e+00
8.33800e+02,-1.13015e+01,-6.58179e+01,0.00000e+00,0.00000e+00,0.00000e+00
8.33800e+02,-1.08497e+01,-6.26837e+01,0.00000e+00,0.00000e+00,0.00000e+00
8.33800e+02,-1.03561e+01,-5.95495e+01,0.00000e+00,0.00000e+00,0.00000e+00
8.33800e+02,-9.79928e+00,-5.64153e+01,0.00000e+00,0.00000e+00,0.00000e+00
8.33800e+02,-9.20306e+00,-5.32811e+01,0.00000e+00,0.00000e+00,0.00000e+00
8.33800e+02,-8.56843e+00,-5.01469e+01,0.00000e+00,0.00000e+00,0.00000e+00
8.33800e+02,-7.89554e+00,-4.70128e+01,0.00000e+00,0.00000e+00,0.00000e+00
8.33800e+02,-7.19866e+00,-4.38786e+01,0.00000e+00,0.00000e+00,0.00000e+00
8.33800e+02,-6.47106e+00,-4.07444e+01,0.00000e+00,0.00000e+00,0.00000e+00
8.33800e+02,-5.72378e+00,-3.76102e+01,0.00000e+00,0.00000e+00,0.00000e+00
8.33800e+02,-4.95886e+00,-3.44760e+01,0.00000e+00,0.00000e+00,0.00000e+00
8.33800e+02,-4.17819e+00,-3.13418e+01,0.00000e+00,0.00000e+00,0.00000e+00
8.33800e+02,-3.39085e+00,-2.82077e+01,0.00000e+00,0.00000e+00,0.00000e+00
8.33800e+02,-2.59317e+00,-2.50735e+01,0.00000e+00,0.00000e+00,0.00000e+00
8.33800e+02,-1.79378e+00,-2.19393e+01,0.00000e+00,0.00000e+00,0.00000e+00
8.33800e+02,-9.88209e-01,-1.88051e+01,0.00000e+00,0.00000e+00,0.00000e+00
8.33800e+02,-1.82723e-01,-1.56709e+01,0.00000e+00,0.00000e+00,0.00000e+00
8.33800e+02,6.19718e-01,-1.25367e+01,0.00000e+00,0.00000e+00,0.00000e+00
8.33800e+02,1.42216e+00,-9.40255e+00,0.00000e+00,0.00000e+00,0.00000e+00
8.33800e+02,2.20560e+00,-6.26837e+00,0.00000e+00,0.00000e+00,0.00000e+00
8.33800e+02,2.98550e+00,-3.13418e+00,0.00000e+00,0.00000e+00,0.00000e+00
9.30700e+02,3.94382e+01,0.00000e+00,0.00000e+00,0.00000e+00,0.00000e+00
9.30700e+02,3.92396e+01,-2.99689e+00,0.00000e+00,0.00000e+00,0.00000e+00
9.30700e+02,3.89754e+01,-5.99378e+00,0.00000e+00,0.00000e+00,0.00000e+00
9.30700e+02,3.87085e+01,-8.99067e+00,0.00000e+00,0.00000e+00,0.00000e+00
9.30700e+02,3.83837e+01,-1.19876e+01,0.00000e+00,0.00000e+00,0.00000e+00
9.30700e+02,3.80455e+01,-1.49844e+01,0.00000e+00,0.00000e+00,0.00000e+00
9.30700e+02,3.76628e+01,-1.79813e+01,0.00000e+00,0.00000e+00,0.00000e+00
9.30700e+02,3.72585e+01,-2.09782e+01,0.00000e+00,0.00000e+00,0.00000e+00
9.30700e+02,3.68185e+01,-2.39751e+01,0.00000e+00,0.00000e+00,0.00000e+00
9.30700e+02,3.63492e+01,-2.69720e+01,0.00000e+00,0.00000e+00,0.00000e+00
9.30700e+02,3.58475e+01,-2.99689e+01,0.00000e+00,0.00000e+00,0.00000e+00
9.30700e+02,3.53068e+01,-3.29658e+01,0.00000e+00,0.00000e+00,0.00000e+00
9.30700e+02,3.47261e+01,-3.59627e+01,0.00000e+00,0.00000e+00,0.00000e+00
9.30700e+02,3.40887e+01,-3.89596e+01,0.00000e+00,0.00000e+00,0.00000e+00
9.30700e+02,3.33962e+01,-4.19565e+01,0.00000e+00,0.00000e+00,0.00000e+00
9.30700e+02,3.26376e+01,-4.49533e+01,0.00000e+00,0.00000e+00,0.00000e+00
9.30700e+02,3.17897e+01,-4.79502e+01,0.00000e+00,0.00000e+00,0.00000e+00
9.30700e+02,3.08797e+01,-5.09471e+01,0.00000e+00,0.00000e+00,0.00000e+00
9.30700e+02,2.98297e+01,-5.39440e+01,0.00000e+00,0.00000e+00,0.00000e+00
9.30700e+02,2.87218e+01,-5.69409e+01,0.00000e+00,0.00000e+00,0.00000e+00
9.30700e+02,2.74524e+01,-5.99378e+01,0.00000e+00,0.00000e+00,0.00000e+00
9.30700e+02,2.60534e+01,-6.29347e+01,0.00000e+00,0.00000e+00,0.00000e+00
9.30700e+02,2.45228e+01,-6.59316e+01,0.00000e+00,0.00000e+00,0.00000e+00
9.30700e+02,2.27710e+01,-6.89285e+01,0.00000e+00,0.00000e+00,0.00000e+00
9.30700e+02,2.07631e+01,-7.19254e+01,0.00000e+00,0.00000e+00,0.00000e+00
9.30700e+02,1.84656e+01,-7.49222e+01,0.00000e+00,0.00000e+00,0.00000e+00
9.30700e+02,1.57483e+01,-7.79191e+01,0.00000e+00,0.00000e+00,0.00000e+00
9.30700e+02,1.22603e+01,-8.09160e+01,0.00000e+00,0.00000e+00,0.00000e+00
9.30700e+02,7.54299e+00,-8.39129e+01,0.00000e+00,0.00000e+00,0.00000e+00
9.30700e+02,-3.05636e+00,-8.69098e+01,0.00000e+00,0.00000e+00,0.00000e+00
9.30700e+02,-3.82132e+00,-8.69168e+01,0.00000e+00,0.00000e+00,0.00000e+00
9.30700e+02,-1.07906e+01,-8.38126e+01,0.00000e+00,0.00000e+00,0.00000e+00
9.30700e+02,-1.16345e+01,-8.07084e+01,0.00000e+00,0.00000e+00,0.00000e+00
9.30700e+02,-1.19256e+01,-7.76042e+01,0.00000e+00,0.00000e+00,0.00000e+00
9.30700e+02,-1.19698e+01,-7.45001e+01,0.00000e+00,0.00000e+00,0.00000e+00
9.30700e+02,-1.18279e+01,-7.13959e+01,0.00000e+00,0.00000e+00,0.00000e+00
9.30700e+02,-1.15692e+01,-6.82917e+01,0.00000e+00,0.00000e+00,0.00000e+00
9.30700e+02,-1.11933e+01,-6.51876e+01,0.00000e+00,0.00000e+00,0.00000e+00
9.30700e+02,-1.07458e+01,-6.20834e+01,0.00000e+00,0.00000e+00,0.00000e+00
9.30700e+02,-1.02569e+01,-5.89792e+01,0.00000e+00,0.00000e+00,0.00000e+00
9.30700e+02,-9.70544e+00,-5.58751e+01,0.00000e+00,0.00000e+00,0.00000e+00
9.30700e+02,-9.11493e+00,-5.27709e+01,0.00000e+00,0.00000e+00,0.00000e+00
9.30700e+02,-8.48637e+00,-4.96667e+01,0.00000e+00,0.00000e+00,0.00000e+00
9.30700e+02,-7.81993e+00,-4.65625e+01,0.00000e+00,0.00000e+00,0.00000e+00
9.30700e+02,-7.12973e+00,-4.34584e+01,0.00000e+00,0.00000e+00,0.00000e+00
9.30700e+02,-6.40909e+00,-4.03542e+01,0.00000e+00,0.00000e+00,0.00000e+00
9.30700e+02,-5.66897e+00,-3.72500e+01,0.00000e+00,0.00000e+00,0.00000e+00
9.30700e+02,-4.91137e+00,-3.41459e+01,0.00000e+00,0.00000e+00,0.00000e+00
9.30700e+02,-4.13818e+00,-3.10417e+01,0.00000e+00,0.00000e+00,0.00000e+00
9.30700e+02,-3.35837e+00,-2.79375e+01,0.00000e+00,0.00000e+00,0.00000e+00
9.30700e+02,-2.56834e+00,-2.48334e+01,0.00000e+00,0.00000e+00,0.00000e+00
9.30700e+02,-1.77660e+00,-2.17292e+01,0.00000e+00,0.00000e+00,0.00000e+00
9.30700e+02,-9.78745e-01,-1.86250e+01,0.00000e+00,0.00000e+00,0.00000e+00
9.30700e+02,-1.80973e-01,-1.55208e+01,0.00000e+00,0.00000e+00,0.00000e+00
9.30700e+02,6.13784e-01,-1.24167e+01,0.00000e+00,0.00000e+00,0.00000e+00
9.30700e+02,1.40854e+00,-9.31251e+00,0.00000e+00,0.00000e+00,0.00000e+00
9.30700e+02,2.18448e+00,-6.20834e+00,0.00000e+00,0.00000e+00,0.00000e+00
9.30700e+02,2.95691e+00,-3.10417e+00,0.00000e+00,0.00000e+00,0.00000e+00
1.02500e+03,3.90671e+01,0.00000e+00,0.00000e+00,0.00000e+00,0.00000e+00
1.02500e+03,3.88704e+01,-2.96869e+00,0.00000e+00,0.00000e+00,0.00000e+00
1.02500e+03,3.86086e+01,-5.93738e+00,0.00000e+00,0.00000e+00,0.00000e+00
1.02500e+03,3.83443e+01,-8.90607e+00,0.00000e+00,0.00000e+00,0.00000e+00
1.02500e+03,3.80226e+01,-1.18748e+01,0.00000e+00,0.00000e+00,0.00000e+00
1.02500e+03,3.76875e+01,-1.48435e+01,0.00000e+00,0.00000e+00,0.00000e+00
1.02500e+03,3.73084e+01,-1.78121e+01,0.00000e+00,0.00000e+00,0.00000e+00
1.02500e+03,3.69079e+01,-2.07808e+01,0.00000e+00,0.00000e+00,0.00000e+00
1.02500e+03,3.64721e+01,-2.37495e+01,0.00000e+00,0.00000e+00,0.00000e+00
1.02500e+03,3.60071e+01,-2.67182e+01,0.00000e+00,0.00000e+00,0.00000e+00
1.02500e+03,3.55102e+01,-2.96869e+01,0.00000e+00,0.00000e+00,0.00000e+00
1.02500e+03,3.49746e+01,-3.26556e+01,0.00000e+00,0.00000e+00,0.00000e+00
1.02500e+03,3.43994e+01,-3.56243e+01,0.00000e+00,0.00000e+00,0.00000e+00
1.02500e+03,3.37680e+01,-3.85930e+01,0.00000e+00,0.00000e+00,0.00000e+00
1.02500e+03,3.30819e+01,-4.15617e+01,0.00000e+00,0.00000e+00,0.00000e+00
1.02500e+03,3.23305e+01,-4.45304e+01,0.00000e+00,0.00000e+00,0.00000e+00
1.02500e+03,3.14906e+01,-4.74990e+01,0.00000e+00,0.00000e+00,0.00000e+00
1.02500e+03,3.05891e+01,-5.04677e+01,0.00000e+00,0.00000e+00,0.00000e+00
1.02500e+03,2.95491e+01,-5.34364e+01,0.00000e+00,0.00000e+00,0.00000e+00
1.02500e+03,2.84516e+01,-5.64051e+01,0.00000e+00,0.00000e+00,0.00000e+00
1.02500e+03,2.71940e+01,-5.93738e+01,0.00000e+00,0.00000e+00,0.00000e+00
1.02500e+03,2.58083e+01,-6.23425e+01,0.00000e+00,0.00000e+00,0.00000e+00
1.02500e+03,2.42920e+01,-6.53112e+01,0.00000e+00,0.00000e+00,0.00000e+00
1.02500e+03,2.25567e+01,-6.82799e+01,0.00000e+00,0.00000e+00,0.00000e+00
1.02500e+03,2.05677e+01,-7.12486e+01,0.00000e+00,0.00000e+00,0.00000e+00
1.02500e+03,1.82919e+01,-7.42173e+01,0.00000e+00,0.00000e+00,0.00000e+00
1.02500e+03,1.56001e+01,-7.71859e+01,0.00000e+00,0.00000e+00,0.00000e+00
1.02500e+03,1.21450e+01,-8.01546e+01,0.00000e+00,0.00000e+00,0.00000e+00
1.02500e+03,7.47201e+00,-8.31233e+01,0.00000e+00,0.00000e+00,0.00000e+00
1.02500e+03,-3.02760e+00,-8.60920e+01,0.00000e+00,0.00000e+00,0.00000e+00
1.02500e+03,-3.78536e+00,-8.60989e+01,0.00000e+00,0.00000e+00,0.00000e+00
1.02500e+03,-1.06891e+01,-8.30239e+01,0.00000e+00,0.00000e+00,0.00000e+00
1.02500e+03,-1.15250e+01,-7.99490e+01,0.00000e+00,0.00000e+00,0.00000e+00
1.02500e+03,-1.18134e+01,-7.68740e+01,0.00000e+00,0.00000e+00,0.00000e+00
1.02500e+03,-1.18572e+01,-7.37991e+01,0.00000e+00,0.00000e+00,0.00000e+00
1.02500e+03,-1.17166e+01,-7.07241e+01,0.00000e+00,0.00000e+00,0.00000e+00
1.02500e+03,-1.14604e+01,-6.76491e+01,0.00000e+00,0.00000e+00,0.00000e+00
1.02500e+03,-1.10880e+01,-6.45742e+01,0.00000e+00,0.00000e+00,0.00000e+00
1.02500e+03,-1.06447e+01,-6.14992e+01,0.00000e+00,0.00000e+00,0.00000e+00
1.02500e+03,-1.01604e+01,-5.84243e+01,0.00000e+00,0.00000e+00,0.00000e+00
1.02500e+03,-9.61411e+00,-5.53493e+01,0.00000e+00,0.00000e+00,0.00000e+00
1.02500e+03,-9.02916e+00,-5.22743e+01,0.00000e+00,0.00000e+00,0.00000e+00
1.02500e+03,-8.40652e+00,-4.91994e+01,0.00000e+00,0.00000e+00,0.00000e+00
1.02500e+03,-7.74634e+00,-4.61244e+01,0.00000e+00,0.00000e+00,0.00000e+00
1.02500e+03,-7.06264e+00,-4.30495e+01,0.00000e+00,0.00000e+00,0.00000e+00
1.02500e+03,-6.34878e+00,-3.99745e+01,0.00000e+00,0.00000e+00,0.00000e+00
1.02500e+03,-5.61563e+00,-3.68995e+01,0.00000e+00,0.00000e+00,0.00000e+00
1.02500e+03,-4.86516e+00,-3.38246e+01,0.00000e+00,0.00000e+00,0.00000e+00
1.02500e+03,-4.09924e+00,-3.07496e+01,0.00000e+00,0.00000e+00,0.00000e+00
1.02500e+03,-3.32677e+00,-2.76746e+01,0.00000e+00,0.00000e+00,0.00000e+00
1.02500e+03,-2.54417e+00,-2.45997e+01,0.00000e+00,0.00000e+00,0.00000e+00
1.02500e+03,-1.75988e+00,-2.15247e+01,0.00000e+00,0.00000e+00,0.00000e+00
1.02500e+03,-9.69535e-01,-1.84498e+01,0.00000e+00,0.00000e+00,0.00000e+00
1.02500e+03,-1.79270e-01,-1.53748e+01,0.00000e+00,0.00000e+00,0.00000e+00
1.02500e+03,6.08008e-01,-1.22998e+01,0.00000e+00,0.00000e+00,0.00000e+00
1.02500e+03,1.39529e+00,-9.22488e+00,0.00000e+00,0.00000e+00,0.00000e+00
1.02500e+03,2.16392e+00,-6.14992e+00,0.00000e+00,0.00000e+00,0.00000e+00
1.02500e+03,2.92908e+00,-3.07496e+00,0.00000e+00,0.00000e+00,0.00000e+00
1.11650e+03,3.87070e+01,0.00000e+00,0.00000e+00,0.00000e+00,0.00000e+00
1.11650e+03,3.85121e+01,-2.94133e+00,0.00000e+00,0.00000e+00,0.00000e+00
1.11650e+03,3.82528e+01,-5.88266e+00,0.00000e+00,0.00000e+00,0.00000e+00
1.11650e+03,3.79909e+01,-8.82398e+00,0.00000e+00,0.00000e+00,0.00000e+00
1.11650e+03,3.76721e+01,-1.17653e+01,0.00000e+00,0.00000e+00,0.00000e+00
1.11650e+03,3.73401e+01,-1.47066e+01,0.00000e+00,0.00000e+00,0.00000e+00
1.11650e+03,3.69645e+01,-1.76480e+01,0.00000e+00,0.00000e+00,0.00000e+00
1.11650e+03,3.65678e+01,-2.05893e+01,0.00000e+00,0.00000e+00,0.00000e+00
1.11650e+03,3.61359e+01,-2.35306e+01,0.00000e+00,0.00000e+00,0.00000e+00
1.11650e+03,3.56753e+01,-2.64720e+01,0.00000e+00,0.00000e+00,0.00000e+00
1.11650e+03,3.51829e+01,-2.94133e+01,0.00000e+00,0.00000e+00,0.00000e+00
1.11650e+03,3.46522e+01,-3.23546e+01,0.00000e+00,0.00000e+00,0.00000e+00
1.11650e+03,3.40823e+01,-3.52959e+01,0.00000e+00,0.00000e+00,0.00000e+00
1.11650e+03,3.34567e+01,-3.82373e+01,0.00000e+00,0.00000e+00,0.00000e+00
1.11650e+03,3.27770e+01,-4.11786e+01,0.00000e+00,0.00000e+00,0.00000e+00
1.11650e+03,3.20325e+01,-4.41199e+01,0.00000e+00,0.00000e+00,0.00000e+00
1.11650e+03,3.12004e+01,-4.70612e+01,0.00000e+00,0.00000e+00,0.00000e+00
1.11650e+03,3.03072e+01,-5.00026e+01,0.00000e+00,0.00000e+00,0.00000e+00
1.11650e+03,2.92767e+01,-5.29439e+01,0.00000e+00,0.00000e+00,0.00000e+00
1.11650e+03,2.81893e+01,-5.58852e+01,0.00000e+00,0.00000e+00,0.00000e+00
1.11650e+03,2.69434e+01,-5.88266e+01,0.00000e+00,0.00000e+00,0.00000e+00
1.11650e+03,2.55704e+01,-6.17679e+01,0.00000e+00,0.00000e+00,0.00000e+00
1.11650e+03,2.40681e+01,-6.47092e+01,0.00000e+00,0.00000e+00,0.00000e+00
1.11650e+03,2.23488e+01,-6.76505e+01,0.00000e+00,0.00000e+00,0.00000e+00
1.11650e+03,2.03781e+01,-7.05919e+01,0.00000e+00,0.00000e+00,0.00000e+00
1.11650e+03,1.81233e+01,-7.35332e+01,0.00000e+00,0.00000e+00,0.00000e+00
1.11650e+03,1.54563e+01,-7.64745e+01,0.00000e+00,0.00000e+00,0.00000e+00
1.11650e+03,1.20330e+01,-7.94159e+01,0.00000e+00,0.00000e+00,0.00000e+00
1.11650e+03,7.40314e+00,-8.23572e+01,0.00000e+00,0.00000e+00,0.00000e+00
1.11650e+03,-2.99970e+00,-8.52985e+01,0.00000e+00,0.00000e+00,0.00000e+00
1.11650e+03,-3.75047e+00,-8.53053e+01,0.00000e+00,0.00000e+00,0.00000e+00
1.11650e+03,-1.05906e+01,-8.22587e+01,0.00000e+00,0.00000e+00,0.00000e+00
1.11650e+03,-1.14188e+01,-7.92121e+01,0.00000e+00,0.00000e+00,0.00000e+00
1.11650e+03,-1.17045e+01,-7.61655e+01,0.00000e+00,0.00000e+00,0.00000e+00
1.11650e+03,-1.17479e+01,-7.31189e+01,0.00000e+00,0.00000e+00,0.00000e+00
1.11650e+03,-1.16086e+01,-7.00722e+01,0.00000e+00,0.00000e+00,0.00000e+00
1.11650e+03,-1.13547e+01,-6.70256e+01,0.00000e+00,0.00000e+00,0.00000e+00
1.11650e+03,-1.09858e+01,-6.39790e+01,0.00000e+00,0.00000e+00,0.00000e+00
1.11650e+03,-1.05466e+01,-6.09324e+01,0.00000e+00,0.00000e+00,0.00000e+00
1.11650e+03,-1.00667e+01,-5.78858e+01,0.00000e+00,0.00000e+00,0.00000e+00
1.11650e+03,-9.52550e+00,-5.48391e+01,0.00000e+00,0.00000e+00,0.00000e+00
1.11650e+03,-8.94594e+00,-5.17925e+01,0.00000e+00,0.00000e+00,0.00000e+00
1.11650e+03,-8.32904e+00,-4.87459e+01,0.00000e+00,0.00000e+00,0.00000e+00
1.11650e+03,-7.67495e+00,-4.56993e+01,0.00000e+00,0.00000e+00,0.00000e+00
1.11650e+03,-6.99754e+00,-4.26527e+01,0.00000e+00,0.00000e+00,0.00000e+00
1.11650e+03,-6.29027e+00,-3.96060e+01,0.00000e+00,0.00000e+00,0.00000e+00
1.11650e+03,-5.56387e+00,-3.65594e+01,0.00000e+00,0.00000e+00,0.00000e+00
1.11650e+03,-4.82031e+00,-3.35128e+01,0.00000e+00,0.00000e+00,0.00000e+00
1.11650e+03,-4.06146e+00,-3.04662e+01,0.00000e+00,0.00000e+00,0.00000e+00
1.11650e+03,-3.29611e+00,-2.74196e+01,0.00000e+00,0.00000e+00,0.00000e+00
1.11650e+03,-2.52072e+00,-2.43730e+01,0.00000e+00,0.00000e+00,0.00000e+00
1.11650e+03,-1.74366e+00,-2.13263e+01,0.00000e+00,0.00000e+00,0.00000e+00
1.11650e+03,-9.60599e-01,-1.82797e+01,0.00000e+00,0.00000e+00,0.00000e+00
1.11650e+03,-1.77618e-01,-1.52331e+01,0.00000e+00,0.00000e+00,0.00000e+00
1.11650e+03,6.02404e-01,-1.21865e+01,0.00000e+00,0.00000e+00,0.00000e+00
1.11650e+03,1.38243e+00,-9.13986e+00,0.00000e+00,0.00000e+00,0.00000e+00
1.11650e+03,2.14398e+00,-6.09324e+00,0.00000e+00,0.00000e+00,0.00000e+00
1.11650e+03,2.90209e+00,-3.04662e+00,0.00000e+00,0.00000e+00,0.00000e+00
1.20500e+03,3.76912e+01,0.00000e+00,0.00000e+00,0.00000e+00,0.00000e+00
1.20500e+03,3.75014e+01,-2.86413e+00,0.00000e+00,0.00000e+00,0.00000e+00
1.20500e+03,3.72488e+01,-5.72827e+00,0.00000e+00,0.00000e+00,0.00000e+00
1.20500e+03,3.69938e+01,-8.59240e+00,0.00000e+00,0.00000e+00,0.00000e+00
1.20500e+03,3.66834e+01,-1.14565e+01,0.00000e+00,0.00000e+00,0.00000e+00
1.20500e+03,3.63602e+01,-1.43207e+01,0.00000e+00,0.00000e+00,0.00000e+00
1.20500e+03,3.59944e+01,-1.71848e+01,0.00000e+00,0.00000e+00,0.00000e+00
1.20500e+03,3.56080e+01,-2.00489e+01,0.00000e+00,0.00000e+00,0.00000e+00
1.20500e+03,3.51875e+01,-2.29131e+01,0.00000e+00,0.00000e+00,0.00000e+00
1.20500e+03,3.47390e+01,-2.57772e+01,0.00000e+00,0.00000e+00,0.00000e+00
1.20500e+03,3.42596e+01,-2.86413e+01,0.00000e+00,0.00000e+00,0.00000e+00
1.20500e+03,3.37428e+01,-3.15055e+01,0.00000e+00,0.00000e+00,0.00000e+00
1.20500e+03,3.31878e+01,-3.43696e+01,0.00000e+00,0.00000e+00,0.00000e+00
1.20500e+03,3.25787e+01,-3.72337e+01,0.00000e+00,0.00000e+00,0.00000e+00
1.20500e+03,3.19168e+01,-4.00979e+01,0.00000e+00,0.00000e+00,0.00000e+00
1.20500e+03,3.11919e+01,-4.29620e+01,0.00000e+00,0.00000e+00,0.00000e+00
1.20500e+03,3.03815e+01,-4.58261e+01,0.00000e+00,0.00000e+00,0.00000e+00
1.20500e+03,2.95118e+01,-4.86903e+01,0.00000e+00,0.00000e+00,0.00000e+00
1.20500e+03,2.85084e+01,-5.15544e+01,0.00000e+00,0.00000e+00,0.00000e+00
1.20500e+03,2.74495e+01,-5.44186e+01,0.00000e+00,0.00000e+00,0.00000e+00
1.20500e+03,2.62363e+01,-5.72827e+01,0.00000e+00,0.00000e+00,0.00000e+00
1.20500e+03,2.48993e+01,-6.01468e+01,0.00000e+00,0.00000e+00,0.00000e+00
1.20500e+03,2.34365e+01,-6.30110e+01,0.00000e+00,0.00000e+00,0.00000e+00
1.20500e+03,2.17623e+01,-6.58751e+01,0.00000e+00,0.00000e+00,0.00000e+00
1.20500e+03,1.98433e+01,-6.87392e+01,0.00000e+00,0.00000e+00,0.00000e+00
1.20500e+03,1.76476e+01,-7.16034e+01,0.00000e+00,0.00000e+00,0.00000e+00
1.20500e+03,1.50506e+01,-7.44675e+01,0.00000e+00,0.00000e+00,0.00000e+00
1.20500e+03,1.17172e+01,-7.73316e+01,0.00000e+00,0.00000e+00,0.00000e+00
1.20500e+03,7.20885e+00,-8.01958e+01,0.00000e+00,0.00000e+00,0.00000e+00
1.20500e+03,-2.92097e+00,-8.30599e+01,0.00000e+00,0.00000e+00,0.00000e+00
1.20500e+03,-3.65204e+00,-8.30665e+01,0.00000e+00,0.00000e+00,0.00000e+00
1.20500e+03,-1.03126e+01,-8.00999e+01,0.00000e+00,0.00000e+00,0.00000e+00
1.20500e+03,-1.11191e+01,-7.71332e+01,0.00000e+00,0.00000e+00,0.00000e+00
1.20500e+03,-1.13974e+01,-7.41666e+01,0.00000e+00,0.00000e+00,0.00000e+00
1.20500e+03,-1.14396e+01,-7.11999e+01,0.00000e+00,0.00000e+00,0.00000e+00
1.20500e+03,-1.13040e+01,-6.82332e+01,0.00000e+00,0.00000e+00,0.00000e+00
1.20500e+03,-1.10567e+01,-6.52666e+01,0.00000e+00,0.00000e+00,0.00000e+00
1.20500e+03,-1.06975e+01,-6.22999e+01,0.00000e+00,0.00000e+00,0.00000e+00
1.20500e+03,-1.02698e+01,-5.93332e+01,0.00000e+00,0.00000e+00,0.00000e+00
1.20500e+03,-9.80253e+00,-5.63666e+01,0.00000e+00,0.00000e+00,0.00000e+00
1.20500e+03,-9.27551e+00,-5.33999e+01,0.00000e+00,0.00000e+00,0.00000e+00
1.20500e+03,-8.71115e+00,-5.04333e+01,0.00000e+00,0.00000e+00,0.00000e+00
1.20500e+03,-8.11045e+00,-4.74666e+01,0.00000e+00,0.00000e+00,0.00000e+00
1.20500e+03,-7.47352e+00,-4.44999e+01,0.00000e+00,0.00000e+00,0.00000e+00
1.20500e+03,-6.81389e+00,-4.15333e+01,0.00000e+00,0.00000e+00,0.00000e+00
1.20500e+03,-6.12518e+00,-3.85666e+01,0.00000e+00,0.00000e+00,0.00000e+00
1.20500e+03,-5.41785e+00,-3.55999e+01,0.00000e+00,0.00000e+00,0.00000e+00
1.20500e+03,-4.69381e+00,-3.26333e+01,0.00000e+00,0.00000e+00,0.00000e+00
1.20500e+03,-3.95486e+00,-2.96666e+01,0.00000e+00,0.00000e+00,0.00000e+00
1.20500e+03,-3.20961e+00,-2.67000e+01,0.00000e+00,0.00000e+00,0.00000e+00
1.20500e+03,-2.45457e+00,-2.37333e+01,0.00000e+00,0.00000e+00,0.00000e+00
1.20500e+03,-1.69790e+00,-2.07666e+01,0.00000e+00,0.00000e+00,0.00000e+00
1.20500e+03,-9.35389e-01,-1.78000e+01,0.00000e+00,0.00000e+00,0.00000e+00
1.20500e+03,-1.72956e-01,-1.48333e+01,0.00000e+00,0.00000e+00,0.00000e+00
1.20500e+03,5.86594e-01,-1.18666e+01,0.00000e+00,0.00000e+00,0.00000e+00
1.20500e+03,1.34615e+00,-8.89999e+00,0.00000e+00,0.00000e+00,0.00000e+00
1.20500e+03,2.08771e+00,-5.93332e+00,0.00000e+00,0.00000e+00,0.00000e+00
1.20500e+03,2.82592e+00,-2.96666e+00,0.00000e+00,0.00000e+00,0.00000e+00
1.29010e+03,3.63234e+01,0.00000e+00,0.00000e+00,0.00000e+00,0.00000e+00
1.29010e+03,3.61405e+01,-2.76019e+00,0.00000e+00,0.00000e+00,0.00000e+00
1.29010e+03,3.58971e+01,-5.52039e+00,0.00000e+00,0.00000e+00,0.00000e+00
1.29010e+03,3.56513e+01,-8.28058e+00,0.00000e+00,0.00000e+00,0.00000e+00
1.29010e+03,3.53522e+01,-1.10408e+01,0.00000e+00,0.00000e+00,0.00000e+00
1.29010e+03,3.50407e+01,-1.38010e+01,0.00000e+00,0.00000e+00,0.00000e+00
1.29010e+03,3.46882e+01,-1.65612e+01,0.00000e+00,0.00000e+00,0.00000e+00
1.29010e+03,3.43158e+01,-1.93214e+01,0.00000e+00,0.00000e+00,0.00000e+00
1.29010e+03,3.39106e+01,-2.20816e+01,0.00000e+00,0.00000e+00,0.00000e+00
1.29010e+03,3.34783e+01,-2.48418e+01,0.00000e+00,0.00000e+00,0.00000e+00
1.29010e+03,3.30163e+01,-2.76019e+01,0.00000e+00,0.00000e+00,0.00000e+00
1.29010e+03,3.25183e+01,-3.03621e+01,0.00000e+00,0.00000e+00,0.00000e+00
1.29010e+03,3.19834e+01,-3.31223e+01,0.00000e+00,0.00000e+00,0.00000e+00
1.29010e+03,3.13964e+01,-3.58825e+01,0.00000e+00,0.00000e+00,0.00000e+00
1.29010e+03,3.07585e+01,-3.86427e+01,0.00000e+00,0.00000e+00,0.00000e+00
1.29010e+03,3.00599e+01,-4.14029e+01,0.00000e+00,0.00000e+00,0.00000e+00
1.29010e+03,2.92790e+01,-4.41631e+01,0.00000e+00,0.00000e+00,0.00000e+00
1.29010e+03,2.84408e+01,-4.69233e+01,0.00000e+00,0.00000e+00,0.00000e+00
1.29010e+03,2.74738e+01,-4.96835e+01,0.00000e+00,0.00000e+00,0.00000e+00
1.29010e+03,2.64534e+01,-5.24437e+01,0.00000e+00,0.00000e+00,0.00000e+00
1.29010e+03,2.52842e+01,-5.52039e+01,0.00000e+00,0.00000e+00,0.00000e+00
1.29010e+03,2.39957e+01,-5.79641e+01,0.00000e+00,0.00000e+00,0.00000e+00
1.29010e+03,2.25860e+01,-6.07243e+01,0.00000e+00,0.00000e+00,0.00000e+00
1.29010e+03,2.09725e+01,-6.34845e+01,0.00000e+00,0.00000e+00,0.00000e+00
1.29010e+03,1.91232e+01,-6.62447e+01,0.00000e+00,0.00000e+00,0.00000e+00
1.29010e+03,1.70072e+01,-6.90049e+01,0.00000e+00,0.00000e+00,0.00000e+00
1.29010e+03,1.45045e+01,-7.17651e+01,0.00000e+00,0.00000e+00,0.00000e+00
1.29010e+03,1.12920e+01,-7.45253e+01,0.00000e+00,0.00000e+00,0.00000e+00
1.29010e+03,6.94724e+00,-7.72855e+01,0.00000e+00,0.00000e+00,0.00000e+00
1.29010e+03,-2.81497e+00,-8.00457e+01,0.00000e+00,0.00000e+00,0.00000e+00
1.29010e+03,-3.51951e+00,-8.00521e+01,0.00000e+00,0.00000e+00,0.00000e+00
1.29010e+03,-9.93839e+00,-7.71931e+01,0.00000e+00,0.00000e+00,0.00000e+00
1.29010e+03,-1.07156e+01,-7.43341e+01,0.00000e+00,0.00000e+00,0.00000e+00
1.29010e+03,-1.09838e+01,-7.14751e+01,0.00000e+00,0.00000e+00,0.00000e+00
1.29010e+03,-1.10244e+01,-6.86160e+01,0.00000e+00,0.00000e+00,0.00000e+00
1.29010e+03,-1.08937e+01,-6.57570e+01,0.00000e+00,0.00000e+00,0.00000e+00
1.29010e+03,-1.06555e+01,-6.28980e+01,0.00000e+00,0.00000e+00,0.00000e+00
1.29010e+03,-1.03093e+01,-6.00390e+01,0.00000e+00,0.00000e+00,0.00000e+00
1.29010e+03,-9.89713e+00,-5.71800e+01,0.00000e+00,0.00000e+00,0.00000e+00
1.29010e+03,-9.44680e+00,-5.43210e+01,0.00000e+00,0.00000e+00,0.00000e+00
1.29010e+03,-8.93890e+00,-5.14620e+01,0.00000e+00,0.00000e+00,0.00000e+00
1.29010e+03,-8.39503e+00,-4.86030e+01,0.00000e+00,0.00000e+00,0.00000e+00
1.29010e+03,-7.81612e+00,-4.57440e+01,0.00000e+00,0.00000e+00,0.00000e+00
1.29010e+03,-7.20231e+00,-4.28850e+01,0.00000e+00,0.00000e+00,0.00000e+00
1.29010e+03,-6.56662e+00,-4.00260e+01,0.00000e+00,0.00000e+00,0.00000e+00
1.29010e+03,-5.90290e+00,-3.71670e+01,0.00000e+00,0.00000e+00,0.00000e+00
1.29010e+03,-5.22123e+00,-3.43080e+01,0.00000e+00,0.00000e+00,0.00000e+00
1.29010e+03,-4.52347e+00,-3.14490e+01,0.00000e+00,0.00000e+00,0.00000e+00
1.29010e+03,-3.81134e+00,-2.85900e+01,0.00000e+00,0.00000e+00,0.00000e+00
1.29010e+03,-3.09313e+00,-2.57310e+01,0.00000e+00,0.00000e+00,0.00000e+00
1.29010e+03,-2.36549e+00,-2.28720e+01,0.00000e+00,0.00000e+00,0.00000e+00
1.29010e+03,-1.63628e+00,-2.00130e+01,0.00000e+00,0.00000e+00,0.00000e+00
1.29010e+03,-9.01444e-01,-1.71540e+01,0.00000e+00,0.00000e+00,0.00000e+00
1.29010e+03,-1.66680e-01,-1.42950e+01,0.00000e+00,0.00000e+00,0.00000e+00
1.29010e+03,5.65307e-01,-1.14360e+01,0.00000e+00,0.00000e+00,0.00000e+00
1.29010e+03,1.29729e+00,-8.57701e+00,0.00000e+00,0.00000e+00,0.00000e+00
1.29010e+03,2.01195e+00,-5.71800e+00,0.00000e+00,0.00000e+00,0.00000e+00
1.29010e+03,2.72337e+00,-2.85900e+00,0.00000e+00,0.00000e+00,0.00000e+00
1.37170e+03,3.50118e+01,0.00000e+00,0.00000e+00,0.00000e+00,0.00000e+00
1.37170e+03,3.48355e+01,-2.66053e+00,0.00000e+00,0.00000e+00,0.00000e+00
1.37170e+03,3.46009e+01,-5.32106e+00,0.00000e+00,0.00000e+00,0.00000e+00
1.37170e+03,3.43640e+01,-7.98159e+00,0.00000e+00,0.00000e+00,0.00000e+00
1.37170e+03,3.40757e+01,-1.06421e+01,0.00000e+00,0.00000e+00,0.00000e+00
1.37170e+03,3.37754e+01,-1.33027e+01,0.00000e+00,0.00000e+00,0.00000e+00
1.37170e+03,3.34357e+01,-1.59632e+01,0.00000e+00,0.00000e+00,0.00000e+00
1.37170e+03,3.30768e+01,-1.86237e+01,0.00000e+00,0.00000e+00,0.00000e+00
1.37170e+03,3.26861e+01,-2.12842e+01,0.00000e+00,0.00000e+00,0.00000e+00
1.37170e+03,3.22695e+01,-2.39448e+01,0.00000e+00,0.00000e+00,0.00000e+00
1.37170e+03,3.18241e+01,-2.66053e+01,0.00000e+00,0.00000e+00,0.00000e+00
1.37170e+03,3.13441e+01,-2.92658e+01,0.00000e+00,0.00000e+00,0.00000e+00
1.37170e+03,3.08286e+01,-3.19264e+01,0.00000e+00,0.00000e+00,0.00000e+00
1.37170e+03,3.02627e+01,-3.45869e+01,0.00000e+00,0.00000e+00,0.00000e+00
1.37170e+03,2.96479e+01,-3.72474e+01,0.00000e+00,0.00000e+00,0.00000e+00
1.37170e+03,2.89745e+01,-3.99080e+01,0.00000e+00,0.00000e+00,0.00000e+00
1.37170e+03,2.82218e+01,-4.25685e+01,0.00000e+00,0.00000e+00,0.00000e+00
1.37170e+03,2.74139e+01,-4.52290e+01,0.00000e+00,0.00000e+00,0.00000e+00
1.37170e+03,2.64818e+01,-4.78895e+01,0.00000e+00,0.00000e+00,0.00000e+00
1.37170e+03,2.54982e+01,-5.05501e+01,0.00000e+00,0.00000e+00,0.00000e+00
1.37170e+03,2.43712e+01,-5.32106e+01,0.00000e+00,0.00000e+00,0.00000e+00
1.37170e+03,2.31293e+01,-5.58711e+01,0.00000e+00,0.00000e+00,0.00000e+00
1.37170e+03,2.17704e+01,-5.85317e+01,0.00000e+00,0.00000e+00,0.00000e+00
1.37170e+03,2.02153e+01,-6.11922e+01,0.00000e+00,0.00000e+00,0.00000e+00
1.37170e+03,1.84327e+01,-6.38527e+01,0.00000e+00,0.00000e+00,0.00000e+00
1.37170e+03,1.63931e+01,-6.65133e+01,0.00000e+00,0.00000e+00,0.00000e+00
1.37170e+03,1.39807e+01,-6.91738e+01,0.00000e+00,0.00000e+00,0.00000e+00
1.37170e+03,1.08843e+01,-7.18343e+01,0.00000e+00,0.00000e+00,0.00000e+00
1.37170e+03,6.69639e+00,-7.44949e+01,0.00000e+00,0.00000e+00,0.00000e+00
1.37170e+03,-2.71333e+00,-7.71554e+01,0.00000e+00,0.00000e+00,0.00000e+00
1.37170e+03,-3.39243e+00,-7.71616e+01,0.00000e+00,0.00000e+00,0.00000e+00
1.37170e+03,-9.57954e+00,-7.44058e+01,0.00000e+00,0.00000e+00,0.00000e+00
1.37170e+03,-1.03287e+01,-7.16500e+01,0.00000e+00,0.00000e+00,0.00000e+00
1.37170e+03,-1.05872e+01,-6.88942e+01,0.00000e+00,0.00000e+00,0.00000e+00
1.37170e+03,-1.06264e+01,-6.61385e+01,0.00000e+00,0.00000e+00,0.00000e+00
1.37170e+03,-1.05004e+01,-6.33827e+01,0.00000e+00,0.00000e+00,0.00000e+00
1.37170e+03,-1.02708e+01,-6.06269e+01,0.00000e+00,0.00000e+00,0.00000e+00
1.37170e+03,-9.93701e+00,-5.78712e+01,0.00000e+00,0.00000e+00,0.00000e+00
1.37170e+03,-9.53977e+00,-5.51154e+01,0.00000e+00,0.00000e+00,0.00000e+00
1.37170e+03,-9.10569e+00,-5.23596e+01,0.00000e+00,0.00000e+00,0.00000e+00
1.37170e+03,-8.61613e+00,-4.96039e+01,0.00000e+00,0.00000e+00,0.00000e+00
1.37170e+03,-8.09190e+00,-4.68481e+01,0.00000e+00,0.00000e+00,0.00000e+00
1.37170e+03,-7.53389e+00,-4.40923e+01,0.00000e+00,0.00000e+00,0.00000e+00
1.37170e+03,-6.94225e+00,-4.13365e+01,0.00000e+00,0.00000e+00,0.00000e+00
1.37170e+03,-6.32951e+00,-3.85808e+01,0.00000e+00,0.00000e+00,0.00000e+00
1.37170e+03,-5.68976e+00,-3.58250e+01,0.00000e+00,0.00000e+00,0.00000e+00
1.37170e+03,-5.03271e+00,-3.30692e+01,0.00000e+00,0.00000e+00,0.00000e+00
1.37170e+03,-4.36014e+00,-3.03135e+01,0.00000e+00,0.00000e+00,0.00000e+00
1.37170e+03,-3.67372e+00,-2.75577e+01,0.00000e+00,0.00000e+00,0.00000e+00
1.37170e+03,-2.98144e+00,-2.48019e+01,0.00000e+00,0.00000e+00,0.00000e+00
1.37170e+03,-2.28008e+00,-2.20462e+01,0.00000e+00,0.00000e+00,0.00000e+00
1.37170e+03,-1.57720e+00,-1.92904e+01,0.00000e+00,0.00000e+00,0.00000e+00
1.37170e+03,-8.68894e-01,-1.65346e+01,0.00000e+00,0.00000e+00,0.00000e+00
1.37170e+03,-1.60661e-01,-1.37788e+01,0.00000e+00,0.00000e+00,0.00000e+00
1.37170e+03,5.44895e-01,-1.10231e+01,0.00000e+00,0.00000e+00,0.00000e+00
1.37170e+03,1.25045e+00,-8.26731e+00,0.00000e+00,0.00000e+00,0.00000e+00
1.37170e+03,1.93930e+00,-5.51154e+00,0.00000e+00,0.00000e+00,0.00000e+00
1.37170e+03,2.62503e+00,-2.75577e+00,0.00000e+00,0.00000e+00,0.00000e+00
1.44960e+03,3.37597e+01,0.00000e+00,0.00000e+00,0.00000e+00,0.00000e+00
1.44960e+03,3.35897e+01,-2.56538e+00,0.00000e+00,0.00000e+00,0.00000e+00
1.44960e+03,3.33635e+01,-5.13077e+00,0.00000e+00,0.00000e+00,0.00000e+00
1.44960e+03,3.31351e+01,-7.69615e+00,0.00000e+00,0.00000e+00,0.00000e+00
1.44960e+03,3.28571e+01,-1.02615e+01,0.00000e+00,0.00000e+00,0.00000e+00
1.44960e+03,3.25675e+01,-1.28269e+01,0.00000e+00,0.00000e+00,0.00000e+00
1.44960e+03,3.22399e+01,-1.53923e+01,0.00000e+00,0.00000e+00,0.00000e+00
1.44960e+03,3.18939e+01,-1.79577e+01,0.00000e+00,0.00000e+00,0.00000e+00
1.44960e+03,3.15172e+01,-2.05231e+01,0.00000e+00,0.00000e+00,0.00000e+00
1.44960e+03,3.11155e+01,-2.30885e+01,0.00000e+00,0.00000e+00,0.00000e+00
1.44960e+03,3.06860e+01,-2.56538e+01,0.00000e+00,0.00000e+00,0.00000e+00
1.44960e+03,3.02232e+01,-2.82192e+01,0.00000e+00,0.00000e+00,0.00000e+00
1.44960e+03,2.97261e+01,-3.07846e+01,0.00000e+00,0.00000e+00,0.00000e+00
1.44960e+03,2.91805e+01,-3.33500e+01,0.00000e+00,0.00000e+00,0.00000e+00
1.44960e+03,2.85877e+01,-3.59154e+01,0.00000e+00,0.00000e+00,0.00000e+00
1.44960e+03,2.79383e+01,-3.84808e+01,0.00000e+00,0.00000e+00,0.00000e+00
1.44960e+03,2.72125e+01,-4.10462e+01,0.00000e+00,0.00000e+00,0.00000e+00
1.44960e+03,2.64335e+01,-4.36115e+01,0.00000e+00,0.00000e+00,0.00000e+00
1.44960e+03,2.55347e+01,-4.61769e+01,0.00000e+00,0.00000e+00,0.00000e+00
1.44960e+03,2.45863e+01,-4.87423e+01,0.00000e+00,0.00000e+00,0.00000e+00
1.44960e+03,2.34997e+01,-5.13077e+01,0.00000e+00,0.00000e+00,0.00000e+00
1.44960e+03,2.23022e+01,-5.38731e+01,0.00000e+00,0.00000e+00,0.00000e+00
1.44960e+03,2.09919e+01,-5.64385e+01,0.00000e+00,0.00000e+00,0.00000e+00
1.44960e+03,1.94923e+01,-5.90039e+01,0.00000e+00,0.00000e+00,0.00000e+00
1.44960e+03,1.77735e+01,-6.15692e+01,0.00000e+00,0.00000e+00,0.00000e+00
1.44960e+03,1.58069e+01,-6.41346e+01,0.00000e+00,0.00000e+00,0.00000e+00
1.44960e+03,1.34808e+01,-6.67000e+01,0.00000e+00,0.00000e+00,0.00000e+00
1.44960e+03,1.04950e+01,-6.92654e+01,0.00000e+00,0.00000e+00,0.00000e+00
1.44960e+03,6.45692e+00,-7.18308e+01,0.00000e+00,0.00000e+00,0.00000e+00
1.44960e+03,-2.61629e+00,-7.43962e+01,0.00000e+00,0.00000e+00,0.00000e+00
1.44960e+03,-3.27111e+00,-7.44021e+01,0.00000e+00,0.00000e+00,0.00000e+00
1.44960e+03,-9.23696e+00,-7.17449e+01,0.00000e+00,0.00000e+00,0.00000e+00
1.44960e+03,-9.95928e+00,-6.90877e+01,0.00000e+00,0.00000e+00,0.00000e+00
1.44960e+03,-1.02085e+01,-6.64305e+01,0.00000e+00,0.00000e+00,0.00000e+00
1.44960e+03,-1.02464e+01,-6.37732e+01,0.00000e+00,0.00000e+00,0.00000e+00
1.44960e+03,-1.01249e+01,-6.11160e+01,0.00000e+00,0.00000e+00,0.00000e+00
1.44960e+03,-9.90345e+00,-5.84588e+01,0.00000e+00,0.00000e+00,0.00000e+00
1.44960e+03,-9.58164e+00,-5.58016e+01,0.00000e+00,0.00000e+00,0.00000e+00
1.44960e+03,-9.19861e+00,-5.31444e+01,0.00000e+00,0.00000e+00,0.00000e+00
1.44960e+03,-8.78006e+00,-5.04872e+01,0.00000e+00,0.00000e+00,0.00000e+00
1.44960e+03,-8.30801e+00,-4.78299e+01,0.00000e+00,0.00000e+00,0.00000e+00
1.44960e+03,-7.80252e+00,-4.51727e+01,0.00000e+00,0.00000e+00,0.00000e+00
1.44960e+03,-7.26447e+00,-4.25155e+01,0.00000e+00,0.00000e+00,0.00000e+00
1.44960e+03,-6.69398e+00,-3.98583e+01,0.00000e+00,0.00000e+00,0.00000e+00
1.44960e+03,-6.10316e+00,-3.72011e+01,0.00000e+00,0.00000e+00,0.00000e+00
1.44960e+03,-5.48628e+00,-3.45438e+01,0.00000e+00,0.00000e+00,0.00000e+00
1.44960e+03,-4.85273e+00,-3.18866e+01,0.00000e+00,0.00000e+00,0.00000e+00
1.44960e+03,-4.20421e+00,-2.92294e+01,0.00000e+00,0.00000e+00,0.00000e+00
1.44960e+03,-3.54234e+00,-2.65722e+01,0.00000e+00,0.00000e+00,0.00000e+00
1.44960e+03,-2.87482e+00,-2.39150e+01,0.00000e+00,0.00000e+00,0.00000e+00
1.44960e+03,-2.19854e+00,-2.12577e+01,0.00000e+00,0.00000e+00,0.00000e+00
1.44960e+03,-1.52080e+00,-1.86005e+01,0.00000e+00,0.00000e+00,0.00000e+00
1.44960e+03,-8.37821e-01,-1.59433e+01,0.00000e+00,0.00000e+00,0.00000e+00
1.44960e+03,-1.54916e-01,-1.32861e+01,0.00000e+00,0.00000e+00,0.00000e+00
1.44960e+03,5.25408e-01,-1.06289e+01,0.00000e+00,0.00000e+00,0.00000e+00
1.44960e+03,1.20573e+00,-7.97166e+00,0.00000e+00,0.00000e+00,0.00000e+00
1.44960e+03,1.86995e+00,-5.31444e+00,0.00000e+00,0.00000e+00,0.00000e+00
1.44960e+03,2.53116e+00,-2.65722e+00,0.00000e+00,0.00000e+00,0.00000e+00
1.52340e+03,3.25736e+01,0.00000e+00,0.00000e+00,0.00000e+00,0.00000e+00
1.52340e+03,3.24095e+01,-2.47525e+00,0.00000e+00,0.00000e+00,0.00000e+00
1.52340e+03,3.21913e+01,-4.95049e+00,0.00000e+00,0.00000e+00,0.00000e+00
1.52340e+03,3.19709e+01,-7.42574e+00,0.00000e+00,0.00000e+00,0.00000e+00
1.52340e+03,3.17026e+01,-9.90099e+00,0.00000e+00,0.00000e+00,0.00000e+00
1.52340e+03,3.14232e+01,-1.23762e+01,0.00000e+00,0.00000e+00,0.00000e+00
1.52340e+03,3.11072e+01,-1.48515e+01,0.00000e+00,0.00000e+00,0.00000e+00
1.52340e+03,3.07733e+01,-1.73267e+01,0.00000e+00,0.00000e+00,0.00000e+00
1.52340e+03,3.04098e+01,-1.98020e+01,0.00000e+00,0.00000e+00,0.00000e+00
1.52340e+03,3.00222e+01,-2.22772e+01,0.00000e+00,0.00000e+00,0.00000e+00
1.52340e+03,2.96079e+01,-2.47525e+01,0.00000e+00,0.00000e+00,0.00000e+00
1.52340e+03,2.91613e+01,-2.72277e+01,0.00000e+00,0.00000e+00,0.00000e+00
1.52340e+03,2.86816e+01,-2.97030e+01,0.00000e+00,0.00000e+00,0.00000e+00
1.52340e+03,2.81552e+01,-3.21782e+01,0.00000e+00,0.00000e+00,0.00000e+00
1.52340e+03,2.75832e+01,-3.46535e+01,0.00000e+00,0.00000e+00,0.00000e+00
1.52340e+03,2.69567e+01,-3.71287e+01,0.00000e+00,0.00000e+00,0.00000e+00
1.52340e+03,2.62564e+01,-3.96040e+01,0.00000e+00,0.00000e+00,0.00000e+00
1.52340e+03,2.55047e+01,-4.20792e+01,0.00000e+00,0.00000e+00,0.00000e+00
1.52340e+03,2.46375e+01,-4.45544e+01,0.00000e+00,0.00000e+00,0.00000e+00
1.52340e+03,2.37225e+01,-4.70297e+01,0.00000e+00,0.00000e+00,0.00000e+00
1.52340e+03,2.26740e+01,-4.95049e+01,0.00000e+00,0.00000e+00,0.00000e+00
1.52340e+03,2.15185e+01,-5.19802e+01,0.00000e+00,0.00000e+00,0.00000e+00
1.52340e+03,2.02543e+01,-5.44554e+01,0.00000e+00,0.00000e+00,0.00000e+00
1.52340e+03,1.88075e+01,-5.69307e+01,0.00000e+00,0.00000e+00,0.00000e+00
1.52340e+03,1.71490e+01,-5.94059e+01,0.00000e+00,0.00000e+00,0.00000e+00
1.52340e+03,1.52515e+01,-6.18812e+01,0.00000e+00,0.00000e+00,0.00000e+00
1.52340e+03,1.30071e+01,-6.43564e+01,0.00000e+00,0.00000e+00,0.00000e+00
1.52340e+03,1.01263e+01,-6.68317e+01,0.00000e+00,0.00000e+00,0.00000e+00
1.52340e+03,6.23005e+00,-6.93069e+01,0.00000e+00,0.00000e+00,0.00000e+00
1.52340e+03,-2.52437e+00,-7.17822e+01,0.00000e+00,0.00000e+00,0.00000e+00
1.52340e+03,-3.15618e+00,-7.17879e+01,0.00000e+00,0.00000e+00,0.00000e+00
1.52340e+03,-8.91241e+00,-6.92241e+01,0.00000e+00,0.00000e+00,0.00000e+00
1.52340e+03,-9.60935e+00,-6.66602e+01,0.00000e+00,0.00000e+00,0.00000e+00
1.52340e+03,-9.84985e+00,-6.40963e+01,0.00000e+00,0.00000e+00,0.00000e+00
1.52340e+03,-9.88634e+00,-6.15325e+01,0.00000e+00,0.00000e+00,0.00000e+00
1.52340e+03,-9.76914e+00,-5.89686e+01,0.00000e+00,0.00000e+00,0.00000e+00
1.52340e+03,-9.55548e+00,-5.64048e+01,0.00000e+00,0.00000e+00,0.00000e+00
1.52340e+03,-9.24498e+00,-5.38409e+01,0.00000e+00,0.00000e+00,0.00000e+00
1.52340e+03,-8.87540e+00,-5.12771e+01,0.00000e+00,0.00000e+00,0.00000e+00
1.52340e+03,-8.47156e+00,-4.87132e+01,0.00000e+00,0.00000e+00,0.00000e+00
1.52340e+03,-8.01609e+00,-4.61494e+01,0.00000e+00,0.00000e+00,0.00000e+00
1.52340e+03,-7.52837e+00,-4.35855e+01,0.00000e+00,0.00000e+00,0.00000e+00
1.52340e+03,-7.00922e+00,-4.10217e+01,0.00000e+00,0.00000e+00,0.00000e+00
1.52340e+03,-6.45878e+00,-3.84578e+01,0.00000e+00,0.00000e+00,0.00000e+00
1.52340e+03,-5.88872e+00,-3.58940e+01,0.00000e+00,0.00000e+00,0.00000e+00
1.52340e+03,-5.29352e+00,-3.33301e+01,0.00000e+00,0.00000e+00,0.00000e+00
1.52340e+03,-4.68222e+00,-3.07662e+01,0.00000e+00,0.00000e+00,0.00000e+00
1.52340e+03,-4.05649e+00,-2.82024e+01,0.00000e+00,0.00000e+00,0.00000e+00
1.52340e+03,-3.41788e+00,-2.56385e+01,0.00000e+00,0.00000e+00,0.00000e+00
1.52340e+03,-2.77381e+00,-2.30747e+01,0.00000e+00,0.00000e+00,0.00000e+00
1.52340e+03,-2.12129e+00,-2.05108e+01,0.00000e+00,0.00000e+00,0.00000e+00
1.52340e+03,-1.46736e+00,-1.79470e+01,0.00000e+00,0.00000e+00,0.00000e+00
1.52340e+03,-8.08383e-01,-1.53831e+01,0.00000e+00,0.00000e+00,0.00000e+00
1.52340e+03,-1.49473e-01,-1.28193e+01,0.00000e+00,0.00000e+00,0.00000e+00
1.52340e+03,5.06948e-01,-1.02554e+01,0.00000e+00,0.00000e+00,0.00000e+00
1.52340e+03,1.16337e+00,-7.69156e+00,0.00000e+00,0.00000e+00,0.00000e+00
1.52340e+03,1.80424e+00,-5.12771e+00,0.00000e+00,0.00000e+00,0.00000e+00
1.52340e+03,2.44222e+00,-2.56385e+00,0.00000e+00,0.00000e+00,0.00000e+00
1.59310e+03,3.14533e+01,0.00000e+00,0.00000e+00,0.00000e+00,0.00000e+00
1.59310e+03,3.12949e+01,-2.39012e+00,0.00000e+00,0.00000e+00,0.00000e+00
1.59310e+03,3.10841e+01,-4.78023e+00,0.00000e+00,0.00000e+00,0.00000e+00
1.59310e+03,3.08713e+01,-7.17035e+00,0.00000e+00,0.00000e+00,0.00000e+00
1.59310e+03,3.06123e+01,-9.56047e+00,0.00000e+00,0.00000e+00,0.00000e+00
1.59310e+03,3.03425e+01,-1.19506e+01,0.00000e+00,0.00000e+00,0.00000e+00
1.59310e+03,3.00373e+01,-1.43407e+01,0.00000e+00,0.00000e+00,0.00000e+00
1.59310e+03,2.97149e+01,-1.67308e+01,0.00000e+00,0.00000e+00,0.00000e+00
1.59310e+03,2.93640e+01,-1.91209e+01,0.00000e+00,0.00000e+00,0.00000e+00
1.59310e+03,2.89896e+01,-2.15111e+01,0.00000e+00,0.00000e+00,0.00000e+00
1.59310e+03,2.85896e+01,-2.39012e+01,0.00000e+00,0.00000e+00,0.00000e+00
1.59310e+03,2.81583e+01,-2.62913e+01,0.00000e+00,0.00000e+00,0.00000e+00
1.59310e+03,2.76952e+01,-2.86814e+01,0.00000e+00,0.00000e+00,0.00000e+00
1.59310e+03,2.71869e+01,-3.10715e+01,0.00000e+00,0.00000e+00,0.00000e+00
1.59310e+03,2.66345e+01,-3.34616e+01,0.00000e+00,0.00000e+00,0.00000e+00
1.59310e+03,2.60296e+01,-3.58518e+01,0.00000e+00,0.00000e+00,0.00000e+00
1.59310e+03,2.53533e+01,-3.82419e+01,0.00000e+00,0.00000e+00,0.00000e+00
1.59310e+03,2.46276e+01,-4.06320e+01,0.00000e+00,0.00000e+00,0.00000e+00
1.59310e+03,2.37902e+01,-4.30221e+01,0.00000e+00,0.00000e+00,0.00000e+00
1.59310e+03,2.29066e+01,-4.54122e+01,0.00000e+00,0.00000e+00,0.00000e+00
1.59310e+03,2.18941e+01,-4.78023e+01,0.00000e+00,0.00000e+00,0.00000e+00
1.59310e+03,2.07785e+01,-5.01925e+01,0.00000e+00,0.00000e+00,0.00000e+00
1.59310e+03,1.95577e+01,-5.25826e+01,0.00000e+00,0.00000e+00,0.00000e+00
1.59310e+03,1.81606e+01,-5.49727e+01,0.00000e+00,0.00000e+00,0.00000e+00
1.59310e+03,1.65592e+01,-5.73628e+01,0.00000e+00,0.00000e+00,0.00000e+00
1.59310e+03,1.47269e+01,-5.97529e+01,0.00000e+00,0.00000e+00,0.00000e+00
1.59310e+03,1.25597e+01,-6.21430e+01,0.00000e+00,0.00000e+00,0.00000e+00
1.59310e+03,9.77800e+00,-6.45332e+01,0.00000e+00,0.00000e+00,0.00000e+00
1.59310e+03,6.01578e+00,-6.69233e+01,0.00000e+00,0.00000e+00,0.00000e+00
1.59310e+03,-2.43755e+00,-6.93134e+01,0.00000e+00,0.00000e+00,0.00000e+00
1.59310e+03,-3.04763e+00,-6.93189e+01,0.00000e+00,0.00000e+00,0.00000e+00
1.59310e+03,-8.60589e+00,-6.68433e+01,0.00000e+00,0.00000e+00,0.00000e+00
1.59310e+03,-9.27886e+00,-6.43676e+01,0.00000e+00,0.00000e+00,0.00000e+00
1.59310e+03,-9.51109e+00,-6.18919e+01,0.00000e+00,0.00000e+00,0.00000e+00
1.59310e+03,-9.54632e+00,-5.94162e+01,0.00000e+00,0.00000e+00,0.00000e+00
1.59310e+03,-9.43315e+00,-5.69406e+01,0.00000e+00,0.00000e+00,0.00000e+00
1.59310e+03,-9.22684e+00,-5.44649e+01,0.00000e+00,0.00000e+00,0.00000e+00
1.59310e+03,-8.92702e+00,-5.19892e+01,0.00000e+00,0.00000e+00,0.00000e+00
1.59310e+03,-8.57016e+00,-4.95135e+01,0.00000e+00,0.00000e+00,0.00000e+00
1.59310e+03,-8.18020e+00,-4.70379e+01,0.00000e+00,0.00000e+00,0.00000e+00
1.59310e+03,-7.74040e+00,-4.45622e+01,0.00000e+00,0.00000e+00,0.00000e+00
1.59310e+03,-7.26945e+00,-4.20865e+01,0.00000e+00,0.00000e+00,0.00000e+00
1.59310e+03,-6.76816e+00,-3.96108e+01,0.00000e+00,0.00000e+00,0.00000e+00
1.59310e+03,-6.23665e+00,-3.71351e+01,0.00000e+00,0.00000e+00,0.00000e+00
1.59310e+03,-5.68619e+00,-3.46595e+01,0.00000e+00,0.00000e+00,0.00000e+00
1.59310e+03,-5.11146e+00,-3.21838e+01,0.00000e+00,0.00000e+00,0.00000e+00
1.59310e+03,-4.52119e+00,-2.97081e+01,0.00000e+00,0.00000e+00,0.00000e+00
1.59310e+03,-3.91698e+00,-2.72324e+01,0.00000e+00,0.00000e+00,0.00000e+00
1.59310e+03,-3.30033e+00,-2.47568e+01,0.00000e+00,0.00000e+00,0.00000e+00
1.59310e+03,-2.67841e+00,-2.22811e+01,0.00000e+00,0.00000e+00,0.00000e+00
1.59310e+03,-2.04833e+00,-1.98054e+01,0.00000e+00,0.00000e+00,0.00000e+00
1.59310e+03,-1.41689e+00,-1.73297e+01,0.00000e+00,0.00000e+00,0.00000e+00
1.59310e+03,-7.80581e-01,-1.48541e+01,0.00000e+00,0.00000e+00,0.00000e+00
1.59310e+03,-1.44332e-01,-1.23784e+01,0.00000e+00,0.00000e+00,0.00000e+00
1.59310e+03,4.89512e-01,-9.90271e+00,0.00000e+00,0.00000e+00,0.00000e+00
1.59310e+03,1.12336e+00,-7.42703e+00,0.00000e+00,0.00000e+00,0.00000e+00
1.59310e+03,1.74219e+00,-4.95135e+00,0.00000e+00,0.00000e+00,0.00000e+00
1.59310e+03,2.35823e+00,-2.47568e+00,0.00000e+00,0.00000e+00,0.00000e+00
1.65850e+03,3.04021e+01,0.00000e+00,0.00000e+00,0.00000e+00,0.00000e+00
1.65850e+03,3.02490e+01,-2.31024e+00,0.00000e+00,0.00000e+00,0.00000e+00
1.65850e+03,3.00453e+01,-4.62048e+00,0.00000e+00,0.00000e+00,0.00000e+00
1.65850e+03,2.98396e+01,-6.93072e+00,0.00000e+00,0.00000e+00,0.00000e+00
1.65850e+03,2.95892e+01,-9.24096e+00,0.00000e+00,0.00000e+00,0.00000e+00
1.65850e+03,2.93285e+01,-1.15512e+01,0.00000e+00,0.00000e+00,0.00000e+00
1.65850e+03,2.90335e+01,-1.38614e+01,0.00000e+00,0.00000e+00,0.00000e+00
1.65850e+03,2.87218e+01,-1.61717e+01,0.00000e+00,0.00000e+00,0.00000e+00
1.65850e+03,2.83826e+01,-1.84819e+01,0.00000e+00,0.00000e+00,0.00000e+00
1.65850e+03,2.80208e+01,-2.07921e+01,0.00000e+00,0.00000e+00,0.00000e+00
1.65850e+03,2.76341e+01,-2.31024e+01,0.00000e+00,0.00000e+00,0.00000e+00
1.65850e+03,2.72173e+01,-2.54126e+01,0.00000e+00,0.00000e+00,0.00000e+00
1.65850e+03,2.67696e+01,-2.77229e+01,0.00000e+00,0.00000e+00,0.00000e+00
1.65850e+03,2.62783e+01,-3.00331e+01,0.00000e+00,0.00000e+00,0.00000e+00
1.65850e+03,2.57444e+01,-3.23433e+01,0.00000e+00,0.00000e+00,0.00000e+00
1.65850e+03,2.51597e+01,-3.46536e+01,0.00000e+00,0.00000e+00,0.00000e+00
1.65850e+03,2.45060e+01,-3.69638e+01,0.00000e+00,0.00000e+00,0.00000e+00
1.65850e+03,2.38045e+01,-3.92741e+01,0.00000e+00,0.00000e+00,0.00000e+00
1.65850e+03,2.29951e+01,-4.15843e+01,0.00000e+00,0.00000e+00,0.00000e+00
1.65850e+03,2.21410e+01,-4.38945e+01,0.00000e+00,0.00000e+00,0.00000e+00
1.65850e+03,2.11624e+01,-4.62048e+01,0.00000e+00,0.00000e+00,0.00000e+00
1.65850e+03,2.00840e+01,-4.85150e+01,0.00000e+00,0.00000e+00,0.00000e+00
1.65850e+03,1.89041e+01,-5.08253e+01,0.00000e+00,0.00000e+00,0.00000e+00
1.65850e+03,1.75537e+01,-5.31355e+01,0.00000e+00,0.00000e+00,0.00000e+00
1.65850e+03,1.60058e+01,-5.54457e+01,0.00000e+00,0.00000e+00,0.00000e+00
1.65850e+03,1.42348e+01,-5.77560e+01,0.00000e+00,0.00000e+00,0.00000e+00
1.65850e+03,1.21400e+01,-6.00662e+01,0.00000e+00,0.00000e+00,0.00000e+00
1.65850e+03,9.45122e+00,-6.23764e+01,0.00000e+00,0.00000e+00,0.00000e+00
1.65850e+03,5.81473e+00,-6.46867e+01,0.00000e+00,0.00000e+00,0.00000e+00
1.65850e+03,-2.35608e+00,-6.69969e+01,0.00000e+00,0.00000e+00,0.00000e+00
1.65850e+03,-2.94577e+00,-6.70023e+01,0.00000e+00,0.00000e+00,0.00000e+00
1.65850e+03,-8.31828e+00,-6.46093e+01,0.00000e+00,0.00000e+00,0.00000e+00
1.65850e+03,-8.96876e+00,-6.22164e+01,0.00000e+00,0.00000e+00,0.00000e+00
1.65850e+03,-9.19322e+00,-5.98235e+01,0.00000e+00,0.00000e+00,0.00000e+00
1.65850e+03,-9.22728e+00,-5.74305e+01,0.00000e+00,0.00000e+00,0.00000e+00
1.65850e+03,-9.11789e+00,-5.50376e+01,0.00000e+00,0.00000e+00,0.00000e+00
1.65850e+03,-8.91848e+00,-5.26447e+01,0.00000e+00,0.00000e+00,0.00000e+00
1.65850e+03,-8.62868e+00,-5.02517e+01,0.00000e+00,0.00000e+00,0.00000e+00
1.65850e+03,-8.28374e+00,-4.78588e+01,0.00000e+00,0.00000e+00,0.00000e+00
1.65850e+03,-7.90682e+00,-4.54658e+01,0.00000e+00,0.00000e+00,0.00000e+00
1.65850e+03,-7.48171e+00,-4.30729e+01,0.00000e+00,0.00000e+00,0.00000e+00
1.65850e+03,-7.02650e+00,-4.06800e+01,0.00000e+00,0.00000e+00,0.00000e+00
1.65850e+03,-6.54196e+00,-3.82870e+01,0.00000e+00,0.00000e+00,0.00000e+00
1.65850e+03,-6.02822e+00,-3.58941e+01,0.00000e+00,0.00000e+00,0.00000e+00
1.65850e+03,-5.49615e+00,-3.35011e+01,0.00000e+00,0.00000e+00,0.00000e+00
1.65850e+03,-4.94063e+00,-3.11082e+01,0.00000e+00,0.00000e+00,0.00000e+00
1.65850e+03,-4.37009e+00,-2.87153e+01,0.00000e+00,0.00000e+00,0.00000e+00
1.65850e+03,-3.78607e+00,-2.63223e+01,0.00000e+00,0.00000e+00,0.00000e+00
1.65850e+03,-3.19003e+00,-2.39294e+01,0.00000e+00,0.00000e+00,0.00000e+00
1.65850e+03,-2.58890e+00,-2.15364e+01,0.00000e+00,0.00000e+00,0.00000e+00
1.65850e+03,-1.97988e+00,-1.91435e+01,0.00000e+00,0.00000e+00,0.00000e+00
1.65850e+03,-1.36954e+00,-1.67506e+01,0.00000e+00,0.00000e+00,0.00000e+00
1.65850e+03,-7.54494e-01,-1.43576e+01,0.00000e+00,0.00000e+00,0.00000e+00
1.65850e+03,-1.39508e-01,-1.19647e+01,0.00000e+00,0.00000e+00,0.00000e+00
1.65850e+03,4.73153e-01,-9.57176e+00,0.00000e+00,0.00000e+00,0.00000e+00
1.65850e+03,1.08581e+00,-7.17882e+00,0.00000e+00,0.00000e+00,0.00000e+00
1.65850e+03,1.68397e+00,-4.78588e+00,0.00000e+00,0.00000e+00,0.00000e+00
1.65850e+03,2.27942e+00,-2.39294e+00,0.00000e+00,0.00000e+00,0.00000e+00
1.71930e+03,2.94249e+01,0.00000e+00,0.00000e+00,0.00000e+00,0.00000e+00
1.71930e+03,2.92767e+01,-2.23598e+00,0.00000e+00,0.00000e+00,0.00000e+00
1.71930e+03,2.90795e+01,-4.47196e+00,0.00000e+00,0.00000e+00,0.00000e+00
1.71930e+03,2.88804e+01,-6.70794e+00,0.00000e+00,0.00000e+00,0.00000e+00
1.71930e+03,2.86381e+01,-8.94392e+00,0.00000e+00,0.00000e+00,0.00000e+00
1.71930e+03,2.83857e+01,-1.11799e+01,0.00000e+00,0.00000e+00,0.00000e+00
1.71930e+03,2.81002e+01,-1.34159e+01,0.00000e+00,0.00000e+00,0.00000e+00
1.71930e+03,2.77986e+01,-1.56519e+01,0.00000e+00,0.00000e+00,0.00000e+00
1.71930e+03,2.74703e+01,-1.78878e+01,0.00000e+00,0.00000e+00,0.00000e+00
1.71930e+03,2.71201e+01,-2.01238e+01,0.00000e+00,0.00000e+00,0.00000e+00
1.71930e+03,2.67458e+01,-2.23598e+01,0.00000e+00,0.00000e+00,0.00000e+00
1.71930e+03,2.63424e+01,-2.45958e+01,0.00000e+00,0.00000e+00,0.00000e+00
1.71930e+03,2.59091e+01,-2.68317e+01,0.00000e+00,0.00000e+00,0.00000e+00
1.71930e+03,2.54336e+01,-2.90677e+01,0.00000e+00,0.00000e+00,0.00000e+00
1.71930e+03,2.49169e+01,-3.13037e+01,0.00000e+00,0.00000e+00,0.00000e+00
1.71930e+03,2.43509e+01,-3.35397e+01,0.00000e+00,0.00000e+00,0.00000e+00
1.71930e+03,2.37183e+01,-3.57757e+01,0.00000e+00,0.00000e+00,0.00000e+00
1.71930e+03,2.30393e+01,-3.80116e+01,0.00000e+00,0.00000e+00,0.00000e+00
1.71930e+03,2.22560e+01,-4.02476e+01,0.00000e+00,0.00000e+00,0.00000e+00
1.71930e+03,2.14293e+01,-4.24836e+01,0.00000e+00,0.00000e+00,0.00000e+00
1.71930e+03,2.04822e+01,-4.47196e+01,0.00000e+00,0.00000e+00,0.00000e+00
1.71930e+03,1.94385e+01,-4.69556e+01,0.00000e+00,0.00000e+00,0.00000e+00
1.71930e+03,1.82964e+01,-4.91915e+01,0.00000e+00,0.00000e+00,0.00000e+00
1.71930e+03,1.69894e+01,-5.14275e+01,0.00000e+00,0.00000e+00,0.00000e+00
1.71930e+03,1.54913e+01,-5.36635e+01,0.00000e+00,0.00000e+00,0.00000e+00
1.71930e+03,1.37772e+01,-5.58995e+01,0.00000e+00,0.00000e+00,0.00000e+00
1.71930e+03,1.17498e+01,-5.81355e+01,0.00000e+00,0.00000e+00,0.00000e+00
1.71930e+03,9.14742e+00,-6.03714e+01,0.00000e+00,0.00000e+00,0.00000e+00
1.71930e+03,5.62782e+00,-6.26074e+01,0.00000e+00,0.00000e+00,0.00000e+00
1.71930e+03,-2.28035e+00,-6.48434e+01,0.00000e+00,0.00000e+00,0.00000e+00
1.71930e+03,-2.85109e+00,-6.48486e+01,0.00000e+00,0.00000e+00,0.00000e+00
1.71930e+03,-8.05090e+00,-6.25326e+01,0.00000e+00,0.00000e+00,0.00000e+00
1.71930e+03,-8.68047e+00,-6.02165e+01,0.00000e+00,0.00000e+00,0.00000e+00
1.71930e+03,-8.89772e+00,-5.79005e+01,0.00000e+00,0.00000e+00,0.00000e+00
1.71930e+03,-8.93068e+00,-5.55845e+01,0.00000e+00,0.00000e+00,0.00000e+00
1.71930e+03,-8.82481e+00,-5.32685e+01,0.00000e+00,0.00000e+00,0.00000e+00
1.71930e+03,-8.63181e+00,-5.09525e+01,0.00000e+00,0.00000e+00,0.00000e+00
1.71930e+03,-8.35132e+00,-4.86364e+01,0.00000e+00,0.00000e+00,0.00000e+00
1.71930e+03,-8.01747e+00,-4.63204e+01,0.00000e+00,0.00000e+00,0.00000e+00
1.71930e+03,-7.65266e+00,-4.40044e+01,0.00000e+00,0.00000e+00,0.00000e+00
1.71930e+03,-7.24122e+00,-4.16884e+01,0.00000e+00,0.00000e+00,0.00000e+00
1.71930e+03,-6.80064e+00,-3.93724e+01,0.00000e+00,0.00000e+00,0.00000e+00
1.71930e+03,-6.33168e+00,-3.70563e+01,0.00000e+00,0.00000e+00,0.00000e+00
1.71930e+03,-5.83445e+00,-3.47403e+01,0.00000e+00,0.00000e+00,0.00000e+00
1.71930e+03,-5.31949e+00,-3.24243e+01,0.00000e+00,0.00000e+00,0.00000e+00
1.71930e+03,-4.78182e+00,-3.01083e+01,0.00000e+00,0.00000e+00,0.00000e+00
1.71930e+03,-4.22962e+00,-2.77922e+01,0.00000e+00,0.00000e+00,0.00000e+00
1.71930e+03,-3.66437e+00,-2.54762e+01,0.00000e+00,0.00000e+00,0.00000e+00
1.71930e+03,-3.08749e+00,-2.31602e+01,0.00000e+00,0.00000e+00,0.00000e+00
1.71930e+03,-2.50568e+00,-2.08442e+01,0.00000e+00,0.00000e+00,0.00000e+00
1.71930e+03,-1.91624e+00,-1.85282e+01,0.00000e+00,0.00000e+00,0.00000e+00
1.71930e+03,-1.32552e+00,-1.62121e+01,0.00000e+00,0.00000e+00,0.00000e+00
1.71930e+03,-7.30242e-01,-1.38961e+01,0.00000e+00,0.00000e+00,0.00000e+00
1.71930e+03,-1.35024e-01,-1.15801e+01,0.00000e+00,0.00000e+00,0.00000e+00
1.71930e+03,4.57944e-01,-9.26408e+00,0.00000e+00,0.00000e+00,0.00000e+00
1.71930e+03,1.05091e+00,-6.94806e+00,0.00000e+00,0.00000e+00,0.00000e+00
1.71930e+03,1.62984e+00,-4.63204e+00,0.00000e+00,0.00000e+00,0.00000e+00
1.71930e+03,2.20615e+00,-2.31602e+00,0.00000e+00,0.00000e+00,0.00000e+00
1.77540e+03,2.77303e+01,0.00000e+00,0.00000e+00,0.00000e+00,0.00000e+00
1.77540e+03,2.75906e+01,-2.10721e+00,0.00000e+00,0.00000e+00,0.00000e+00
1.77540e+03,2.74048e+01,-4.21442e+00,0.00000e+00,0.00000e+00,0.00000e+00
1.77540e+03,2.72172e+01,-6.32163e+00,0.00000e+00,0.00000e+00,0.00000e+00
1.77540e+03,2.69888e+01,-8.42884e+00,0.00000e+00,0.00000e+00,0.00000e+00
1.77540e+03,2.67510e+01,-1.05361e+01,0.00000e+00,0.00000e+00,0.00000e+00
1.77540e+03,2.64819e+01,-1.26433e+01,0.00000e+00,0.00000e+00,0.00000e+00
1.77540e+03,2.61977e+01,-1.47505e+01,0.00000e+00,0.00000e+00,0.00000e+00
1.77540e+03,2.58883e+01,-1.68577e+01,0.00000e+00,0.00000e+00,0.00000e+00
1.77540e+03,2.55583e+01,-1.89649e+01,0.00000e+00,0.00000e+00,0.00000e+00
1.77540e+03,2.52056e+01,-2.10721e+01,0.00000e+00,0.00000e+00,0.00000e+00
1.77540e+03,2.48254e+01,-2.31793e+01,0.00000e+00,0.00000e+00,0.00000e+00
1.77540e+03,2.44171e+01,-2.52865e+01,0.00000e+00,0.00000e+00,0.00000e+00
1.77540e+03,2.39689e+01,-2.73937e+01,0.00000e+00,0.00000e+00,0.00000e+00
1.77540e+03,2.34819e+01,-2.95009e+01,0.00000e+00,0.00000e+00,0.00000e+00
1.77540e+03,2.29486e+01,-3.16082e+01,0.00000e+00,0.00000e+00,0.00000e+00
1.77540e+03,2.23524e+01,-3.37154e+01,0.00000e+00,0.00000e+00,0.00000e+00
1.77540e+03,2.17125e+01,-3.58226e+01,0.00000e+00,0.00000e+00,0.00000e+00
1.77540e+03,2.09743e+01,-3.79298e+01,0.00000e+00,0.00000e+00,0.00000e+00
1.77540e+03,2.01952e+01,-4.00370e+01,0.00000e+00,0.00000e+00,0.00000e+00
1.77540e+03,1.93026e+01,-4.21442e+01,0.00000e+00,0.00000e+00,0.00000e+00
1.77540e+03,1.83190e+01,-4.42514e+01,0.00000e+00,0.00000e+00,0.00000e+00
1.77540e+03,1.72428e+01,-4.63586e+01,0.00000e+00,0.00000e+00,0.00000e+00
1.77540e+03,1.60110e+01,-4.84658e+01,0.00000e+00,0.00000e+00,0.00000e+00
1.77540e+03,1.45992e+01,-5.05731e+01,0.00000e+00,0.00000e+00,0.00000e+00
1.77540e+03,1.29838e+01,-5.26803e+01,0.00000e+00,0.00000e+00,0.00000e+00
1.77540e+03,1.10731e+01,-5.47875e+01,0.00000e+00,0.00000e+00,0.00000e+00
1.77540e+03,8.62063e+00,-5.68947e+01,0.00000e+00,0.00000e+00,0.00000e+00
1.77540e+03,5.30372e+00,-5.90019e+01,0.00000e+00,0.00000e+00,0.00000e+00
1.77540e+03,-2.14903e+00,-6.11091e+01,0.00000e+00,0.00000e+00,0.00000e+00
1.77540e+03,-2.68689e+00,-6.11140e+01,0.00000e+00,0.00000e+00,0.00000e+00
1.77540e+03,-7.58725e+00,-5.89314e+01,0.00000e+00,0.00000e+00,0.00000e+00
1.77540e+03,-8.18057e+00,-5.67487e+01,0.00000e+00,0.00000e+00,0.00000e+00
1.77540e+03,-8.38530e+00,-5.45661e+01,0.00000e+00,0.00000e+00,0.00000e+00
1.77540e+03,-8.41637e+00,-5.23834e+01,0.00000e+00,0.00000e+00,0.00000e+00
1.77540e+03,-8.31659e+00,-5.02008e+01,0.00000e+00,0.00000e+00,0.00000e+00
1.77540e+03,-8.13471e+00,-4.80181e+01,0.00000e+00,0.00000e+00,0.00000e+00
1.77540e+03,-7.87037e+00,-4.58355e+01,0.00000e+00,0.00000e+00,0.00000e+00
1.77540e+03,-7.55575e+00,-4.36529e+01,0.00000e+00,0.00000e+00,0.00000e+00
1.77540e+03,-7.21195e+00,-4.14702e+01,0.00000e+00,0.00000e+00,0.00000e+00
1.77540e+03,-6.82421e+00,-3.92876e+01,0.00000e+00,0.00000e+00,0.00000e+00
1.77540e+03,-6.40900e+00,-3.71049e+01,0.00000e+00,0.00000e+00,0.00000e+00
1.77540e+03,-5.96704e+00,-3.49223e+01,0.00000e+00,0.00000e+00,0.00000e+00
1.77540e+03,-5.49844e+00,-3.27396e+01,0.00000e+00,0.00000e+00,0.00000e+00
1.77540e+03,-5.01314e+00,-3.05570e+01,0.00000e+00,0.00000e+00,0.00000e+00
1.77540e+03,-4.50644e+00,-2.83744e+01,0.00000e+00,0.00000e+00,0.00000e+00
1.77540e+03,-3.98604e+00,-2.61917e+01,0.00000e+00,0.00000e+00,0.00000e+00
1.77540e+03,-3.45334e+00,-2.40091e+01,0.00000e+00,0.00000e+00,0.00000e+00
1.77540e+03,-2.90969e+00,-2.18264e+01,0.00000e+00,0.00000e+00,0.00000e+00
1.77540e+03,-2.36138e+00,-1.96438e+01,0.00000e+00,0.00000e+00,0.00000e+00
1.77540e+03,-1.80588e+00,-1.74611e+01,0.00000e+00,0.00000e+00,0.00000e+00
1.77540e+03,-1.24918e+00,-1.52785e+01,0.00000e+00,0.00000e+00,0.00000e+00
1.77540e+03,-6.88187e-01,-1.30959e+01,0.00000e+00,0.00000e+00,0.00000e+00
1.77540e+03,-1.27248e-01,-1.09132e+01,0.00000e+00,0.00000e+00,0.00000e+00
1.77540e+03,4.31571e-01,-8.73057e+00,0.00000e+00,0.00000e+00,0.00000e+00
1.77540e+03,9.90390e-01,-6.54793e+00,0.00000e+00,0.00000e+00,0.00000e+00
1.77540e+03,1.53598e+00,-4.36529e+00,0.00000e+00,0.00000e+00,0.00000e+00
1.77540e+03,2.07910e+00,-2.18264e+00,0.00000e+00,0.00000e+00,0.00000e+00
1.82660e+03,2.53092e+01,0.00000e+00,0.00000e+00,0.00000e+00,0.00000e+00
1.82660e+03,2.51817e+01,-1.92323e+00,0.00000e+00,0.00000e+00,0.00000e+00
1.82660e+03,2.50121e+01,-3.84646e+00,0.00000e+00,0.00000e+00,0.00000e+00
1.82660e+03,2.48409e+01,-5.76969e+00,0.00000e+00,0.00000e+00,0.00000e+00
1.82660e+03,2.46324e+01,-7.69292e+00,0.00000e+00,0.00000e+00,0.00000e+00
1.82660e+03,2.44154e+01,-9.61614e+00,0.00000e+00,0.00000e+00,0.00000e+00
1.82660e+03,2.41698e+01,-1.15394e+01,0.00000e+00,0.00000e+00,0.00000e+00
1.82660e+03,2.39103e+01,-1.34626e+01,0.00000e+00,0.00000e+00,0.00000e+00
1.82660e+03,2.36280e+01,-1.53858e+01,0.00000e+00,0.00000e+00,0.00000e+00
1.82660e+03,2.33268e+01,-1.73091e+01,0.00000e+00,0.00000e+00,0.00000e+00
1.82660e+03,2.30049e+01,-1.92323e+01,0.00000e+00,0.00000e+00,0.00000e+00
1.82660e+03,2.26579e+01,-2.11555e+01,0.00000e+00,0.00000e+00,0.00000e+00
1.82660e+03,2.22852e+01,-2.30787e+01,0.00000e+00,0.00000e+00,0.00000e+00
1.82660e+03,2.18762e+01,-2.50020e+01,0.00000e+00,0.00000e+00,0.00000e+00
1.82660e+03,2.14317e+01,-2.69252e+01,0.00000e+00,0.00000e+00,0.00000e+00
1.82660e+03,2.09449e+01,-2.88484e+01,0.00000e+00,0.00000e+00,0.00000e+00
1.82660e+03,2.04008e+01,-3.07717e+01,0.00000e+00,0.00000e+00,0.00000e+00
1.82660e+03,1.98168e+01,-3.26949e+01,0.00000e+00,0.00000e+00,0.00000e+00
1.82660e+03,1.91430e+01,-3.46181e+01,0.00000e+00,0.00000e+00,0.00000e+00
1.82660e+03,1.84320e+01,-3.65413e+01,0.00000e+00,0.00000e+00,0.00000e+00
1.82660e+03,1.76173e+01,-3.84646e+01,0.00000e+00,0.00000e+00,0.00000e+00
1.82660e+03,1.67196e+01,-4.03878e+01,0.00000e+00,0.00000e+00,0.00000e+00
1.82660e+03,1.57373e+01,-4.23110e+01,0.00000e+00,0.00000e+00,0.00000e+00
1.82660e+03,1.46131e+01,-4.42343e+01,0.00000e+00,0.00000e+00,0.00000e+00
1.82660e+03,1.33245e+01,-4.61575e+01,0.00000e+00,0.00000e+00,0.00000e+00
1.82660e+03,1.18502e+01,-4.80807e+01,0.00000e+00,0.00000e+00,0.00000e+00
1.82660e+03,1.01063e+01,-5.00040e+01,0.00000e+00,0.00000e+00,0.00000e+00
1.82660e+03,7.86795e+00,-5.19272e+01,0.00000e+00,0.00000e+00,0.00000e+00
1.82660e+03,4.84065e+00,-5.38504e+01,0.00000e+00,0.00000e+00,0.00000e+00
1.82660e+03,-1.96139e+00,-5.57736e+01,0.00000e+00,0.00000e+00,0.00000e+00
1.82660e+03,-2.45230e+00,-5.57781e+01,0.00000e+00,0.00000e+00,0.00000e+00
1.82660e+03,-6.92480e+00,-5.37860e+01,0.00000e+00,0.00000e+00,0.00000e+00
1.82660e+03,-7.46632e+00,-5.17940e+01,0.00000e+00,0.00000e+00,0.00000e+00
1.82660e+03,-7.65318e+00,-4.98019e+01,0.00000e+00,0.00000e+00,0.00000e+00
1.82660e+03,-7.68153e+00,-4.78098e+01,0.00000e+00,0.00000e+00,0.00000e+00
1.82660e+03,-7.59047e+00,-4.58177e+01,0.00000e+00,0.00000e+00,0.00000e+00
1.82660e+03,-7.42446e+00,-4.38257e+01,0.00000e+00,0.00000e+00,0.00000e+00
1.82660e+03,-7.18321e+00,-4.18336e+01,0.00000e+00,0.00000e+00,0.00000e+00
1.82660e+03,-6.89605e+00,-3.98415e+01,0.00000e+00,0.00000e+00,0.00000e+00
1.82660e+03,-6.58227e+00,-3.78494e+01,0.00000e+00,0.00000e+00,0.00000e+00
1.82660e+03,-6.22838e+00,-3.58574e+01,0.00000e+00,0.00000e+00,0.00000e+00
1.82660e+03,-5.84943e+00,-3.38653e+01,0.00000e+00,0.00000e+00,0.00000e+00
1.82660e+03,-5.44606e+00,-3.18732e+01,0.00000e+00,0.00000e+00,0.00000e+00
1.82660e+03,-5.01837e+00,-2.98811e+01,0.00000e+00,0.00000e+00,0.00000e+00
1.82660e+03,-4.57544e+00,-2.78891e+01,0.00000e+00,0.00000e+00,0.00000e+00
1.82660e+03,-4.11298e+00,-2.58970e+01,0.00000e+00,0.00000e+00,0.00000e+00
1.82660e+03,-3.63801e+00,-2.39049e+01,0.00000e+00,0.00000e+00,0.00000e+00
1.82660e+03,-3.15183e+00,-2.19128e+01,0.00000e+00,0.00000e+00,0.00000e+00
1.82660e+03,-2.65564e+00,-1.99208e+01,0.00000e+00,0.00000e+00,0.00000e+00
1.82660e+03,-2.15521e+00,-1.79287e+01,0.00000e+00,0.00000e+00,0.00000e+00
1.82660e+03,-1.64821e+00,-1.59366e+01,0.00000e+00,0.00000e+00,0.00000e+00
1.82660e+03,-1.14012e+00,-1.39445e+01,0.00000e+00,0.00000e+00,0.00000e+00
1.82660e+03,-6.28101e-01,-1.19525e+01,0.00000e+00,0.00000e+00,0.00000e+00
1.82660e+03,-1.16138e-01,-9.96038e+00,0.00000e+00,0.00000e+00,0.00000e+00
1.82660e+03,3.93890e-01,-7.96830e+00,0.00000e+00,0.00000e+00,0.00000e+00
1.82660e+03,9.03919e-01,-5.97623e+00,0.00000e+00,0.00000e+00,0.00000e+00
1.82660e+03,1.40187e+00,-3.98415e+00,0.00000e+00,0.00000e+00,0.00000e+00
1.82660e+03,1.89757e+00,-1.99208e+00,0.00000e+00,0.00000e+00,0.00000e+00
1.87280e+03,2.31244e+01,0.00000e+00,0.00000e+00,0.00000e+00,0.00000e+00
1.87280e+03,2.30080e+01,-1.75721e+00,0.00000e+00,0.00000e+00,0.00000e+00
1.87280e+03,2.28531e+01,-3.51443e+00,0.00000e+00,0.00000e+00,0.00000e+00
1.87280e+03,2.26966e+01,-5.27164e+00,0.00000e+00,0.00000e+00,0.00000e+00
1.87280e+03,2.25061e+01,-7.02886e+00,0.00000e+00,0.00000e+00,0.00000e+00
1.87280e+03,2.23078e+01,-8.78607e+00,0.00000e+00,0.00000e+00,0.00000e+00
1.87280e+03,2.20834e+01,-1.05433e+01,0.00000e+00,0.00000e+00,0.00000e+00
1.87280e+03,2.18464e+01,-1.23005e+01,0.00000e+00,0.00000e+00,0.00000e+00
1.87280e+03,2.15884e+01,-1.40577e+01,0.00000e+00,0.00000e+00,0.00000e+00
1.87280e+03,2.13132e+01,-1.58149e+01,0.00000e+00,0.00000e+00,0.00000e+00
1.87280e+03,2.10191e+01,-1.75721e+01,0.00000e+00,0.00000e+00,0.00000e+00
1.87280e+03,2.07020e+01,-1.93294e+01,0.00000e+00,0.00000e+00,0.00000e+00
1.87280e+03,2.03615e+01,-2.10866e+01,0.00000e+00,0.00000e+00,0.00000e+00
1.87280e+03,1.99878e+01,-2.28438e+01,0.00000e+00,0.00000e+00,0.00000e+00
1.87280e+03,1.95817e+01,-2.46010e+01,0.00000e+00,0.00000e+00,0.00000e+00
1.87280e+03,1.91369e+01,-2.63582e+01,0.00000e+00,0.00000e+00,0.00000e+00
1.87280e+03,1.86398e+01,-2.81154e+01,0.00000e+00,0.00000e+00,0.00000e+00
1.87280e+03,1.81062e+01,-2.98726e+01,0.00000e+00,0.00000e+00,0.00000e+00
1.87280e+03,1.74905e+01,-3.16299e+01,0.00000e+00,0.00000e+00,0.00000e+00
1.87280e+03,1.68409e+01,-3.33871e+01,0.00000e+00,0.00000e+00,0.00000e+00
1.87280e+03,1.60966e+01,-3.51443e+01,0.00000e+00,0.00000e+00,0.00000e+00
1.87280e+03,1.52763e+01,-3.69015e+01,0.00000e+00,0.00000e+00,0.00000e+00
1.87280e+03,1.43788e+01,-3.86587e+01,0.00000e+00,0.00000e+00,0.00000e+00
1.87280e+03,1.33517e+01,-4.04159e+01,0.00000e+00,0.00000e+00,0.00000e+00
1.87280e+03,1.21743e+01,-4.21731e+01,0.00000e+00,0.00000e+00,0.00000e+00
1.87280e+03,1.08272e+01,-4.39304e+01,0.00000e+00,0.00000e+00,0.00000e+00
1.87280e+03,9.23393e+00,-4.56876e+01,0.00000e+00,0.00000e+00,0.00000e+00
1.87280e+03,7.18879e+00,-4.74448e+01,0.00000e+00,0.00000e+00,0.00000e+00
1.87280e+03,4.42280e+00,-4.92020e+01,0.00000e+00,0.00000e+00,0.00000e+00
1.87280e+03,-1.79208e+00,-5.09592e+01,0.00000e+00,0.00000e+00,0.00000e+00
1.87280e+03,-2.24062e+00,-5.09633e+01,0.00000e+00,0.00000e+00,0.00000e+00
1.87280e+03,-6.32705e+00,-4.91432e+01,0.00000e+00,0.00000e+00,0.00000e+00
1.87280e+03,-6.82182e+00,-4.73231e+01,0.00000e+00,0.00000e+00,0.00000e+00
1.87280e+03,-6.99255e+00,-4.55029e+01,0.00000e+00,0.00000e+00,0.00000e+00
1.87280e+03,-7.01846e+00,-4.36828e+01,0.00000e+00,0.00000e+00,0.00000e+00
1.87280e+03,-6.93525e+00,-4.18627e+01,0.00000e+00,0.00000e+00,0.00000e+00
1.87280e+03,-6.78358e+00,-4.00426e+01,0.00000e+00,0.00000e+00,0.00000e+00
1.87280e+03,-6.56315e+00,-3.82225e+01,0.00000e+00,0.00000e+00,0.00000e+00
1.87280e+03,-6.30078e+00,-3.64024e+01,0.00000e+00,0.00000e+00,0.00000e+00
1.87280e+03,-6.01408e+00,-3.45822e+01,0.00000e+00,0.00000e+00,0.00000e+00
1.87280e+03,-5.69074e+00,-3.27621e+01,0.00000e+00,0.00000e+00,0.00000e+00
1.87280e+03,-5.34450e+00,-3.09420e+01,0.00000e+00,0.00000e+00,0.00000e+00
1.87280e+03,-4.97595e+00,-2.91219e+01,0.00000e+00,0.00000e+00,0.00000e+00
1.87280e+03,-4.58518e+00,-2.73018e+01,0.00000e+00,0.00000e+00,0.00000e+00
1.87280e+03,-4.18049e+00,-2.54816e+01,0.00000e+00,0.00000e+00,0.00000e+00
1.87280e+03,-3.75794e+00,-2.36615e+01,0.00000e+00,0.00000e+00,0.00000e+00
1.87280e+03,-3.32398e+00,-2.18414e+01,0.00000e+00,0.00000e+00,0.00000e+00
1.87280e+03,-2.87976e+00,-2.00213e+01,0.00000e+00,0.00000e+00,0.00000e+00
1.87280e+03,-2.42640e+00,-1.82012e+01,0.00000e+00,0.00000e+00,0.00000e+00
1.87280e+03,-1.96917e+00,-1.63811e+01,0.00000e+00,0.00000e+00,0.00000e+00
1.87280e+03,-1.50594e+00,-1.45609e+01,0.00000e+00,0.00000e+00,0.00000e+00
1.87280e+03,-1.04170e+00,-1.27408e+01,0.00000e+00,0.00000e+00,0.00000e+00
1.87280e+03,-5.73883e-01,-1.09207e+01,0.00000e+00,0.00000e+00,0.00000e+00
1.87280e+03,-1.06113e-01,-9.10059e+00,0.00000e+00,0.00000e+00,0.00000e+00
1.87280e+03,3.59890e-01,-7.28047e+00,0.00000e+00,0.00000e+00,0.00000e+00
1.87280e+03,8.25892e-01,-5.46035e+00,0.00000e+00,0.00000e+00,0.00000e+00
1.87280e+03,1.28086e+00,-3.64024e+00,0.00000e+00,0.00000e+00,0.00000e+00
1.87280e+03,1.73377e+00,-1.82012e+00,0.00000e+00,0.00000e+00,0.00000e+00
1.91380e+03,2.11856e+01,0.00000e+00,0.00000e+00,0.00000e+00,0.00000e+00
1.91380e+03,2.10789e+01,-1.60989e+00,0.00000e+00,0.00000e+00,0.00000e+00
1.91380e+03,2.09370e+01,-3.21977e+00,0.00000e+00,0.00000e+00,0.00000e+00
1.91380e+03,2.07936e+01,-4.82966e+00,0.00000e+00,0.00000e+00,0.00000e+00
1.91380e+03,2.06192e+01,-6.43954e+00,0.00000e+00,0.00000e+00,0.00000e+00
1.91380e+03,2.04375e+01,-8.04943e+00,0.00000e+00,0.00000e+00,0.00000e+00
1.91380e+03,2.02319e+01,-9.65931e+00,0.00000e+00,0.00000e+00,0.00000e+00
1.91380e+03,2.00147e+01,-1.12692e+01,0.00000e+00,0.00000e+00,0.00000e+00
1.91380e+03,1.97784e+01,-1.28791e+01,0.00000e+00,0.00000e+00,0.00000e+00
1.91380e+03,1.95262e+01,-1.44890e+01,0.00000e+00,0.00000e+00,0.00000e+00
1.91380e+03,1.92568e+01,-1.60989e+01,0.00000e+00,0.00000e+00,0.00000e+00
1.91380e+03,1.89663e+01,-1.77087e+01,0.00000e+00,0.00000e+00,0.00000e+00
1.91380e+03,1.86544e+01,-1.93186e+01,0.00000e+00,0.00000e+00,0.00000e+00
1.91380e+03,1.83120e+01,-2.09285e+01,0.00000e+00,0.00000e+00,0.00000e+00
1.91380e+03,1.79399e+01,-2.25384e+01,0.00000e+00,0.00000e+00,0.00000e+00
1.91380e+03,1.75325e+01,-2.41483e+01,0.00000e+00,0.00000e+00,0.00000e+00
1.91380e+03,1.70770e+01,-2.57582e+01,0.00000e+00,0.00000e+00,0.00000e+00
1.91380e+03,1.65881e+01,-2.73680e+01,0.00000e+00,0.00000e+00,0.00000e+00
1.91380e+03,1.60241e+01,-2.89779e+01,0.00000e+00,0.00000e+00,0.00000e+00
1.91380e+03,1.54289e+01,-3.05878e+01,0.00000e+00,0.00000e+00,0.00000e+00
1.91380e+03,1.47470e+01,-3.21977e+01,0.00000e+00,0.00000e+00,0.00000e+00
1.91380e+03,1.39955e+01,-3.38076e+01,0.00000e+00,0.00000e+00,0.00000e+00
1.91380e+03,1.31733e+01,-3.54175e+01,0.00000e+00,0.00000e+00,0.00000e+00
1.91380e+03,1.22322e+01,-3.70274e+01,0.00000e+00,0.00000e+00,0.00000e+00
1.91380e+03,1.11536e+01,-3.86372e+01,0.00000e+00,0.00000e+00,0.00000e+00
1.91380e+03,9.91946e+00,-4.02471e+01,0.00000e+00,0.00000e+00,0.00000e+00
1.91380e+03,8.45973e+00,-4.18570e+01,0.00000e+00,0.00000e+00,0.00000e+00
1.91380e+03,6.58606e+00,-4.34669e+01,0.00000e+00,0.00000e+00,0.00000e+00
1.91380e+03,4.05198e+00,-4.50768e+01,0.00000e+00,0.00000e+00,0.00000e+00
1.91380e+03,-1.64183e+00,-4.66867e+01,0.00000e+00,0.00000e+00,0.00000e+00
1.91380e+03,-2.05276e+00,-4.66904e+01,0.00000e+00,0.00000e+00,0.00000e+00
1.91380e+03,-5.79657e+00,-4.50229e+01,0.00000e+00,0.00000e+00,0.00000e+00
1.91380e+03,-6.24986e+00,-4.33554e+01,0.00000e+00,0.00000e+00,0.00000e+00
1.91380e+03,-6.40628e+00,-4.16879e+01,0.00000e+00,0.00000e+00,0.00000e+00
1.91380e+03,-6.43001e+00,-4.00204e+01,0.00000e+00,0.00000e+00,0.00000e+00
1.91380e+03,-6.35378e+00,-3.83528e+01,0.00000e+00,0.00000e+00,0.00000e+00
1.91380e+03,-6.21483e+00,-3.66853e+01,0.00000e+00,0.00000e+00,0.00000e+00
1.91380e+03,-6.01288e+00,-3.50178e+01,0.00000e+00,0.00000e+00,0.00000e+00
1.91380e+03,-5.77251e+00,-3.33503e+01,0.00000e+00,0.00000e+00,0.00000e+00
1.91380e+03,-5.50985e+00,-3.16828e+01,0.00000e+00,0.00000e+00,0.00000e+00
1.91380e+03,-5.21362e+00,-3.00153e+01,0.00000e+00,0.00000e+00,0.00000e+00
1.91380e+03,-4.89640e+00,-2.83477e+01,0.00000e+00,0.00000e+00,0.00000e+00
1.91380e+03,-4.55876e+00,-2.66802e+01,0.00000e+00,0.00000e+00,0.00000e+00
1.91380e+03,-4.20075e+00,-2.50127e+01,0.00000e+00,0.00000e+00,0.00000e+00
1.91380e+03,-3.82998e+00,-2.33452e+01,0.00000e+00,0.00000e+00,0.00000e+00
1.91380e+03,-3.44287e+00,-2.16777e+01,0.00000e+00,0.00000e+00,0.00000e+00
1.91380e+03,-3.04529e+00,-2.00102e+01,0.00000e+00,0.00000e+00,0.00000e+00
1.91380e+03,-2.63832e+00,-1.83427e+01,0.00000e+00,0.00000e+00,0.00000e+00
1.91380e+03,-2.22297e+00,-1.66751e+01,0.00000e+00,0.00000e+00,0.00000e+00
1.91380e+03,-1.80407e+00,-1.50076e+01,0.00000e+00,0.00000e+00,0.00000e+00
1.91380e+03,-1.37967e+00,-1.33401e+01,0.00000e+00,0.00000e+00,0.00000e+00
1.91380e+03,-9.54362e-01,-1.16726e+01,0.00000e+00,0.00000e+00,0.00000e+00
1.91380e+03,-5.25768e-01,-1.00051e+01,0.00000e+00,0.00000e+00,0.00000e+00
1.91380e+03,-9.72161e-02,-8.33757e+00,0.00000e+00,0.00000e+00,0.00000e+00
1.91380e+03,3.29716e-01,-6.67006e+00,0.00000e+00,0.00000e+00,0.00000e+00
1.91380e+03,7.56647e-01,-5.00254e+00,0.00000e+00,0.00000e+00,0.00000e+00
1.91380e+03,1.17347e+00,-3.33503e+00,0.00000e+00,0.00000e+00,0.00000e+00
1.91380e+03,1.58841e+00,-1.66751e+00,0.00000e+00,0.00000e+00,0.00000e+00
1.94970e+03,1.94880e+01,0.00000e+00,0.00000e+00,0.00000e+00,0.00000e+00
1.94970e+03,1.93899e+01,-1.48088e+00,0.00000e+00,0.00000e+00,0.00000e+00
1.94970e+03,1.92593e+01,-2.96177e+00,0.00000e+00,0.00000e+00,0.00000e+00
1.94970e+03,1.91274e+01,-4.44265e+00,0.00000e+00,0.00000e+00,0.00000e+00
1.94970e+03,1.89669e+01,-5.92353e+00,0.00000e+00,0.00000e+00,0.00000e+00
1.94970e+03,1.87998e+01,-7.40441e+00,0.00000e+00,0.00000e+00,0.00000e+00
1.94970e+03,1.86107e+01,-8.88530e+00,0.00000e+00,0.00000e+00,0.00000e+00
1.94970e+03,1.84109e+01,-1.03662e+01,0.00000e+00,0.00000e+00,0.00000e+00
1.94970e+03,1.81935e+01,-1.18471e+01,0.00000e+00,0.00000e+00,0.00000e+00
1.94970e+03,1.79616e+01,-1.33279e+01,0.00000e+00,0.00000e+00,0.00000e+00
1.94970e+03,1.77137e+01,-1.48088e+01,0.00000e+00,0.00000e+00,0.00000e+00
1.94970e+03,1.74465e+01,-1.62897e+01,0.00000e+00,0.00000e+00,0.00000e+00
1.94970e+03,1.71596e+01,-1.77706e+01,0.00000e+00,0.00000e+00,0.00000e+00
1.94970e+03,1.68446e+01,-1.92515e+01,0.00000e+00,0.00000e+00,0.00000e+00
1.94970e+03,1.65024e+01,-2.07324e+01,0.00000e+00,0.00000e+00,0.00000e+00
1.94970e+03,1.61276e+01,-2.22132e+01,0.00000e+00,0.00000e+00,0.00000e+00
1.94970e+03,1.57086e+01,-2.36941e+01,0.00000e+00,0.00000e+00,0.00000e+00
1.94970e+03,1.52589e+01,-2.51750e+01,0.00000e+00,0.00000e+00,0.00000e+00
1.94970e+03,1.47401e+01,-2.66559e+01,0.00000e+00,0.00000e+00,0.00000e+00
1.94970e+03,1.41926e+01,-2.81368e+01,0.00000e+00,0.00000e+00,0.00000e+00
1.94970e+03,1.35653e+01,-2.96177e+01,0.00000e+00,0.00000e+00,0.00000e+00
1.94970e+03,1.28740e+01,-3.10985e+01,0.00000e+00,0.00000e+00,0.00000e+00
1.94970e+03,1.21177e+01,-3.25794e+01,0.00000e+00,0.00000e+00,0.00000e+00
1.94970e+03,1.12521e+01,-3.40603e+01,0.00000e+00,0.00000e+00,0.00000e+00
1.94970e+03,1.02599e+01,-3.55412e+01,0.00000e+00,0.00000e+00,0.00000e+00
1.94970e+03,9.12460e+00,-3.70221e+01,0.00000e+00,0.00000e+00,0.00000e+00
1.94970e+03,7.78184e+00,-3.85029e+01,0.00000e+00,0.00000e+00,0.00000e+00
1.94970e+03,6.05831e+00,-3.99838e+01,0.00000e+00,0.00000e+00,0.00000e+00
1.94970e+03,3.72729e+00,-4.14647e+01,0.00000e+00,0.00000e+00,0.00000e+00
1.94970e+03,-1.51027e+00,-4.29456e+01,0.00000e+00,0.00000e+00,0.00000e+00
1.94970e+03,-1.88827e+00,-4.29490e+01,0.00000e+00,0.00000e+00,0.00000e+00
1.94970e+03,-5.33209e+00,-4.14151e+01,0.00000e+00,0.00000e+00,0.00000e+00
1.94970e+03,-5.74905e+00,-3.98812e+01,0.00000e+00,0.00000e+00,0.00000e+00
1.94970e+03,-5.89293e+00,-3.83473e+01,0.00000e+00,0.00000e+00,0.00000e+00
1.94970e+03,-5.91477e+00,-3.68135e+01,0.00000e+00,0.00000e+00,0.00000e+00
1.94970e+03,-5.84465e+00,-3.52796e+01,0.00000e+00,0.00000e+00,0.00000e+00
1.94970e+03,-5.71682e+00,-3.37457e+01,0.00000e+00,0.00000e+00,0.00000e+00
1.94970e+03,-5.53106e+00,-3.22118e+01,0.00000e+00,0.00000e+00,0.00000e+00
1.94970e+03,-5.30995e+00,-3.06779e+01,0.00000e+00,0.00000e+00,0.00000e+00
1.94970e+03,-5.06834e+00,-2.91440e+01,0.00000e+00,0.00000e+00,0.00000e+00
1.94970e+03,-4.79584e+00,-2.76101e+01,0.00000e+00,0.00000e+00,0.00000e+00
1.94970e+03,-4.50405e+00,-2.60762e+01,0.00000e+00,0.00000e+00,0.00000e+00
1.94970e+03,-4.19345e+00,-2.45423e+01,0.00000e+00,0.00000e+00,0.00000e+00
1.94970e+03,-3.86414e+00,-2.30084e+01,0.00000e+00,0.00000e+00,0.00000e+00
1.94970e+03,-3.52308e+00,-2.14745e+01,0.00000e+00,0.00000e+00,0.00000e+00
1.94970e+03,-3.16699e+00,-1.99406e+01,0.00000e+00,0.00000e+00,0.00000e+00
1.94970e+03,-2.80126e+00,-1.84067e+01,0.00000e+00,0.00000e+00,0.00000e+00
1.94970e+03,-2.42690e+00,-1.68728e+01,0.00000e+00,0.00000e+00,0.00000e+00
1.94970e+03,-2.04484e+00,-1.53389e+01,0.00000e+00,0.00000e+00,0.00000e+00
1.94970e+03,-1.65951e+00,-1.38050e+01,0.00000e+00,0.00000e+00,0.00000e+00
1.94970e+03,-1.26912e+00,-1.22712e+01,0.00000e+00,0.00000e+00,0.00000e+00
1.94970e+03,-8.77888e-01,-1.07373e+01,0.00000e+00,0.00000e+00,0.00000e+00
1.94970e+03,-4.83637e-01,-9.20336e+00,0.00000e+00,0.00000e+00,0.00000e+00
1.94970e+03,-8.94260e-02,-7.66947e+00,0.00000e+00,0.00000e+00,0.00000e+00
1.94970e+03,3.03295e-01,-6.13558e+00,0.00000e+00,0.00000e+00,0.00000e+00
1.94970e+03,6.96016e-01,-4.60168e+00,0.00000e+00,0.00000e+00,0.00000e+00
1.94970e+03,1.07944e+00,-3.06779e+00,0.00000e+00,0.00000e+00,0.00000e+00
1.94970e+03,1.46113e+00,-1.53389e+00,0.00000e+00,0.00000e+00,0.00000e+00
1.98010e+03,1.80504e+01,0.00000e+00,0.00000e+00,0.00000e+00,0.00000e+00
1.98010e+03,1.79595e+01,-1.37164e+00,0.00000e+00,0.00000e+00,0.00000e+00
1.98010e+03,1.78386e+01,-2.74329e+00,0.00000e+00,0.00000e+00,0.00000e+00
1.98010e+03,1.77165e+01,-4.11493e+00,0.00000e+00,0.00000e+00,0.00000e+00
1.98010e+03,1.75678e+01,-5.48657e+00,0.00000e+00,0.00000e+00,0.00000e+00
1.98010e+03,1.74130e+01,-6.85822e+00,0.00000e+00,0.00000e+00,0.00000e+00
1.98010e+03,1.72378e+01,-8.22986e+00,0.00000e+00,0.00000e+00,0.00000e+00
1.98010e+03,1.70528e+01,-9.60150e+00,0.00000e+00,0.00000e+00,0.00000e+00
1.98010e+03,1.68514e+01,-1.09731e+01,0.00000e+00,0.00000e+00,0.00000e+00
1.98010e+03,1.66366e+01,-1.23448e+01,0.00000e+00,0.00000e+00,0.00000e+00
1.98010e+03,1.64070e+01,-1.37164e+01,0.00000e+00,0.00000e+00,0.00000e+00
1.98010e+03,1.61595e+01,-1.50881e+01,0.00000e+00,0.00000e+00,0.00000e+00
1.98010e+03,1.58938e+01,-1.64597e+01,0.00000e+00,0.00000e+00,0.00000e+00
1.98010e+03,1.56020e+01,-1.78314e+01,0.00000e+00,0.00000e+00,0.00000e+00
1.98010e+03,1.52851e+01,-1.92030e+01,0.00000e+00,0.00000e+00,0.00000e+00
1.98010e+03,1.49379e+01,-2.05747e+01,0.00000e+00,0.00000e+00,0.00000e+00
1.98010e+03,1.45498e+01,-2.19463e+01,0.00000e+00,0.00000e+00,0.00000e+00
1.98010e+03,1.41333e+01,-2.33179e+01,0.00000e+00,0.00000e+00,0.00000e+00
1.98010e+03,1.36527e+01,-2.46896e+01,0.00000e+00,0.00000e+00,0.00000e+00
1.98010e+03,1.31457e+01,-2.60612e+01,0.00000e+00,0.00000e+00,0.00000e+00
1.98010e+03,1.25646e+01,-2.74329e+01,0.00000e+00,0.00000e+00,0.00000e+00
1.98010e+03,1.19244e+01,-2.88045e+01,0.00000e+00,0.00000e+00,0.00000e+00
1.98010e+03,1.12238e+01,-3.01762e+01,0.00000e+00,0.00000e+00,0.00000e+00
1.98010e+03,1.04220e+01,-3.15478e+01,0.00000e+00,0.00000e+00,0.00000e+00
1.98010e+03,9.50303e+00,-3.29194e+01,0.00000e+00,0.00000e+00,0.00000e+00
1.98010e+03,8.45151e+00,-3.42911e+01,0.00000e+00,0.00000e+00,0.00000e+00
1.98010e+03,7.20780e+00,-3.56627e+01,0.00000e+00,0.00000e+00,0.00000e+00
1.98010e+03,5.61141e+00,-3.70344e+01,0.00000e+00,0.00000e+00,0.00000e+00
1.98010e+03,3.45234e+00,-3.84060e+01,0.00000e+00,0.00000e+00,0.00000e+00
1.98010e+03,-1.39886e+00,-3.97777e+01,0.00000e+00,0.00000e+00,0.00000e+00
1.98010e+03,-1.74898e+00,-3.97808e+01,0.00000e+00,0.00000e+00,0.00000e+00
1.98010e+03,-4.93876e+00,-3.83601e+01,0.00000e+00,0.00000e+00,0.00000e+00
1.98010e+03,-5.32496e+00,-3.69394e+01,0.00000e+00,0.00000e+00,0.00000e+00
1.98010e+03,-5.45823e+00,-3.55186e+01,0.00000e+00,0.00000e+00,0.00000e+00
1.98010e+03,-5.47846e+00,-3.40979e+01,0.00000e+00,0.00000e+00,0.00000e+00
1.98010e+03,-5.41351e+00,-3.26771e+01,0.00000e+00,0.00000e+00,0.00000e+00
1.98010e+03,-5.29511e+00,-3.12564e+01,0.00000e+00,0.00000e+00,0.00000e+00
1.98010e+03,-5.12305e+00,-2.98356e+01,0.00000e+00,0.00000e+00,0.00000e+00
1.98010e+03,-4.91825e+00,-2.84149e+01,0.00000e+00,0.00000e+00,0.00000e+00
1.98010e+03,-4.69446e+00,-2.69941e+01,0.00000e+00,0.00000e+00,0.00000e+00
1.98010e+03,-4.44207e+00,-2.55734e+01,0.00000e+00,0.00000e+00,0.00000e+00
1.98010e+03,-4.17180e+00,-2.41527e+01,0.00000e+00,0.00000e+00,0.00000e+00
1.98010e+03,-3.88412e+00,-2.27319e+01,0.00000e+00,0.00000e+00,0.00000e+00
1.98010e+03,-3.57909e+00,-2.13112e+01,0.00000e+00,0.00000e+00,0.00000e+00
1.98010e+03,-3.26320e+00,-1.98904e+01,0.00000e+00,0.00000e+00,0.00000e+00
1.98010e+03,-2.93337e+00,-1.84697e+01,0.00000e+00,0.00000e+00,0.00000e+00
1.98010e+03,-2.59462e+00,-1.70489e+01,0.00000e+00,0.00000e+00,0.00000e+00
1.98010e+03,-2.24788e+00,-1.56282e+01,0.00000e+00,0.00000e+00,0.00000e+00
1.98010e+03,-1.89400e+00,-1.42074e+01,0.00000e+00,0.00000e+00,0.00000e+00
1.98010e+03,-1.53709e+00,-1.27867e+01,0.00000e+00,0.00000e+00,0.00000e+00
1.98010e+03,-1.17550e+00,-1.13660e+01,0.00000e+00,0.00000e+00,0.00000e+00
1.98010e+03,-8.13129e-01,-9.94521e+00,0.00000e+00,0.00000e+00,0.00000e+00
1.98010e+03,-4.47961e-01,-8.52447e+00,0.00000e+00,0.00000e+00,0.00000e+00
1.98010e+03,-8.28294e-02,-7.10372e+00,0.00000e+00,0.00000e+00,0.00000e+00
1.98010e+03,2.80922e-01,-5.68298e+00,0.00000e+00,0.00000e+00,0.00000e+00
1.98010e+03,6.44673e-01,-4.26223e+00,0.00000e+00,0.00000e+00,0.00000e+00
1.98010e+03,9.99811e-01,-2.84149e+00,0.00000e+00,0.00000e+00,0.00000e+00
1.98010e+03,1.35334e+00,-1.42074e+00,0.00000e+00,0.00000e+00,0.00000e+00
2.00520e+03,1.68635e+01,0.00000e+00,0.00000e+00,0.00000e+00,0.00000e+00
2.00520e+03,1.67786e+01,-1.28145e+00,0.00000e+00,0.00000e+00,0.00000e+00
2.00520e+03,1.66656e+01,-2.56290e+00,0.00000e+00,0.00000e+00,0.00000e+00
2.00520e+03,1.65515e+01,-3.84435e+00,0.00000e+00,0.00000e+00,0.00000e+00
2.00520e+03,1.64126e+01,-5.12580e+00,0.00000e+00,0.00000e+00,0.00000e+00
2.00520e+03,1.62680e+01,-6.40725e+00,0.00000e+00,0.00000e+00,0.00000e+00
2.00520e+03,1.61044e+01,-7.68870e+00,0.00000e+00,0.00000e+00,0.00000e+00
2.00520e+03,1.59315e+01,-8.97015e+00,0.00000e+00,0.00000e+00,0.00000e+00
2.00520e+03,1.57433e+01,-1.02516e+01,0.00000e+00,0.00000e+00,0.00000e+00
2.00520e+03,1.55427e+01,-1.15330e+01,0.00000e+00,0.00000e+00,0.00000e+00
2.00520e+03,1.53282e+01,-1.28145e+01,0.00000e+00,0.00000e+00,0.00000e+00
2.00520e+03,1.50970e+01,-1.40959e+01,0.00000e+00,0.00000e+00,0.00000e+00
2.00520e+03,1.48486e+01,-1.53774e+01,0.00000e+00,0.00000e+00,0.00000e+00
2.00520e+03,1.45761e+01,-1.66588e+01,0.00000e+00,0.00000e+00,0.00000e+00
2.00520e+03,1.42800e+01,-1.79403e+01,0.00000e+00,0.00000e+00,0.00000e+00
2.00520e+03,1.39556e+01,-1.92217e+01,0.00000e+00,0.00000e+00,0.00000e+00
2.00520e+03,1.35931e+01,-2.05032e+01,0.00000e+00,0.00000e+00,0.00000e+00
2.00520e+03,1.32039e+01,-2.17846e+01,0.00000e+00,0.00000e+00,0.00000e+00
2.00520e+03,1.27550e+01,-2.30661e+01,0.00000e+00,0.00000e+00,0.00000e+00
2.00520e+03,1.22812e+01,-2.43475e+01,0.00000e+00,0.00000e+00,0.00000e+00
2.00520e+03,1.17384e+01,-2.56290e+01,0.00000e+00,0.00000e+00,0.00000e+00
2.00520e+03,1.11403e+01,-2.69104e+01,0.00000e+00,0.00000e+00,0.00000e+00
2.00520e+03,1.04858e+01,-2.81919e+01,0.00000e+00,0.00000e+00,0.00000e+00
2.00520e+03,9.73672e+00,-2.94733e+01,0.00000e+00,0.00000e+00,0.00000e+00
2.00520e+03,8.87814e+00,-3.07548e+01,0.00000e+00,0.00000e+00,0.00000e+00
2.00520e+03,7.89577e+00,-3.20362e+01,0.00000e+00,0.00000e+00,0.00000e+00
2.00520e+03,6.73385e+00,-3.33177e+01,0.00000e+00,0.00000e+00,0.00000e+00
2.00520e+03,5.24243e+00,-3.45991e+01,0.00000e+00,0.00000e+00,0.00000e+00
2.00520e+03,3.22533e+00,-3.58806e+01,0.00000e+00,0.00000e+00,0.00000e+00
2.00520e+03,-1.30688e+00,-3.71620e+01,0.00000e+00,0.00000e+00,0.00000e+00
2.00520e+03,-1.63397e+00,-3.71650e+01,0.00000e+00,0.00000e+00,0.00000e+00
2.00520e+03,-4.61400e+00,-3.58377e+01,0.00000e+00,0.00000e+00,0.00000e+00
2.00520e+03,-4.97481e+00,-3.45104e+01,0.00000e+00,0.00000e+00,0.00000e+00
2.00520e+03,-5.09932e+00,-3.31830e+01,0.00000e+00,0.00000e+00,0.00000e+00
2.00520e+03,-5.11821e+00,-3.18557e+01,0.00000e+00,0.00000e+00,0.00000e+00
2.00520e+03,-5.05754e+00,-3.05284e+01,0.00000e+00,0.00000e+00,0.00000e+00
2.00520e+03,-4.94693e+00,-2.92011e+01,0.00000e+00,0.00000e+00,0.00000e+00
2.00520e+03,-4.78618e+00,-2.78738e+01,0.00000e+00,0.00000e+00,0.00000e+00
2.00520e+03,-4.59485e+00,-2.65464e+01,0.00000e+00,0.00000e+00,0.00000e+00
2.00520e+03,-4.38577e+00,-2.52191e+01,0.00000e+00,0.00000e+00,0.00000e+00
2.00520e+03,-4.14998e+00,-2.38918e+01,0.00000e+00,0.00000e+00,0.00000e+00
2.00520e+03,-3.89748e+00,-2.25645e+01,0.00000e+00,0.00000e+00,0.00000e+00
2.00520e+03,-3.62871e+00,-2.12371e+01,0.00000e+00,0.00000e+00,0.00000e+00
2.00520e+03,-3.34375e+00,-1.99098e+01,0.00000e+00,0.00000e+00,0.00000e+00
2.00520e+03,-3.04862e+00,-1.85825e+01,0.00000e+00,0.00000e+00,0.00000e+00
2.00520e+03,-2.74048e+00,-1.72552e+01,0.00000e+00,0.00000e+00,0.00000e+00
2.00520e+03,-2.42401e+00,-1.59279e+01,0.00000e+00,0.00000e+00,0.00000e+00
2.00520e+03,-2.10007e+00,-1.46005e+01,0.00000e+00,0.00000e+00,0.00000e+00
2.00520e+03,-1.76946e+00,-1.32732e+01,0.00000e+00,0.00000e+00,0.00000e+00
2.00520e+03,-1.43602e+00,-1.19459e+01,0.00000e+00,0.00000e+00,0.00000e+00
2.00520e+03,-1.09820e+00,-1.06186e+01,0.00000e+00,0.00000e+00,0.00000e+00
2.00520e+03,-7.59661e-01,-9.29125e+00,0.00000e+00,0.00000e+00,0.00000e+00
2.00520e+03,-4.18505e-01,-7.96393e+00,0.00000e+00,0.00000e+00,0.00000e+00
2.00520e+03,-7.73829e-02,-6.63661e+00,0.00000e+00,0.00000e+00,0.00000e+00
2.00520e+03,2.62450e-01,-5.30929e+00,0.00000e+00,0.00000e+00,0.00000e+00
2.00520e+03,6.02282e-01,-3.98196e+00,0.00000e+00,0.00000e+00,0.00000e+00
2.00520e+03,9.34067e-01,-2.65464e+00,0.00000e+00,0.00000e+00,0.00000e+00
2.00520e+03,1.26435e+00,-1.32732e+00,0.00000e+00,0.00000e+00,0.00000e+00
2.02480e+03,1.59367e+01,0.00000e+00,0.00000e+00,0.00000e+00,0.00000e+00
2.02480e+03,1.58564e+01,-1.21102e+00,0.00000e+00,0.00000e+00,0.00000e+00
2.02480e+03,1.57496e+01,-2.42204e+00,0.00000e+00,0.00000e+00,0.00000e+00
2.02480e+03,1.56418e+01,-3.63306e+00,0.00000e+00,0.00000e+00,0.00000e+00
2.02480e+03,1.55106e+01,-4.84408e+00,0.00000e+00,0.00000e+00,0.00000e+00
2.02480e+03,1.53739e+01,-6.05509e+00,0.00000e+00,0.00000e+00,0.00000e+00
2.02480e+03,1.52192e+01,-7.26611e+00,0.00000e+00,0.00000e+00,0.00000e+00
2.02480e+03,1.50559e+01,-8.47713e+00,0.00000e+00,0.00000e+00,0.00000e+00
2.02480e+03,1.48781e+01,-9.68815e+00,0.00000e+00,0.00000e+00,0.00000e+00
2.02480e+03,1.46884e+01,-1.08992e+01,0.00000e+00,0.00000e+00,0.00000e+00
2.02480e+03,1.44857e+01,-1.21102e+01,0.00000e+00,0.00000e+00,0.00000e+00
2.02480e+03,1.42672e+01,-1.33212e+01,0.00000e+00,0.00000e+00,0.00000e+00
2.02480e+03,1.40325e+01,-1.45322e+01,0.00000e+00,0.00000e+00,0.00000e+00
2.02480e+03,1.37750e+01,-1.57432e+01,0.00000e+00,0.00000e+00,0.00000e+00
2.02480e+03,1.34951e+01,-1.69543e+01,0.00000e+00,0.00000e+00,0.00000e+00
2.02480e+03,1.31886e+01,-1.81653e+01,0.00000e+00,0.00000e+00,0.00000e+00
2.02480e+03,1.28460e+01,-1.93763e+01,0.00000e+00,0.00000e+00,0.00000e+00
2.02480e+03,1.24782e+01,-2.05873e+01,0.00000e+00,0.00000e+00,0.00000e+00
2.02480e+03,1.20540e+01,-2.17983e+01,0.00000e+00,0.00000e+00,0.00000e+00
2.02480e+03,1.16063e+01,-2.30094e+01,0.00000e+00,0.00000e+00,0.00000e+00
2.02480e+03,1.10933e+01,-2.42204e+01,0.00000e+00,0.00000e+00,0.00000e+00
2.02480e+03,1.05280e+01,-2.54314e+01,0.00000e+00,0.00000e+00,0.00000e+00
2.02480e+03,9.90946e+00,-2.66424e+01,0.00000e+00,0.00000e+00,0.00000e+00
2.02480e+03,9.20158e+00,-2.78534e+01,0.00000e+00,0.00000e+00,0.00000e+00
2.02480e+03,8.39019e+00,-2.90645e+01,0.00000e+00,0.00000e+00,0.00000e+00
2.02480e+03,7.46181e+00,-3.02755e+01,0.00000e+00,0.00000e+00,0.00000e+00
2.02480e+03,6.36374e+00,-3.14865e+01,0.00000e+00,0.00000e+00,0.00000e+00
2.02480e+03,4.95429e+00,-3.26975e+01,0.00000e+00,0.00000e+00,0.00000e+00
2.02480e+03,3.04806e+00,-3.39085e+01,0.00000e+00,0.00000e+00,0.00000e+00
2.02480e+03,-1.23505e+00,-3.51195e+01,0.00000e+00,0.00000e+00,0.00000e+00
2.02480e+03,-1.54416e+00,-3.51224e+01,0.00000e+00,0.00000e+00,0.00000e+00
2.02480e+03,-4.36041e+00,-3.38680e+01,0.00000e+00,0.00000e+00,0.00000e+00
2.02480e+03,-4.70139e+00,-3.26136e+01,0.00000e+00,0.00000e+00,0.00000e+00
2.02480e+03,-4.81905e+00,-3.13592e+01,0.00000e+00,0.00000e+00,0.00000e+00
2.02480e+03,-4.83691e+00,-3.01049e+01,0.00000e+00,0.00000e+00,0.00000e+00
2.02480e+03,-4.77957e+00,-2.88505e+01,0.00000e+00,0.00000e+00,0.00000e+00
2.02480e+03,-4.67504e+00,-2.75961e+01,0.00000e+00,0.00000e+00,0.00000e+00
2.02480e+03,-4.52312e+00,-2.63418e+01,0.00000e+00,0.00000e+00,0.00000e+00
2.02480e+03,-4.34231e+00,-2.50874e+01,0.00000e+00,0.00000e+00,0.00000e+00
2.02480e+03,-4.14473e+00,-2.38330e+01,0.00000e+00,0.00000e+00,0.00000e+00
2.02480e+03,-3.92189e+00,-2.25787e+01,0.00000e+00,0.00000e+00,0.00000e+00
2.02480e+03,-3.68327e+00,-2.13243e+01,0.00000e+00,0.00000e+00,0.00000e+00
2.02480e+03,-3.42927e+00,-2.00699e+01,0.00000e+00,0.00000e+00,0.00000e+00
2.02480e+03,-3.15997e+00,-1.88155e+01,0.00000e+00,0.00000e+00,0.00000e+00
2.02480e+03,-2.88106e+00,-1.75612e+01,0.00000e+00,0.00000e+00,0.00000e+00
2.02480e+03,-2.58986e+00,-1.63068e+01,0.00000e+00,0.00000e+00,0.00000e+00
2.02480e+03,-2.29078e+00,-1.50524e+01,0.00000e+00,0.00000e+00,0.00000e+00
2.02480e+03,-1.98465e+00,-1.37981e+01,0.00000e+00,0.00000e+00,0.00000e+00
2.02480e+03,-1.67220e+00,-1.25437e+01,0.00000e+00,0.00000e+00,0.00000e+00
2.02480e+03,-1.35709e+00,-1.12893e+01,0.00000e+00,0.00000e+00,0.00000e+00
2.02480e+03,-1.03784e+00,-1.00350e+01,0.00000e+00,0.00000e+00,0.00000e+00
2.02480e+03,-7.17909e-01,-8.78059e+00,0.00000e+00,0.00000e+00,0.00000e+00
2.02480e+03,-3.95503e-01,-7.52622e+00,0.00000e+00,0.00000e+00,0.00000e+00
2.02480e+03,-7.31298e-02,-6.27185e+00,0.00000e+00,0.00000e+00,0.00000e+00
2.02480e+03,2.48025e-01,-5.01748e+00,0.00000e+00,0.00000e+00,0.00000e+00
2.02480e+03,5.69180e-01,-3.76311e+00,0.00000e+00,0.00000e+00,0.00000e+00
2.02480e+03,8.82730e-01,-2.50874e+00,0.00000e+00,0.00000e+00,0.00000e+00
2.02480e+03,1.19486e+00,-1.25437e+00,0.00000e+00,0.00000e+00,0.00000e+00
2.03880e+03,1.52746e+01,0.00000e+00,0.00000e+00,0.00000e+00,0.00000e+00
2.03880e+03,1.51977e+01,-1.16071e+00,0.00000e+00,0.00000e+00,0.00000e+00
2.03880e+03,1.50954e+01,-2.32142e+00,0.00000e+00,0.00000e+00,0.00000e+00
2.03880e+03,1.49920e+01,-3.48213e+00,0.00000e+00,0.00000e+00,0.00000e+00
2.03880e+03,1.48662e+01,-4.64285e+00,0.00000e+00,0.00000e+00,0.00000e+00
2.03880e+03,1.47352e+01,-5.80356e+00,0.00000e+00,0.00000e+00,0.00000e+00
2.03880e+03,1.45870e+01,-6.96427e+00,0.00000e+00,0.00000e+00,0.00000e+00
2.03880e+03,1.44304e+01,-8.12498e+00,0.00000e+00,0.00000e+00,0.00000e+00
2.03880e+03,1.42600e+01,-9.28569e+00,0.00000e+00,0.00000e+00,0.00000e+00
2.03880e+03,1.40782e+01,-1.04464e+01,0.00000e+00,0.00000e+00,0.00000e+00
2.03880e+03,1.38839e+01,-1.16071e+01,0.00000e+00,0.00000e+00,0.00000e+00
2.03880e+03,1.36745e+01,-1.27678e+01,0.00000e+00,0.00000e+00,0.00000e+00
2.03880e+03,1.34496e+01,-1.39285e+01,0.00000e+00,0.00000e+00,0.00000e+00
2.03880e+03,1.32028e+01,-1.50892e+01,0.00000e+00,0.00000e+00,0.00000e+00
2.03880e+03,1.29345e+01,-1.62500e+01,0.00000e+00,0.00000e+00,0.00000e+00
2.03880e+03,1.26407e+01,-1.74107e+01,0.00000e+00,0.00000e+00,0.00000e+00
2.03880e+03,1.23123e+01,-1.85714e+01,0.00000e+00,0.00000e+00,0.00000e+00
2.03880e+03,1.19599e+01,-1.97321e+01,0.00000e+00,0.00000e+00,0.00000e+00
2.03880e+03,1.15532e+01,-2.08928e+01,0.00000e+00,0.00000e+00,0.00000e+00
2.03880e+03,1.11241e+01,-2.20535e+01,0.00000e+00,0.00000e+00,0.00000e+00
2.03880e+03,1.06324e+01,-2.32142e+01,0.00000e+00,0.00000e+00,0.00000e+00
2.03880e+03,1.00906e+01,-2.43749e+01,0.00000e+00,0.00000e+00,0.00000e+00
2.03880e+03,9.49781e+00,-2.55357e+01,0.00000e+00,0.00000e+00,0.00000e+00
2.03880e+03,8.81933e+00,-2.66964e+01,0.00000e+00,0.00000e+00,0.00000e+00
2.03880e+03,8.04165e+00,-2.78571e+01,0.00000e+00,0.00000e+00,0.00000e+00
2.03880e+03,7.15183e+00,-2.90178e+01,0.00000e+00,0.00000e+00,0.00000e+00
2.03880e+03,6.09938e+00,-3.01785e+01,0.00000e+00,0.00000e+00,0.00000e+00
2.03880e+03,4.74849e+00,-3.13392e+01,0.00000e+00,0.00000e+00,0.00000e+00
2.03880e+03,2.92144e+00,-3.24999e+01,0.00000e+00,0.00000e+00,0.00000e+00
2.03880e+03,-1.18374e+00,-3.36606e+01,0.00000e+00,0.00000e+00,0.00000e+00
2.03880e+03,-1.48002e+00,-3.36633e+01,0.00000e+00,0.00000e+00,0.00000e+00
2.03880e+03,-4.17927e+00,-3.24611e+01,0.00000e+00,0.00000e+00,0.00000e+00
2.03880e+03,-4.50609e+00,-3.12588e+01,0.00000e+00,0.00000e+00,0.00000e+00
2.03880e+03,-4.61886e+00,-3.00565e+01,0.00000e+00,0.00000e+00,0.00000e+00
2.03880e+03,-4.63598e+00,-2.88543e+01,0.00000e+00,0.00000e+00,0.00000e+00
2.03880e+03,-4.58102e+00,-2.76520e+01,0.00000e+00,0.00000e+00,0.00000e+00
2.03880e+03,-4.48083e+00,-2.64498e+01,0.00000e+00,0.00000e+00,0.00000e+00
2.03880e+03,-4.33523e+00,-2.52475e+01,0.00000e+00,0.00000e+00,0.00000e+00
2.03880e+03,-4.16192e+00,-2.40452e+01,0.00000e+00,0.00000e+00,0.00000e+00
2.03880e+03,-3.97255e+00,-2.28430e+01,0.00000e+00,0.00000e+00,0.00000e+00
2.03880e+03,-3.75897e+00,-2.16407e+01,0.00000e+00,0.00000e+00,0.00000e+00
2.03880e+03,-3.53026e+00,-2.04384e+01,0.00000e+00,0.00000e+00,0.00000e+00
2.03880e+03,-3.28682e+00,-1.92362e+01,0.00000e+00,0.00000e+00,0.00000e+00
2.03880e+03,-3.02870e+00,-1.80339e+01,0.00000e+00,0.00000e+00,0.00000e+00
2.03880e+03,-2.76138e+00,-1.68317e+01,0.00000e+00,0.00000e+00,0.00000e+00
2.03880e+03,-2.48228e+00,-1.56294e+01,0.00000e+00,0.00000e+00,0.00000e+00
2.03880e+03,-2.19562e+00,-1.44271e+01,0.00000e+00,0.00000e+00,0.00000e+00
2.03880e+03,-1.90220e+00,-1.32249e+01,0.00000e+00,0.00000e+00,0.00000e+00
2.03880e+03,-1.60274e+00,-1.20226e+01,0.00000e+00,0.00000e+00,0.00000e+00
2.03880e+03,-1.30072e+00,-1.08204e+01,0.00000e+00,0.00000e+00,0.00000e+00
2.03880e+03,-9.94731e-01,-9.61809e+00,0.00000e+00,0.00000e+00,0.00000e+00
2.03880e+03,-6.88086e-01,-8.41583e+00,0.00000e+00,0.00000e+00,0.00000e+00
2.03880e+03,-3.79073e-01,-7.21357e+00,0.00000e+00,0.00000e+00,0.00000e+00
2.03880e+03,-7.00919e-02,-6.01131e+00,0.00000e+00,0.00000e+00,0.00000e+00
2.03880e+03,2.37722e-01,-4.80905e+00,0.00000e+00,0.00000e+00,0.00000e+00
2.03880e+03,5.45535e-01,-3.60678e+00,0.00000e+00,0.00000e+00,0.00000e+00
2.03880e+03,8.46060e-01,-2.40452e+00,0.00000e+00,0.00000e+00,0.00000e+00
2.03880e+03,1.14523e+00,-1.20226e+00,0.00000e+00,0.00000e+00,0.00000e+00
2.04720e+03,1.48774e+01,0.00000e+00,0.00000e+00,0.00000e+00,0.00000e+00
2.04720e+03,1.48025e+01,-1.13053e+00,0.00000e+00,0.00000e+00,0.00000e+00
2.04720e+03,1.47028e+01,-2.26105e+00,0.00000e+00,0.00000e+00,0.00000e+00
2.04720e+03,1.46021e+01,-3.39158e+00,0.00000e+00,0.00000e+00,0.00000e+00
2.04720e+03,1.44796e+01,-4.52211e+00,0.00000e+00,0.00000e+00,0.00000e+00
2.04720e+03,1.43520e+01,-5.65264e+00,0.00000e+00,0.00000e+00,0.00000e+00
2.04720e+03,1.42077e+01,-6.78316e+00,0.00000e+00,0.00000e+00,0.00000e+00
2.04720e+03,1.40552e+01,-7.91369e+00,0.00000e+00,0.00000e+00,0.00000e+00
2.04720e+03,1.38892e+01,-9.04422e+00,0.00000e+00,0.00000e+00,0.00000e+00
2.04720e+03,1.37121e+01,-1.01747e+01,0.00000e+00,0.00000e+00,0.00000e+00
2.04720e+03,1.35229e+01,-1.13053e+01,0.00000e+00,0.00000e+00,0.00000e+00
2.04720e+03,1.33189e+01,-1.24358e+01,0.00000e+00,0.00000e+00,0.00000e+00
2.04720e+03,1.30998e+01,-1.35663e+01,0.00000e+00,0.00000e+00,0.00000e+00
2.04720e+03,1.28594e+01,-1.46969e+01,0.00000e+00,0.00000e+00,0.00000e+00
2.04720e+03,1.25982e+01,-1.58274e+01,0.00000e+00,0.00000e+00,0.00000e+00
2.04720e+03,1.23120e+01,-1.69579e+01,0.00000e+00,0.00000e+00,0.00000e+00
2.04720e+03,1.19922e+01,-1.80884e+01,0.00000e+00,0.00000e+00,0.00000e+00
2.04720e+03,1.16489e+01,-1.92190e+01,0.00000e+00,0.00000e+00,0.00000e+00
2.04720e+03,1.12528e+01,-2.03495e+01,0.00000e+00,0.00000e+00,0.00000e+00
2.04720e+03,1.08348e+01,-2.14800e+01,0.00000e+00,0.00000e+00,0.00000e+00
2.04720e+03,1.03559e+01,-2.26105e+01,0.00000e+00,0.00000e+00,0.00000e+00
2.04720e+03,9.82823e+00,-2.37411e+01,0.00000e+00,0.00000e+00,0.00000e+00
2.04720e+03,9.25081e+00,-2.48716e+01,0.00000e+00,0.00000e+00,0.00000e+00
2.04720e+03,8.58998e+00,-2.60021e+01,0.00000e+00,0.00000e+00,0.00000e+00
2.04720e+03,7.83252e+00,-2.71326e+01,0.00000e+00,0.00000e+00,0.00000e+00
2.04720e+03,6.96585e+00,-2.82632e+01,0.00000e+00,0.00000e+00,0.00000e+00
2.04720e+03,5.94077e+00,-2.93937e+01,0.00000e+00,0.00000e+00,0.00000e+00
2.04720e+03,4.62500e+00,-3.05242e+01,0.00000e+00,0.00000e+00,0.00000e+00
2.04720e+03,2.84547e+00,-3.16548e+01,0.00000e+00,0.00000e+00,0.00000e+00
2.04720e+03,-1.15296e+00,-3.27853e+01,0.00000e+00,0.00000e+00,0.00000e+00
2.04720e+03,-1.44153e+00,-3.27879e+01,0.00000e+00,0.00000e+00,0.00000e+00
2.04720e+03,-4.07059e+00,-3.16169e+01,0.00000e+00,0.00000e+00,0.00000e+00
2.04720e+03,-4.38891e+00,-3.04459e+01,0.00000e+00,0.00000e+00,0.00000e+00
2.04720e+03,-4.49875e+00,-2.92749e+01,0.00000e+00,0.00000e+00,0.00000e+00
2.04720e+03,-4.51542e+00,-2.81039e+01,0.00000e+00,0.00000e+00,0.00000e+00
2.04720e+03,-4.46189e+00,-2.69329e+01,0.00000e+00,0.00000e+00,0.00000e+00
2.04720e+03,-4.36430e+00,-2.57619e+01,0.00000e+00,0.00000e+00,0.00000e+00
2.04720e+03,-4.22249e+00,-2.45909e+01,0.00000e+00,0.00000e+00,0.00000e+00
2.04720e+03,-4.05369e+00,-2.34199e+01,0.00000e+00,0.00000e+00,0.00000e+00
2.04720e+03,-3.86924e+00,-2.22489e+01,0.00000e+00,0.00000e+00,0.00000e+00
2.04720e+03,-3.66121e+00,-2.10779e+01,0.00000e+00,0.00000e+00,0.00000e+00
2.04720e+03,-3.43845e+00,-1.99069e+01,0.00000e+00,0.00000e+00,0.00000e+00
2.04720e+03,-3.20134e+00,-1.87359e+01,0.00000e+00,0.00000e+00,0.00000e+00
2.04720e+03,-2.94994e+00,-1.75649e+01,0.00000e+00,0.00000e+00,0.00000e+00
2.04720e+03,-2.68957e+00,-1.63940e+01,0.00000e+00,0.00000e+00,0.00000e+00
2.04720e+03,-2.41772e+00,-1.52230e+01,0.00000e+00,0.00000e+00,0.00000e+00
2.04720e+03,-2.13852e+00,-1.40520e+01,0.00000e+00,0.00000e+00,0.00000e+00
2.04720e+03,-1.85273e+00,-1.28810e+01,0.00000e+00,0.00000e+00,0.00000e+00
2.04720e+03,-1.56106e+00,-1.17100e+01,0.00000e+00,0.00000e+00,0.00000e+00
2.04720e+03,-1.26689e+00,-1.05390e+01,0.00000e+00,0.00000e+00,0.00000e+00
2.04720e+03,-9.68863e-01,-9.36797e+00,0.00000e+00,0.00000e+00,0.00000e+00
2.04720e+03,-6.70192e-01,-8.19698e+00,0.00000e+00,0.00000e+00,0.00000e+00
2.04720e+03,-3.69215e-01,-7.02598e+00,0.00000e+00,0.00000e+00,0.00000e+00
2.04720e+03,-6.82691e-02,-5.85498e+00,0.00000e+00,0.00000e+00,0.00000e+00
2.04720e+03,2.31540e-01,-4.68399e+00,0.00000e+00,0.00000e+00,0.00000e+00
2.04720e+03,5.31348e-01,-3.51299e+00,0.00000e+00,0.00000e+00,0.00000e+00
2.04720e+03,8.24058e-01,-2.34199e+00,0.00000e+00,0.00000e+00,0.00000e+00
2.04720e+03,1.11544e+00,-1.17100e+00,0.00000e+00,0.00000e+00,0.00000e+00
2.05000e+03,1.47450e+01,0.00000e+00,0.00000e+00,0.00000e+00,0.00000e+00
2.05000e+03,1.46708e+01,-1.12047e+00,0.00000e+00,0.00000e+00,0.00000e+00
2.05000e+03,1.45720e+01,-2.24093e+00,0.00000e+00,0.00000e+00,0.00000e+00
2.05000e+03,1.44722e+01,-3.36140e+00,0.00000e+00,0.00000e+00,0.00000e+00
2.05000e+03,1.43508e+01,-4.48186e+00,0.00000e+00,0.00000e+00,0.00000e+00
2.05000e+03,1.42243e+01,-5.60233e+00,0.00000e+00,0.00000e+00,0.00000e+00
2.05000e+03,1.40812e+01,-6.72279e+00,0.00000e+00,0.00000e+00,0.00000e+00
2.05000e+03,1.39301e+01,-7.84326e+00,0.00000e+00,0.00000e+00,0.00000e+00
2.05000e+03,1.37656e+01,-8.96372e+00,0.00000e+00,0.00000e+00,0.00000e+00
2.05000e+03,1.35901e+01,-1.00842e+01,0.00000e+00,0.00000e+00,0.00000e+00
2.05000e+03,1.34025e+01,-1.12047e+01,0.00000e+00,0.00000e+00,0.00000e+00
2.05000e+03,1.32004e+01,-1.23251e+01,0.00000e+00,0.00000e+00,0.00000e+00
2.05000e+03,1.29833e+01,-1.34456e+01,0.00000e+00,0.00000e+00,0.00000e+00
2.05000e+03,1.27450e+01,-1.45661e+01,0.00000e+00,0.00000e+00,0.00000e+00
2.05000e+03,1.24860e+01,-1.56865e+01,0.00000e+00,0.00000e+00,0.00000e+00
2.05000e+03,1.22024e+01,-1.68070e+01,0.00000e+00,0.00000e+00,0.00000e+00
2.05000e+03,1.18854e+01,-1.79274e+01,0.00000e+00,0.00000e+00,0.00000e+00
2.05000e+03,1.15452e+01,-1.90479e+01,0.00000e+00,0.00000e+00,0.00000e+00
2.05000e+03,1.11526e+01,-2.01684e+01,0.00000e+00,0.00000e+00,0.00000e+00
2.05000e+03,1.07384e+01,-2.12888e+01,0.00000e+00,0.00000e+00,0.00000e+00
2.05000e+03,1.02638e+01,-2.24093e+01,0.00000e+00,0.00000e+00,0.00000e+00
2.05000e+03,9.74076e+00,-2.35298e+01,0.00000e+00,0.00000e+00,0.00000e+00
2.05000e+03,9.16848e+00,-2.46502e+01,0.00000e+00,0.00000e+00,0.00000e+00
2.05000e+03,8.51353e+00,-2.57707e+01,0.00000e+00,0.00000e+00,0.00000e+00
2.05000e+03,7.76281e+00,-2.68912e+01,0.00000e+00,0.00000e+00,0.00000e+00
2.05000e+03,6.90385e+00,-2.80116e+01,0.00000e+00,0.00000e+00,0.00000e+00
2.05000e+03,5.88790e+00,-2.91321e+01,0.00000e+00,0.00000e+00,0.00000e+00
2.05000e+03,4.58384e+00,-3.02526e+01,0.00000e+00,0.00000e+00,0.00000e+00
2.05000e+03,2.82014e+00,-3.13730e+01,0.00000e+00,0.00000e+00,0.00000e+00
2.05000e+03,-1.14270e+00,-3.24935e+01,0.00000e+00,0.00000e+00,0.00000e+00
2.05000e+03,-1.42870e+00,-3.24961e+01,0.00000e+00,0.00000e+00,0.00000e+00
2.05000e+03,-4.03436e+00,-3.13355e+01,0.00000e+00,0.00000e+00,0.00000e+00
2.05000e+03,-4.34985e+00,-3.01749e+01,0.00000e+00,0.00000e+00,0.00000e+00
2.05000e+03,-4.45871e+00,-2.90144e+01,0.00000e+00,0.00000e+00,0.00000e+00
2.05000e+03,-4.47523e+00,-2.78538e+01,0.00000e+00,0.00000e+00,0.00000e+00
2.05000e+03,-4.42218e+00,-2.66932e+01,0.00000e+00,0.00000e+00,0.00000e+00
2.05000e+03,-4.32546e+00,-2.55327e+01,0.00000e+00,0.00000e+00,0.00000e+00
2.05000e+03,-4.18491e+00,-2.43721e+01,0.00000e+00,0.00000e+00,0.00000e+00
2.05000e+03,-4.01761e+00,-2.32115e+01,0.00000e+00,0.00000e+00,0.00000e+00
2.05000e+03,-3.83480e+00,-2.20509e+01,0.00000e+00,0.00000e+00,0.00000e+00
2.05000e+03,-3.62863e+00,-2.08903e+01,0.00000e+00,0.00000e+00,0.00000e+00
2.05000e+03,-3.40785e+00,-1.97298e+01,0.00000e+00,0.00000e+00,0.00000e+00
2.05000e+03,-3.17285e+00,-1.85692e+01,0.00000e+00,0.00000e+00,0.00000e+00
2.05000e+03,-2.92368e+00,-1.74086e+01,0.00000e+00,0.00000e+00,0.00000e+00
2.05000e+03,-2.66563e+00,-1.62480e+01,0.00000e+00,0.00000e+00,0.00000e+00
2.05000e+03,-2.39621e+00,-1.50875e+01,0.00000e+00,0.00000e+00,0.00000e+00
2.05000e+03,-2.11949e+00,-1.39269e+01,0.00000e+00,0.00000e+00,0.00000e+00
2.05000e+03,-1.83624e+00,-1.27663e+01,0.00000e+00,0.00000e+00,0.00000e+00
2.05000e+03,-1.54717e+00,-1.16057e+01,0.00000e+00,0.00000e+00,0.00000e+00
2.05000e+03,-1.25562e+00,-1.04452e+01,0.00000e+00,0.00000e+00,0.00000e+00
2.05000e+03,-9.60241e-01,-9.28460e+00,0.00000e+00,0.00000e+00,0.00000e+00
2.05000e+03,-6.64227e-01,-8.12402e+00,0.00000e+00,0.00000e+00,0.00000e+00
2.05000e+03,-3.65929e-01,-6.96345e+00,0.00000e+00,0.00000e+00,0.00000e+00
2.05000e+03,-6.76615e-02,-5.80287e+00,0.00000e+00,0.00000e+00,0.00000e+00
2.05000e+03,2.29479e-01,-4.64230e+00,0.00000e+00,0.00000e+00,0.00000e+00
2.05000e+03,5.26620e-01,-3.48173e+00,0.00000e+00,0.00000e+00,0.00000e+00
2.05000e+03,8.16724e-01,-2.32115e+00,0.00000e+00,0.00000e+00,0.00000e+00
2.05000e+03,1.10552e+00,-1.16058e+00,0.00000e+00,0.00000e+00,0.00000e+00
--------------------------------------------------------------------------------------------------------------------------------------------------------------------------------------------------------------------------------------------------------------------------------------------------------------------------------------------------------------------------------

ALMA 
--------------------------------------------------------------------------------------------------------------------------------------------------------------------------------------------------------------------------------------------------------------------------------------------------------------------------------------------------------------------------------
X,Y,Z,Sigma,Tau,Von Mises
0.00000e+00,4.05613e+00,0.00000e+00,1.98343e-01,8.03532e-01,1.40582e+00
0.00000e+00,1.70710e+01,0.00000e+00,6.00128e-02,8.04602e-01,1.39490e+00
0.00000e+00,3.00859e+01,0.00000e+00,-7.83178e-02,8.04602e-01,1.39581e+00
0.00000e+00,4.31008e+01,0.00000e+00,-2.16648e-01,8.03554e-01,1.40856e+00
1.07300e+02,4.01639e+00,0.00000e+00,1.77122e-01,7.59567e-01,1.32748e+00
1.07300e+02,1.69038e+01,0.00000e+00,5.36865e-02,7.60569e-01,1.31844e+00
1.07300e+02,2.97912e+01,0.00000e+00,-6.97487e-02,7.60569e-01,1.31919e+00
1.07300e+02,4.26785e+01,0.00000e+00,-1.93184e-01,7.59587e-01,1.32975e+00
2.14300e+02,3.97676e+00,0.00000e+00,1.57024e-01,7.15600e-01,1.24936e+00
2.14300e+02,1.67370e+01,0.00000e+00,4.76893e-02,7.16536e-01,1.24199e+00
2.14300e+02,2.94972e+01,0.00000e+00,-6.16450e-02,7.16536e-01,1.24261e+00
2.14300e+02,4.22575e+01,0.00000e+00,-1.70979e-01,7.15620e-01,1.25123e+00
3.20700e+02,3.93736e+00,0.00000e+00,1.38121e-01,6.70659e-01,1.16980e+00
3.20700e+02,1.65712e+01,0.00000e+00,4.20414e-02,6.71527e-01,1.16388e+00
3.20700e+02,2.92050e+01,0.00000e+00,-5.40383e-02,6.71527e-01,1.16437e+00
3.20700e+02,4.18388e+01,0.00000e+00,-1.50118e-01,6.70676e-01,1.17131e+00
4.26200e+02,3.89829e+00,0.00000e+00,1.20482e-01,6.25532e-01,1.09013e+00
4.26200e+02,1.64067e+01,0.00000e+00,3.67625e-02,6.26335e-01,1.08547e+00
4.26200e+02,2.89151e+01,0.00000e+00,-4.69575e-02,6.26335e-01,1.08586e+00
4.26200e+02,4.14236e+01,0.00000e+00,-1.30677e-01,6.25549e-01,1.09133e+00
5.30600e+02,3.85963e+00,0.00000e+00,1.04136e-01,5.80354e-01,1.01058e+00
5.30600e+02,1.62440e+01,0.00000e+00,3.18608e-02,5.81091e-01,1.00698e+00
5.30600e+02,2.86284e+01,0.00000e+00,-4.04143e-02,5.81091e-01,1.00729e+00
5.30600e+02,4.10127e+01,0.00000e+00,-1.12689e-01,5.80369e-01,1.01153e+00
6.33500e+02,3.82152e+00,0.00000e+00,8.91267e-02,5.35435e-01,9.31673e-01
6.33500e+02,1.60836e+01,0.00000e+00,2.73500e-02,5.36108e-01,9.28969e-01
6.33500e+02,2.83457e+01,0.00000e+00,-3.44267e-02,5.36108e-01,9.29204e-01
6.33500e+02,4.06078e+01,0.00000e+00,-9.62034e-02,5.35448e-01,9.32399e-01
7.34700e+02,3.78404e+00,0.00000e+00,7.54553e-02,4.90877e-01,8.53565e-01
7.34700e+02,1.59259e+01,0.00000e+00,2.32304e-02,4.91488e-01,8.51599e-01
7.34700e+02,2.80677e+01,0.00000e+00,-2.89945e-02,4.91488e-01,8.51776e-01
7.34700e+02,4.02095e+01,0.00000e+00,-8.12194e-02,4.90889e-01,8.54115e-01
8.33800e+02,3.74734e+00,0.00000e+00,6.31361e-02,4.46872e-01,7.76575e-01
8.33800e+02,1.57714e+01,0.00000e+00,1.95070e-02,4.47423e-01,7.75204e-01
8.33800e+02,2.77955e+01,0.00000e+00,-2.41222e-02,4.47423e-01,7.75334e-01
8.33800e+02,3.98196e+01,0.00000e+00,-6.77514e-02,4.46882e-01,7.76982e-01
9.30700e+02,3.71145e+00,0.00000e+00,5.21349e-02,4.03372e-01,7.00604e-01
9.30700e+02,1.56204e+01,0.00000e+00,1.61706e-02,4.03865e-01,6.99702e-01
9.30700e+02,2.75293e+01,0.00000e+00,-1.97937e-02,4.03865e-01,6.99795e-01
9.30700e+02,3.94382e+01,0.00000e+00,-5.57581e-02,4.03382e-01,7.00899e-01
1.02500e+03,3.67653e+00,0.00000e+00,4.24370e-02,3.60954e-01,6.26629e-01
1.02500e+03,1.54734e+01,0.00000e+00,1.32188e-02,3.61391e-01,6.26086e-01
1.02500e+03,2.72703e+01,0.00000e+00,-1.59994e-02,3.61391e-01,6.26151e-01
1.02500e+03,3.90671e+01,0.00000e+00,-4.52176e-02,3.60962e-01,6.26838e-01
1.11650e+03,3.64264e+00,0.00000e+00,3.40002e-02,3.18866e-01,5.53337e-01
1.11650e+03,1.53308e+01,0.00000e+00,1.06412e-02,3.19248e-01,5.53056e-01
1.11650e+03,2.70189e+01,0.00000e+00,-1.27178e-02,3.19248e-01,5.53100e-01
1.11650e+03,3.87070e+01,0.00000e+00,-3.60768e-02,3.18873e-01,5.53481e-01
1.20500e+03,3.54704e+00,0.00000e+00,3.82679e-02,2.80195e-01,4.86818e-01
1.20500e+03,1.49284e+01,0.00000e+00,1.20425e-02,2.80662e-01,4.86271e-01
1.20500e+03,2.63098e+01,0.00000e+00,-1.41828e-02,2.80662e-01,4.86328e-01
1.20500e+03,3.76912e+01,0.00000e+00,-4.04082e-02,2.80207e-01,4.87013e-01
1.29010e+03,3.41832e+00,0.00000e+00,3.05985e-02,2.50229e-01,4.34488e-01
1.29010e+03,1.43867e+01,0.00000e+00,9.69208e-03,2.50631e-01,4.34214e-01
1.29010e+03,2.53550e+01,0.00000e+00,-1.12143e-02,2.50631e-01,4.34251e-01
1.29010e+03,3.63234e+01,0.00000e+00,-3.21208e-02,2.50239e-01,4.34616e-01
1.37170e+03,3.29489e+00,0.00000e+00,2.39332e-02,2.20624e-01,3.82881e-01
1.37170e+03,1.38672e+01,0.00000e+00,7.63707e-03,2.20966e-01,3.82800e-01
1.37170e+03,2.44395e+01,0.00000e+00,-8.65905e-03,2.20966e-01,3.82822e-01
1.37170e+03,3.50118e+01,0.00000e+00,-2.49552e-02,2.20633e-01,3.82961e-01
1.44960e+03,3.17706e+00,0.00000e+00,1.82424e-02,1.91794e-01,3.32698e-01
1.44960e+03,1.33713e+01,0.00000e+00,5.86905e-03,1.92080e-01,3.32745e-01
1.44960e+03,2.35655e+01,0.00000e+00,-6.50429e-03,1.92080e-01,3.32756e-01
1.44960e+03,3.37597e+01,0.00000e+00,-1.88776e-02,1.91801e-01,3.32746e-01
1.52340e+03,3.06543e+00,0.00000e+00,1.35040e-02,1.63287e-01,2.83143e-01
1.52340e+03,1.29015e+01,0.00000e+00,4.38327e-03,1.63521e-01,2.83260e-01
1.52340e+03,2.27375e+01,0.00000e+00,-4.73744e-03,1.63521e-01,2.83266e-01
1.52340e+03,3.25736e+01,0.00000e+00,-1.38582e-02,1.63292e-01,2.83169e-01
1.59310e+03,2.96000e+00,0.00000e+00,9.66390e-03,1.35420e-01,2.34753e-01
1.59310e+03,1.24578e+01,0.00000e+00,3.16587e-03,1.35606e-01,2.34899e-01
1.59310e+03,2.19555e+01,0.00000e+00,-3.33216e-03,1.35606e-01,2.34901e-01
1.59310e+03,3.14533e+01,0.00000e+00,-9.83019e-03,1.35424e-01,2.34767e-01
1.65850e+03,2.86108e+00,0.00000e+00,6.66505e-03,1.08492e-01,1.88032e-01
1.65850e+03,1.20414e+01,0.00000e+00,2.20308e-03,1.08636e-01,1.88175e-01
1.65850e+03,2.12218e+01,0.00000e+00,-2.25888e-03,1.08636e-01,1.88176e-01
1.65850e+03,3.04021e+01,0.00000e+00,-6.72084e-03,1.08495e-01,1.88039e-01
1.71930e+03,2.76911e+00,0.00000e+00,4.43825e-03,8.28067e-02,1.43494e-01
1.71930e+03,1.16544e+01,0.00000e+00,1.47814e-03,8.29123e-02,1.43616e-01
1.71930e+03,2.05396e+01,0.00000e+00,-1.48197e-03,8.29123e-02,1.43616e-01
1.71930e+03,2.94249e+01,0.00000e+00,-4.44208e-03,8.28089e-02,1.43498e-01
1.77540e+03,2.60964e+00,0.00000e+00,5.18544e-03,9.99774e-02,1.73244e-01
1.77540e+03,1.09832e+01,0.00000e+00,1.74516e-03,1.00107e-01,1.73399e-01
1.77540e+03,1.93567e+01,0.00000e+00,-1.69513e-03,1.00107e-01,1.73398e-01
1.77540e+03,2.77303e+01,0.00000e+00,-5.13541e-03,9.99824e-02,1.73251e-01
1.82660e+03,2.38179e+00,0.00000e+00,3.65146e-03,7.26393e-02,1.25868e-01
1.82660e+03,1.00242e+01,0.00000e+00,1.22891e-03,7.27257e-02,1.25971e-01
1.82660e+03,1.76667e+01,0.00000e+00,-1.19364e-03,7.27257e-02,1.25970e-01
1.82660e+03,2.53092e+01,0.00000e+00,-3.61619e-03,7.26424e-02,1.25872e-01
1.87280e+03,2.17619e+00,0.00000e+00,2.63727e-03,5.29732e-02,9.17902e-02
1.87280e+03,9.15894e+00,0.00000e+00,8.85363e-04,5.30322e-02,9.18587e-02
1.87280e+03,1.61417e+01,0.00000e+00,-8.66543e-04,5.30322e-02,9.18585e-02
1.87280e+03,2.31244e+01,0.00000e+00,-2.61845e-03,5.29751e-02,9.17930e-02
1.91380e+03,1.99374e+00,0.00000e+00,1.79229e-03,5.93390e-02,1.02794e-01
1.91380e+03,8.39104e+00,0.00000e+00,6.00386e-04,5.93991e-02,1.02884e-01
1.91380e+03,1.47883e+01,0.00000e+00,-5.91518e-04,5.93991e-02,1.02884e-01
1.91380e+03,2.11856e+01,0.00000e+00,-1.78342e-03,5.93408e-02,1.02797e-01
1.94970e+03,1.83398e+00,0.00000e+00,1.02066e-03,4.80832e-02,8.32889e-02
1.94970e+03,7.71865e+00,0.00000e+00,3.41771e-04,4.81287e-02,8.33620e-02
1.94970e+03,1.36033e+01,0.00000e+00,-3.37122e-04,4.81287e-02,8.33620e-02
1.94970e+03,1.94880e+01,0.00000e+00,-1.01601e-03,4.80845e-02,8.32910e-02
1.98010e+03,1.69869e+00,0.00000e+00,4.96325e-04,3.36832e-02,5.83432e-02
1.98010e+03,7.14927e+00,0.00000e+00,1.67110e-04,3.37128e-02,5.83925e-02
1.98010e+03,1.25999e+01,0.00000e+00,-1.62105e-04,3.37128e-02,5.83925e-02
1.98010e+03,1.80504e+01,0.00000e+00,-4.91321e-04,3.36840e-02,5.83445e-02
2.00520e+03,1.58699e+00,0.00000e+00,1.96052e-04,2.08798e-02,3.61655e-02
2.00520e+03,6.67917e+00,0.00000e+00,6.67096e-05,2.08968e-02,3.61943e-02
2.00520e+03,1.17713e+01,0.00000e+00,-6.26322e-05,2.08968e-02,3.61943e-02
2.00520e+03,1.68635e+01,0.00000e+00,-1.91974e-04,2.08802e-02,3.61662e-02
2.02480e+03,1.49977e+00,0.00000e+00,5.66869e-05,1.06715e-02,1.84836e-02
2.02480e+03,6.31207e+00,0.00000e+00,1.96023e-05,1.06794e-02,1.84973e-02
2.02480e+03,1.11244e+01,0.00000e+00,-1.74823e-05,1.06794e-02,1.84973e-02
2.02480e+03,1.59367e+01,0.00000e+00,-5.45669e-05,1.06716e-02,1.84839e-02
2.03880e+03,1.43746e+00,0.00000e+00,9.98552e-06,3.87863e-03,6.71799e-03
2.03880e+03,6.04986e+00,0.00000e+00,3.53690e-06,3.88133e-03,6.72267e-03
2.03880e+03,1.06622e+01,0.00000e+00,-2.91172e-06,3.88133e-03,6.72267e-03
2.03880e+03,1.52746e+01,0.00000e+00,-9.36034e-06,3.87869e-03,6.71809e-03
2.04720e+03,1.40008e+00,0.00000e+00,1.22127e-06,6.43350e-04,1.11432e-03
2.04720e+03,5.89253e+00,0.00000e+00,4.48696e-07,6.43753e-04,1.11501e-03
2.04720e+03,1.03850e+01,0.00000e+00,-3.23877e-07,6.43753e-04,1.11501e-03
2.04720e+03,1.48774e+01,0.00000e+00,-1.09645e-06,6.43359e-04,1.11433e-03
2.05000e+03,1.38762e+00,0.00000e+00,0.00000e+00,0.00000e+00,0.00000e+00
2.05000e+03,5.84009e+00,0.00000e+00,0.00000e+00,0.00000e+00,0.00000e+00
2.05000e+03,1.02925e+01,0.00000e+00,0.00000e+00,0.00000e+00,0.00000e+00
2.05000e+03,1.47450e+01,0.00000e+00,0.00000e+00,0.00000e+00,0.00000e+00
MESA INFERIOR 
--------------------------------------------------------------------------------------------------------------------------------------------------------------------------------------------------------------------------------------------------------------------------------------------------------------------------------------------------------------------------------
X,Y,Z,Sigma,Von Mises
0.00000e+00,4.05613e+00,0.00000e+00,0.00000e+00,0.00000e+00
1.07300e+02,4.01639e+00,0.00000e+00,0.00000e+00,0.00000e+00
2.14300e+02,3.97676e+00,0.00000e+00,0.00000e+00,0.00000e+00
3.20700e+02,3.93736e+00,0.00000e+00,0.00000e+00,0.00000e+00
4.26200e+02,3.89829e+00,0.00000e+00,0.00000e+00,0.00000e+00
5.30600e+02,3.85963e+00,0.00000e+00,0.00000e+00,0.00000e+00
6.33500e+02,3.82152e+00,0.00000e+00,0.00000e+00,0.00000e+00
7.34700e+02,3.78404e+00,0.00000e+00,0.00000e+00,0.00000e+00
8.33800e+02,3.74734e+00,0.00000e+00,0.00000e+00,0.00000e+00
9.30700e+02,3.71145e+00,0.00000e+00,0.00000e+00,0.00000e+00
1.02500e+03,3.67653e+00,0.00000e+00,0.00000e+00,0.00000e+00
1.11650e+03,3.64264e+00,0.00000e+00,0.00000e+00,0.00000e+00
1.20500e+03,3.54704e+00,0.00000e+00,0.00000e+00,0.00000e+00
1.29010e+03,3.41832e+00,0.00000e+00,0.00000e+00,0.00000e+00
1.37170e+03,3.29489e+00,0.00000e+00,0.00000e+00,0.00000e+00
1.44960e+03,3.17706e+00,0.00000e+00,0.00000e+00,0.00000e+00
1.52340e+03,3.06543e+00,0.00000e+00,0.00000e+00,0.00000e+00
1.59310e+03,2.96000e+00,0.00000e+00,0.00000e+00,0.00000e+00
1.65850e+03,2.86108e+00,0.00000e+00,0.00000e+00,0.00000e+00
1.71930e+03,2.76911e+00,0.00000e+00,0.00000e+00,0.00000e+00
1.77540e+03,2.60964e+00,0.00000e+00,0.00000e+00,0.00000e+00
1.82660e+03,2.38179e+00,0.00000e+00,0.00000e+00,0.00000e+00
1.87280e+03,2.17619e+00,0.00000e+00,0.00000e+00,0.00000e+00
1.91380e+03,1.99374e+00,0.00000e+00,0.00000e+00,0.00000e+00
1.94970e+03,1.83398e+00,0.00000e+00,0.00000e+00,0.00000e+00
1.98010e+03,1.69869e+00,0.00000e+00,0.00000e+00,0.00000e+00
2.00520e+03,1.58699e+00,0.00000e+00,0.00000e+00,0.00000e+00
2.02480e+03,1.49977e+00,0.00000e+00,0.00000e+00,0.00000e+00
2.03880e+03,1.43746e+00,0.00000e+00,0.00000e+00,0.00000e+00
2.04720e+03,1.40008e+00,0.00000e+00,0.00000e+00,0.00000e+00
2.05000e+03,1.38762e+00,0.00000e+00,0.00000e+00,0.00000e+00
--------------------------------------------------------------------------------------------------------------------------------------------------------------------------------------------------------------------------------------------------------------------------------------------------------------------------------------------------------------------------------

MESA SUPERIOR 
--------------------------------------------------------------------------------------------------------------------------------------------------------------------------------------------------------------------------------------------------------------------------------------------------------------------------------------------------------------------------------
X,Y,Z,Sigma,Von Mises
0.00000e+00,4.31008e+01,0.00000e+00,0.00000e+00,0.00000e+00
1.07300e+02,4.26785e+01,0.00000e+00,0.00000e+00,0.00000e+00
2.14300e+02,4.22575e+01,0.00000e+00,0.00000e+00,0.00000e+00
3.20700e+02,4.18388e+01,0.00000e+00,0.00000e+00,0.00000e+00
4.26200e+02,4.14236e+01,0.00000e+00,0.00000e+00,0.00000e+00
5.30600e+02,4.10127e+01,0.00000e+00,0.00000e+00,0.00000e+00
6.33500e+02,4.06078e+01,0.00000e+00,0.00000e+00,0.00000e+00
7.34700e+02,4.02095e+01,0.00000e+00,0.00000e+00,0.00000e+00
8.33800e+02,3.98196e+01,0.00000e+00,0.00000e+00,0.00000e+00
9.30700e+02,3.94382e+01,0.00000e+00,0.00000e+00,0.00000e+00
1.02500e+03,3.90671e+01,0.00000e+00,0.00000e+00,0.00000e+00
1.11650e+03,3.87070e+01,0.00000e+00,0.00000e+00,0.00000e+00
1.20500e+03,3.76912e+01,0.00000e+00,0.00000e+00,0.00000e+00
1.29010e+03,3.63234e+01,0.00000e+00,0.00000e+00,0.00000e+00
1.37170e+03,3.50118e+01,0.00000e+00,0.00000e+00,0.00000e+00
1.44960e+03,3.37597e+01,0.00000e+00,0.00000e+00,0.00000e+00
1.52340e+03,3.25736e+01,0.00000e+00,0.00000e+00,0.00000e+00
1.59310e+03,3.14533e+01,0.00000e+00,0.00000e+00,0.00000e+00
1.65850e+03,3.04021e+01,0.00000e+00,0.00000e+00,0.00000e+00
1.71930e+03,2.94249e+01,0.00000e+00,0.00000e+00,0.00000e+00
1.77540e+03,2.77303e+01,0.00000e+00,0.00000e+00,0.00000e+00
1.82660e+03,2.53092e+01,0.00000e+00,0.00000e+00,0.00000e+00
1.87280e+03,2.31244e+01,0.00000e+00,0.00000e+00,0.00000e+00
1.91380e+03,2.11856e+01,0.00000e+00,0.00000e+00,0.00000e+00
1.94970e+03,1.94880e+01,0.00000e+00,0.00000e+00,0.00000e+00
1.98010e+03,1.80504e+01,0.00000e+00,0.00000e+00,0.00000e+00
2.00520e+03,1.68635e+01,0.00000e+00,0.00000e+00,0.00000e+00
2.02480e+03,1.59367e+01,0.00000e+00,0.00000e+00,0.00000e+00
2.03880e+03,1.52746e+01,0.00000e+00,0.00000e+00,0.00000e+00
2.04720e+03,1.48774e+01,0.00000e+00,0.00000e+00,0.00000e+00
2.05000e+03,1.47450e+01,0.00000e+00,0.00000e+00,0.00000e+00
--------------------------------------------------------------------------------------------------------------------------------------------------------------------------------------------------------------------------------------------------------------------------------------------------------------------------------------------------------------------------------

