----------------------------------------------
LOG MATLAB Estruturas Copyright Charles 2020
----------------------------------------------

VISÃO GERAL POR SEÇÃO
--------------------------------------------------------------------------------------------------------------------------------------------------------------------------------------------------------------------------------------------------------------------------------------------------------------------------------------------------------------------------------
SEÇÃO,POSIÇÃO .25c,, ESFORÇOS,,,,,INÉRCIAS,,,,CENTROS GEOMÉTRICOS,,,DEFLEXÇOES,,,,,TENSÕES NORMAIS,,,,,,,,TENSÕES CISALHAMENTO,,,TENSÕES DE VON MISES
NUMERO,X,Y,MFz,MFy,MTx,Vz,Vy,EIzz,EIyy,EIzy,GJ,Zcg,Ycg,Zcc,Z,Y,Z´,Y´,Theta,Sigma_Chap+,Sigma_Chap-,Sigma_Lam+,Sigma_Lam-,Sigma_Mesa+,Sigma_Mesa-,Sigma_Alma+,Sigma_Alma-,  Tau_Alma,  Tau_Chap,  Tau_Lam, Von Mises_Alma,  Von Mises_Chap,  Von Mises_Lam
--------------------------------------------------------------------------------------------------------------------------------------------------------------------------------------------------------------------------------------------------------------------------------------------------------------------------------------------------------------------------------
01,0.00000e+00,0.00000e+00,1.03730e+05,8.11089e+03,-8.82017e+03,8.61893e+00,1.17172e+02,2.43720e+09,3.02407e+09,6.88619e+08,4.33836e+07,8.66395e+01,2.17434e+01,7.43235e+01,0.00000e+00,0.00000e+00,0.00000e+00,0.00000e+00,0.00000e+00,1.38414e+00,-1.77639e+00,0.00000e+00,0.00000e+00,7.80122e+01,-7.37138e+01,9.75919e-02,-9.22148e-02,4.05440e-01,5.06721e-01,0.00000e+00,7.08198e-01,1.91997e+00,0.00000e+00
02,1.07300e+02,0.00000e+00,9.15685e+04,7.21415e+03,-8.15288e+03,8.09581e+00,1.09515e+02,2.38487e+09,2.93941e+09,6.69313e+08,4.21218e+07,8.58583e+01,2.15452e+01,7.36225e+01,-4.08993e-02,2.44539e-01,-7.62336e-04,4.55805e-03,-2.12916e-02,1.23600e+00,-1.58888e+00,0.00000e+00,0.00000e+00,6.96727e+01,-6.58174e+01,8.71594e-02,-8.23364e-02,3.82659e-01,4.76971e-01,0.00000e+00,6.67748e-01,1.73074e+00,0.00000e+00
03,2.14300e+02,0.00000e+00,8.02525e+04,6.37559e+03,-7.49769e+03,7.57812e+00,1.01999e+02,2.33333e+09,2.85653e+09,6.50412e+08,4.08747e+07,8.50782e+01,2.13473e+01,7.29231e+01,-1.58810e-01,9.50759e-01,-1.44160e-03,8.64232e-03,-4.14603e-02,1.09590e+00,-1.41124e+00,0.00000e+00,0.00000e+00,6.17846e+01,-5.83487e+01,7.72915e-02,-7.29932e-02,3.59759e-01,4.46887e-01,0.00000e+00,6.27204e-01,1.55095e+00,0.00000e+00
04,3.20700e+02,0.00000e+00,6.98017e+04,5.59667e+03,-6.86596e+03,7.06336e+00,9.44441e+01,2.28273e+09,2.77562e+09,6.31961e+08,3.96736e+07,8.43013e+01,2.11503e+01,7.22271e+01,-3.44058e-01,2.06304e+00,-2.04049e-03,1.22652e-02,-6.04257e-02,9.64370e-01,-1.24417e+00,0.00000e+00,0.00000e+00,5.43783e+01,-5.13368e+01,6.80263e-02,-6.42215e-02,3.36430e-01,4.16812e-01,0.00000e+00,5.86028e-01,1.38154e+00,0.00000e+00
05,4.26200e+02,0.00000e+00,6.02294e+04,4.87838e+03,-6.25946e+03,6.55349e+00,8.70199e+01,2.23318e+09,2.69686e+09,6.14002e+08,3.85099e+07,8.35299e+01,2.09548e+01,7.15366e+01,-5.86875e-01,3.52476e+00,-2.56268e-03,1.54450e-02,-7.81288e-02,8.41915e-01,-1.08833e+00,0.00000e+00,0.00000e+00,4.74817e+01,-4.48085e+01,5.93988e-02,-5.60547e-02,3.13118e-01,3.87005e-01,0.00000e+00,5.44986e-01,1.22314e+00,0.00000e+00
06,5.30600e+02,0.00000e+00,5.15234e+04,4.22041e+03,-5.67811e+03,6.05129e+00,7.97618e+01,2.18477e+09,2.62035e+09,5.96558e+08,3.73826e+07,8.27655e+01,2.07610e+01,7.08528e+01,-8.77929e-01,5.28141e+00,-3.01307e-03,1.82073e-02,-9.45422e-02,7.28708e-01,-9.43976e-01,0.00000e+00,0.00000e+00,4.11050e+01,-3.87734e+01,5.14217e-02,-4.85048e-02,2.89921e-01,3.57522e-01,0.00000e+00,5.04238e-01,1.07593e+00,0.00000e+00
07,6.33500e+02,0.00000e+00,4.36783e+04,3.62232e+03,-5.11766e+03,5.57329e+00,7.27178e+01,2.13765e+09,2.54632e+09,5.79679e+08,3.62844e+07,8.20110e+01,2.05698e+01,7.01785e+01,-1.20769e+00,7.27682e+00,-3.39632e-03,2.05763e-02,-1.09614e-01,6.25019e-01,-8.11477e-01,0.00000e+00,0.00000e+00,3.52634e+01,-3.32460e+01,4.41139e-02,-4.15902e-02,2.66905e-01,3.28216e-01,0.00000e+00,4.63895e-01,9.39993e-01,0.00000e+00
08,7.34700e+02,0.00000e+00,3.66638e+04,3.08137e+03,-4.57963e+03,5.11748e+00,6.59105e+01,2.09189e+09,2.47483e+09,5.63383e+08,3.52148e+07,8.12680e+01,2.03815e+01,6.95148e+01,-1.56770e+00,9.46074e+00,-3.71841e-03,2.25841e-02,-1.23331e-01,5.30784e-01,-6.90769e-01,0.00000e+00,0.00000e+00,2.99533e+01,-2.82235e+01,3.74711e-02,-3.53072e-02,2.44172e-01,2.99216e-01,0.00000e+00,4.24123e-01,8.15459e-01,0.00000e+00
09,8.33800e+02,0.00000e+00,3.04558e+04,2.59573e+03,-4.06645e+03,4.68348e+00,5.93757e+01,2.04762e+09,2.40610e+09,5.47713e+08,3.41747e+07,8.05393e+01,2.01969e+01,6.88645e+01,-1.94940e+00,1.17819e+01,-3.98502e-03,2.42611e-02,-1.35671e-01,4.46023e-01,-5.81901e-01,0.00000e+00,0.00000e+00,2.51759e+01,-2.37074e+01,3.14946e-02,-2.96575e-02,2.21874e-01,2.70713e-01,0.00000e+00,3.85177e-01,7.02093e-01,0.00000e+00
10,9.30700e+02,0.00000e+00,2.50060e+04,2.16233e+03,-3.57774e+03,4.26182e+00,5.31083e+01,2.00486e+09,2.34009e+09,5.32666e+08,3.31618e+07,7.98259e+01,2.00162e+01,6.82283e+01,-2.34610e+00,1.41998e+01,-4.20280e-03,2.56441e-02,-1.46663e-01,3.70407e-01,-4.84489e-01,0.00000e+00,0.00000e+00,2.09128e+01,-1.96800e+01,2.61615e-02,-2.46194e-02,2.00028e-01,2.42739e-01,0.00000e+00,3.47078e-01,5.99328e-01,0.00000e+00
11,1.02500e+03,0.00000e+00,2.02760e+04,1.77977e+03,-3.11486e+03,3.85199e+00,4.72094e+01,1.96375e+09,2.27699e+09,5.18282e+08,3.21633e+07,7.91308e+01,1.98401e+01,6.76088e+01,-2.75067e+00,1.66709e+01,-4.37759e-03,2.67653e-02,-1.56316e-01,3.03730e-01,-3.98328e-01,0.00000e+00,0.00000e+00,1.71525e+01,-1.61302e+01,2.14575e-02,-2.01787e-02,1.78960e-01,2.15516e-01,0.00000e+00,3.10384e-01,5.07024e-01,0.00000e+00
12,1.11650e+03,0.00000e+00,1.62158e+04,1.44562e+03,-2.67804e+03,3.45178e+00,4.15382e+01,1.92432e+09,2.21681e+09,5.04566e+08,3.11950e+07,7.84554e+01,1.96691e+01,6.70073e+01,-3.15753e+00,1.91609e+01,-4.51553e-03,2.76595e-02,-1.64674e-01,2.45597e-01,-3.22972e-01,0.00000e+00,0.00000e+00,1.38732e+01,-1.30368e+01,1.73551e-02,-1.63088e-02,1.58340e-01,1.88991e-01,0.00000e+00,2.74515e-01,4.24623e-01,0.00000e+00
13,1.20500e+03,0.00000e+00,1.27739e+04,1.15721e+03,-2.27112e+03,3.06583e+00,3.62435e+01,1.32148e+09,1.95268e+09,4.45208e+08,2.84442e+07,7.39632e+01,1.86188e+01,6.42675e+01,-3.56321e+00,2.16460e+01,-4.65233e-03,2.85018e-02,-1.72006e-01,2.81096e-01,-3.55379e-01,0.00000e+00,0.00000e+00,1.58365e+01,-1.47908e+01,1.98112e-02,-1.85030e-02,1.40179e-01,1.82208e-01,0.00000e+00,2.43250e-01,4.37185e-01,0.00000e+00
14,1.29010e+03,0.00000e+00,9.89881e+03,9.11734e+02,-1.90508e+03,2.70339e+00,3.13274e+01,1.21619e+09,1.75686e+09,4.00479e+08,2.55327e+07,7.15330e+01,1.79989e+01,6.20379e+01,-3.96490e+00,2.41057e+01,-4.78808e-03,2.93047e-02,-1.78579e-01,2.27695e-01,-2.89229e-01,0.00000e+00,0.00000e+00,1.28328e+01,-1.19810e+01,1.60536e-02,-1.49881e-02,1.26138e-01,1.62986e-01,0.00000e+00,2.18758e-01,3.69623e-01,0.00000e+00
15,1.37170e+03,0.00000e+00,7.52855e+03,7.05070e+02,-1.57805e+03,2.36190e+00,2.67672e+01,1.12002e+09,1.58132e+09,3.60391e+08,2.29245e+07,6.91884e+01,1.74013e+01,5.98941e+01,-4.35996e+00,2.65231e+01,-4.89484e-03,2.99458e-02,-1.84431e-01,1.80940e-01,-2.30975e-01,0.00000e+00,0.00000e+00,1.02018e+01,-9.52083e+00,1.27623e-02,-1.19104e-02,1.12136e-01,1.43993e-01,0.00000e+00,1.94379e-01,3.09473e-01,0.00000e+00
16,1.44960e+03,0.00000e+00,5.60470e+03,5.33426e+02,-1.29151e+03,2.04489e+00,2.26257e+01,1.03251e+09,1.42458e+09,3.24609e+08,2.05963e+07,6.69366e+01,1.68278e+01,5.78421e+01,-4.74445e+00,2.88753e+01,-4.97668e-03,3.04451e-02,-1.89555e-01,1.40652e-01,-1.80460e-01,0.00000e+00,0.00000e+00,7.93358e+00,-7.40103e+00,9.92478e-03,-9.25856e-03,9.85342e-02,1.25684e-01,0.00000e+00,1.70729e-01,2.57012e-01,0.00000e+00
17,1.52340e+03,0.00000e+00,4.07568e+03,3.93758e+02,-1.03962e+03,1.74015e+00,1.88113e+01,9.53418e+08,1.28561e+09,2.92889e+08,1.85365e+07,6.47909e+01,1.62818e+01,5.58929e+01,-5.11398e+00,3.11361e+01,-5.03745e-03,3.08221e-02,-1.93938e-01,1.06692e-01,-1.37593e-01,0.00000e+00,0.00000e+00,6.02053e+00,-5.61434e+00,7.53159e-03,-7.02344e-03,8.50863e-02,1.07808e-01,0.00000e+00,1.47398e-01,2.12906e-01,0.00000e+00
18,1.59310e+03,0.00000e+00,2.88502e+03,2.83463e+02,-8.23865e+02,1.42469e+00,1.53540e+01,8.82075e+08,1.16263e+09,2.64824e+08,1.67280e+07,6.27531e+01,1.57637e+01,5.40474e+01,-5.46661e+00,3.32940e+01,-5.08121e-03,3.10983e-02,-1.97609e-01,7.87009e-02,-1.02050e-01,0.00000e+00,0.00000e+00,4.44304e+00,-4.14115e+00,5.55817e-03,-5.18051e-03,7.21135e-02,9.08835e-02,0.00000e+00,1.24920e-01,1.74167e-01,0.00000e+00
19,1.65850e+03,0.00000e+00,1.98060e+03,1.98556e+02,-6.39759e+02,1.17186e+00,1.23040e+01,8.18049e+08,1.05434e+09,2.40117e+08,1.51307e+07,6.08309e+01,1.52752e+01,5.23116e+01,-5.79991e+00,3.53342e+01,-5.11153e-03,3.12935e-02,-2.00602e-01,5.62349e-02,-7.33495e-02,0.00000e+00,0.00000e+00,3.17633e+00,-2.95827e+00,3.97354e-03,-3.70075e-03,5.98913e-02,7.50020e-02,0.00000e+00,1.03744e-01,1.40253e-01,0.00000e+00
20,1.71930e+03,0.00000e+00,1.31358e+03,1.34258e+02,-4.83524e+02,9.43223e-01,9.63758e+00,7.61023e+08,9.59670e+08,2.18523e+08,1.37224e+07,5.90349e+01,1.48192e+01,5.06943e+01,-6.11130e+00,3.72409e+01,-5.13159e-03,3.14254e-02,-2.02959e-01,3.87526e-02,-5.08470e-02,0.00000e+00,0.00000e+00,2.18999e+00,-2.03811e+00,2.73964e-03,-2.54964e-03,4.84737e-02,6.01818e-02,0.00000e+00,8.39646e-02,1.10418e-01,0.00000e+00
21,1.77540e+03,0.00000e+00,8.36717e+02,8.73961e+01,-3.52320e+02,7.27427e-01,7.36271e+00,3.98519e+08,7.29057e+08,1.66652e+08,9.73479e+06,5.21005e+01,1.31900e+01,4.07358e+01,-6.39971e+00,3.90070e+01,-5.15035e-03,3.15396e-02,-2.04962e-01,4.64169e-02,-5.72630e-02,0.00000e+00,0.00000e+00,2.61295e+00,-2.39870e+00,3.26876e-03,-3.00073e-03,6.42103e-02,5.63742e-02,0.00000e+00,1.11222e-01,1.06639e-01,0.00000e+00
22,1.82660e+03,0.00000e+00,5.08180e+02,5.50121e+01,-2.48182e+02,5.37576e-01,5.47077e+00,3.22692e+08,5.63581e+08,1.28741e+08,7.50447e+06,4.80842e+01,1.21552e+01,3.73499e+01,-6.66386e+00,4.06244e+01,-5.16793e-03,3.16408e-02,-2.06736e-01,3.16288e-02,-3.93754e-02,0.00000e+00,0.00000e+00,1.78180e+00,-1.63510e+00,2.22900e-03,-2.04548e-03,5.30798e-02,4.61363e-02,0.00000e+00,9.19404e-02,8.50855e-02,0.00000e+00
23,1.87280e+03,0.00000e+00,2.91049e+02,3.34286e+01,-1.70907e+02,3.96771e-01,3.92884e+00,2.62353e+08,4.36581e+08,9.96683e+07,5.81731e+06,4.43938e+01,1.12070e+01,3.42731e+01,-6.90288e+00,4.20878e+01,-5.17906e-03,3.17072e-02,-2.08178e-01,2.02900e-02,-2.55672e-02,0.00000e+00,0.00000e+00,1.14423e+00,-1.04760e+00,1.43141e-03,-1.31053e-03,4.25000e-02,3.68057e-02,0.00000e+00,7.36139e-02,6.64417e-02,0.00000e+00
24,1.91380e+03,0.00000e+00,1.54982e+02,1.93053e+01,-1.14133e+02,2.92170e-01,2.70860e+00,2.14932e+08,3.40501e+08,7.76906e+07,4.55150e+06,4.10625e+01,1.03532e+01,3.15244e+01,-7.11535e+00,4.33886e+01,-5.18543e-03,3.17471e-02,-2.09294e-01,1.20602e-02,-1.54298e-02,0.00000e+00,0.00000e+00,6.81088e-01,-6.20842e-01,8.52029e-04,-7.76662e-04,3.26613e-02,2.83489e-02,0.00000e+00,5.65719e-02,5.03397e-02,0.00000e+00
25,1.94970e+03,0.00000e+00,7.47141e+01,1.03472e+01,-7.26771e+01,2.06892e-01,1.76312e+00,1.77937e+08,2.68420e+08,6.12136e+07,3.60637e+06,3.80992e+01,9.59536e+00,2.91026e+01,-7.30156e+00,4.45287e+01,-5.18866e-03,3.17687e-02,-2.10106e-01,6.46098e-03,-8.43515e-03,0.00000e+00,0.00000e+00,3.65584e-01,-3.30889e-01,4.57340e-04,-4.13937e-04,2.36565e-02,2.06940e-02,0.00000e+00,4.09745e-02,3.63275e-02,0.00000e+00
26,1.98010e+03,0.00000e+00,3.17045e+01,5.04185e+00,-4.36490e+01,1.42142e-01,1.06645e+00,1.49784e+08,2.15653e+08,4.91590e+07,2.91954e+06,3.55543e+01,8.94582e+00,2.70403e+01,-7.45932e+00,4.54946e+01,-5.19001e-03,3.17788e-02,-2.10640e-01,3.02642e-03,-4.06135e-03,0.00000e+00,0.00000e+00,1.71707e-01,-1.53676e-01,2.14802e-04,-1.92245e-04,1.58627e-02,1.40823e-02,0.00000e+00,2.74751e-02,2.45454e-02,0.00000e+00
27,2.00520e+03,0.00000e+00,1.10887e+01,2.10983e+00,-2.38740e+01,9.14852e-02,5.76241e-01,1.28656e+08,1.77484e+08,4.04436e+07,2.42808e+06,3.34272e+01,8.40385e+00,2.53292e+01,-7.58959e+00,4.62923e+01,-5.19045e-03,3.17827e-02,-2.10951e-01,1.16036e-03,-1.61656e-03,0.00000e+00,0.00000e+00,6.60896e-02,-5.81121e-02,8.26770e-05,-7.26973e-05,9.46346e-03,8.59515e-03,0.00000e+00,1.63912e-02,1.49234e-02,0.00000e+00
28,2.02480e+03,0.00000e+00,2.88593e+00,6.97002e-01,-1.12782e+01,5.26804e-02,2.60776e-01,1.13447e+08,1.50904e+08,3.43767e+07,2.09533e+06,3.17493e+01,7.97693e+00,2.39876e+01,-7.69133e+00,4.69153e+01,-5.19055e-03,3.17838e-02,-2.11100e-01,3.28892e-04,-4.86348e-04,0.00000e+00,0.00000e+00,1.88434e-02,-1.60890e-02,2.35728e-05,-2.01270e-05,4.71454e-03,4.43274e-03,0.00000e+00,8.16583e-03,7.68311e-03,0.00000e+00
29,2.03880e+03,0.00000e+00,4.62378e-01,1.57596e-01,-4.15812e+00,2.43775e-02,8.54462e-02,1.03260e+08,1.33576e+08,3.04229e+07,1.90377e+06,3.05414e+01,7.66993e+00,2.30264e+01,-7.76400e+00,4.73603e+01,-5.19055e-03,3.17840e-02,-2.11153e-01,5.74272e-05,-9.40347e-05,0.00000e+00,0.00000e+00,3.32446e-03,-2.68292e-03,4.15884e-06,-3.35628e-06,1.72382e-03,1.72746e-03,0.00000e+00,2.98575e-03,2.99243e-03,0.00000e+00
30,2.04720e+03,0.00000e+00,5.17519e-02,2.76053e-02,-8.15315e-01,6.57270e-03,1.23219e-02,9.74134e+07,1.23821e+08,2.81976e+07,1.85392e+06,2.98129e+01,7.48488e+00,2.24484e+01,-7.80760e+00,4.76272e+01,-5.19055e-03,3.17840e-02,-2.11164e-01,7.09258e-06,-1.37809e-05,0.00000e+00,0.00000e+00,4.17823e-04,-3.03707e-04,5.22690e-07,-3.79932e-07,2.99029e-04,3.42282e-04,0.00000e+00,5.17933e-04,5.92875e-04,0.00000e+00
31,2.05000e+03,0.00000e+00,0.00000e+00,0.00000e+00,0.00000e+00,0.00000e+00,0.00000e+00,5.74754e+07,1.08343e+08,2.47732e+07,NaN,2.74871e+01,6.96602e+00,2.15905e+01,-7.82213e+00,4.77162e+01,-5.19055e-03,3.17840e-02,-2.11165e-01,0.00000e+00,0.00000e+00,0.00000e+00,0.00000e+00,0.00000e+00,0.00000e+00,0.00000e+00,0.00000e+00,0.00000e+00,0.00000e+00,0.00000e+00,0.00000e+00,0.00000e+00,0.00000e+00
--------------------------------------------------------------------------------------------------------------------------------------------------------------------------------------------------------------------------------------------------------------------------------------------------------------------------------------------------------------------------------

CHAPEADO 
--------------------------------------------------------------------------------------------------------------------------------------------------------------------------------------------------------------------------------------------------------------------------------------------------------------------------------------------------------------------------------
X,Y,Z,Sigma,Tau,Von Mises
0.00000e+00,4.31008e+01,0.00000e+00,-1.31735e+00,5.06721e-01,1.58295e+00
0.00000e+00,4.28837e+01,-3.27521e+00,-1.36725e+00,5.01665e-01,1.61999e+00
0.00000e+00,4.25950e+01,-6.55041e+00,-1.41217e+00,4.96485e-01,1.65339e+00
0.00000e+00,4.23033e+01,-9.82562e+00,-1.45688e+00,4.91187e-01,1.68710e+00
0.00000e+00,4.19484e+01,-1.31008e+01,-1.49720e+00,4.85782e-01,1.71743e+00
0.00000e+00,4.15787e+01,-1.63760e+01,-1.53650e+00,4.80277e-01,1.74724e+00
0.00000e+00,4.11605e+01,-1.96512e+01,-1.57243e+00,4.74680e-01,1.77440e+00
0.00000e+00,4.07187e+01,-2.29264e+01,-1.60672e+00,4.68999e-01,1.80039e+00
0.00000e+00,4.02378e+01,-2.62017e+01,-1.63829e+00,4.63241e-01,1.82422e+00
0.00000e+00,3.97249e+01,-2.94769e+01,-1.66764e+00,4.57414e-01,1.84627e+00
0.00000e+00,3.91766e+01,-3.27521e+01,-1.69454e+00,4.51526e-01,1.86630e+00
0.00000e+00,3.85857e+01,-3.60273e+01,-1.71847e+00,4.45584e-01,1.88382e+00
0.00000e+00,3.79511e+01,-3.93025e+01,-1.73937e+00,4.39597e-01,1.89872e+00
0.00000e+00,3.72545e+01,-4.25777e+01,-1.75597e+00,4.33574e-01,1.90981e+00
0.00000e+00,3.64976e+01,-4.58529e+01,-1.76837e+00,4.27527e-01,1.91715e+00
0.00000e+00,3.56687e+01,-4.91281e+01,-1.77577e+00,4.21465e-01,1.91997e+00
0.00000e+00,3.47420e+01,-5.24033e+01,-1.77639e+00,4.15410e-01,1.91658e+00
0.00000e+00,3.37474e+01,-5.56785e+01,-1.77229e+00,4.09366e-01,1.90886e+00
0.00000e+00,3.26000e+01,-5.89537e+01,-1.75758e+00,4.03365e-01,1.89134e+00
0.00000e+00,3.13892e+01,-6.22289e+01,-1.73846e+00,3.97421e-01,1.86978e+00
0.00000e+00,3.00018e+01,-6.55041e+01,-1.70708e+00,3.91550e-01,1.83686e+00
0.00000e+00,2.84730e+01,-6.87793e+01,-1.66588e+00,3.85800e-01,1.79491e+00
0.00000e+00,2.68002e+01,-7.20546e+01,-1.61468e+00,3.80181e-01,1.74379e+00
0.00000e+00,2.48857e+01,-7.53298e+01,-1.54670e+00,3.74714e-01,1.67735e+00
0.00000e+00,2.26913e+01,-7.86050e+01,-1.45927e+00,3.69466e-01,1.59342e+00
0.00000e+00,2.01805e+01,-8.18802e+01,-1.34988e+00,3.64498e-01,1.49022e+00
0.00000e+00,1.72108e+01,-8.51554e+01,-1.20861e+00,3.59854e-01,1.35986e+00
0.00000e+00,1.33989e+01,-8.84306e+01,-1.00886e+00,3.55759e-01,1.18216e+00
0.00000e+00,8.24350e+00,-9.17058e+01,-7.15804e-01,3.53258e-01,9.41673e-01
0.00000e+00,-3.34020e+00,-9.49810e+01,2.36752e-02,3.54250e-01,6.14035e-01
0.00000e+00,-4.17620e+00,-9.49886e+01,8.15818e-02,3.57329e-01,6.24266e-01
0.00000e+00,-1.17928e+01,-9.15961e+01,6.77823e-01,3.63168e-01,9.24725e-01
0.00000e+00,-1.27149e+01,-8.82037e+01,8.09161e-01,3.67482e-01,1.02950e+00
0.00000e+00,-1.30332e+01,-8.48113e+01,8.98557e-01,3.72021e-01,1.10571e+00
0.00000e+00,-1.30814e+01,-8.14188e+01,9.69207e-01,3.76771e-01,1.16843e+00
0.00000e+00,-1.29264e+01,-7.80264e+01,1.02573e+00,3.81694e-01,1.22033e+00
0.00000e+00,-1.26437e+01,-7.46339e+01,1.07340e+00,3.86760e-01,1.26528e+00
0.00000e+00,-1.22328e+01,-7.12415e+01,1.11216e+00,3.91942e-01,1.30298e+00
0.00000e+00,-1.17438e+01,-6.78490e+01,1.14550e+00,3.97213e-01,1.33622e+00
0.00000e+00,-1.12094e+01,-6.44565e+01,1.17568e+00,4.02560e-01,1.36689e+00
0.00000e+00,-1.06068e+01,-6.10641e+01,1.20113e+00,4.07968e-01,1.39356e+00
0.00000e+00,-9.96142e+00,-5.76716e+01,1.22361e+00,4.13423e-01,1.41773e+00
0.00000e+00,-9.27449e+00,-5.42792e+01,1.24320e+00,4.18913e-01,1.43944e+00
0.00000e+00,-8.54615e+00,-5.08867e+01,1.25991e+00,4.24427e-01,1.45870e+00
0.00000e+00,-7.79185e+00,-4.74943e+01,1.27482e+00,4.29955e-01,1.47640e+00
0.00000e+00,-7.00429e+00,-4.41018e+01,1.28743e+00,4.35490e-01,1.49212e+00
0.00000e+00,-6.19544e+00,-4.07094e+01,1.29855e+00,4.41023e-01,1.50657e+00
0.00000e+00,-5.36748e+00,-3.73169e+01,1.30835e+00,4.46547e-01,1.51987e+00
0.00000e+00,-4.52248e+00,-3.39245e+01,1.31696e+00,4.52057e-01,1.53214e+00
0.00000e+00,-3.67026e+00,-3.05320e+01,1.32508e+00,4.57549e-01,1.54398e+00
0.00000e+00,-2.80686e+00,-2.71396e+01,1.33241e+00,4.63019e-01,1.55515e+00
0.00000e+00,-1.94159e+00,-2.37472e+01,1.33962e+00,4.68466e-01,1.56619e+00
0.00000e+00,-1.06964e+00,-2.03547e+01,1.34636e+00,4.73887e-01,1.57683e+00
0.00000e+00,-1.97780e-01,-1.69622e+01,1.35311e+00,4.79282e-01,1.58746e+00
0.00000e+00,6.70785e-01,-1.35698e+01,1.36009e+00,4.84649e-01,1.59828e+00
0.00000e+00,1.53935e+00,-1.01774e+01,1.36706e+00,4.89988e-01,1.60908e+00
0.00000e+00,2.38735e+00,-6.78490e+00,1.37547e+00,4.95300e-01,1.62107e+00
0.00000e+00,3.23151e+00,-3.39245e+00,1.38414e+00,5.00590e-01,1.63328e+00
1.07300e+02,4.26785e+01,0.00000e+00,-1.17623e+00,4.76971e-01,1.43737e+00
1.07300e+02,4.24636e+01,-3.24312e+00,-1.22096e+00,4.72237e-01,1.46962e+00
1.07300e+02,4.21777e+01,-6.48624e+00,-1.26124e+00,4.67388e-01,1.49870e+00
1.07300e+02,4.18889e+01,-9.72936e+00,-1.30134e+00,4.62429e-01,1.52808e+00
1.07300e+02,4.15374e+01,-1.29725e+01,-1.33752e+00,4.57369e-01,1.55452e+00
1.07300e+02,4.11714e+01,-1.62156e+01,-1.37279e+00,4.52216e-01,1.58052e+00
1.07300e+02,4.07572e+01,-1.94587e+01,-1.40504e+00,4.46976e-01,1.60421e+00
1.07300e+02,4.03197e+01,-2.27018e+01,-1.43583e+00,4.41658e-01,1.62689e+00
1.07300e+02,3.98436e+01,-2.59450e+01,-1.46419e+00,4.36268e-01,1.64768e+00
1.07300e+02,3.93357e+01,-2.91881e+01,-1.49057e+00,4.30813e-01,1.66692e+00
1.07300e+02,3.87928e+01,-3.24312e+01,-1.51476e+00,4.25301e-01,1.68439e+00
1.07300e+02,3.82077e+01,-3.56743e+01,-1.53631e+00,4.19739e-01,1.69964e+00
1.07300e+02,3.75793e+01,-3.89174e+01,-1.55514e+00,4.14134e-01,1.71259e+00
1.07300e+02,3.68895e+01,-4.21606e+01,-1.57013e+00,4.08496e-01,1.72218e+00
1.07300e+02,3.61401e+01,-4.54037e+01,-1.58138e+00,4.02836e-01,1.72846e+00
1.07300e+02,3.53192e+01,-4.86468e+01,-1.58816e+00,3.97162e-01,1.73074e+00
1.07300e+02,3.44016e+01,-5.18899e+01,-1.58888e+00,3.91493e-01,1.72753e+00
1.07300e+02,3.34168e+01,-5.51330e+01,-1.58539e+00,3.85835e-01,1.72049e+00
1.07300e+02,3.22806e+01,-5.83762e+01,-1.57242e+00,3.80218e-01,1.70476e+00
1.07300e+02,3.10816e+01,-6.16193e+01,-1.55552e+00,3.74654e-01,1.68545e+00
1.07300e+02,2.97079e+01,-6.48624e+01,-1.52767e+00,3.69158e-01,1.65608e+00
1.07300e+02,2.81940e+01,-6.81055e+01,-1.49105e+00,3.63775e-01,1.61871e+00
1.07300e+02,2.65376e+01,-7.13486e+01,-1.44550e+00,3.58516e-01,1.57323e+00
1.07300e+02,2.46419e+01,-7.45918e+01,-1.38496e+00,3.53398e-01,1.51420e+00
1.07300e+02,2.24690e+01,-7.78349e+01,-1.30706e+00,3.48485e-01,1.43970e+00
1.07300e+02,1.99828e+01,-8.10780e+01,-1.20954e+00,3.43835e-01,1.34821e+00
1.07300e+02,1.70422e+01,-8.43211e+01,-1.08356e+00,3.39488e-01,1.23283e+00
1.07300e+02,1.32676e+01,-8.75642e+01,-9.05358e-01,3.35655e-01,1.07595e+00
1.07300e+02,8.16273e+00,-9.08074e+01,-6.43831e-01,3.33313e-01,8.64761e-01
1.07300e+02,-3.30748e+00,-9.40505e+01,1.63470e-02,3.34242e-01,5.79155e-01
1.07300e+02,-4.13529e+00,-9.40580e+01,6.80568e-02,3.37124e-01,5.87869e-01
1.07300e+02,-1.16772e+01,-9.06988e+01,6.00672e-01,3.42591e-01,8.44341e-01
1.07300e+02,-1.25904e+01,-8.73396e+01,7.18133e-01,3.46629e-01,9.36039e-01
1.07300e+02,-1.29055e+01,-8.39804e+01,7.98139e-01,3.50878e-01,1.00318e+00
1.07300e+02,-1.29533e+01,-8.06211e+01,8.61406e-01,3.55324e-01,1.05867e+00
1.07300e+02,-1.27997e+01,-7.72619e+01,9.12060e-01,3.59932e-01,1.10477e+00
1.07300e+02,-1.25198e+01,-7.39027e+01,9.54799e-01,3.64675e-01,1.14482e+00
1.07300e+02,-1.21130e+01,-7.05435e+01,9.89592e-01,3.69526e-01,1.17853e+00
1.07300e+02,-1.16287e+01,-6.71843e+01,1.01954e+00,3.74460e-01,1.20835e+00
1.07300e+02,-1.10996e+01,-6.38251e+01,1.04667e+00,3.79466e-01,1.23592e+00
1.07300e+02,-1.05029e+01,-6.04659e+01,1.06957e+00,3.84528e-01,1.25998e+00
1.07300e+02,-9.86382e+00,-5.71066e+01,1.08982e+00,3.89634e-01,1.28185e+00
1.07300e+02,-9.18363e+00,-5.37474e+01,1.10749e+00,3.94773e-01,1.30156e+00
1.07300e+02,-8.46243e+00,-5.03882e+01,1.12259e+00,3.99935e-01,1.31911e+00
1.07300e+02,-7.71552e+00,-4.70290e+01,1.13609e+00,4.05110e-01,1.33530e+00
1.07300e+02,-6.93567e+00,-4.36698e+01,1.14752e+00,4.10291e-01,1.34975e+00
1.07300e+02,-6.13474e+00,-4.03106e+01,1.15763e+00,4.15470e-01,1.36307e+00
1.07300e+02,-5.31490e+00,-3.69514e+01,1.16655e+00,4.20641e-01,1.37538e+00
1.07300e+02,-4.47818e+00,-3.35921e+01,1.17442e+00,4.25799e-01,1.38679e+00
1.07300e+02,-3.63431e+00,-3.02329e+01,1.18184e+00,4.30940e-01,1.39781e+00
1.07300e+02,-2.77936e+00,-2.68737e+01,1.18857e+00,4.36061e-01,1.40824e+00
1.07300e+02,-1.92257e+00,-2.35145e+01,1.19518e+00,4.41159e-01,1.41856e+00
1.07300e+02,-1.05916e+00,-2.01553e+01,1.20138e+00,4.46234e-01,1.42853e+00
1.07300e+02,-1.95842e-01,-1.67961e+01,1.20758e+00,4.51283e-01,1.43848e+00
1.07300e+02,6.64213e-01,-1.34369e+01,1.21399e+00,4.56307e-01,1.44859e+00
1.07300e+02,1.52427e+00,-1.00776e+01,1.22040e+00,4.61305e-01,1.45869e+00
1.07300e+02,2.36396e+00,-6.71843e+00,1.22808e+00,4.66278e-01,1.46984e+00
1.07300e+02,3.19985e+00,-3.35921e+00,1.23600e+00,4.71230e-01,1.48117e+00
2.14300e+02,4.22575e+01,0.00000e+00,-1.04276e+00,4.46887e-01,1.29864e+00
2.14300e+02,4.20447e+01,-3.21112e+00,-1.08258e+00,4.42471e-01,1.32639e+00
2.14300e+02,4.17615e+01,-6.42224e+00,-1.11846e+00,4.37948e-01,1.35142e+00
2.14300e+02,4.14756e+01,-9.63337e+00,-1.15418e+00,4.33322e-01,1.37675e+00
2.14300e+02,4.11276e+01,-1.28445e+01,-1.18642e+00,4.28602e-01,1.39953e+00
2.14300e+02,4.07652e+01,-1.60556e+01,-1.21785e+00,4.23794e-01,1.42196e+00
2.14300e+02,4.03551e+01,-1.92667e+01,-1.24661e+00,4.18906e-01,1.44238e+00
2.14300e+02,3.99219e+01,-2.24779e+01,-1.27407e+00,4.13945e-01,1.46195e+00
2.14300e+02,3.94505e+01,-2.56890e+01,-1.29938e+00,4.08917e-01,1.47988e+00
2.14300e+02,3.89476e+01,-2.89001e+01,-1.32293e+00,4.03829e-01,1.49646e+00
2.14300e+02,3.84101e+01,-3.21112e+01,-1.34455e+00,3.98687e-01,1.51151e+00
2.14300e+02,3.78307e+01,-3.53223e+01,-1.36381e+00,3.93499e-01,1.52463e+00
2.14300e+02,3.72085e+01,-3.85335e+01,-1.38067e+00,3.88270e-01,1.53574e+00
2.14300e+02,3.65256e+01,-4.17446e+01,-1.39412e+00,3.83011e-01,1.54391e+00
2.14300e+02,3.57835e+01,-4.49557e+01,-1.40426e+00,3.77731e-01,1.54919e+00
2.14300e+02,3.49707e+01,-4.81668e+01,-1.41043e+00,3.72438e-01,1.55095e+00
2.14300e+02,3.40622e+01,-5.13780e+01,-1.41124e+00,3.67150e-01,1.54790e+00
2.14300e+02,3.30871e+01,-5.45891e+01,-1.40831e+00,3.61872e-01,1.54149e+00
2.14300e+02,3.19621e+01,-5.78002e+01,-1.39697e+00,3.56632e-01,1.52744e+00
2.14300e+02,3.07750e+01,-6.10113e+01,-1.38215e+00,3.51442e-01,1.51025e+00
2.14300e+02,2.94148e+01,-6.42224e+01,-1.35762e+00,3.46315e-01,1.48423e+00
2.14300e+02,2.79159e+01,-6.74336e+01,-1.32531e+00,3.41294e-01,1.45117e+00
2.14300e+02,2.62758e+01,-7.06447e+01,-1.28508e+00,3.36388e-01,1.41100e+00
2.14300e+02,2.43988e+01,-7.38558e+01,-1.23157e+00,3.31614e-01,1.35892e+00
2.14300e+02,2.22473e+01,-7.70669e+01,-1.16266e+00,3.27031e-01,1.29330e+00
2.14300e+02,1.97856e+01,-8.02781e+01,-1.07636e+00,3.22694e-01,1.21282e+00
2.14300e+02,1.68740e+01,-8.34892e+01,-9.64821e-01,3.18638e-01,1.11152e+00
2.14300e+02,1.31367e+01,-8.67003e+01,-8.06977e-01,3.15063e-01,9.74170e-01
2.14300e+02,8.08220e+00,-8.99114e+01,-5.75256e-01,3.12879e-01,7.90316e-01
2.14300e+02,-3.27484e+00,-9.31226e+01,9.93292e-03,3.13745e-01,5.43514e-01
2.14300e+02,-4.09449e+00,-9.31300e+01,5.57814e-02,3.16434e-01,5.50911e-01
2.14300e+02,-1.15620e+01,-8.98039e+01,5.28197e-01,3.21533e-01,7.67556e-01
2.14300e+02,-1.24661e+01,-8.64779e+01,6.32513e-01,3.25300e-01,8.47073e-01
2.14300e+02,-1.27781e+01,-8.31518e+01,7.03620e-01,3.29264e-01,9.05718e-01
2.14300e+02,-1.28255e+01,-7.98257e+01,7.59884e-01,3.33412e-01,9.54418e-01
2.14300e+02,-1.26734e+01,-7.64996e+01,8.04965e-01,3.37710e-01,9.95044e-01
2.14300e+02,-1.23963e+01,-7.31736e+01,8.43029e-01,3.42135e-01,1.03047e+00
2.14300e+02,-1.19935e+01,-6.98475e+01,8.74047e-01,3.46660e-01,1.06041e+00
2.14300e+02,-1.15140e+01,-6.65214e+01,9.00766e-01,3.51262e-01,1.08698e+00
2.14300e+02,-1.09901e+01,-6.31954e+01,9.24993e-01,3.55931e-01,1.11161e+00
2.14300e+02,-1.03992e+01,-5.98693e+01,9.45463e-01,3.60654e-01,1.13319e+00
2.14300e+02,-9.76651e+00,-5.65432e+01,9.63587e-01,3.65417e-01,1.15286e+00
2.14300e+02,-9.09302e+00,-5.32171e+01,9.79424e-01,3.70211e-01,1.17066e+00
2.14300e+02,-8.37893e+00,-4.98911e+01,9.92984e-01,3.75025e-01,1.18657e+00
2.14300e+02,-7.63939e+00,-4.65650e+01,1.00512e+00,3.79853e-01,1.20130e+00
2.14300e+02,-6.86724e+00,-4.32389e+01,1.01542e+00,3.84686e-01,1.21451e+00
2.14300e+02,-6.07421e+00,-3.99129e+01,1.02455e+00,3.89517e-01,1.22674e+00
2.14300e+02,-5.26246e+00,-3.65868e+01,1.03264e+00,3.94341e-01,1.23808e+00
2.14300e+02,-4.43399e+00,-3.32607e+01,1.03978e+00,3.99152e-01,1.24864e+00
2.14300e+02,-3.59845e+00,-2.99346e+01,1.04653e+00,4.03947e-01,1.25887e+00
2.14300e+02,-2.75194e+00,-2.66086e+01,1.05266e+00,4.08724e-01,1.26857e+00
2.14300e+02,-1.90360e+00,-2.32825e+01,1.05869e+00,4.13480e-01,1.27817e+00
2.14300e+02,-1.04871e+00,-1.99564e+01,1.06436e+00,4.18214e-01,1.28746e+00
2.14300e+02,-1.93910e-01,-1.66304e+01,1.07003e+00,4.22924e-01,1.29675e+00
2.14300e+02,6.57660e-01,-1.33043e+01,1.07588e+00,4.27610e-01,1.30616e+00
2.14300e+02,1.50923e+00,-9.97821e+00,1.08173e+00,4.32272e-01,1.31556e+00
2.14300e+02,2.34063e+00,-6.65214e+00,1.08871e+00,4.36911e-01,1.32588e+00
2.14300e+02,3.16828e+00,-3.32607e+00,1.09590e+00,4.41530e-01,1.33635e+00
3.20700e+02,4.18388e+01,0.00000e+00,-9.17450e-01,4.16812e-01,1.16744e+00
3.20700e+02,4.16280e+01,-3.17930e+00,-9.52645e-01,4.12717e-01,1.19102e+00
3.20700e+02,4.13477e+01,-6.35861e+00,-9.84371e-01,4.08522e-01,1.21229e+00
3.20700e+02,4.10646e+01,-9.53791e+00,-1.01596e+00,4.04232e-01,1.23385e+00
3.20700e+02,4.07201e+01,-1.27172e+01,-1.04448e+00,3.99855e-01,1.25323e+00
3.20700e+02,4.03613e+01,-1.58965e+01,-1.07229e+00,3.95396e-01,1.27233e+00
3.20700e+02,3.99553e+01,-1.90758e+01,-1.09776e+00,3.90864e-01,1.28972e+00
3.20700e+02,3.95264e+01,-2.22551e+01,-1.12208e+00,3.86263e-01,1.30639e+00
3.20700e+02,3.90596e+01,-2.54344e+01,-1.14451e+00,3.81600e-01,1.32165e+00
3.20700e+02,3.85617e+01,-2.86137e+01,-1.16539e+00,3.76881e-01,1.33576e+00
3.20700e+02,3.80295e+01,-3.17930e+01,-1.18456e+00,3.72113e-01,1.34855e+00
3.20700e+02,3.74559e+01,-3.49724e+01,-1.20166e+00,3.67302e-01,1.35968e+00
3.20700e+02,3.68398e+01,-3.81517e+01,-1.21665e+00,3.62453e-01,1.36907e+00
3.20700e+02,3.61637e+01,-4.13310e+01,-1.22865e+00,3.57575e-01,1.37592e+00
3.20700e+02,3.54289e+01,-4.45103e+01,-1.23772e+00,3.52679e-01,1.38026e+00
3.20700e+02,3.46242e+01,-4.76896e+01,-1.24331e+00,3.47770e-01,1.38154e+00
3.20700e+02,3.37247e+01,-5.08689e+01,-1.24417e+00,3.42867e-01,1.37863e+00
3.20700e+02,3.27593e+01,-5.40482e+01,-1.24175e+00,3.37972e-01,1.37281e+00
3.20700e+02,3.16454e+01,-5.72275e+01,-1.23192e+00,3.33113e-01,1.36034e+00
3.20700e+02,3.04701e+01,-6.04068e+01,-1.21903e+00,3.28299e-01,1.34513e+00
3.20700e+02,2.91233e+01,-6.35861e+01,-1.19760e+00,3.23545e-01,1.32223e+00
3.20700e+02,2.76393e+01,-6.67654e+01,-1.16932e+00,3.18889e-01,1.29321e+00
3.20700e+02,2.60154e+01,-6.99447e+01,-1.13408e+00,3.14339e-01,1.25800e+00
3.20700e+02,2.41570e+01,-7.31240e+01,-1.08714e+00,3.09912e-01,1.21244e+00
3.20700e+02,2.20269e+01,-7.63033e+01,-1.02666e+00,3.05662e-01,1.15513e+00
3.20700e+02,1.95896e+01,-7.94826e+01,-9.50870e-01,3.01640e-01,1.08495e+00
3.20700e+02,1.67068e+01,-8.26619e+01,-8.52873e-01,2.97879e-01,9.96789e-01
3.20700e+02,1.30066e+01,-8.58412e+01,-7.14127e-01,2.94563e-01,8.77656e-01
3.20700e+02,8.00212e+00,-8.90205e+01,-5.10371e-01,2.92538e-01,7.19176e-01
3.20700e+02,-3.24239e+00,-9.21998e+01,4.43058e-03,2.93342e-01,5.08102e-01
3.20700e+02,-4.05392e+00,-9.22072e+01,4.47761e-02,2.95835e-01,5.14354e-01
3.20700e+02,-1.14474e+01,-8.89141e+01,4.60652e-01,3.00564e-01,6.95138e-01
3.20700e+02,-1.23426e+01,-8.56210e+01,5.52609e-01,3.04057e-01,7.63367e-01
3.20700e+02,-1.26515e+01,-8.23279e+01,6.15341e-01,3.07733e-01,8.14091e-01
3.20700e+02,-1.26984e+01,-7.90348e+01,6.65012e-01,3.11580e-01,8.56438e-01
3.20700e+02,-1.25479e+01,-7.57416e+01,7.04842e-01,3.15566e-01,8.91935e-01
3.20700e+02,-1.22734e+01,-7.24485e+01,7.38498e-01,3.19669e-01,9.23008e-01
3.20700e+02,-1.18746e+01,-6.91554e+01,7.65952e-01,3.23865e-01,9.49394e-01
3.20700e+02,-1.13999e+01,-6.58623e+01,7.89625e-01,3.28134e-01,9.72894e-01
3.20700e+02,-1.08812e+01,-6.25692e+01,8.11103e-01,3.32464e-01,9.94728e-01
3.20700e+02,-1.02962e+01,-5.92761e+01,8.29276e-01,3.36843e-01,1.01395e+00
3.20700e+02,-9.66973e+00,-5.59829e+01,8.45384e-01,3.41260e-01,1.03153e+00
3.20700e+02,-9.00292e+00,-5.26898e+01,8.59481e-01,3.45705e-01,1.04749e+00
3.20700e+02,-8.29591e+00,-4.93967e+01,8.71573e-01,3.50170e-01,1.06184e+00
3.20700e+02,-7.56370e+00,-4.61036e+01,8.82409e-01,3.54647e-01,1.07516e+00
3.20700e+02,-6.79920e+00,-4.28105e+01,8.91636e-01,3.59129e-01,1.08717e+00
3.20700e+02,-6.01403e+00,-3.95174e+01,8.99833e-01,3.63609e-01,1.09833e+00
3.20700e+02,-5.21032e+00,-3.62243e+01,9.07105e-01,3.68083e-01,1.10873e+00
3.20700e+02,-4.39006e+00,-3.29311e+01,9.13552e-01,3.72544e-01,1.11846e+00
3.20700e+02,-3.56279e+00,-2.96380e+01,9.19650e-01,3.76991e-01,1.12788e+00
3.20700e+02,-2.72467e+00,-2.63449e+01,9.25207e-01,3.81421e-01,1.13686e+00
3.20700e+02,-1.88474e+00,-2.30518e+01,9.30674e-01,3.85831e-01,1.14575e+00
3.20700e+02,-1.03832e+00,-1.97587e+01,9.35818e-01,3.90221e-01,1.15437e+00
3.20700e+02,-1.91989e-01,-1.64656e+01,9.40965e-01,3.94589e-01,1.16298e+00
3.20700e+02,6.51143e-01,-1.31725e+01,9.46273e-01,3.98935e-01,1.17170e+00
3.20700e+02,1.49428e+00,-9.87934e+00,9.51580e-01,4.03257e-01,1.18040e+00
3.20700e+02,2.31744e+00,-6.58623e+00,9.57882e-01,4.07559e-01,1.18990e+00
3.20700e+02,3.13689e+00,-3.29311e+00,9.64370e-01,4.11843e-01,1.19952e+00
4.26200e+02,4.14236e+01,0.00000e+00,-8.00782e-01,3.87005e-01,1.04430e+00
4.26200e+02,4.12150e+01,-3.14776e+00,-8.31653e-01,3.83226e-01,1.06406e+00
4.26200e+02,4.09374e+01,-6.29551e+00,-8.59494e-01,3.79355e-01,1.08188e+00
4.26200e+02,4.06571e+01,-9.44327e+00,-8.87215e-01,3.75396e-01,1.09996e+00
4.26200e+02,4.03160e+01,-1.25910e+01,-9.12261e-01,3.71357e-01,1.11622e+00
4.26200e+02,3.99607e+01,-1.57388e+01,-9.36687e-01,3.67242e-01,1.13225e+00
4.26200e+02,3.95588e+01,-1.88865e+01,-9.59059e-01,3.63059e-01,1.14684e+00
4.26200e+02,3.91341e+01,-2.20343e+01,-9.80436e-01,3.58813e-01,1.16082e+00
4.26200e+02,3.86720e+01,-2.51820e+01,-1.00016e+00,3.54510e-01,1.17361e+00
4.26200e+02,3.81790e+01,-2.83298e+01,-1.01854e+00,3.50156e-01,1.18543e+00
4.26200e+02,3.76521e+01,-3.14776e+01,-1.03542e+00,3.45756e-01,1.19613e+00
4.26200e+02,3.70842e+01,-3.46253e+01,-1.05050e+00,3.41316e-01,1.20542e+00
4.26200e+02,3.64743e+01,-3.77731e+01,-1.06373e+00,3.36841e-01,1.21322e+00
4.26200e+02,3.58048e+01,-4.09208e+01,-1.07434e+00,3.32340e-01,1.21884e+00
4.26200e+02,3.50774e+01,-4.40686e+01,-1.08241e+00,3.27822e-01,1.22230e+00
4.26200e+02,3.42806e+01,-4.72163e+01,-1.08743e+00,3.23292e-01,1.22314e+00
4.26200e+02,3.33901e+01,-5.03641e+01,-1.08833e+00,3.18767e-01,1.22037e+00
4.26200e+02,3.24342e+01,-5.35118e+01,-1.08636e+00,3.14250e-01,1.21508e+00
4.26200e+02,3.13314e+01,-5.66596e+01,-1.07793e+00,3.09766e-01,1.20407e+00
4.26200e+02,3.01677e+01,-5.98074e+01,-1.06682e+00,3.05324e-01,1.19070e+00
4.26200e+02,2.88343e+01,-6.29551e+01,-1.04825e+00,3.00937e-01,1.17069e+00
4.26200e+02,2.73650e+01,-6.61029e+01,-1.02371e+00,2.96640e-01,1.14541e+00
4.26200e+02,2.57573e+01,-6.92506e+01,-9.93089e-01,2.92441e-01,1.11481e+00
4.26200e+02,2.39173e+01,-7.23984e+01,-9.52258e-01,2.88356e-01,1.07529e+00
4.26200e+02,2.18083e+01,-7.55461e+01,-8.99601e-01,2.84434e-01,1.02567e+00
4.26200e+02,1.93952e+01,-7.86939e+01,-8.33579e-01,2.80722e-01,9.65023e-01
4.26200e+02,1.65410e+01,-8.18417e+01,-7.48171e-01,2.77252e-01,8.89026e-01
4.26200e+02,1.28775e+01,-8.49894e+01,-6.27190e-01,2.74193e-01,7.86709e-01
4.26200e+02,7.92271e+00,-8.81372e+01,-4.49453e-01,2.72324e-01,6.51528e-01
4.26200e+02,-3.21022e+00,-9.12849e+01,-1.71677e-04,2.73065e-01,4.72963e-01
4.26200e+02,-4.01369e+00,-9.12922e+01,3.50500e-02,2.75367e-01,4.78235e-01
4.26200e+02,-1.13339e+01,-8.80318e+01,3.98264e-01,2.79730e-01,6.27185e-01
4.26200e+02,-1.22201e+01,-8.47713e+01,4.78693e-01,2.82954e-01,6.85081e-01
4.26200e+02,-1.25260e+01,-8.15109e+01,5.33609e-01,2.86346e-01,7.28506e-01
4.26200e+02,-1.25724e+01,-7.82505e+01,5.77122e-01,2.89896e-01,7.64976e-01
4.26200e+02,-1.24233e+01,-7.49900e+01,6.12044e-01,2.93575e-01,7.95711e-01
4.26200e+02,-1.21516e+01,-7.17296e+01,6.41576e-01,2.97361e-01,8.22733e-01
4.26200e+02,-1.17568e+01,-6.84692e+01,6.65694e-01,3.01233e-01,8.45797e-01
4.26200e+02,-1.12868e+01,-6.52087e+01,6.86510e-01,3.05172e-01,8.66421e-01
4.26200e+02,-1.07732e+01,-6.19483e+01,7.05411e-01,3.09168e-01,8.85640e-01
4.26200e+02,-1.01940e+01,-5.86879e+01,7.21426e-01,3.13209e-01,9.02638e-01
4.26200e+02,-9.57378e+00,-5.54274e+01,7.35639e-01,3.17285e-01,9.18245e-01
4.26200e+02,-8.91358e+00,-5.21670e+01,7.48095e-01,3.21387e-01,9.32478e-01
4.26200e+02,-8.21359e+00,-4.89065e+01,7.58802e-01,3.25508e-01,9.45328e-01
4.26200e+02,-7.48864e+00,-4.56461e+01,7.68412e-01,3.29639e-01,9.57310e-01
4.26200e+02,-6.73173e+00,-4.23857e+01,7.76617e-01,3.33775e-01,9.68169e-01
4.26200e+02,-5.95435e+00,-3.91252e+01,7.83923e-01,3.37909e-01,9.78305e-01
4.26200e+02,-5.15861e+00,-3.58648e+01,7.90421e-01,3.42037e-01,9.87792e-01
4.26200e+02,-4.34650e+00,-3.26044e+01,7.96200e-01,3.46154e-01,9.96696e-01
4.26200e+02,-3.52744e+00,-2.93439e+01,8.01674e-01,3.50258e-01,1.00535e+00
4.26200e+02,-2.69763e+00,-2.60835e+01,8.06675e-01,3.54345e-01,1.01361e+00
4.26200e+02,-1.86603e+00,-2.28231e+01,8.11598e-01,3.58415e-01,1.02180e+00
4.26200e+02,-1.02802e+00,-1.95626e+01,8.16238e-01,3.62466e-01,1.02975e+00
4.26200e+02,-1.90083e-01,-1.63022e+01,8.20882e-01,3.66496e-01,1.03769e+00
4.26200e+02,6.44682e-01,-1.30417e+01,8.25665e-01,3.70507e-01,1.04573e+00
4.26200e+02,1.47945e+00,-9.78131e+00,8.30449e-01,3.74496e-01,1.05375e+00
4.26200e+02,2.29445e+00,-6.52087e+00,8.36101e-01,3.78465e-01,1.06244e+00
4.26200e+02,3.10576e+00,-3.26044e+00,8.41915e-01,3.82418e-01,1.07124e+00
5.30600e+02,4.10127e+01,0.00000e+00,-6.92926e-01,3.57522e-01,9.29308e-01
5.30600e+02,4.08062e+01,-3.11654e+00,-7.19781e-01,3.54053e-01,9.45593e-01
5.30600e+02,4.05314e+01,-6.23307e+00,-7.44014e-01,3.50499e-01,9.60264e-01
5.30600e+02,4.02539e+01,-9.34961e+00,-7.68142e-01,3.46865e-01,9.75186e-01
5.30600e+02,3.99161e+01,-1.24661e+01,-7.89956e-01,3.43157e-01,9.88585e-01
5.30600e+02,3.95644e+01,-1.55827e+01,-8.11233e-01,3.39380e-01,1.00182e+00
5.30600e+02,3.91664e+01,-1.86992e+01,-8.30732e-01,3.35540e-01,1.01384e+00
5.30600e+02,3.87460e+01,-2.18158e+01,-8.49370e-01,3.31642e-01,1.02537e+00
5.30600e+02,3.82884e+01,-2.49323e+01,-8.66580e-01,3.27692e-01,1.03591e+00
5.30600e+02,3.78003e+01,-2.80488e+01,-8.82617e-01,3.23695e-01,1.04563e+00
5.30600e+02,3.72787e+01,-3.11654e+01,-8.97365e-01,3.19655e-01,1.05442e+00
5.30600e+02,3.67164e+01,-3.42819e+01,-9.10551e-01,3.15579e-01,1.06201e+00
5.30600e+02,3.61125e+01,-3.73984e+01,-9.22139e-01,3.11472e-01,1.06836e+00
5.30600e+02,3.54497e+01,-4.05150e+01,-9.31463e-01,3.07340e-01,1.07284e+00
5.30600e+02,3.47295e+01,-4.36315e+01,-9.38581e-01,3.03192e-01,1.07550e+00
5.30600e+02,3.39406e+01,-4.67480e+01,-9.43064e-01,2.99033e-01,1.07593e+00
5.30600e+02,3.30589e+01,-4.98646e+01,-9.43976e-01,2.94880e-01,1.07329e+00
5.30600e+02,3.21125e+01,-5.29811e+01,-9.42404e-01,2.90733e-01,1.06851e+00
5.30600e+02,3.10206e+01,-5.60976e+01,-9.35243e-01,2.86617e-01,1.05883e+00
5.30600e+02,2.98685e+01,-5.92142e+01,-9.25765e-01,2.82539e-01,1.04715e+00
5.30600e+02,2.85484e+01,-6.23307e+01,-9.09833e-01,2.78512e-01,1.02981e+00
5.30600e+02,2.70936e+01,-6.54473e+01,-8.88728e-01,2.74567e-01,1.00797e+00
5.30600e+02,2.55018e+01,-6.85638e+01,-8.62359e-01,2.70713e-01,9.81591e-01
5.30600e+02,2.36801e+01,-7.16803e+01,-8.27155e-01,2.66963e-01,9.47625e-01
5.30600e+02,2.15920e+01,-7.47969e+01,-7.81716e-01,2.63363e-01,9.05074e-01
5.30600e+02,1.92028e+01,-7.79134e+01,-7.24709e-01,2.59955e-01,8.53190e-01
5.30600e+02,1.63770e+01,-8.10299e+01,-6.50923e-01,2.56770e-01,7.88348e-01
5.30600e+02,1.27498e+01,-8.41465e+01,-5.46348e-01,2.53961e-01,7.01416e-01
5.30600e+02,7.84413e+00,-8.72630e+01,-3.92651e-01,2.52246e-01,5.87417e-01
5.30600e+02,-3.17838e+00,-9.03795e+01,-3.92763e-03,2.52927e-01,4.38100e-01
5.30600e+02,-3.97388e+00,-9.03868e+01,2.65568e-02,2.55039e-01,4.42539e-01
5.30600e+02,-1.12214e+01,-8.71587e+01,3.41064e-01,2.59045e-01,5.63594e-01
5.30600e+02,-1.20989e+01,-8.39306e+01,4.10816e-01,2.62005e-01,6.12135e-01
5.30600e+02,-1.24018e+01,-8.07025e+01,4.58488e-01,2.65119e-01,6.48903e-01
5.30600e+02,-1.24477e+01,-7.74744e+01,4.96290e-01,2.68377e-01,6.79987e-01
5.30600e+02,-1.23001e+01,-7.42463e+01,5.26656e-01,2.71754e-01,7.06341e-01
5.30600e+02,-1.20311e+01,-7.10182e+01,5.52357e-01,2.75230e-01,7.29625e-01
5.30600e+02,-1.16402e+01,-6.77901e+01,5.73372e-01,2.78785e-01,7.49612e-01
5.30600e+02,-1.11748e+01,-6.45620e+01,5.91529e-01,2.82400e-01,7.67566e-01
5.30600e+02,-1.06664e+01,-6.13339e+01,6.08029e-01,2.86068e-01,7.84350e-01
5.30600e+02,-1.00929e+01,-5.81058e+01,6.22031e-01,2.89778e-01,7.99273e-01
5.30600e+02,-9.47882e+00,-5.48777e+01,6.34473e-01,2.93520e-01,8.13030e-01
5.30600e+02,-8.82518e+00,-5.16496e+01,6.45395e-01,2.97286e-01,8.25634e-01
5.30600e+02,-8.13212e+00,-4.84215e+01,6.54802e-01,3.01068e-01,8.37073e-01
5.30600e+02,-7.41437e+00,-4.51934e+01,6.63261e-01,3.04860e-01,8.47782e-01
5.30600e+02,-6.66496e+00,-4.19653e+01,6.70503e-01,3.08657e-01,8.57544e-01
5.30600e+02,-5.89529e+00,-3.87372e+01,6.76967e-01,3.12452e-01,8.66697e-01
5.30600e+02,-5.10745e+00,-3.55091e+01,6.82732e-01,3.16242e-01,8.75300e-01
5.30600e+02,-4.30339e+00,-3.22810e+01,6.87875e-01,3.20021e-01,8.83409e-01
5.30600e+02,-3.49245e+00,-2.90529e+01,6.92753e-01,3.23788e-01,8.91304e-01
5.30600e+02,-2.67088e+00,-2.58248e+01,6.97222e-01,3.27540e-01,8.98870e-01
5.30600e+02,-1.84753e+00,-2.25967e+01,7.01623e-01,3.31276e-01,9.06370e-01
5.30600e+02,-1.01782e+00,-1.93686e+01,7.05780e-01,3.34995e-01,9.13669e-01
5.30600e+02,-1.88198e-01,-1.61405e+01,7.09941e-01,3.38695e-01,9.20955e-01
5.30600e+02,6.38288e-01,-1.29124e+01,7.14221e-01,3.42376e-01,9.28319e-01
5.30600e+02,1.46477e+00,-9.68430e+00,7.18502e-01,3.46038e-01,9.35666e-01
5.30600e+02,2.27169e+00,-6.45620e+00,7.23535e-01,3.49682e-01,9.43575e-01
5.30600e+02,3.07496e+00,-3.22810e+00,7.28708e-01,3.53310e-01,9.51577e-01
6.33500e+02,4.06078e+01,0.00000e+00,-5.94145e-01,3.28216e-01,8.22305e-01
6.33500e+02,4.04033e+01,-3.08576e+00,-6.17304e-01,3.25049e-01,8.35484e-01
6.33500e+02,4.01312e+01,-6.17153e+00,-6.38214e-01,3.21804e-01,8.47343e-01
6.33500e+02,3.98564e+01,-9.25729e+00,-6.59034e-01,3.18485e-01,8.59432e-01
6.33500e+02,3.95220e+01,-1.23431e+01,-6.77869e-01,3.15099e-01,8.70269e-01
6.33500e+02,3.91738e+01,-1.54288e+01,-6.96243e-01,3.11651e-01,8.80984e-01
6.33500e+02,3.87797e+01,-1.85146e+01,-7.13093e-01,3.08145e-01,8.90708e-01
6.33500e+02,3.83634e+01,-2.16004e+01,-7.29204e-01,3.04586e-01,9.00031e-01
6.33500e+02,3.79104e+01,-2.46861e+01,-7.44090e-01,3.00979e-01,9.08535e-01
6.33500e+02,3.74271e+01,-2.77719e+01,-7.57971e-01,2.97329e-01,9.16370e-01
6.33500e+02,3.69106e+01,-3.08576e+01,-7.70745e-01,2.93641e-01,9.23430e-01
6.33500e+02,3.63539e+01,-3.39434e+01,-7.82181e-01,2.89919e-01,9.29498e-01
6.33500e+02,3.57559e+01,-3.70292e+01,-7.92245e-01,2.86169e-01,9.34521e-01
6.33500e+02,3.50997e+01,-4.01149e+01,-8.00368e-01,2.82396e-01,9.37993e-01
6.33500e+02,3.43866e+01,-4.32007e+01,-8.06599e-01,2.78609e-01,9.39931e-01
6.33500e+02,3.36055e+01,-4.62865e+01,-8.10569e-01,2.74812e-01,9.39993e-01
6.33500e+02,3.27325e+01,-4.93722e+01,-8.11477e-01,2.71019e-01,9.37470e-01
6.33500e+02,3.17954e+01,-5.24580e+01,-8.10255e-01,2.67233e-01,9.33142e-01
6.33500e+02,3.07144e+01,-5.55438e+01,-8.04239e-01,2.63475e-01,9.24693e-01
6.33500e+02,2.95736e+01,-5.86295e+01,-7.96236e-01,2.59752e-01,9.14552e-01
6.33500e+02,2.82665e+01,-6.17153e+01,-7.82698e-01,2.56074e-01,8.99632e-01
6.33500e+02,2.68261e+01,-6.48011e+01,-7.64722e-01,2.52473e-01,8.80925e-01
6.33500e+02,2.52500e+01,-6.78868e+01,-7.42233e-01,2.48954e-01,8.58396e-01
6.33500e+02,2.34463e+01,-7.09726e+01,-7.12165e-01,2.45530e-01,8.29478e-01
6.33500e+02,2.13788e+01,-7.40584e+01,-6.73319e-01,2.42243e-01,7.93349e-01
6.33500e+02,1.90132e+01,-7.71441e+01,-6.24551e-01,2.39132e-01,7.49410e-01
6.33500e+02,1.62153e+01,-8.02299e+01,-5.61393e-01,2.36223e-01,6.94670e-01
6.33500e+02,1.26239e+01,-8.33156e+01,-4.71828e-01,2.33659e-01,6.21619e-01
6.33500e+02,7.76668e+00,-8.64014e+01,-3.40132e-01,2.32093e-01,5.26584e-01
6.33500e+02,-3.14700e+00,-8.94872e+01,-6.86155e-03,2.32714e-01,4.03131e-01
6.33500e+02,-3.93464e+00,-8.94943e+01,1.92838e-02,2.34643e-01,4.06871e-01
6.33500e+02,-1.11106e+01,-8.62981e+01,2.89158e-01,2.38301e-01,5.03959e-01
6.33500e+02,-1.19795e+01,-8.31019e+01,3.49113e-01,2.41003e-01,5.44176e-01
6.33500e+02,-1.22793e+01,-7.99057e+01,3.90130e-01,2.43846e-01,5.74965e-01
6.33500e+02,-1.23248e+01,-7.67094e+01,4.22682e-01,2.46821e-01,6.01184e-01
6.33500e+02,-1.21787e+01,-7.35132e+01,4.48856e-01,2.49905e-01,6.23562e-01
6.33500e+02,-1.19123e+01,-7.03170e+01,4.71029e-01,2.53079e-01,6.43440e-01
6.33500e+02,-1.15252e+01,-6.71208e+01,4.89184e-01,2.56324e-01,6.60611e-01
6.33500e+02,-1.10645e+01,-6.39245e+01,5.04887e-01,2.59626e-01,6.76112e-01
6.33500e+02,-1.05611e+01,-6.07283e+01,5.19169e-01,2.62975e-01,6.90655e-01
6.33500e+02,-9.99326e+00,-5.75321e+01,5.31309e-01,2.66362e-01,7.03659e-01
6.33500e+02,-9.38524e+00,-5.43358e+01,5.42110e-01,2.69778e-01,7.15699e-01
6.33500e+02,-8.73804e+00,-5.11396e+01,5.51608e-01,2.73217e-01,7.26783e-01
6.33500e+02,-8.05183e+00,-4.79434e+01,5.59807e-01,2.76670e-01,7.36901e-01
6.33500e+02,-7.34116e+00,-4.47472e+01,5.67192e-01,2.80133e-01,7.46411e-01
6.33500e+02,-6.59916e+00,-4.15509e+01,5.73534e-01,2.83599e-01,7.55133e-01
6.33500e+02,-5.83709e+00,-3.83547e+01,5.79208e-01,2.87064e-01,7.63348e-01
6.33500e+02,-5.05702e+00,-3.51585e+01,5.84283e-01,2.90524e-01,7.71103e-01
6.33500e+02,-4.26090e+00,-3.19623e+01,5.88824e-01,2.93975e-01,7.78446e-01
6.33500e+02,-3.45797e+00,-2.87660e+01,5.93138e-01,2.97415e-01,7.85608e-01
6.33500e+02,-2.64450e+00,-2.55698e+01,5.97102e-01,3.00840e-01,7.92493e-01
6.33500e+02,-1.82928e+00,-2.23736e+01,6.01007e-01,3.04252e-01,7.99322e-01
6.33500e+02,-1.00777e+00,-1.91774e+01,6.04703e-01,3.07647e-01,8.05981e-01
6.33500e+02,-1.86340e-01,-1.59811e+01,6.08401e-01,3.11025e-01,8.12626e-01
6.33500e+02,6.31986e-01,-1.27849e+01,6.12203e-01,3.14386e-01,8.19334e-01
6.33500e+02,1.45031e+00,-9.58868e+00,6.16005e-01,3.17729e-01,8.26025e-01
6.33500e+02,2.24926e+00,-6.39245e+00,6.20452e-01,3.21056e-01,8.33182e-01
6.33500e+02,3.04460e+00,-3.19623e+00,6.25019e-01,3.24369e-01,8.40413e-01
7.34700e+02,4.02095e+01,0.00000e+00,-5.04388e-01,2.99216e-01,7.23186e-01
7.34700e+02,4.00070e+01,-3.05550e+00,-5.24168e-01,2.96341e-01,7.33625e-01
7.34700e+02,3.97376e+01,-6.11100e+00,-5.42038e-01,2.93396e-01,7.43000e-01
7.34700e+02,3.94656e+01,-9.16651e+00,-5.59833e-01,2.90383e-01,7.52582e-01
7.34700e+02,3.91344e+01,-1.22220e+01,-5.75941e-01,2.87310e-01,7.61149e-01
7.34700e+02,3.87896e+01,-1.52775e+01,-5.91658e-01,2.84179e-01,7.69632e-01
7.34700e+02,3.83994e+01,-1.83330e+01,-6.06081e-01,2.80996e-01,7.77310e-01
7.34700e+02,3.79872e+01,-2.13885e+01,-6.19876e-01,2.77766e-01,7.84671e-01
7.34700e+02,3.75386e+01,-2.44440e+01,-6.32632e-01,2.74492e-01,7.91366e-01
7.34700e+02,3.70601e+01,-2.74995e+01,-6.44533e-01,2.71179e-01,7.97519e-01
7.34700e+02,3.65486e+01,-3.05550e+01,-6.55495e-01,2.67831e-01,8.03040e-01
7.34700e+02,3.59973e+01,-3.36105e+01,-6.65320e-01,2.64452e-01,8.07748e-01
7.34700e+02,3.54053e+01,-3.66660e+01,-6.73981e-01,2.61048e-01,8.11596e-01
7.34700e+02,3.47554e+01,-3.97215e+01,-6.80993e-01,2.57623e-01,8.14162e-01
7.34700e+02,3.40493e+01,-4.27770e+01,-6.86398e-01,2.54185e-01,8.15459e-01
7.34700e+02,3.32760e+01,-4.58325e+01,-6.89884e-01,2.50739e-01,8.15199e-01
7.34700e+02,3.24115e+01,-4.88880e+01,-6.90769e-01,2.47296e-01,8.12790e-01
7.34700e+02,3.14836e+01,-5.19435e+01,-6.89846e-01,2.43860e-01,8.08882e-01
7.34700e+02,3.04131e+01,-5.49990e+01,-6.84851e-01,2.40448e-01,8.01540e-01
7.34700e+02,2.92835e+01,-5.80545e+01,-6.78169e-01,2.37068e-01,7.92791e-01
7.34700e+02,2.79893e+01,-6.11100e+01,-6.66787e-01,2.33730e-01,7.80060e-01
7.34700e+02,2.65630e+01,-6.41655e+01,-6.51637e-01,2.30461e-01,7.64178e-01
7.34700e+02,2.50024e+01,-6.72210e+01,-6.32653e-01,2.27267e-01,7.45118e-01
7.34700e+02,2.32164e+01,-7.02765e+01,-6.07234e-01,2.24159e-01,7.20746e-01
7.34700e+02,2.11691e+01,-7.33320e+01,-5.74361e-01,2.21175e-01,6.90395e-01
7.34700e+02,1.88268e+01,-7.63875e+01,-5.33063e-01,2.18351e-01,6.53596e-01
7.34700e+02,1.60563e+01,-7.94430e+01,-4.79545e-01,2.15711e-01,6.07911e-01
7.34700e+02,1.25001e+01,-8.24985e+01,-4.03602e-01,2.13383e-01,5.47258e-01
7.34700e+02,7.69051e+00,-8.55540e+01,-2.91882e-01,2.11962e-01,4.69019e-01
7.34700e+02,-3.11614e+00,-8.86096e+01,-8.98941e-03,2.12526e-01,3.68216e-01
7.34700e+02,-3.89606e+00,-8.86166e+01,1.32125e-02,2.14277e-01,3.71374e-01
7.34700e+02,-1.10017e+01,-8.54518e+01,2.42503e-01,2.17597e-01,4.48167e-01
7.34700e+02,-1.18620e+01,-8.22869e+01,2.93534e-01,2.20050e-01,4.81070e-01
7.34700e+02,-1.21589e+01,-7.91220e+01,3.28482e-01,2.22631e-01,5.06552e-01
7.34700e+02,-1.22039e+01,-7.59571e+01,3.56243e-01,2.25332e-01,5.28424e-01
7.34700e+02,-1.20592e+01,-7.27922e+01,3.78589e-01,2.28131e-01,5.47230e-01
7.34700e+02,-1.17955e+01,-6.96274e+01,3.97536e-01,2.31012e-01,5.64033e-01
7.34700e+02,-1.14122e+01,-6.64625e+01,4.13071e-01,2.33958e-01,5.78650e-01
7.34700e+02,-1.09560e+01,-6.32976e+01,4.26524e-01,2.36955e-01,5.91916e-01
7.34700e+02,-1.04575e+01,-6.01327e+01,4.38770e-01,2.39995e-01,6.04410e-01
7.34700e+02,-9.89525e+00,-5.69678e+01,4.49197e-01,2.43069e-01,6.15651e-01
7.34700e+02,-9.29319e+00,-5.38030e+01,4.58488e-01,2.46170e-01,6.26107e-01
7.34700e+02,-8.65235e+00,-5.06381e+01,4.66671e-01,2.49292e-01,6.35784e-01
7.34700e+02,-7.97287e+00,-4.74732e+01,4.73752e-01,2.52426e-01,6.44669e-01
7.34700e+02,-7.26917e+00,-4.43083e+01,4.80141e-01,2.55569e-01,6.53056e-01
7.34700e+02,-6.53444e+00,-4.11434e+01,4.85645e-01,2.58716e-01,6.60797e-01
7.34700e+02,-5.77984e+00,-3.79786e+01,4.90582e-01,2.61861e-01,6.68120e-01
7.34700e+02,-5.00742e+00,-3.48137e+01,4.95010e-01,2.65002e-01,6.75065e-01
7.34700e+02,-4.21911e+00,-3.16488e+01,4.98984e-01,2.68134e-01,6.81669e-01
7.34700e+02,-3.42406e+00,-2.84839e+01,5.02766e-01,2.71256e-01,6.88123e-01
7.34700e+02,-2.61857e+00,-2.53190e+01,5.06250e-01,2.74366e-01,6.94348e-01
7.34700e+02,-1.81134e+00,-2.21542e+01,5.09684e-01,2.77462e-01,7.00524e-01
7.34700e+02,-9.97887e-01,-1.89893e+01,5.12941e-01,2.80544e-01,7.06558e-01
7.34700e+02,-1.84513e-01,-1.58244e+01,5.16200e-01,2.83610e-01,7.12578e-01
7.34700e+02,6.25788e-01,-1.26595e+01,5.19547e-01,2.86662e-01,7.18647e-01
7.34700e+02,1.43609e+00,-9.49464e+00,5.22893e-01,2.89696e-01,7.24699e-01
7.34700e+02,2.22720e+00,-6.32976e+00,5.26788e-01,2.92716e-01,7.31132e-01
7.34700e+02,3.01474e+00,-3.16488e+00,5.30784e-01,2.95723e-01,7.37624e-01
8.33800e+02,3.98196e+01,0.00000e+00,-4.23678e-01,2.70713e-01,6.31949e-01
8.33800e+02,3.96190e+01,-3.02587e+00,-4.40400e-01,2.68119e-01,6.40012e-01
8.33800e+02,3.93522e+01,-6.05173e+00,-4.55516e-01,2.65462e-01,6.47228e-01
8.33800e+02,3.90828e+01,-9.07760e+00,-4.70569e-01,2.62744e-01,6.54628e-01
8.33800e+02,3.87549e+01,-1.21035e+01,-4.84205e-01,2.59971e-01,6.61218e-01
8.33800e+02,3.84134e+01,-1.51293e+01,-4.97512e-01,2.57147e-01,6.67751e-01
8.33800e+02,3.80270e+01,-1.81552e+01,-5.09732e-01,2.54275e-01,6.73643e-01
8.33800e+02,3.76188e+01,-2.11811e+01,-5.21424e-01,2.51361e-01,6.79286e-01
8.33800e+02,3.71745e+01,-2.42069e+01,-5.32243e-01,2.48407e-01,6.84398e-01
8.33800e+02,3.67006e+01,-2.72328e+01,-5.42344e-01,2.45418e-01,6.89077e-01
8.33800e+02,3.61941e+01,-3.02587e+01,-5.51656e-01,2.42398e-01,6.93249e-01
8.33800e+02,3.56482e+01,-3.32845e+01,-5.60012e-01,2.39350e-01,6.96763e-01
8.33800e+02,3.50619e+01,-3.63104e+01,-5.67390e-01,2.36278e-01,6.99581e-01
8.33800e+02,3.44183e+01,-3.93363e+01,-5.73383e-01,2.33189e-01,7.01355e-01
8.33800e+02,3.37191e+01,-4.23621e+01,-5.78026e-01,2.30087e-01,7.02093e-01
8.33800e+02,3.29532e+01,-4.53880e+01,-5.81056e-01,2.26978e-01,7.01557e-01
8.33800e+02,3.20971e+01,-4.84139e+01,-5.81901e-01,2.23872e-01,6.99260e-01
8.33800e+02,3.11783e+01,-5.14397e+01,-5.81225e-01,2.20772e-01,6.95732e-01
8.33800e+02,3.01182e+01,-5.44656e+01,-5.77130e-01,2.17694e-01,6.89384e-01
8.33800e+02,2.89995e+01,-5.74915e+01,-5.71616e-01,2.14645e-01,6.81881e-01
8.33800e+02,2.77178e+01,-6.05173e+01,-5.62153e-01,2.11633e-01,6.71105e-01
8.33800e+02,2.63054e+01,-6.35432e+01,-5.49524e-01,2.08684e-01,6.57741e-01
8.33800e+02,2.47599e+01,-6.65691e+01,-5.33674e-01,2.05802e-01,6.41772e-01
8.33800e+02,2.29912e+01,-6.95949e+01,-5.12416e-01,2.02998e-01,6.21446e-01
8.33800e+02,2.09638e+01,-7.26208e+01,-4.84896e-01,2.00306e-01,5.96231e-01
8.33800e+02,1.86442e+01,-7.56467e+01,-4.50296e-01,1.97759e-01,5.65766e-01
8.33800e+02,1.59005e+01,-7.86725e+01,-4.05428e-01,1.95377e-01,5.28098e-01
8.33800e+02,1.23789e+01,-8.16984e+01,-3.41717e-01,1.93277e-01,4.78371e-01
8.33800e+02,7.61592e+00,-8.47243e+01,-2.47946e-01,1.91995e-01,4.14805e-01
8.33800e+02,-3.08591e+00,-8.77501e+01,-1.03450e-02,1.92504e-01,3.33587e-01
8.33800e+02,-3.85827e+00,-8.77572e+01,8.30993e-03,1.94084e-01,3.36266e-01
8.33800e+02,-1.08950e+01,-8.46230e+01,2.01076e-01,1.97079e-01,3.96172e-01
8.33800e+02,-1.17470e+01,-8.14888e+01,2.44060e-01,1.99292e-01,4.22750e-01
8.33800e+02,-1.20409e+01,-7.83546e+01,2.73530e-01,2.01621e-01,4.43589e-01
8.33800e+02,-1.20856e+01,-7.52204e+01,2.96961e-01,2.04057e-01,4.61631e-01
8.33800e+02,-1.19423e+01,-7.20862e+01,3.15841e-01,2.06582e-01,4.77267e-01
8.33800e+02,-1.16811e+01,-6.89521e+01,3.31866e-01,2.09181e-01,4.91330e-01
8.33800e+02,-1.13015e+01,-6.58179e+01,3.45024e-01,2.11839e-01,5.03655e-01
8.33800e+02,-1.08497e+01,-6.26837e+01,3.56432e-01,2.14543e-01,5.14908e-01
8.33800e+02,-1.03561e+01,-5.95495e+01,3.66827e-01,2.17285e-01,5.25548e-01
8.33800e+02,-9.79928e+00,-5.64153e+01,3.75693e-01,2.20059e-01,5.35185e-01
8.33800e+02,-9.20306e+00,-5.32811e+01,3.83603e-01,2.22857e-01,5.44194e-01
8.33800e+02,-8.56843e+00,-5.01469e+01,3.90584e-01,2.25673e-01,5.52576e-01
8.33800e+02,-7.89554e+00,-4.70128e+01,3.96638e-01,2.28501e-01,5.60321e-01
8.33800e+02,-7.19866e+00,-4.38786e+01,4.02111e-01,2.31336e-01,5.67664e-01
8.33800e+02,-6.47106e+00,-4.07444e+01,4.06841e-01,2.34175e-01,5.74485e-01
8.33800e+02,-5.72378e+00,-3.76102e+01,4.11093e-01,2.37012e-01,5.80967e-01
8.33800e+02,-4.95886e+00,-3.44760e+01,4.14918e-01,2.39846e-01,5.87142e-01
8.33800e+02,-4.17819e+00,-3.13418e+01,4.18362e-01,2.42672e-01,5.93039e-01
8.33800e+02,-3.39085e+00,-2.82077e+01,4.21645e-01,2.45488e-01,5.98813e-01
8.33800e+02,-2.59317e+00,-2.50735e+01,4.24677e-01,2.48294e-01,6.04400e-01
8.33800e+02,-1.79378e+00,-2.19393e+01,4.27667e-01,2.51087e-01,6.09945e-01
8.33800e+02,-9.88209e-01,-1.88051e+01,4.30508e-01,2.53867e-01,6.15372e-01
8.33800e+02,-1.82723e-01,-1.56709e+01,4.33351e-01,2.56633e-01,6.20786e-01
8.33800e+02,6.19718e-01,-1.25367e+01,4.36267e-01,2.59386e-01,6.26237e-01
8.33800e+02,1.42216e+00,-9.40255e+00,4.39184e-01,2.62123e-01,6.31671e-01
8.33800e+02,2.20560e+00,-6.26837e+00,4.42561e-01,2.64848e-01,6.37411e-01
8.33800e+02,2.98550e+00,-3.13418e+00,4.46023e-01,2.67561e-01,6.43197e-01
9.30700e+02,3.94382e+01,0.00000e+00,-3.51705e-01,2.42739e-01,5.48145e-01
9.30700e+02,3.92396e+01,-2.99689e+00,-3.65678e-01,2.40415e-01,5.54183e-01
9.30700e+02,3.89754e+01,-5.99378e+00,-3.78318e-01,2.38035e-01,5.59559e-01
9.30700e+02,3.87085e+01,-8.99067e+00,-3.90905e-01,2.35601e-01,5.65093e-01
9.30700e+02,3.83837e+01,-1.19876e+01,-4.02315e-01,2.33117e-01,5.69990e-01
9.30700e+02,3.80455e+01,-1.49844e+01,-4.13453e-01,2.30587e-01,5.74852e-01
9.30700e+02,3.76628e+01,-1.79813e+01,-4.23688e-01,2.28015e-01,5.79210e-01
9.30700e+02,3.72585e+01,-2.09782e+01,-4.33484e-01,2.25405e-01,5.83378e-01
9.30700e+02,3.68185e+01,-2.39751e+01,-4.42555e-01,2.22759e-01,5.87128e-01
9.30700e+02,3.63492e+01,-2.69720e+01,-4.51030e-01,2.20082e-01,5.90539e-01
9.30700e+02,3.58475e+01,-2.99689e+01,-4.58850e-01,2.17376e-01,5.93549e-01
9.30700e+02,3.53068e+01,-3.29658e+01,-4.65877e-01,2.14646e-01,5.96037e-01
9.30700e+02,3.47261e+01,-3.59627e+01,-4.72090e-01,2.11895e-01,5.97970e-01
9.30700e+02,3.40887e+01,-3.89596e+01,-4.77154e-01,2.09127e-01,5.99065e-01
9.30700e+02,3.33962e+01,-4.19565e+01,-4.81097e-01,2.06349e-01,5.99328e-01
9.30700e+02,3.26376e+01,-4.49533e+01,-4.83700e-01,2.03564e-01,5.98566e-01
9.30700e+02,3.17897e+01,-4.79502e+01,-4.84489e-01,2.00782e-01,5.96381e-01
9.30700e+02,3.08797e+01,-5.09471e+01,-4.84015e-01,1.98005e-01,5.93202e-01
9.30700e+02,2.98297e+01,-5.39440e+01,-4.80701e-01,1.95248e-01,5.87741e-01
9.30700e+02,2.87218e+01,-5.69409e+01,-4.76210e-01,1.92517e-01,5.81348e-01
9.30700e+02,2.74524e+01,-5.99378e+01,-4.68439e-01,1.89820e-01,5.72302e-01
9.30700e+02,2.60534e+01,-6.29347e+01,-4.58039e-01,1.87178e-01,5.61166e-01
9.30700e+02,2.45228e+01,-6.59316e+01,-4.44964e-01,1.84597e-01,5.47925e-01
9.30700e+02,2.27710e+01,-6.89285e+01,-4.27400e-01,1.82085e-01,5.31164e-01
9.30700e+02,2.07631e+01,-7.19254e+01,-4.04633e-01,1.79674e-01,5.10467e-01
9.30700e+02,1.84656e+01,-7.49222e+01,-3.75989e-01,1.77392e-01,4.85563e-01
9.30700e+02,1.57483e+01,-7.79191e+01,-3.38817e-01,1.75259e-01,4.54911e-01
9.30700e+02,1.22603e+01,-8.09160e+01,-2.85999e-01,1.73378e-01,4.14699e-01
9.30700e+02,7.54299e+00,-8.39129e+01,-2.08218e-01,1.72230e-01,3.63791e-01
9.30700e+02,-3.05636e+00,-8.69098e+01,-1.10014e-02,1.72686e-01,2.99303e-01
9.30700e+02,-3.82132e+00,-8.69168e+01,4.48954e-03,1.74101e-01,3.01585e-01
9.30700e+02,-1.07906e+01,-8.38126e+01,1.64653e-01,1.76784e-01,3.47662e-01
9.30700e+02,-1.16345e+01,-8.07084e+01,2.00437e-01,1.78766e-01,3.68846e-01
9.30700e+02,-1.19256e+01,-7.76042e+01,2.25000e-01,1.80852e-01,3.85678e-01
9.30700e+02,-1.19698e+01,-7.45001e+01,2.44547e-01,1.83034e-01,4.00385e-01
9.30700e+02,-1.18279e+01,-7.13959e+01,2.60316e-01,1.85296e-01,4.13241e-01
9.30700e+02,-1.15692e+01,-6.82917e+01,2.73713e-01,1.87624e-01,4.24885e-01
9.30700e+02,-1.11933e+01,-6.51876e+01,2.84730e-01,1.90005e-01,4.35174e-01
9.30700e+02,-1.07458e+01,-6.20834e+01,2.94294e-01,1.92426e-01,4.44626e-01
9.30700e+02,-1.02569e+01,-5.89792e+01,3.03016e-01,1.94883e-01,4.53604e-01
9.30700e+02,-9.70544e+00,-5.58751e+01,3.10468e-01,1.97368e-01,4.61793e-01
9.30700e+02,-9.11493e+00,-5.27709e+01,3.17128e-01,1.99873e-01,4.69487e-01
9.30700e+02,-8.48637e+00,-4.96667e+01,3.23015e-01,2.02396e-01,4.76687e-01
9.30700e+02,-7.81993e+00,-4.65625e+01,3.28133e-01,2.04929e-01,4.83382e-01
9.30700e+02,-7.12973e+00,-4.34584e+01,3.32768e-01,2.07468e-01,4.89759e-01
9.30700e+02,-6.40909e+00,-4.03542e+01,3.36786e-01,2.10011e-01,4.95720e-01
9.30700e+02,-5.66897e+00,-3.72500e+01,3.40407e-01,2.12553e-01,5.01411e-01
9.30700e+02,-4.91137e+00,-3.41459e+01,3.43674e-01,2.15091e-01,5.06857e-01
9.30700e+02,-4.13818e+00,-3.10417e+01,3.46624e-01,2.17622e-01,5.12080e-01
9.30700e+02,-3.35837e+00,-2.79375e+01,3.49440e-01,2.20144e-01,5.17203e-01
9.30700e+02,-2.56834e+00,-2.48334e+01,3.52048e-01,2.22657e-01,5.22175e-01
9.30700e+02,-1.77660e+00,-2.17292e+01,3.54622e-01,2.25159e-01,5.27112e-01
9.30700e+02,-9.78745e-01,-1.86250e+01,3.57071e-01,2.27649e-01,5.31952e-01
9.30700e+02,-1.80973e-01,-1.55208e+01,3.59522e-01,2.30127e-01,5.36779e-01
9.30700e+02,6.13784e-01,-1.24167e+01,3.62035e-01,2.32593e-01,5.41634e-01
9.30700e+02,1.40854e+00,-9.31251e+00,3.64547e-01,2.35045e-01,5.46473e-01
9.30700e+02,2.18448e+00,-6.20834e+00,3.67442e-01,2.37485e-01,5.51553e-01
9.30700e+02,2.95691e+00,-3.10417e+00,3.70407e-01,2.39915e-01,5.56667e-01
1.02500e+03,3.90671e+01,0.00000e+00,-2.88267e-01,2.15516e-01,4.71635e-01
1.02500e+03,3.88704e+01,-2.96869e+00,-2.99797e-01,2.13448e-01,4.75981e-01
1.02500e+03,3.86086e+01,-5.93738e+00,-3.10236e-01,2.11329e-01,4.79818e-01
1.02500e+03,3.83443e+01,-8.90607e+00,-3.20630e-01,2.09162e-01,4.83787e-01
1.02500e+03,3.80226e+01,-1.18748e+01,-3.30060e-01,2.06951e-01,4.87263e-01
1.02500e+03,3.76875e+01,-1.48435e+01,-3.39267e-01,2.04699e-01,4.90720e-01
1.02500e+03,3.73084e+01,-1.78121e+01,-3.47733e-01,2.02409e-01,4.93788e-01
1.02500e+03,3.69079e+01,-2.07808e+01,-3.55839e-01,2.00085e-01,4.96713e-01
1.02500e+03,3.64721e+01,-2.37495e+01,-3.63351e-01,1.97730e-01,4.99315e-01
1.02500e+03,3.60071e+01,-2.67182e+01,-3.70375e-01,1.95347e-01,5.01656e-01
1.02500e+03,3.55102e+01,-2.96869e+01,-3.76860e-01,1.92939e-01,5.03686e-01
1.02500e+03,3.49746e+01,-3.26556e+01,-3.82696e-01,1.90508e-01,5.05308e-01
1.02500e+03,3.43994e+01,-3.56243e+01,-3.87865e-01,1.88059e-01,5.06496e-01
1.02500e+03,3.37680e+01,-3.85930e+01,-3.92091e-01,1.85596e-01,5.07024e-01
1.02500e+03,3.30819e+01,-4.15617e+01,-3.95398e-01,1.83123e-01,5.06894e-01
1.02500e+03,3.23305e+01,-4.45304e+01,-3.97607e-01,1.80644e-01,5.05953e-01
1.02500e+03,3.14906e+01,-4.74990e+01,-3.98328e-01,1.78167e-01,5.03881e-01
1.02500e+03,3.05891e+01,-5.04677e+01,-3.98015e-01,1.75695e-01,5.01021e-01
1.02500e+03,2.95491e+01,-5.34364e+01,-3.95372e-01,1.73241e-01,4.96343e-01
1.02500e+03,2.84516e+01,-5.64051e+01,-3.91764e-01,1.70810e-01,4.90925e-01
1.02500e+03,2.71940e+01,-5.93738e+01,-3.85466e-01,1.68409e-01,4.83393e-01
1.02500e+03,2.58083e+01,-6.23425e+01,-3.77014e-01,1.66058e-01,4.74199e-01
1.02500e+03,2.42920e+01,-6.53112e+01,-3.66368e-01,1.63760e-01,4.63333e-01
1.02500e+03,2.25567e+01,-6.82799e+01,-3.52040e-01,1.61524e-01,4.49670e-01
1.02500e+03,2.05677e+01,-7.12486e+01,-3.33448e-01,1.59378e-01,4.32888e-01
1.02500e+03,1.82919e+01,-7.42173e+01,-3.10036e-01,1.57347e-01,4.12791e-01
1.02500e+03,1.56001e+01,-7.71859e+01,-2.79633e-01,1.55448e-01,3.88184e-01
1.02500e+03,1.21450e+01,-8.01546e+01,-2.36401e-01,1.53773e-01,3.56124e-01
1.02500e+03,7.47201e+00,-8.31233e+01,-1.72701e-01,1.52751e-01,3.15950e-01
1.02500e+03,-3.02760e+00,-8.60920e+01,-1.10740e-02,1.53157e-01,2.65507e-01
1.02500e+03,-3.78536e+00,-8.60989e+01,1.62713e-03,1.54417e-01,2.67463e-01
1.02500e+03,-1.06891e+01,-8.30239e+01,1.33026e-01,1.56806e-01,3.02423e-01
1.02500e+03,-1.15250e+01,-7.99490e+01,1.62442e-01,1.58570e-01,3.19094e-01
1.02500e+03,-1.18134e+01,-7.68740e+01,1.82659e-01,1.60427e-01,3.32527e-01
1.02500e+03,-1.18572e+01,-7.37991e+01,1.98763e-01,1.62369e-01,3.44381e-01
1.02500e+03,-1.17166e+01,-7.07241e+01,2.11769e-01,1.64383e-01,3.54839e-01
1.02500e+03,-1.14604e+01,-6.76491e+01,2.22831e-01,1.66455e-01,3.64383e-01
1.02500e+03,-1.10880e+01,-6.45742e+01,2.31941e-01,1.68574e-01,3.72891e-01
1.02500e+03,-1.06447e+01,-6.14992e+01,2.39859e-01,1.70730e-01,3.80760e-01
1.02500e+03,-1.01604e+01,-5.84243e+01,2.47088e-01,1.72916e-01,3.88269e-01
1.02500e+03,-9.61411e+00,-5.53493e+01,2.53275e-01,1.75128e-01,3.95168e-01
1.02500e+03,-9.02916e+00,-5.22743e+01,2.58813e-01,1.77359e-01,4.01687e-01
1.02500e+03,-8.40652e+00,-4.91994e+01,2.63717e-01,1.79604e-01,4.07822e-01
1.02500e+03,-7.74634e+00,-4.61244e+01,2.67990e-01,1.81859e-01,4.13565e-01
1.02500e+03,-7.06264e+00,-4.30495e+01,2.71867e-01,1.84120e-01,4.19061e-01
1.02500e+03,-6.34878e+00,-3.99745e+01,2.75238e-01,1.86383e-01,4.24231e-01
1.02500e+03,-5.61563e+00,-3.68995e+01,2.78285e-01,1.88645e-01,4.29189e-01
1.02500e+03,-4.86516e+00,-3.38246e+01,2.81040e-01,1.90904e-01,4.33955e-01
1.02500e+03,-4.09924e+00,-3.07496e+01,2.83536e-01,1.93157e-01,4.38545e-01
1.02500e+03,-3.32677e+00,-2.76746e+01,2.85922e-01,1.95403e-01,4.43056e-01
1.02500e+03,-2.54417e+00,-2.45997e+01,2.88138e-01,1.97640e-01,4.47446e-01
1.02500e+03,-1.75988e+00,-2.15247e+01,2.90325e-01,1.99867e-01,4.51806e-01
1.02500e+03,-9.69535e-01,-1.84498e+01,2.92410e-01,2.02084e-01,4.56089e-01
1.02500e+03,-1.79270e-01,-1.53748e+01,2.94497e-01,2.04289e-01,4.60359e-01
1.02500e+03,6.08008e-01,-1.22998e+01,2.96634e-01,2.06484e-01,4.64648e-01
1.02500e+03,1.39529e+00,-9.22488e+00,2.98771e-01,2.08666e-01,4.68923e-01
1.02500e+03,2.16392e+00,-6.14992e+00,3.01221e-01,2.10838e-01,4.73384e-01
1.02500e+03,2.92908e+00,-3.07496e+00,3.03730e-01,2.13001e-01,4.77871e-01
1.11650e+03,3.87070e+01,0.00000e+00,-2.32982e-01,1.88991e-01,4.01788e-01
1.11650e+03,3.85121e+01,-2.94133e+00,-2.42368e-01,1.87169e-01,4.04770e-01
1.11650e+03,3.82528e+01,-5.88266e+00,-2.50870e-01,1.85302e-01,4.07365e-01
1.11650e+03,3.79909e+01,-8.82398e+00,-2.59337e-01,1.83393e-01,4.10066e-01
1.11650e+03,3.76721e+01,-1.17653e+01,-2.67024e-01,1.81445e-01,4.12393e-01
1.11650e+03,3.73401e+01,-1.47066e+01,-2.74530e-01,1.79460e-01,4.14711e-01
1.11650e+03,3.69645e+01,-1.76480e+01,-2.81438e-01,1.77443e-01,4.16732e-01
1.11650e+03,3.65678e+01,-2.05893e+01,-2.88055e-01,1.75396e-01,4.18648e-01
1.11650e+03,3.61359e+01,-2.35306e+01,-2.94191e-01,1.73321e-01,4.20319e-01
1.11650e+03,3.56753e+01,-2.64720e+01,-2.99932e-01,1.71221e-01,4.21793e-01
1.11650e+03,3.51829e+01,-2.94133e+01,-3.05239e-01,1.69099e-01,4.23030e-01
1.11650e+03,3.46522e+01,-3.23546e+01,-3.10019e-01,1.66958e-01,4.23954e-01
1.11650e+03,3.40823e+01,-3.52959e+01,-3.14262e-01,1.64800e-01,4.24544e-01
1.11650e+03,3.34567e+01,-3.82373e+01,-3.17741e-01,1.62630e-01,4.24623e-01
1.11650e+03,3.27770e+01,-4.11786e+01,-3.20478e-01,1.60451e-01,4.24192e-01
1.11650e+03,3.20325e+01,-4.41199e+01,-3.22326e-01,1.58267e-01,4.23130e-01
1.11650e+03,3.12004e+01,-4.70612e+01,-3.22972e-01,1.56085e-01,4.21186e-01
1.11650e+03,3.03072e+01,-5.00026e+01,-3.22780e-01,1.53907e-01,4.18628e-01
1.11650e+03,2.92767e+01,-5.29439e+01,-3.20706e-01,1.51744e-01,4.14646e-01
1.11650e+03,2.81893e+01,-5.58852e+01,-3.17852e-01,1.49603e-01,4.10089e-01
1.11650e+03,2.69434e+01,-5.88266e+01,-3.12823e-01,1.47487e-01,4.03876e-01
1.11650e+03,2.55704e+01,-6.17679e+01,-3.06051e-01,1.45415e-01,3.96364e-01
1.11650e+03,2.40681e+01,-6.47092e+01,-2.97506e-01,1.43391e-01,3.87547e-01
1.11650e+03,2.23488e+01,-6.76505e+01,-2.85985e-01,1.41421e-01,3.76546e-01
1.11650e+03,2.03781e+01,-7.05919e+01,-2.71015e-01,1.39530e-01,3.63119e-01
1.11650e+03,1.81233e+01,-7.35332e+01,-2.52149e-01,1.37741e-01,3.47126e-01
1.11650e+03,1.54563e+01,-7.64745e+01,-2.27630e-01,1.36067e-01,3.27656e-01
1.11650e+03,1.20330e+01,-7.94159e+01,-1.92738e-01,1.34592e-01,3.02479e-01
1.11650e+03,7.40314e+00,-8.23572e+01,-1.41298e-01,1.33692e-01,2.71267e-01
1.11650e+03,-2.99970e+00,-8.52985e+01,-1.06807e-02,1.34050e-01,2.32427e-01
1.11650e+03,-3.75047e+00,-8.53053e+01,-4.11643e-04,1.35160e-01,2.34104e-01
1.11650e+03,-1.05906e+01,-8.22587e+01,1.05892e-01,1.37264e-01,2.60264e-01
1.11650e+03,-1.14188e+01,-7.92121e+01,1.29741e-01,1.38819e-01,2.73212e-01
1.11650e+03,-1.17045e+01,-7.61655e+01,1.46152e-01,1.40454e-01,2.83800e-01
1.11650e+03,-1.17479e+01,-7.31189e+01,1.59237e-01,1.42166e-01,2.93240e-01
1.11650e+03,-1.16086e+01,-7.00722e+01,1.69817e-01,1.43940e-01,3.01652e-01
1.11650e+03,-1.13547e+01,-6.70256e+01,1.78826e-01,1.45766e-01,3.09389e-01
1.11650e+03,-1.09858e+01,-6.39790e+01,1.86256e-01,1.47633e-01,3.16351e-01
1.11650e+03,-1.05466e+01,-6.09324e+01,1.92724e-01,1.49532e-01,3.22834e-01
1.11650e+03,-1.00667e+01,-5.78858e+01,1.98633e-01,1.51459e-01,3.29051e-01
1.11650e+03,-9.52550e+00,-5.48391e+01,2.03701e-01,1.53407e-01,3.34806e-01
1.11650e+03,-8.94594e+00,-5.17925e+01,2.08242e-01,1.55373e-01,3.40275e-01
1.11650e+03,-8.32904e+00,-4.87459e+01,2.12272e-01,1.57351e-01,3.45452e-01
1.11650e+03,-7.67495e+00,-4.56993e+01,2.15792e-01,1.59337e-01,3.50330e-01
1.11650e+03,-6.99754e+00,-4.26527e+01,2.18992e-01,1.61329e-01,3.55019e-01
1.11650e+03,-6.29027e+00,-3.96060e+01,2.21782e-01,1.63323e-01,3.59459e-01
1.11650e+03,-5.56387e+00,-3.65594e+01,2.24310e-01,1.65316e-01,3.63736e-01
1.11650e+03,-4.82031e+00,-3.35128e+01,2.26603e-01,1.67307e-01,3.67864e-01
1.11650e+03,-4.06146e+00,-3.04662e+01,2.28686e-01,1.69292e-01,3.71856e-01
1.11650e+03,-3.29611e+00,-2.74196e+01,2.30680e-01,1.71270e-01,3.75784e-01
1.11650e+03,-2.52072e+00,-2.43730e+01,2.32536e-01,1.73241e-01,3.79619e-01
1.11650e+03,-1.74366e+00,-2.13263e+01,2.34369e-01,1.75203e-01,3.83429e-01
1.11650e+03,-9.60599e-01,-1.82797e+01,2.36120e-01,1.77156e-01,3.87177e-01
1.11650e+03,-1.77618e-01,-1.52331e+01,2.37872e-01,1.79099e-01,3.90913e-01
1.11650e+03,6.02404e-01,-1.21865e+01,2.39665e-01,1.81033e-01,3.94662e-01
1.11650e+03,1.38243e+00,-9.13986e+00,2.41457e-01,1.82956e-01,3.98397e-01
1.11650e+03,2.14398e+00,-6.09324e+00,2.43503e-01,1.84870e-01,4.02274e-01
1.11650e+03,2.90209e+00,-3.04662e+00,2.45597e-01,1.86775e-01,4.06168e-01
1.20500e+03,3.76912e+01,0.00000e+00,-2.64329e-01,1.82208e-01,4.11667e-01
1.20500e+03,3.75014e+01,-2.86413e+00,-2.74300e-01,1.79975e-01,4.15227e-01
1.20500e+03,3.72488e+01,-5.72827e+00,-2.83266e-01,1.77686e-01,4.18279e-01
1.20500e+03,3.69938e+01,-8.59240e+00,-2.92192e-01,1.75346e-01,4.21444e-01
1.20500e+03,3.66834e+01,-1.14565e+01,-3.00231e-01,1.72958e-01,4.24125e-01
1.20500e+03,3.63602e+01,-1.43207e+01,-3.08063e-01,1.70526e-01,4.26778e-01
1.20500e+03,3.59944e+01,-1.71848e+01,-3.15214e-01,1.68052e-01,4.29051e-01
1.20500e+03,3.56080e+01,-2.00489e+01,-3.22035e-01,1.65542e-01,4.31183e-01
1.20500e+03,3.51875e+01,-2.29131e+01,-3.28308e-01,1.62997e-01,4.33002e-01
1.20500e+03,3.47390e+01,-2.57772e+01,-3.34131e-01,1.60422e-01,4.34569e-01
1.20500e+03,3.42596e+01,-2.86413e+01,-3.39460e-01,1.57820e-01,4.35838e-01
1.20500e+03,3.37428e+01,-3.15055e+01,-3.44191e-01,1.55194e-01,4.36718e-01
1.20500e+03,3.31878e+01,-3.43696e+01,-3.48308e-01,1.52548e-01,4.37185e-01
1.20500e+03,3.25787e+01,-3.72337e+01,-3.51558e-01,1.49885e-01,4.37024e-01
1.20500e+03,3.19168e+01,-4.00979e+01,-3.53962e-01,1.47213e-01,4.36238e-01
1.20500e+03,3.11919e+01,-4.29620e+01,-3.55355e-01,1.44533e-01,4.34680e-01
1.20500e+03,3.03815e+01,-4.58261e+01,-3.55379e-01,1.41856e-01,4.32046e-01
1.20500e+03,2.95118e+01,-4.86903e+01,-3.54451e-01,1.39185e-01,4.28664e-01
1.20500e+03,2.85084e+01,-5.15544e+01,-3.51380e-01,1.36532e-01,4.23545e-01
1.20500e+03,2.74495e+01,-5.44186e+01,-3.47420e-01,1.33904e-01,4.17721e-01
1.20500e+03,2.62363e+01,-5.72827e+01,-3.40986e-01,1.31308e-01,4.09874e-01
1.20500e+03,2.48993e+01,-6.01468e+01,-3.32568e-01,1.28765e-01,4.00429e-01
1.20500e+03,2.34365e+01,-6.30110e+01,-3.22132e-01,1.26281e-01,3.89371e-01
1.20500e+03,2.17623e+01,-6.58751e+01,-3.08308e-01,1.23864e-01,3.75607e-01
1.20500e+03,1.98433e+01,-6.87392e+01,-2.90560e-01,1.21543e-01,3.58808e-01
1.20500e+03,1.76476e+01,-7.16034e+01,-2.68377e-01,1.19346e-01,3.38757e-01
1.20500e+03,1.50506e+01,-7.44675e+01,-2.39760e-01,1.17292e-01,3.14256e-01
1.20500e+03,1.17172e+01,-7.73316e+01,-1.99338e-01,1.15480e-01,2.82387e-01
1.20500e+03,7.20885e+00,-8.01958e+01,-1.40081e-01,1.14372e-01,2.42623e-01
1.20500e+03,-2.92097e+00,-8.30599e+01,9.28972e-03,1.14809e-01,1.99072e-01
1.20500e+03,-3.65204e+00,-8.30665e+01,2.09789e-02,1.16170e-01,2.02302e-01
1.20500e+03,-1.03126e+01,-8.00999e+01,1.41231e-01,1.18750e-01,2.49501e-01
1.20500e+03,-1.11191e+01,-7.71332e+01,1.67639e-01,1.20657e-01,2.67912e-01
1.20500e+03,-1.13974e+01,-7.41666e+01,1.85580e-01,1.22663e-01,2.82097e-01
1.20500e+03,-1.14396e+01,-7.11999e+01,1.99737e-01,1.24763e-01,2.94266e-01
1.20500e+03,-1.13040e+01,-6.82332e+01,2.11043e-01,1.26939e-01,3.04762e-01
1.20500e+03,-1.10567e+01,-6.52666e+01,2.20560e-01,1.29180e-01,3.14179e-01
1.20500e+03,-1.06975e+01,-6.22999e+01,2.28281e-01,1.31471e-01,3.22437e-01
1.20500e+03,-1.02698e+01,-5.93332e+01,2.34905e-01,1.33801e-01,3.29983e-01
1.20500e+03,-9.80253e+00,-5.63666e+01,2.40894e-01,1.36166e-01,3.37125e-01
1.20500e+03,-9.27551e+00,-5.33999e+01,2.45926e-01,1.38557e-01,3.43619e-01
1.20500e+03,-8.71115e+00,-5.04333e+01,2.50359e-01,1.40969e-01,3.49710e-01
1.20500e+03,-8.11045e+00,-4.74666e+01,2.54210e-01,1.43397e-01,3.55403e-01
1.20500e+03,-7.47352e+00,-4.44999e+01,2.57480e-01,1.45836e-01,3.60694e-01
1.20500e+03,-6.81389e+00,-4.15333e+01,2.60386e-01,1.48281e-01,3.65736e-01
1.20500e+03,-6.12518e+00,-3.85666e+01,2.62825e-01,1.50729e-01,3.70453e-01
1.20500e+03,-5.41785e+00,-3.55999e+01,2.64967e-01,1.53176e-01,3.74962e-01
1.20500e+03,-4.69381e+00,-3.26333e+01,2.66840e-01,1.55620e-01,3.79284e-01
1.20500e+03,-3.95486e+00,-2.96666e+01,2.68475e-01,1.58058e-01,3.83439e-01
1.20500e+03,-3.20961e+00,-2.67000e+01,2.70008e-01,1.60487e-01,3.87521e-01
1.20500e+03,-2.45457e+00,-2.37333e+01,2.71384e-01,1.62907e-01,3.91492e-01
1.20500e+03,-1.69790e+00,-2.07666e+01,2.72735e-01,1.65317e-01,3.95441e-01
1.20500e+03,-9.35389e-01,-1.78000e+01,2.73991e-01,1.67716e-01,3.99321e-01
1.20500e+03,-1.72956e-01,-1.48333e+01,2.75249e-01,1.70103e-01,4.03196e-01
1.20500e+03,5.86594e-01,-1.18666e+01,2.76553e-01,1.72478e-01,4.07097e-01
1.20500e+03,1.34615e+00,-8.89999e+00,2.77858e-01,1.74840e-01,4.10990e-01
1.20500e+03,2.08771e+00,-5.93332e+00,2.79450e-01,1.77192e-01,4.15070e-01
1.20500e+03,2.82592e+00,-2.96666e+00,2.81096e-01,1.79533e-01,4.19179e-01
1.29010e+03,3.63234e+01,0.00000e+00,-2.14115e-01,1.62986e-01,3.54315e-01
1.29010e+03,3.61405e+01,-2.76019e+00,-2.22278e-01,1.61041e-01,3.56666e-01
1.29010e+03,3.58971e+01,-5.52039e+00,-2.29626e-01,1.59049e-01,3.58633e-01
1.29010e+03,3.56513e+01,-8.28058e+00,-2.36942e-01,1.57011e-01,3.60692e-01
1.29010e+03,3.53522e+01,-1.10408e+01,-2.43539e-01,1.54932e-01,3.62385e-01
1.29010e+03,3.50407e+01,-1.38010e+01,-2.49969e-01,1.52814e-01,3.64061e-01
1.29010e+03,3.46882e+01,-1.65612e+01,-2.55847e-01,1.50660e-01,3.65449e-01
1.29010e+03,3.43158e+01,-1.93214e+01,-2.61457e-01,1.48474e-01,3.66734e-01
1.29010e+03,3.39106e+01,-2.20816e+01,-2.66623e-01,1.46259e-01,3.67781e-01
1.29010e+03,3.34783e+01,-2.48418e+01,-2.71426e-01,1.44017e-01,3.68639e-01
1.29010e+03,3.30163e+01,-2.76019e+01,-2.75827e-01,1.41751e-01,3.69271e-01
1.29010e+03,3.25183e+01,-3.03621e+01,-2.79744e-01,1.39465e-01,3.69605e-01
1.29010e+03,3.19834e+01,-3.31223e+01,-2.83164e-01,1.37161e-01,3.69623e-01
1.29010e+03,3.13964e+01,-3.58825e+01,-2.85881e-01,1.34843e-01,3.69155e-01
1.29010e+03,3.07585e+01,-3.86427e+01,-2.87912e-01,1.32516e-01,3.68205e-01
1.29010e+03,3.00599e+01,-4.14029e+01,-2.89125e-01,1.30183e-01,3.66656e-01
1.29010e+03,2.92790e+01,-4.41631e+01,-2.89229e-01,1.27853e-01,3.64269e-01
1.29010e+03,2.84408e+01,-4.69233e+01,-2.88561e-01,1.25526e-01,3.61301e-01
1.29010e+03,2.74738e+01,-4.96835e+01,-2.86157e-01,1.23217e-01,3.56977e-01
1.29010e+03,2.64534e+01,-5.24437e+01,-2.83033e-01,1.20929e-01,3.52106e-01
1.29010e+03,2.52842e+01,-5.52039e+01,-2.77904e-01,1.18669e-01,3.45655e-01
1.29010e+03,2.39957e+01,-5.79641e+01,-2.71168e-01,1.16455e-01,3.37961e-01
1.29010e+03,2.25860e+01,-6.07243e+01,-2.62797e-01,1.14293e-01,3.29015e-01
1.29010e+03,2.09725e+01,-6.34845e+01,-2.51682e-01,1.12188e-01,3.17965e-01
1.29010e+03,1.91232e+01,-6.62447e+01,-2.37386e-01,1.10167e-01,3.04570e-01
1.29010e+03,1.70072e+01,-6.90049e+01,-2.19498e-01,1.08255e-01,2.88681e-01
1.29010e+03,1.45045e+01,-7.17651e+01,-1.96397e-01,1.06467e-01,2.69401e-01
1.29010e+03,1.12920e+01,-7.45253e+01,-1.63731e-01,1.04890e-01,2.44568e-01
1.29010e+03,6.94724e+00,-7.72855e+01,-1.15806e-01,1.03925e-01,2.14039e-01
1.29010e+03,-2.81497e+00,-8.00457e+01,5.12835e-03,1.04306e-01,1.80736e-01
1.29010e+03,-3.51951e+00,-8.00521e+01,1.45986e-02,1.05491e-01,1.83297e-01
1.29010e+03,-9.93839e+00,-7.71931e+01,1.12113e-01,1.07738e-01,2.17696e-01
1.29010e+03,-1.07156e+01,-7.43341e+01,1.33595e-01,1.09398e-01,2.31843e-01
1.29010e+03,-1.09838e+01,-7.14751e+01,1.48218e-01,1.11145e-01,2.42957e-01
1.29010e+03,-1.10244e+01,-6.86160e+01,1.59775e-01,1.12973e-01,2.52619e-01
1.29010e+03,-1.08937e+01,-6.57570e+01,1.69022e-01,1.14868e-01,2.61060e-01
1.29010e+03,-1.06555e+01,-6.28980e+01,1.76820e-01,1.16818e-01,2.68709e-01
1.29010e+03,-1.03093e+01,-6.00390e+01,1.83162e-01,1.18813e-01,2.75495e-01
1.29010e+03,-9.89713e+00,-5.71800e+01,1.88616e-01,1.20842e-01,2.81752e-01
1.29010e+03,-9.44680e+00,-5.43210e+01,1.93556e-01,1.22900e-01,2.87710e-01
1.29010e+03,-8.93890e+00,-5.14620e+01,1.97720e-01,1.24982e-01,2.93180e-01
1.29010e+03,-8.39503e+00,-4.86030e+01,2.01398e-01,1.27082e-01,2.98347e-01
1.29010e+03,-7.81612e+00,-4.57440e+01,2.04605e-01,1.29196e-01,3.03213e-01
1.29010e+03,-7.20231e+00,-4.28850e+01,2.07341e-01,1.31319e-01,3.07773e-01
1.29010e+03,-6.56662e+00,-4.00260e+01,2.09783e-01,1.33448e-01,3.12144e-01
1.29010e+03,-5.90290e+00,-3.71670e+01,2.11847e-01,1.35579e-01,3.16266e-01
1.29010e+03,-5.22123e+00,-3.43080e+01,2.13669e-01,1.37709e-01,3.20228e-01
1.29010e+03,-4.52347e+00,-3.14490e+01,2.15274e-01,1.39837e-01,3.24046e-01
1.29010e+03,-3.81134e+00,-2.85900e+01,2.16685e-01,1.41959e-01,3.27734e-01
1.29010e+03,-3.09313e+00,-2.57310e+01,2.18014e-01,1.44074e-01,3.31364e-01
1.29010e+03,-2.36549e+00,-2.28720e+01,2.19217e-01,1.46181e-01,3.34906e-01
1.29010e+03,-1.63628e+00,-2.00130e+01,2.20398e-01,1.48279e-01,3.38430e-01
1.29010e+03,-9.01444e-01,-1.71540e+01,2.21503e-01,1.50367e-01,3.41898e-01
1.29010e+03,-1.66680e-01,-1.42950e+01,2.22609e-01,1.52445e-01,3.45359e-01
1.29010e+03,5.65307e-01,-1.14360e+01,2.23753e-01,1.54512e-01,3.48837e-01
1.29010e+03,1.29729e+00,-8.57701e+00,2.24897e-01,1.56569e-01,3.52306e-01
1.29010e+03,2.01195e+00,-5.71800e+00,2.26274e-01,1.58615e-01,3.55916e-01
1.29010e+03,2.72337e+00,-2.85900e+00,2.27695e-01,1.60653e-01,3.59546e-01
1.37170e+03,3.50118e+01,0.00000e+00,-1.70149e-01,1.43993e-01,3.01915e-01
1.37170e+03,3.48355e+01,-2.66053e+00,-1.76707e-01,1.42320e-01,3.03298e-01
1.37170e+03,3.46009e+01,-5.32106e+00,-1.82618e-01,1.40605e-01,3.04399e-01
1.37170e+03,3.43640e+01,-7.98159e+00,-1.88503e-01,1.38852e-01,3.05569e-01
1.37170e+03,3.40757e+01,-1.06421e+01,-1.93816e-01,1.37062e-01,3.06468e-01
1.37170e+03,3.37754e+01,-1.33027e+01,-1.98997e-01,1.35240e-01,3.07358e-01
1.37170e+03,3.34357e+01,-1.59632e+01,-2.03739e-01,1.33387e-01,3.08035e-01
1.37170e+03,3.30768e+01,-1.86237e+01,-2.08268e-01,1.31506e-01,3.08638e-01
1.37170e+03,3.26861e+01,-2.12842e+01,-2.12445e-01,1.29600e-01,3.09065e-01
1.37170e+03,3.22695e+01,-2.39448e+01,-2.16332e-01,1.27671e-01,3.09353e-01
1.37170e+03,3.18241e+01,-2.66053e+01,-2.19901e-01,1.25721e-01,3.09473e-01
1.37170e+03,3.13441e+01,-2.92658e+01,-2.23084e-01,1.23754e-01,3.09373e-01
1.37170e+03,3.08286e+01,-3.19264e+01,-2.25873e-01,1.21771e-01,3.09036e-01
1.37170e+03,3.02627e+01,-3.45869e+01,-2.28103e-01,1.19777e-01,3.08335e-01
1.37170e+03,2.96479e+01,-3.72474e+01,-2.29788e-01,1.17774e-01,3.07270e-01
1.37170e+03,2.89745e+01,-3.99080e+01,-2.30822e-01,1.15767e-01,3.05753e-01
1.37170e+03,2.82218e+01,-4.25685e+01,-2.30975e-01,1.13762e-01,3.03603e-01
1.37170e+03,2.74139e+01,-4.52290e+01,-2.30514e-01,1.11760e-01,3.01012e-01
1.37170e+03,2.64818e+01,-4.78895e+01,-2.28674e-01,1.09773e-01,2.97392e-01
1.37170e+03,2.54982e+01,-5.05501e+01,-2.26261e-01,1.07805e-01,2.93359e-01
1.37170e+03,2.43712e+01,-5.32106e+01,-2.22255e-01,1.05860e-01,2.88125e-01
1.37170e+03,2.31293e+01,-5.58711e+01,-2.16971e-01,1.03956e-01,2.81952e-01
1.37170e+03,2.17704e+01,-5.85317e+01,-2.10388e-01,1.02095e-01,2.74833e-01
1.37170e+03,2.02153e+01,-6.11922e+01,-2.01623e-01,1.00284e-01,2.66125e-01
1.37170e+03,1.84327e+01,-6.38527e+01,-1.90331e-01,9.85457e-02,2.55656e-01
1.37170e+03,1.63931e+01,-6.65133e+01,-1.76183e-01,9.69003e-02,2.43330e-01
1.37170e+03,1.39807e+01,-6.91738e+01,-1.57893e-01,9.53617e-02,2.28499e-01
1.37170e+03,1.08843e+01,-7.18343e+01,-1.32000e-01,9.40051e-02,2.09606e-01
1.37170e+03,6.69639e+00,-7.44949e+01,-9.39778e-02,9.31757e-02,1.86754e-01
1.37170e+03,-2.71333e+00,-7.71554e+01,2.07369e-03,9.35035e-02,1.61966e-01
1.37170e+03,-3.39243e+00,-7.71616e+01,9.60073e-03,9.45228e-02,1.64000e-01
1.37170e+03,-9.57954e+00,-7.44058e+01,8.71801e-02,9.64562e-02,1.88446e-01
1.37170e+03,-1.03287e+01,-7.16500e+01,1.04327e-01,9.78847e-02,1.99069e-01
1.37170e+03,-1.05872e+01,-6.88942e+01,1.16023e-01,9.93879e-02,2.07594e-01
1.37170e+03,-1.06264e+01,-6.61385e+01,1.25281e-01,1.00961e-01,2.15116e-01
1.37170e+03,-1.05004e+01,-6.33827e+01,1.32704e-01,1.02591e-01,2.21777e-01
1.37170e+03,-1.02708e+01,-6.06269e+01,1.38975e-01,1.04269e-01,2.27882e-01
1.37170e+03,-9.93701e+00,-5.78712e+01,1.44088e-01,1.05986e-01,2.33367e-01
1.37170e+03,-9.53977e+00,-5.51154e+01,1.48496e-01,1.07731e-01,2.38473e-01
1.37170e+03,-9.10569e+00,-5.23596e+01,1.52495e-01,1.09503e-01,2.43366e-01
1.37170e+03,-8.61613e+00,-4.96039e+01,1.55877e-01,1.11294e-01,2.47905e-01
1.37170e+03,-8.09190e+00,-4.68481e+01,1.58874e-01,1.13101e-01,2.52223e-01
1.37170e+03,-7.53389e+00,-4.40923e+01,1.61496e-01,1.14919e-01,2.56321e-01
1.37170e+03,-6.94225e+00,-4.13365e+01,1.63744e-01,1.16746e-01,2.60194e-01
1.37170e+03,-6.32951e+00,-3.85808e+01,1.65757e-01,1.18578e-01,2.63927e-01
1.37170e+03,-5.68976e+00,-3.58250e+01,1.67470e-01,1.20411e-01,2.67475e-01
1.37170e+03,-5.03271e+00,-3.30692e+01,1.68991e-01,1.22244e-01,2.70904e-01
1.37170e+03,-4.36014e+00,-3.03135e+01,1.70339e-01,1.24074e-01,2.74224e-01
1.37170e+03,-3.67372e+00,-2.75577e+01,1.71534e-01,1.25900e-01,2.77446e-01
1.37170e+03,-2.98144e+00,-2.48019e+01,1.72663e-01,1.27720e-01,2.80624e-01
1.37170e+03,-2.28008e+00,-2.20462e+01,1.73692e-01,1.29532e-01,2.83733e-01
1.37170e+03,-1.57720e+00,-1.92904e+01,1.74703e-01,1.31337e-01,2.86827e-01
1.37170e+03,-8.68894e-01,-1.65346e+01,1.75655e-01,1.33134e-01,2.89876e-01
1.37170e+03,-1.60661e-01,-1.37788e+01,1.76607e-01,1.34921e-01,2.92918e-01
1.37170e+03,5.44895e-01,-1.10231e+01,1.77589e-01,1.36700e-01,2.95970e-01
1.37170e+03,1.25045e+00,-8.26731e+00,1.78570e-01,1.38469e-01,2.99013e-01
1.37170e+03,1.93930e+00,-5.51154e+00,1.79738e-01,1.40230e-01,3.02157e-01
1.37170e+03,2.62503e+00,-2.75577e+00,1.80940e-01,1.41983e-01,3.05315e-01
1.44960e+03,3.37597e+01,0.00000e+00,-1.32265e-01,1.25684e-01,2.54722e-01
1.44960e+03,3.35897e+01,-2.56538e+00,-1.37421e-01,1.24259e-01,2.55354e-01
1.44960e+03,3.33635e+01,-5.13077e+00,-1.42073e-01,1.22800e-01,2.55782e-01
1.44960e+03,3.31351e+01,-7.69615e+00,-1.46705e-01,1.21308e-01,2.56260e-01
1.44960e+03,3.28571e+01,-1.02615e+01,-1.50892e-01,1.19785e-01,2.56543e-01
1.44960e+03,3.25675e+01,-1.28269e+01,-1.54977e-01,1.18234e-01,2.56819e-01
1.44960e+03,3.22399e+01,-1.53923e+01,-1.58720e-01,1.16657e-01,2.56942e-01
1.44960e+03,3.18939e+01,-1.79577e+01,-1.62298e-01,1.15057e-01,2.57012e-01
1.44960e+03,3.15172e+01,-2.05231e+01,-1.65602e-01,1.13434e-01,2.56956e-01
1.44960e+03,3.11155e+01,-2.30885e+01,-1.68681e-01,1.11793e-01,2.56800e-01
1.44960e+03,3.06860e+01,-2.56538e+01,-1.71512e-01,1.10134e-01,2.56524e-01
1.44960e+03,3.02232e+01,-2.82192e+01,-1.74044e-01,1.08460e-01,2.56089e-01
1.44960e+03,2.97261e+01,-3.07846e+01,-1.76268e-01,1.06772e-01,2.55483e-01
1.44960e+03,2.91805e+01,-3.33500e+01,-1.78058e-01,1.05075e-01,2.54612e-01
1.44960e+03,2.85877e+01,-3.59154e+01,-1.79425e-01,1.03371e-01,2.53476e-01
1.44960e+03,2.79383e+01,-3.84808e+01,-1.80285e-01,1.01663e-01,2.52010e-01
1.44960e+03,2.72125e+01,-4.10462e+01,-1.80460e-01,9.99569e-02,2.50080e-01
1.44960e+03,2.64335e+01,-4.36115e+01,-1.80159e-01,9.82536e-02,2.47827e-01
1.44960e+03,2.55347e+01,-4.61769e+01,-1.78784e-01,9.65625e-02,2.44820e-01
1.44960e+03,2.45863e+01,-4.87423e+01,-1.76964e-01,9.48874e-02,2.41510e-01
1.44960e+03,2.34997e+01,-5.13077e+01,-1.73906e-01,9.32327e-02,2.37319e-01
1.44960e+03,2.23022e+01,-5.38731e+01,-1.69854e-01,9.16122e-02,2.32441e-01
1.44960e+03,2.09919e+01,-5.64385e+01,-1.64792e-01,9.00287e-02,2.26874e-01
1.44960e+03,1.94923e+01,-5.90039e+01,-1.58034e-01,8.84879e-02,2.20148e-01
1.44960e+03,1.77735e+01,-6.15692e+01,-1.49311e-01,8.70086e-02,2.12144e-01
1.44960e+03,1.58069e+01,-6.41346e+01,-1.38367e-01,8.56085e-02,2.02810e-01
1.44960e+03,1.34808e+01,-6.67000e+01,-1.24202e-01,8.42994e-02,1.91690e-01
1.44960e+03,1.04950e+01,-6.92654e+01,-1.04126e-01,8.31451e-02,1.77712e-01
1.44960e+03,6.45692e+00,-7.18308e+01,-7.46200e-02,8.24396e-02,1.61112e-01
1.44960e+03,-2.61629e+00,-7.43962e+01,4.95432e-06,8.27187e-02,1.43273e-01
1.44960e+03,-3.27111e+00,-7.44021e+01,5.85719e-03,8.35862e-02,1.44894e-01
1.44960e+03,-9.23696e+00,-7.17449e+01,6.62345e-02,8.52316e-02,1.61803e-01
1.44960e+03,-9.95928e+00,-6.90877e+01,7.96253e-02,8.64472e-02,1.69586e-01
1.44960e+03,-1.02085e+01,-6.64305e+01,8.87769e-02,8.77265e-02,1.75981e-01
1.44960e+03,-1.02464e+01,-6.37732e+01,9.60339e-02,8.90650e-02,1.81715e-01
1.44960e+03,-1.01249e+01,-6.11160e+01,1.01863e-01,9.04524e-02,1.86872e-01
1.44960e+03,-9.90345e+00,-5.84588e+01,1.06797e-01,9.18805e-02,1.91655e-01
1.44960e+03,-9.58164e+00,-5.58016e+01,1.10832e-01,9.33409e-02,1.96013e-01
1.44960e+03,-9.19861e+00,-5.31444e+01,1.14318e-01,9.48266e-02,2.00112e-01
1.44960e+03,-8.78006e+00,-5.04872e+01,1.17485e-01,9.63337e-02,2.04067e-01
1.44960e+03,-8.30801e+00,-4.78299e+01,1.20173e-01,9.78581e-02,2.07774e-01
1.44960e+03,-7.80252e+00,-4.51727e+01,1.22562e-01,9.93955e-02,2.11329e-01
1.44960e+03,-7.26447e+00,-4.25155e+01,1.24658e-01,1.00943e-01,2.14728e-01
1.44960e+03,-6.69398e+00,-3.98583e+01,1.26464e-01,1.02497e-01,2.17969e-01
1.44960e+03,-6.10316e+00,-3.72011e+01,1.28088e-01,1.04056e-01,2.21110e-01
1.44960e+03,-5.48628e+00,-3.45438e+01,1.29478e-01,1.05616e-01,2.24118e-01
1.44960e+03,-4.85273e+00,-3.18866e+01,1.30719e-01,1.07176e-01,2.27041e-01
1.44960e+03,-4.20421e+00,-2.92294e+01,1.31826e-01,1.08733e-01,2.29885e-01
1.44960e+03,-3.54234e+00,-2.65722e+01,1.32813e-01,1.10287e-01,2.32656e-01
1.44960e+03,-2.87482e+00,-2.39150e+01,1.33750e-01,1.11835e-01,2.35394e-01
1.44960e+03,-2.19854e+00,-2.12577e+01,1.34608e-01,1.13377e-01,2.38081e-01
1.44960e+03,-1.52080e+00,-1.86005e+01,1.35453e-01,1.14913e-01,2.40754e-01
1.44960e+03,-8.37821e-01,-1.59433e+01,1.36251e-01,1.16442e-01,2.43393e-01
1.44960e+03,-1.54916e-01,-1.32861e+01,1.37049e-01,1.17962e-01,2.46024e-01
1.44960e+03,5.25408e-01,-1.06289e+01,1.37871e-01,1.19476e-01,2.48660e-01
1.44960e+03,1.20573e+00,-7.97166e+00,1.38693e-01,1.20981e-01,2.51287e-01
1.44960e+03,1.86995e+00,-5.31444e+00,1.39659e-01,1.22479e-01,2.53985e-01
1.44960e+03,2.53116e+00,-2.65722e+00,1.40652e-01,1.23971e-01,2.56690e-01
1.52340e+03,3.25736e+01,0.00000e+00,-1.00335e-01,1.07808e-01,2.11979e-01
1.52340e+03,3.24095e+01,-2.47525e+00,-1.04290e-01,1.06616e-01,2.12079e-01
1.52340e+03,3.21913e+01,-4.95049e+00,-1.07863e-01,1.05395e-01,2.12035e-01
1.52340e+03,3.19709e+01,-7.42574e+00,-1.11420e-01,1.04146e-01,2.12023e-01
1.52340e+03,3.17026e+01,-9.90099e+00,-1.14641e-01,1.02872e-01,2.11874e-01
1.52340e+03,3.14232e+01,-1.23762e+01,-1.17783e-01,1.01574e-01,2.11719e-01
1.52340e+03,3.11072e+01,-1.48515e+01,-1.20667e-01,1.00255e-01,2.11455e-01
1.52340e+03,3.07733e+01,-1.73267e+01,-1.23425e-01,9.89152e-02,2.11155e-01
1.52340e+03,3.04098e+01,-1.98020e+01,-1.25974e-01,9.75577e-02,2.10765e-01
1.52340e+03,3.00222e+01,-2.22772e+01,-1.28354e-01,9.61840e-02,2.10306e-01
1.52340e+03,2.96079e+01,-2.47525e+01,-1.30545e-01,9.47957e-02,2.09763e-01
1.52340e+03,2.91613e+01,-2.72277e+01,-1.32509e-01,9.33948e-02,2.09108e-01
1.52340e+03,2.86816e+01,-2.97030e+01,-1.34240e-01,9.19830e-02,2.08334e-01
1.52340e+03,2.81552e+01,-3.21782e+01,-1.35641e-01,9.05629e-02,2.07373e-01
1.52340e+03,2.75832e+01,-3.46535e+01,-1.36721e-01,8.91371e-02,2.06226e-01
1.52340e+03,2.69567e+01,-3.71287e+01,-1.37417e-01,8.77078e-02,2.04845e-01
1.52340e+03,2.62564e+01,-3.96040e+01,-1.37593e-01,8.62801e-02,2.03137e-01
1.52340e+03,2.55047e+01,-4.20792e+01,-1.37408e-01,8.48548e-02,2.01201e-01
1.52340e+03,2.46375e+01,-4.45544e+01,-1.36408e-01,8.34398e-02,1.98730e-01
1.52340e+03,2.37225e+01,-4.70297e+01,-1.35070e-01,8.20382e-02,1.96048e-01
1.52340e+03,2.26740e+01,-4.95049e+01,-1.32793e-01,8.06537e-02,1.92741e-01
1.52340e+03,2.15185e+01,-5.19802e+01,-1.29762e-01,7.92978e-02,1.88951e-01
1.52340e+03,2.02543e+01,-5.44554e+01,-1.25965e-01,7.79728e-02,1.84679e-01
1.52340e+03,1.88075e+01,-5.69307e+01,-1.20880e-01,7.66836e-02,1.79591e-01
1.52340e+03,1.71490e+01,-5.94059e+01,-1.14305e-01,7.54458e-02,1.73614e-01
1.52340e+03,1.52515e+01,-6.18812e+01,-1.06044e-01,7.42744e-02,1.66720e-01
1.52340e+03,1.30071e+01,-6.43564e+01,-9.53401e-02,7.31791e-02,1.58604e-01
1.52340e+03,1.01263e+01,-6.68317e+01,-8.01511e-02,7.22133e-02,1.48555e-01
1.52340e+03,6.23005e+00,-6.93069e+01,-5.78072e-02,7.16232e-02,1.36862e-01
1.52340e+03,-2.52437e+00,-7.17822e+01,-1.23001e-03,7.18569e-02,1.24466e-01
1.52340e+03,-3.15618e+00,-7.17879e+01,3.21018e-03,7.25829e-02,1.25758e-01
1.52340e+03,-8.91241e+00,-6.92241e+01,4.90652e-02,7.39598e-02,1.37177e-01
1.52340e+03,-9.60935e+00,-6.66602e+01,5.92699e-02,7.49770e-02,1.42750e-01
1.52340e+03,-9.84985e+00,-6.40963e+01,6.62583e-02,7.60475e-02,1.47444e-01
1.52340e+03,-9.88634e+00,-6.15325e+01,7.18092e-02,7.71675e-02,1.51727e-01
1.52340e+03,-9.76914e+00,-5.89686e+01,7.62771e-02,7.83284e-02,1.55641e-01
1.52340e+03,-9.55548e+00,-5.64048e+01,8.00653e-02,7.95234e-02,1.59318e-01
1.52340e+03,-9.24498e+00,-5.38409e+01,8.31711e-02,8.07454e-02,1.62717e-01
1.52340e+03,-8.87540e+00,-5.12771e+01,8.58606e-02,8.19885e-02,1.65947e-01
1.52340e+03,-8.47156e+00,-4.87132e+01,8.83086e-02,8.32496e-02,1.69085e-01
1.52340e+03,-8.01609e+00,-4.61494e+01,9.03929e-02,8.45251e-02,1.72059e-01
1.52340e+03,-7.52837e+00,-4.35855e+01,9.22499e-02,8.58115e-02,1.74931e-01
1.52340e+03,-7.00922e+00,-4.10217e+01,9.38854e-02,8.71064e-02,1.77699e-01
1.52340e+03,-6.45878e+00,-3.84578e+01,9.53005e-02,8.84069e-02,1.80359e-01
1.52340e+03,-5.88872e+00,-3.58940e+01,9.65772e-02,8.97109e-02,1.82952e-01
1.52340e+03,-5.29352e+00,-3.33301e+01,9.76769e-02,9.10164e-02,1.85453e-01
1.52340e+03,-4.68222e+00,-3.07662e+01,9.86631e-02,9.23213e-02,1.87894e-01
1.52340e+03,-4.05649e+00,-2.82024e+01,9.95477e-02,9.36244e-02,1.90280e-01
1.52340e+03,-3.41788e+00,-2.56385e+01,1.00341e-01,9.49242e-02,1.92614e-01
1.52340e+03,-2.77381e+00,-2.30747e+01,1.01097e-01,9.62196e-02,1.94924e-01
1.52340e+03,-2.12129e+00,-2.05108e+01,1.01792e-01,9.75100e-02,1.97196e-01
1.52340e+03,-1.46736e+00,-1.79470e+01,1.02478e-01,9.87948e-02,1.99457e-01
1.52340e+03,-8.08383e-01,-1.53831e+01,1.03129e-01,1.00074e-01,2.01692e-01
1.52340e+03,-1.49473e-01,-1.28193e+01,1.03779e-01,1.01346e-01,2.03920e-01
1.52340e+03,5.06948e-01,-1.02554e+01,1.04448e-01,1.02612e-01,2.06149e-01
1.52340e+03,1.16337e+00,-7.69156e+00,1.05116e-01,1.03872e-01,2.08369e-01
1.52340e+03,1.80424e+00,-5.12771e+00,1.05894e-01,1.05125e-01,2.10636e-01
1.52340e+03,2.44222e+00,-2.56385e+00,1.06692e-01,1.06373e-01,2.12906e-01
1.59310e+03,3.14533e+01,0.00000e+00,-7.40072e-02,9.08835e-02,1.73944e-01
1.59310e+03,3.12949e+01,-2.39012e+00,-7.69597e-02,8.99046e-02,1.73699e-01
1.59310e+03,3.10841e+01,-4.78023e+00,-7.96304e-02,8.89018e-02,1.73354e-01
1.59310e+03,3.08713e+01,-7.17035e+00,-8.22898e-02,8.78762e-02,1.73027e-01
1.59310e+03,3.06123e+01,-9.56047e+00,-8.47005e-02,8.68297e-02,1.72605e-01
1.59310e+03,3.03425e+01,-1.19506e+01,-8.70535e-02,8.57638e-02,1.72176e-01
1.59310e+03,3.00373e+01,-1.43407e+01,-8.92155e-02,8.46801e-02,1.71673e-01
1.59310e+03,2.97149e+01,-1.67308e+01,-9.12848e-02,8.35801e-02,1.71143e-01
1.59310e+03,2.93640e+01,-1.91209e+01,-9.32008e-02,8.24653e-02,1.70552e-01
1.59310e+03,2.89896e+01,-2.15111e+01,-9.49907e-02,8.13371e-02,1.69913e-01
1.59310e+03,2.85896e+01,-2.39012e+01,-9.66420e-02,8.01971e-02,1.69217e-01
1.59310e+03,2.81583e+01,-2.62913e+01,-9.81256e-02,7.90466e-02,1.68445e-01
1.59310e+03,2.76952e+01,-2.86814e+01,-9.94373e-02,7.78873e-02,1.67592e-01
1.59310e+03,2.71869e+01,-3.10715e+01,-1.00506e-01,7.67210e-02,1.66613e-01
1.59310e+03,2.66345e+01,-3.34616e+01,-1.01337e-01,7.55502e-02,1.65508e-01
1.59310e+03,2.60296e+01,-3.58518e+01,-1.01885e-01,7.43765e-02,1.64244e-01
1.59310e+03,2.53533e+01,-3.82419e+01,-1.02050e-01,7.32040e-02,1.62760e-01
1.59310e+03,2.46276e+01,-4.06320e+01,-1.01947e-01,7.20337e-02,1.61121e-01
1.59310e+03,2.37902e+01,-4.30221e+01,-1.01244e-01,7.08717e-02,1.59119e-01
1.59310e+03,2.29066e+01,-4.54122e+01,-1.00292e-01,6.97207e-02,1.56976e-01
1.59310e+03,2.18941e+01,-4.78023e+01,-9.86465e-02,6.85838e-02,1.54410e-01
1.59310e+03,2.07785e+01,-5.01925e+01,-9.64449e-02,6.74704e-02,1.51520e-01
1.59310e+03,1.95577e+01,-5.25826e+01,-9.36776e-02,6.63823e-02,1.48308e-01
1.59310e+03,1.81606e+01,-5.49727e+01,-8.99609e-02,6.53237e-02,1.44549e-01
1.59310e+03,1.65592e+01,-5.73628e+01,-8.51441e-02,6.43073e-02,1.40199e-01
1.59310e+03,1.47269e+01,-5.97529e+01,-7.90843e-02,6.33454e-02,1.35249e-01
1.59310e+03,1.25597e+01,-6.21430e+01,-7.12213e-02,6.24460e-02,1.29503e-01
1.59310e+03,9.77800e+00,-6.45332e+01,-6.00495e-02,6.16531e-02,1.22512e-01
1.59310e+03,6.01578e+00,-6.69233e+01,-4.35988e-02,6.11687e-02,1.14567e-01
1.59310e+03,-2.43755e+00,-6.93134e+01,-1.89081e-03,6.13607e-02,1.06297e-01
1.59310e+03,-3.04763e+00,-6.93189e+01,1.38508e-03,6.19569e-02,1.07322e-01
1.59310e+03,-8.60589e+00,-6.68433e+01,3.52527e-02,6.30877e-02,1.14817e-01
1.59310e+03,-9.27886e+00,-6.43676e+01,4.28175e-02,6.39231e-02,1.18709e-01
1.59310e+03,-9.51109e+00,-6.18919e+01,4.80094e-02,6.48021e-02,1.22077e-01
1.59310e+03,-9.54632e+00,-5.94162e+01,5.21406e-02,6.57219e-02,1.25207e-01
1.59310e+03,-9.43315e+00,-5.69406e+01,5.54728e-02,6.66753e-02,1.28117e-01
1.59310e+03,-9.22684e+00,-5.44649e+01,5.83036e-02,6.76565e-02,1.30887e-01
1.59310e+03,-8.92702e+00,-5.19892e+01,6.06308e-02,6.86601e-02,1.33487e-01
1.59310e+03,-8.57016e+00,-4.95135e+01,6.26510e-02,6.96809e-02,1.35983e-01
1.59310e+03,-8.18020e+00,-4.70379e+01,6.44930e-02,7.07164e-02,1.38426e-01
1.59310e+03,-7.74040e+00,-4.45622e+01,6.60666e-02,7.17638e-02,1.40766e-01
1.59310e+03,-7.26945e+00,-4.20865e+01,6.74725e-02,7.28202e-02,1.43042e-01
1.59310e+03,-6.76816e+00,-3.96108e+01,6.87150e-02,7.38835e-02,1.45252e-01
1.59310e+03,-6.23665e+00,-3.71351e+01,6.97949e-02,7.49514e-02,1.47392e-01
1.59310e+03,-5.68619e+00,-3.46595e+01,7.07727e-02,7.60222e-02,1.49489e-01
1.59310e+03,-5.11146e+00,-3.21838e+01,7.16198e-02,7.70942e-02,1.51525e-01
1.59310e+03,-4.52119e+00,-2.97081e+01,7.23833e-02,7.81657e-02,1.53522e-01
1.59310e+03,-3.91698e+00,-2.72324e+01,7.30717e-02,7.92358e-02,1.55481e-01
1.59310e+03,-3.30033e+00,-2.47568e+01,7.36932e-02,8.03030e-02,1.57405e-01
1.59310e+03,-2.67841e+00,-2.22811e+01,7.42863e-02,8.13667e-02,1.59311e-01
1.59310e+03,-2.04833e+00,-1.98054e+01,7.48354e-02,8.24263e-02,1.61191e-01
1.59310e+03,-1.41689e+00,-1.73297e+01,7.53772e-02,8.34813e-02,1.63062e-01
1.59310e+03,-7.80581e-01,-1.48541e+01,7.58928e-02,8.45314e-02,1.64913e-01
1.59310e+03,-1.44332e-01,-1.23784e+01,7.64087e-02,8.55762e-02,1.66758e-01
1.59310e+03,4.89512e-01,-9.90271e+00,7.69376e-02,8.66159e-02,1.68601e-01
1.59310e+03,1.12336e+00,-7.42703e+00,7.74665e-02,8.76500e-02,1.70437e-01
1.59310e+03,1.74219e+00,-4.95135e+00,7.80761e-02,8.86791e-02,1.72302e-01
1.59310e+03,2.35823e+00,-2.47568e+00,7.87009e-02,8.97039e-02,1.74167e-01
1.65850e+03,3.04021e+01,0.00000e+00,-5.28678e-02,7.50020e-02,1.40253e-01
1.65850e+03,3.02490e+01,-2.31024e+00,-5.50054e-02,7.42129e-02,1.39815e-01
1.65850e+03,3.00453e+01,-4.62048e+00,-5.69415e-02,7.34046e-02,1.39309e-01
1.65850e+03,2.98396e+01,-6.93072e+00,-5.88696e-02,7.25780e-02,1.38810e-01
1.65850e+03,2.95892e+01,-9.24096e+00,-6.06200e-02,7.17345e-02,1.38247e-01
1.65850e+03,2.93285e+01,-1.15512e+01,-6.23291e-02,7.08753e-02,1.37677e-01
1.65850e+03,2.90335e+01,-1.38614e+01,-6.39017e-02,7.00019e-02,1.37056e-01
1.65850e+03,2.87218e+01,-1.61717e+01,-6.54082e-02,6.91153e-02,1.36415e-01
1.65850e+03,2.83826e+01,-1.84819e+01,-6.68050e-02,6.82167e-02,1.35733e-01
1.65850e+03,2.80208e+01,-2.07921e+01,-6.81117e-02,6.73074e-02,1.35019e-01
1.65850e+03,2.76341e+01,-2.31024e+01,-6.93194e-02,6.63885e-02,1.34266e-01
1.65850e+03,2.72173e+01,-2.54126e+01,-7.04072e-02,6.54613e-02,1.33464e-01
1.65850e+03,2.67696e+01,-2.77229e+01,-7.13722e-02,6.45269e-02,1.32609e-01
1.65850e+03,2.62783e+01,-3.00331e+01,-7.21633e-02,6.35869e-02,1.31672e-01
1.65850e+03,2.57444e+01,-3.23433e+01,-7.27851e-02,6.26433e-02,1.30653e-01
1.65850e+03,2.51597e+01,-3.46536e+01,-7.32044e-02,6.16973e-02,1.29532e-01
1.65850e+03,2.45060e+01,-3.69638e+01,-7.33495e-02,6.07523e-02,1.28268e-01
1.65850e+03,2.38045e+01,-3.92741e+01,-7.33039e-02,5.98091e-02,1.26905e-01
1.65850e+03,2.29951e+01,-4.15843e+01,-7.28290e-02,5.88725e-02,1.25308e-01
1.65850e+03,2.21410e+01,-4.38945e+01,-7.21762e-02,5.79449e-02,1.23621e-01
1.65850e+03,2.11624e+01,-4.62048e+01,-7.10277e-02,5.70286e-02,1.21662e-01
1.65850e+03,2.00840e+01,-4.85150e+01,-6.94819e-02,5.61313e-02,1.19499e-01
1.65850e+03,1.89041e+01,-5.08253e+01,-6.75319e-02,5.52544e-02,1.17131e-01
1.65850e+03,1.75537e+01,-5.31355e+01,-6.49033e-02,5.44012e-02,1.14416e-01
1.65850e+03,1.60058e+01,-5.54457e+01,-6.14887e-02,5.35821e-02,1.11328e-01
1.65850e+03,1.42348e+01,-5.77560e+01,-5.71857e-02,5.28069e-02,1.07870e-01
1.65850e+03,1.21400e+01,-6.00662e+01,-5.15941e-02,5.20820e-02,1.03921e-01
1.65850e+03,9.45122e+00,-6.23764e+01,-4.36379e-02,5.14430e-02,9.92140e-02
1.65850e+03,5.81473e+00,-6.46867e+01,-3.19091e-02,5.10527e-02,9.40071e-02
1.65850e+03,-2.35608e+00,-6.69969e+01,-2.13050e-03,5.12076e-02,8.87197e-02
1.65850e+03,-2.94577e+00,-6.70023e+01,2.10514e-04,5.16882e-02,8.95268e-02
1.65850e+03,-8.31828e+00,-6.46093e+01,2.44422e-02,5.25996e-02,9.43270e-02
1.65850e+03,-8.96876e+00,-6.22164e+01,2.98769e-02,5.32729e-02,9.69878e-02
1.65850e+03,-9.19322e+00,-5.98235e+01,3.36158e-02,5.39814e-02,9.93580e-02
1.65850e+03,-9.22728e+00,-5.74305e+01,3.65967e-02,5.47228e-02,1.01603e-01
1.65850e+03,-9.11789e+00,-5.50376e+01,3.90066e-02,5.54912e-02,1.03727e-01
1.65850e+03,-8.91848e+00,-5.26447e+01,4.10582e-02,5.62820e-02,1.05777e-01
1.65850e+03,-8.62868e+00,-5.02517e+01,4.27499e-02,5.70908e-02,1.07730e-01
1.65850e+03,-8.28374e+00,-4.78588e+01,4.42221e-02,5.79136e-02,1.09625e-01
1.65850e+03,-7.90682e+00,-4.54658e+01,4.55671e-02,5.87482e-02,1.11492e-01
1.65850e+03,-7.48171e+00,-4.30729e+01,4.67202e-02,5.95923e-02,1.13298e-01
1.65850e+03,-7.02650e+00,-4.06800e+01,4.77535e-02,6.04437e-02,1.15068e-01
1.65850e+03,-6.54196e+00,-3.82870e+01,4.86700e-02,6.13007e-02,1.16799e-01
1.65850e+03,-6.02822e+00,-3.58941e+01,4.94703e-02,6.21613e-02,1.18488e-01
1.65850e+03,-5.49615e+00,-3.35011e+01,5.01977e-02,6.30243e-02,1.20150e-01
1.65850e+03,-4.94063e+00,-3.11082e+01,5.08316e-02,6.38882e-02,1.21774e-01
1.65850e+03,-4.37009e+00,-2.87153e+01,5.14058e-02,6.47518e-02,1.23373e-01
1.65850e+03,-3.78607e+00,-2.63223e+01,5.19264e-02,6.56142e-02,1.24948e-01
1.65850e+03,-3.19003e+00,-2.39294e+01,5.23991e-02,6.64743e-02,1.26500e-01
1.65850e+03,-2.58890e+00,-2.15364e+01,5.28515e-02,6.73315e-02,1.28039e-01
1.65850e+03,-1.97988e+00,-1.91435e+01,5.32725e-02,6.81854e-02,1.29560e-01
1.65850e+03,-1.36954e+00,-1.67506e+01,5.36882e-02,6.90356e-02,1.31073e-01
1.65850e+03,-7.54494e-01,-1.43576e+01,5.40853e-02,6.98819e-02,1.32573e-01
1.65850e+03,-1.39508e-01,-1.19647e+01,5.44825e-02,7.07239e-02,1.34067e-01
1.65850e+03,4.73153e-01,-9.57176e+00,5.48891e-02,7.15618e-02,1.35558e-01
1.65850e+03,1.08581e+00,-7.17882e+00,5.52956e-02,7.23951e-02,1.37043e-01
1.65850e+03,1.68397e+00,-4.78588e+00,5.57599e-02,7.32245e-02,1.38545e-01
1.65850e+03,2.27942e+00,-2.39294e+00,5.62349e-02,7.40503e-02,1.40045e-01
1.71930e+03,2.94249e+01,0.00000e+00,-3.64234e-02,6.01818e-02,1.10418e-01
1.71930e+03,2.92767e+01,-2.23598e+00,-3.79158e-02,5.95604e-02,1.09909e-01
1.71930e+03,2.90795e+01,-4.47196e+00,-3.92694e-02,5.89238e-02,1.09353e-01
1.71930e+03,2.88804e+01,-6.70794e+00,-4.06175e-02,5.82727e-02,1.08798e-01
1.71930e+03,2.86381e+01,-8.94392e+00,-4.18431e-02,5.76084e-02,1.08199e-01
1.71930e+03,2.83857e+01,-1.11799e+01,-4.30403e-02,5.69318e-02,1.07593e-01
1.71930e+03,2.81002e+01,-1.34159e+01,-4.41434e-02,5.62439e-02,1.06952e-01
1.71930e+03,2.77986e+01,-1.56519e+01,-4.52008e-02,5.55457e-02,1.06297e-01
1.71930e+03,2.74703e+01,-1.78878e+01,-4.61827e-02,5.48381e-02,1.05615e-01
1.71930e+03,2.71201e+01,-2.01238e+01,-4.71026e-02,5.41220e-02,1.04911e-01
1.71930e+03,2.67458e+01,-2.23598e+01,-4.79541e-02,5.33983e-02,1.04181e-01
1.71930e+03,2.63424e+01,-2.45958e+01,-4.87231e-02,5.26681e-02,1.03420e-01
1.71930e+03,2.59091e+01,-2.68317e+01,-4.94074e-02,5.19322e-02,1.02625e-01
1.71930e+03,2.54336e+01,-2.90677e+01,-4.99718e-02,5.11920e-02,1.01779e-01
1.71930e+03,2.49169e+01,-3.13037e+01,-5.04196e-02,5.04489e-02,1.00883e-01
1.71930e+03,2.43509e+01,-3.35397e+01,-5.07278e-02,4.97039e-02,9.99237e-02
1.71930e+03,2.37183e+01,-3.57757e+01,-5.08470e-02,4.89597e-02,9.88766e-02
1.71930e+03,2.30393e+01,-3.80116e+01,-5.08348e-02,4.82169e-02,9.77691e-02
1.71930e+03,2.22560e+01,-4.02476e+01,-5.05267e-02,4.74794e-02,9.65185e-02
1.71930e+03,2.14293e+01,-4.24836e+01,-5.00959e-02,4.67489e-02,9.52155e-02
1.71930e+03,2.04822e+01,-4.47196e+01,-4.93236e-02,4.60273e-02,9.37463e-02
1.71930e+03,1.94385e+01,-4.69556e+01,-4.82774e-02,4.53207e-02,9.21553e-02
1.71930e+03,1.82964e+01,-4.91915e+01,-4.69526e-02,4.46302e-02,9.04439e-02
1.71930e+03,1.69894e+01,-5.14275e+01,-4.51601e-02,4.39583e-02,8.85237e-02
1.71930e+03,1.54913e+01,-5.36635e+01,-4.28259e-02,4.33133e-02,8.63839e-02
1.71930e+03,1.37772e+01,-5.58995e+01,-3.98794e-02,4.27029e-02,8.40295e-02
1.71930e+03,1.17498e+01,-5.81355e+01,-3.60447e-02,4.21321e-02,8.13914e-02
1.71930e+03,9.14742e+00,-6.03714e+01,-3.05803e-02,4.16289e-02,7.83202e-02
1.71930e+03,5.62782e+00,-6.26074e+01,-2.25158e-02,4.13217e-02,7.50293e-02
1.71930e+03,-2.28035e+00,-6.48434e+01,-2.01103e-03,4.14437e-02,7.18107e-02
1.71930e+03,-2.85109e+00,-6.48486e+01,-3.97600e-04,4.18222e-02,7.24393e-02
1.71930e+03,-8.05090e+00,-6.25326e+01,1.63233e-02,4.25400e-02,7.54679e-02
1.71930e+03,-8.68047e+00,-6.02165e+01,2.00889e-02,4.30702e-02,7.72574e-02
1.71930e+03,-8.89772e+00,-5.79005e+01,2.26857e-02,4.36282e-02,7.88981e-02
1.71930e+03,-8.93068e+00,-5.55845e+01,2.47601e-02,4.42120e-02,8.04809e-02
1.71930e+03,-8.82481e+00,-5.32685e+01,2.64409e-02,4.48172e-02,8.20052e-02
1.71930e+03,-8.63181e+00,-5.09525e+01,2.78748e-02,4.54400e-02,8.34948e-02
1.71930e+03,-8.35132e+00,-4.86364e+01,2.90606e-02,4.60769e-02,8.49339e-02
1.71930e+03,-8.01747e+00,-4.63204e+01,3.00952e-02,4.67248e-02,8.63444e-02
1.71930e+03,-7.65266e+00,-4.40044e+01,3.10421e-02,4.73821e-02,8.77427e-02
1.71930e+03,-7.24122e+00,-4.16884e+01,3.18567e-02,4.80468e-02,8.91086e-02
1.71930e+03,-6.80064e+00,-3.93724e+01,3.25888e-02,4.87173e-02,9.04552e-02
1.71930e+03,-6.33168e+00,-3.70563e+01,3.32404e-02,4.93921e-02,9.17805e-02
1.71930e+03,-5.83445e+00,-3.47403e+01,3.38118e-02,5.00698e-02,9.30817e-02
1.71930e+03,-5.31949e+00,-3.24243e+01,3.43330e-02,5.07494e-02,9.43677e-02
1.71930e+03,-4.78182e+00,-3.01083e+01,3.47899e-02,5.14297e-02,9.56315e-02
1.71930e+03,-4.22962e+00,-2.77922e+01,3.52055e-02,5.21098e-02,9.68799e-02
1.71930e+03,-3.66437e+00,-2.54762e+01,3.55841e-02,5.27888e-02,9.81133e-02
1.71930e+03,-3.08749e+00,-2.31602e+01,3.59298e-02,5.34661e-02,9.93319e-02
1.71930e+03,-2.50568e+00,-2.08442e+01,3.62615e-02,5.41412e-02,1.00542e-01
1.71930e+03,-1.91624e+00,-1.85282e+01,3.65716e-02,5.48135e-02,1.01740e-01
1.71930e+03,-1.32552e+00,-1.62121e+01,3.68780e-02,5.54830e-02,1.02932e-01
1.71930e+03,-7.30242e-01,-1.38961e+01,3.71716e-02,5.61494e-02,1.04115e-01
1.71930e+03,-1.35024e-01,-1.15801e+01,3.74653e-02,5.68124e-02,1.05293e-01
1.71930e+03,4.57944e-01,-9.26408e+00,3.77653e-02,5.74722e-02,1.06468e-01
1.71930e+03,1.05091e+00,-6.94806e+00,3.80654e-02,5.81284e-02,1.07637e-01
1.71930e+03,1.62984e+00,-4.63204e+00,3.84053e-02,5.87814e-02,1.08815e-01
1.71930e+03,2.20615e+00,-2.31602e+00,3.87526e-02,5.94317e-02,1.09991e-01
1.77540e+03,2.77303e+01,0.00000e+00,-4.28676e-02,5.63742e-02,1.06639e-01
1.77540e+03,2.75906e+01,-2.10721e+00,-4.44659e-02,5.55444e-02,1.05985e-01
1.77540e+03,2.74048e+01,-4.21442e+00,-4.58998e-02,5.46942e-02,1.05267e-01
1.77540e+03,2.72172e+01,-6.32163e+00,-4.73270e-02,5.38245e-02,1.04552e-01
1.77540e+03,2.69888e+01,-8.42884e+00,-4.86091e-02,5.29370e-02,1.03778e-01
1.77540e+03,2.67510e+01,-1.05361e+01,-4.98574e-02,5.20328e-02,1.02995e-01
1.77540e+03,2.64819e+01,-1.26433e+01,-5.09943e-02,5.11134e-02,1.02167e-01
1.77540e+03,2.61977e+01,-1.47505e+01,-5.20771e-02,5.01801e-02,1.01322e-01
1.77540e+03,2.58883e+01,-1.68577e+01,-5.30703e-02,4.92340e-02,1.00441e-01
1.77540e+03,2.55583e+01,-1.89649e+01,-5.39899e-02,4.82766e-02,9.95329e-02
1.77540e+03,2.52056e+01,-2.10721e+01,-5.48286e-02,4.73088e-02,9.85929e-02
1.77540e+03,2.48254e+01,-2.31793e+01,-5.55694e-02,4.63322e-02,9.76113e-02
1.77540e+03,2.44171e+01,-2.52865e+01,-5.62099e-02,4.53479e-02,9.65859e-02
1.77540e+03,2.39689e+01,-2.73937e+01,-5.67083e-02,4.43576e-02,9.54914e-02
1.77540e+03,2.34819e+01,-2.95009e+01,-5.70684e-02,4.33633e-02,9.43288e-02
1.77540e+03,2.29486e+01,-3.16082e+01,-5.72630e-02,4.23664e-02,9.30795e-02
1.77540e+03,2.23524e+01,-3.37154e+01,-5.72337e-02,4.13705e-02,9.17074e-02
1.77540e+03,2.17125e+01,-3.58226e+01,-5.70485e-02,4.03763e-02,9.02511e-02
1.77540e+03,2.09743e+01,-3.79298e+01,-5.65126e-02,3.93890e-02,8.85898e-02
1.77540e+03,2.01952e+01,-4.00370e+01,-5.58314e-02,3.84110e-02,8.68526e-02
1.77540e+03,1.93026e+01,-4.21442e+01,-5.47453e-02,3.74449e-02,8.48728e-02
1.77540e+03,1.83190e+01,-4.42514e+01,-5.33346e-02,3.64985e-02,8.27104e-02
1.77540e+03,1.72428e+01,-4.63586e+01,-5.15936e-02,3.55737e-02,8.03639e-02
1.77540e+03,1.60110e+01,-4.84658e+01,-4.92983e-02,3.46737e-02,7.76988e-02
1.77540e+03,1.45992e+01,-5.05731e+01,-4.63608e-02,3.38094e-02,7.46897e-02
1.77540e+03,1.29838e+01,-5.26803e+01,-4.26975e-02,3.29913e-02,7.13327e-02
1.77540e+03,1.10731e+01,-5.47875e+01,-3.79816e-02,3.22260e-02,6.75140e-02
1.77540e+03,8.62063e+00,-5.68947e+01,-3.13339e-02,3.15508e-02,6.29935e-02
1.77540e+03,5.30372e+00,-5.90019e+01,-2.16042e-02,3.11367e-02,5.80967e-02
1.77540e+03,-2.14903e+00,-6.11091e+01,2.87126e-03,3.12980e-02,5.42857e-02
1.77540e+03,-2.68689e+00,-6.11140e+01,4.78408e-03,3.18034e-02,5.52924e-02
1.77540e+03,-7.58725e+00,-5.89314e+01,2.44269e-02,3.27627e-02,6.17807e-02
1.77540e+03,-8.18057e+00,-5.67487e+01,2.87136e-02,3.34718e-02,6.46958e-02
1.77540e+03,-8.38530e+00,-5.45661e+01,3.16149e-02,3.42182e-02,6.71725e-02
1.77540e+03,-8.41637e+00,-5.23834e+01,3.38970e-02,3.49993e-02,6.94539e-02
1.77540e+03,-8.31659e+00,-5.02008e+01,3.57125e-02,3.58090e-02,7.15698e-02
1.77540e+03,-8.13471e+00,-4.80181e+01,3.72353e-02,3.66426e-02,7.35833e-02
1.77540e+03,-7.87037e+00,-4.58355e+01,3.84642e-02,3.74952e-02,7.54795e-02
1.77540e+03,-7.55575e+00,-4.36529e+01,3.95137e-02,3.83626e-02,7.73072e-02
1.77540e+03,-7.21195e+00,-4.14702e+01,4.04593e-02,3.92426e-02,7.91006e-02
1.77540e+03,-6.82421e+00,-3.92876e+01,4.12481e-02,4.01329e-02,8.08292e-02
1.77540e+03,-6.40900e+00,-3.71049e+01,4.19391e-02,4.10309e-02,8.25196e-02
1.77540e+03,-5.96704e+00,-3.49223e+01,4.25347e-02,4.19349e-02,8.41712e-02
1.77540e+03,-5.49844e+00,-3.27396e+01,4.30352e-02,4.28429e-02,8.57821e-02
1.77540e+03,-5.01314e+00,-3.05570e+01,4.34763e-02,4.37535e-02,8.73687e-02
1.77540e+03,-4.50644e+00,-2.83744e+01,4.38410e-02,4.46652e-02,8.89212e-02
1.77540e+03,-3.98604e+00,-2.61917e+01,4.41569e-02,4.55768e-02,9.04519e-02
1.77540e+03,-3.45334e+00,-2.40091e+01,4.44289e-02,4.64871e-02,9.19624e-02
1.77540e+03,-2.90969e+00,-2.18264e+01,4.46619e-02,4.73951e-02,9.34537e-02
1.77540e+03,-2.36138e+00,-1.96438e+01,4.48783e-02,4.83004e-02,9.49360e-02
1.77540e+03,-1.80588e+00,-1.74611e+01,4.50691e-02,4.92022e-02,9.64042e-02
1.77540e+03,-1.24918e+00,-1.52785e+01,4.52555e-02,5.01002e-02,9.78680e-02
1.77540e+03,-6.88187e-01,-1.30959e+01,4.54267e-02,5.09942e-02,9.93218e-02
1.77540e+03,-1.27248e-01,-1.09132e+01,4.55981e-02,5.18839e-02,1.00772e-01
1.77540e+03,4.31571e-01,-8.73057e+00,4.57770e-02,5.27693e-02,1.02222e-01
1.77540e+03,9.90390e-01,-6.54793e+00,4.59559e-02,5.36500e-02,1.03667e-01
1.77540e+03,1.53598e+00,-4.36529e+00,4.61820e-02,5.45267e-02,1.05130e-01
1.77540e+03,2.07910e+00,-2.18264e+00,4.64169e-02,5.53998e-02,1.06592e-01
1.82660e+03,2.53092e+01,0.00000e+00,-2.92211e-02,4.61363e-02,8.50855e-02
1.82660e+03,2.51817e+01,-1.92323e+00,-3.03333e-02,4.55048e-02,8.44522e-02
1.82660e+03,2.50121e+01,-3.84646e+00,-3.13334e-02,4.48578e-02,8.37762e-02
1.82660e+03,2.48409e+01,-5.76969e+00,-3.23290e-02,4.41960e-02,8.30964e-02
1.82660e+03,2.46324e+01,-7.69292e+00,-3.32255e-02,4.35206e-02,8.23776e-02
1.82660e+03,2.44154e+01,-9.61614e+00,-3.40991e-02,4.28326e-02,8.16496e-02
1.82660e+03,2.41698e+01,-1.15394e+01,-3.48967e-02,4.21331e-02,8.08911e-02
1.82660e+03,2.39103e+01,-1.34626e+01,-3.56574e-02,4.14229e-02,8.01188e-02
1.82660e+03,2.36280e+01,-1.53858e+01,-3.63571e-02,4.07031e-02,7.93225e-02
1.82660e+03,2.33268e+01,-1.73091e+01,-3.70065e-02,3.99746e-02,7.85073e-02
1.82660e+03,2.30049e+01,-1.92323e+01,-3.76008e-02,3.92383e-02,7.76709e-02
1.82660e+03,2.26579e+01,-2.11555e+01,-3.81284e-02,3.84953e-02,7.68078e-02
1.82660e+03,2.22852e+01,-2.30787e+01,-3.85875e-02,3.77464e-02,7.59169e-02
1.82660e+03,2.18762e+01,-2.50020e+01,-3.89498e-02,3.69931e-02,7.49836e-02
1.82660e+03,2.14317e+01,-2.69252e+01,-3.92178e-02,3.62366e-02,7.40089e-02
1.82660e+03,2.09449e+01,-2.88484e+01,-3.93730e-02,3.54783e-02,7.29819e-02
1.82660e+03,2.04008e+01,-3.07717e+01,-3.93754e-02,3.47207e-02,7.18818e-02
1.82660e+03,1.98168e+01,-3.26949e+01,-3.92717e-02,3.39643e-02,7.07319e-02
1.82660e+03,1.91430e+01,-3.46181e+01,-3.89288e-02,3.32134e-02,6.94610e-02
1.82660e+03,1.84320e+01,-3.65413e+01,-3.84868e-02,3.24695e-02,6.81471e-02
1.82660e+03,1.76173e+01,-3.84646e+01,-3.77688e-02,3.17345e-02,6.66912e-02
1.82660e+03,1.67196e+01,-4.03878e+01,-3.68294e-02,3.10147e-02,6.51317e-02
1.82660e+03,1.57373e+01,-4.23110e+01,-3.56649e-02,3.03112e-02,6.34689e-02
1.82660e+03,1.46131e+01,-4.42343e+01,-3.41225e-02,2.96267e-02,6.16244e-02
1.82660e+03,1.33245e+01,-4.61575e+01,-3.21422e-02,2.89694e-02,5.95886e-02
1.82660e+03,1.18502e+01,-4.80807e+01,-2.96671e-02,2.83471e-02,5.73657e-02
1.82660e+03,1.01063e+01,-5.00040e+01,-2.64743e-02,2.77652e-02,5.48963e-02
1.82660e+03,7.86795e+00,-5.19272e+01,-2.19645e-02,2.72518e-02,5.20617e-02
1.82660e+03,4.84065e+00,-5.38504e+01,-1.53533e-02,2.69371e-02,4.91177e-02
1.82660e+03,-1.96139e+00,-5.57736e+01,1.31130e-03,2.70601e-02,4.68877e-02
1.82660e+03,-2.45230e+00,-5.57781e+01,2.61540e-03,2.74446e-02,4.76074e-02
1.82660e+03,-6.92480e+00,-5.37860e+01,1.60310e-02,2.81746e-02,5.13655e-02
1.82660e+03,-7.46632e+00,-5.17940e+01,1.89769e-02,2.87140e-02,5.32317e-02
1.82660e+03,-7.65318e+00,-4.98019e+01,2.09782e-02,2.92819e-02,5.48850e-02
1.82660e+03,-7.68153e+00,-4.78098e+01,2.25574e-02,2.98761e-02,5.64498e-02
1.82660e+03,-7.59047e+00,-4.58177e+01,2.38185e-02,3.04921e-02,5.79363e-02
1.82660e+03,-7.42446e+00,-4.38257e+01,2.48800e-02,3.11261e-02,5.93761e-02
1.82660e+03,-7.18321e+00,-4.18336e+01,2.57411e-02,3.17747e-02,6.07577e-02
1.82660e+03,-6.89605e+00,-3.98415e+01,2.64800e-02,3.24345e-02,6.21062e-02
1.82660e+03,-6.58227e+00,-3.78494e+01,2.71479e-02,3.31039e-02,6.34399e-02
1.82660e+03,-6.22838e+00,-3.58574e+01,2.77091e-02,3.37810e-02,6.47400e-02
1.82660e+03,-5.84943e+00,-3.38653e+01,2.82034e-02,3.44640e-02,6.60208e-02
1.82660e+03,-5.44606e+00,-3.18732e+01,2.86328e-02,3.51516e-02,6.72811e-02
1.82660e+03,-5.01837e+00,-2.98811e+01,2.89973e-02,3.58422e-02,6.85189e-02
1.82660e+03,-4.57544e+00,-2.78891e+01,2.93213e-02,3.65348e-02,6.97431e-02
1.82660e+03,-4.11298e+00,-2.58970e+01,2.95932e-02,3.72282e-02,7.09476e-02
1.82660e+03,-3.63801e+00,-2.39049e+01,2.98319e-02,3.79214e-02,7.21390e-02
1.82660e+03,-3.15183e+00,-2.19128e+01,3.00407e-02,3.86136e-02,7.33177e-02
1.82660e+03,-2.65564e+00,-1.99208e+01,3.02228e-02,3.93042e-02,7.44841e-02
1.82660e+03,-2.15521e+00,-1.79287e+01,3.03936e-02,3.99926e-02,7.56438e-02
1.82660e+03,-1.64821e+00,-1.59366e+01,3.05469e-02,4.06783e-02,7.67938e-02
1.82660e+03,-1.14012e+00,-1.39445e+01,3.06974e-02,4.13612e-02,7.79395e-02
1.82660e+03,-6.28101e-01,-1.19525e+01,3.08373e-02,4.20410e-02,7.90776e-02
1.82660e+03,-1.16138e-01,-9.96038e+00,3.09774e-02,4.27174e-02,8.02118e-02
1.82660e+03,3.93890e-01,-7.96830e+00,3.11227e-02,4.33906e-02,8.13441e-02
1.82660e+03,9.03919e-01,-5.97623e+00,3.12680e-02,4.40603e-02,8.24719e-02
1.82660e+03,1.40187e+00,-3.98415e+00,3.14454e-02,4.47268e-02,8.36079e-02
1.82660e+03,1.89757e+00,-1.99208e+00,3.16288e-02,4.53906e-02,8.47425e-02
1.87280e+03,2.31244e+01,0.00000e+00,-1.87219e-02,3.68057e-02,6.64417e-02
1.87280e+03,2.30080e+01,-1.75721e+00,-1.94561e-02,3.63421e-02,6.58846e-02
1.87280e+03,2.28531e+01,-3.51443e+00,-2.01183e-02,3.58671e-02,6.53000e-02
1.87280e+03,2.26966e+01,-5.27164e+00,-2.07777e-02,3.53812e-02,6.47087e-02
1.87280e+03,2.25061e+01,-7.02886e+00,-2.13735e-02,3.48855e-02,6.40922e-02
1.87280e+03,2.23078e+01,-8.78607e+00,-2.19546e-02,3.43804e-02,6.34669e-02
1.87280e+03,2.20834e+01,-1.05433e+01,-2.24870e-02,3.38669e-02,6.28217e-02
1.87280e+03,2.18464e+01,-1.23005e+01,-2.29957e-02,3.33456e-02,6.21658e-02
1.87280e+03,2.15884e+01,-1.40577e+01,-2.34652e-02,3.28172e-02,6.14941e-02
1.87280e+03,2.13132e+01,-1.58149e+01,-2.39025e-02,3.22825e-02,6.08097e-02
1.87280e+03,2.10191e+01,-1.75721e+01,-2.43045e-02,3.17421e-02,6.01115e-02
1.87280e+03,2.07020e+01,-1.93294e+01,-2.46636e-02,3.11967e-02,5.93970e-02
1.87280e+03,2.03615e+01,-2.10866e+01,-2.49789e-02,3.06471e-02,5.86658e-02
1.87280e+03,1.99878e+01,-2.28438e+01,-2.52320e-02,3.00941e-02,5.79105e-02
1.87280e+03,1.95817e+01,-2.46010e+01,-2.54246e-02,2.95390e-02,5.71320e-02
1.87280e+03,1.91369e+01,-2.63582e+01,-2.55449e-02,2.89824e-02,5.63248e-02
1.87280e+03,1.86398e+01,-2.81154e+01,-2.55672e-02,2.84264e-02,5.54784e-02
1.87280e+03,1.81062e+01,-2.98726e+01,-2.55214e-02,2.78713e-02,5.46056e-02
1.87280e+03,1.74905e+01,-3.16299e+01,-2.53222e-02,2.73202e-02,5.36692e-02
1.87280e+03,1.68409e+01,-3.33871e+01,-2.50594e-02,2.67742e-02,5.27120e-02
1.87280e+03,1.60966e+01,-3.51443e+01,-2.46195e-02,2.62349e-02,5.16810e-02
1.87280e+03,1.52763e+01,-3.69015e+01,-2.40377e-02,2.57067e-02,5.05995e-02
1.87280e+03,1.43788e+01,-3.86587e+01,-2.33114e-02,2.51905e-02,4.94682e-02
1.87280e+03,1.33517e+01,-4.04159e+01,-2.23427e-02,2.46882e-02,4.82464e-02
1.87280e+03,1.21743e+01,-4.21731e+01,-2.10931e-02,2.42058e-02,4.69328e-02
1.87280e+03,1.08272e+01,-4.39304e+01,-1.95262e-02,2.37493e-02,4.55341e-02
1.87280e+03,9.23393e+00,-4.56876e+01,-1.74988e-02,2.33223e-02,4.40226e-02
1.87280e+03,7.18879e+00,-4.74448e+01,-1.46266e-02,2.29456e-02,4.23491e-02
1.87280e+03,4.42280e+00,-4.92020e+01,-1.04065e-02,2.27150e-02,4.06965e-02
1.87280e+03,-1.79208e+00,-5.09592e+01,2.62650e-04,2.28054e-02,3.95009e-02
1.87280e+03,-2.24062e+00,-5.09633e+01,1.09914e-03,2.30877e-02,4.00042e-02
1.87280e+03,-6.32705e+00,-4.91432e+01,9.72628e-03,2.36235e-02,4.20572e-02
1.87280e+03,-6.82182e+00,-4.73231e+01,1.16375e-02,2.40195e-02,4.32000e-02
1.87280e+03,-6.99255e+00,-4.55029e+01,1.29427e-02,2.44362e-02,4.42595e-02
1.87280e+03,-7.01846e+00,-4.36828e+01,1.39772e-02,2.48723e-02,4.52909e-02
1.87280e+03,-6.93525e+00,-4.18627e+01,1.48076e-02,2.53244e-02,4.62952e-02
1.87280e+03,-6.78358e+00,-4.00426e+01,1.55100e-02,2.57898e-02,4.72853e-02
1.87280e+03,-6.56315e+00,-3.82225e+01,1.60839e-02,2.62657e-02,4.82530e-02
1.87280e+03,-6.30078e+00,-3.64024e+01,1.65793e-02,2.67499e-02,4.92092e-02
1.87280e+03,-6.01408e+00,-3.45822e+01,1.70292e-02,2.72411e-02,5.01621e-02
1.87280e+03,-5.69074e+00,-3.27621e+01,1.74106e-02,2.77380e-02,5.11011e-02
1.87280e+03,-5.34450e+00,-3.09420e+01,1.77492e-02,2.82392e-02,5.20326e-02
1.87280e+03,-4.97595e+00,-2.91219e+01,1.80461e-02,2.87437e-02,5.29554e-02
1.87280e+03,-4.58518e+00,-2.73018e+01,1.83014e-02,2.92505e-02,5.38676e-02
1.87280e+03,-4.18049e+00,-2.54816e+01,1.85307e-02,2.97586e-02,5.47733e-02
1.87280e+03,-3.75794e+00,-2.36615e+01,1.87266e-02,3.02674e-02,5.56690e-02
1.87280e+03,-3.32398e+00,-2.18414e+01,1.89012e-02,3.07760e-02,5.65575e-02
1.87280e+03,-2.87976e+00,-2.00213e+01,1.90566e-02,3.12840e-02,5.74388e-02
1.87280e+03,-2.42640e+00,-1.82012e+01,1.91949e-02,3.17906e-02,5.83127e-02
1.87280e+03,-1.96917e+00,-1.63811e+01,1.93259e-02,3.22956e-02,5.91820e-02
1.87280e+03,-1.50594e+00,-1.45609e+01,1.94457e-02,3.27987e-02,6.00450e-02
1.87280e+03,-1.04170e+00,-1.27408e+01,1.95637e-02,3.32997e-02,6.09044e-02
1.87280e+03,-5.73883e-01,-1.09207e+01,1.96749e-02,3.37984e-02,6.17584e-02
1.87280e+03,-1.06113e-01,-9.10059e+00,1.97863e-02,3.42946e-02,6.26088e-02
1.87280e+03,3.59890e-01,-7.28047e+00,1.99009e-02,3.47885e-02,6.34567e-02
1.87280e+03,8.25892e-01,-5.46035e+00,2.00156e-02,3.52797e-02,6.43008e-02
1.87280e+03,1.28086e+00,-3.64024e+00,2.01509e-02,3.57686e-02,6.51478e-02
1.87280e+03,1.73377e+00,-1.82012e+00,2.02900e-02,3.62555e-02,6.59929e-02
1.91380e+03,2.11856e+01,0.00000e+00,-1.10952e-02,2.83489e-02,5.03397e-02
1.91380e+03,2.10789e+01,-1.60989e+00,-1.15481e-02,2.80228e-02,4.98918e-02
1.91380e+03,2.09370e+01,-3.21977e+00,-1.19582e-02,2.76887e-02,4.94267e-02
1.91380e+03,2.07936e+01,-4.82966e+00,-1.23666e-02,2.73470e-02,4.89542e-02
1.91380e+03,2.06192e+01,-6.43954e+00,-1.27373e-02,2.69984e-02,4.84662e-02
1.91380e+03,2.04375e+01,-8.04943e+00,-1.30993e-02,2.66432e-02,4.79705e-02
1.91380e+03,2.02319e+01,-9.65931e+00,-1.34323e-02,2.62821e-02,4.74623e-02
1.91380e+03,2.00147e+01,-1.12692e+01,-1.37512e-02,2.59155e-02,4.69461e-02
1.91380e+03,1.97784e+01,-1.28791e+01,-1.40469e-02,2.55439e-02,4.64197e-02
1.91380e+03,1.95262e+01,-1.44890e+01,-1.43235e-02,2.51679e-02,4.58850e-02
1.91380e+03,1.92568e+01,-1.60989e+01,-1.45790e-02,2.47879e-02,4.53417e-02
1.91380e+03,1.89663e+01,-1.77087e+01,-1.48091e-02,2.44044e-02,4.47888e-02
1.91380e+03,1.86544e+01,-1.93186e+01,-1.50132e-02,2.40179e-02,4.42264e-02
1.91380e+03,1.83120e+01,-2.09285e+01,-1.51803e-02,2.36291e-02,4.36514e-02
1.91380e+03,1.79399e+01,-2.25384e+01,-1.53115e-02,2.32388e-02,4.30646e-02
1.91380e+03,1.75325e+01,-2.41483e+01,-1.53997e-02,2.28474e-02,4.24637e-02
1.91380e+03,1.70770e+01,-2.57582e+01,-1.54298e-02,2.24565e-02,4.18445e-02
1.91380e+03,1.65881e+01,-2.73680e+01,-1.54193e-02,2.20662e-02,4.12130e-02
1.91380e+03,1.60241e+01,-2.89779e+01,-1.53178e-02,2.16787e-02,4.05529e-02
1.91380e+03,1.54289e+01,-3.05878e+01,-1.51785e-02,2.12949e-02,3.98849e-02
1.91380e+03,1.47470e+01,-3.21977e+01,-1.49340e-02,2.09157e-02,3.91845e-02
1.91380e+03,1.39955e+01,-3.38076e+01,-1.46051e-02,2.05444e-02,3.84646e-02
1.91380e+03,1.31733e+01,-3.54175e+01,-1.41905e-02,2.01815e-02,3.77259e-02
1.91380e+03,1.22322e+01,-3.70274e+01,-1.36319e-02,1.98283e-02,3.69502e-02
1.91380e+03,1.11536e+01,-3.86372e+01,-1.29065e-02,1.94893e-02,3.61396e-02
1.91380e+03,9.91946e+00,-4.02471e+01,-1.19925e-02,1.91683e-02,3.53000e-02
1.91380e+03,8.45973e+00,-4.18570e+01,-1.08050e-02,1.88682e-02,3.44205e-02
1.91380e+03,6.58606e+00,-4.34669e+01,-9.11576e-03,1.86035e-02,3.34868e-02
1.91380e+03,4.05198e+00,-4.50768e+01,-6.62583e-03,1.84414e-02,3.26215e-02
1.91380e+03,-1.64183e+00,-4.66867e+01,-3.05249e-04,1.85051e-02,3.20532e-02
1.91380e+03,-2.05276e+00,-4.66904e+01,1.91578e-04,1.87037e-02,3.23963e-02
1.91380e+03,-5.79657e+00,-4.50229e+01,5.33341e-03,1.90805e-02,3.34759e-02
1.91380e+03,-6.24986e+00,-4.33554e+01,6.48602e-03,1.93589e-02,3.41522e-02
1.91380e+03,-6.40628e+00,-4.16879e+01,7.27872e-03,1.96519e-02,3.48077e-02
1.91380e+03,-6.43001e+00,-4.00204e+01,7.91056e-03,1.99586e-02,3.54628e-02
1.91380e+03,-6.35378e+00,-3.83528e+01,8.42122e-03,2.02764e-02,3.61153e-02
1.91380e+03,-6.21483e+00,-3.66853e+01,8.85582e-03,2.06036e-02,3.67689e-02
1.91380e+03,-6.01288e+00,-3.50178e+01,9.21407e-03,2.09382e-02,3.74183e-02
1.91380e+03,-5.77251e+00,-3.33503e+01,9.52573e-03,2.12787e-02,3.80668e-02
1.91380e+03,-5.50985e+00,-3.16828e+01,9.81037e-03,2.16240e-02,3.87174e-02
1.91380e+03,-5.21362e+00,-3.00153e+01,1.00543e-02,2.19734e-02,3.93646e-02
1.91380e+03,-4.89640e+00,-2.83477e+01,1.02728e-02,2.23257e-02,4.00105e-02
1.91380e+03,-4.55876e+00,-2.66802e+01,1.04665e-02,2.26804e-02,4.06540e-02
1.91380e+03,-4.20075e+00,-2.50127e+01,1.06356e-02,2.30366e-02,4.12937e-02
1.91380e+03,-3.82998e+00,-2.33452e+01,1.07892e-02,2.33938e-02,4.19311e-02
1.91380e+03,-3.44287e+00,-2.16777e+01,1.09229e-02,2.37515e-02,4.25641e-02
1.91380e+03,-3.04529e+00,-2.00102e+01,1.10440e-02,2.41090e-02,4.31938e-02
1.91380e+03,-2.63832e+00,-1.83427e+01,1.11537e-02,2.44660e-02,4.38197e-02
1.91380e+03,-2.22297e+00,-1.66751e+01,1.12532e-02,2.48221e-02,4.44416e-02
1.91380e+03,-1.80407e+00,-1.50076e+01,1.13484e-02,2.51771e-02,4.50605e-02
1.91380e+03,-1.37967e+00,-1.33401e+01,1.14370e-02,2.55307e-02,4.56756e-02
1.91380e+03,-9.54362e-01,-1.16726e+01,1.15244e-02,2.58829e-02,4.62880e-02
1.91380e+03,-5.25768e-01,-1.00051e+01,1.16079e-02,2.62334e-02,4.68968e-02
1.91380e+03,-9.72161e-02,-8.33757e+00,1.16914e-02,2.65821e-02,4.75028e-02
1.91380e+03,3.29716e-01,-6.67006e+00,1.17769e-02,2.69292e-02,4.81066e-02
1.91380e+03,7.56647e-01,-5.00254e+00,1.18624e-02,2.72744e-02,4.87073e-02
1.91380e+03,1.17347e+00,-3.33503e+00,1.19601e-02,2.76180e-02,4.93084e-02
1.91380e+03,1.58841e+00,-1.66751e+00,1.20602e-02,2.79602e-02,4.99076e-02
1.94970e+03,1.94880e+01,0.00000e+00,-5.91338e-03,2.06940e-02,3.63275e-02
1.94970e+03,1.93899e+01,-1.48088e+00,-6.16792e-03,2.04779e-02,3.60011e-02
1.94970e+03,1.92593e+01,-2.96177e+00,-6.39960e-03,2.02565e-02,3.56642e-02
1.94970e+03,1.91274e+01,-4.44265e+00,-6.63036e-03,2.00301e-02,3.53211e-02
1.94970e+03,1.89669e+01,-5.92353e+00,-6.84094e-03,1.97991e-02,3.49687e-02
1.94970e+03,1.87998e+01,-7.40441e+00,-7.04684e-03,1.95638e-02,3.46104e-02
1.94970e+03,1.86107e+01,-8.88530e+00,-7.23724e-03,1.93245e-02,3.42445e-02
1.94970e+03,1.84109e+01,-1.03662e+01,-7.42013e-03,1.90816e-02,3.38730e-02
1.94970e+03,1.81935e+01,-1.18471e+01,-7.59057e-03,1.88354e-02,3.34953e-02
1.94970e+03,1.79616e+01,-1.33279e+01,-7.75079e-03,1.85863e-02,3.31124e-02
1.94970e+03,1.77137e+01,-1.48088e+01,-7.89976e-03,1.83346e-02,3.27242e-02
1.94970e+03,1.74465e+01,-1.62897e+01,-8.03512e-03,1.80805e-02,3.23307e-02
1.94970e+03,1.71596e+01,-1.77706e+01,-8.15654e-03,1.78244e-02,3.19321e-02
1.94970e+03,1.68446e+01,-1.92515e+01,-8.25822e-03,1.75669e-02,3.15275e-02
1.94970e+03,1.65024e+01,-2.07324e+01,-8.34067e-03,1.73083e-02,3.11175e-02
1.94970e+03,1.61276e+01,-2.22132e+01,-8.40014e-03,1.70490e-02,3.07013e-02
1.94970e+03,1.57086e+01,-2.36941e+01,-8.42847e-03,1.67900e-02,3.02780e-02
1.94970e+03,1.52589e+01,-2.51750e+01,-8.43515e-03,1.65315e-02,2.98501e-02
1.94970e+03,1.47401e+01,-2.66559e+01,-8.39310e-03,1.62748e-02,2.94118e-02
1.94970e+03,1.41926e+01,-2.81368e+01,-8.33084e-03,1.60206e-02,2.89721e-02
1.94970e+03,1.35653e+01,-2.96177e+01,-8.21231e-03,1.57694e-02,2.85213e-02
1.94970e+03,1.28740e+01,-3.10985e+01,-8.04868e-03,1.55234e-02,2.80662e-02
1.94970e+03,1.21177e+01,-3.25794e+01,-7.83915e-03,1.52830e-02,2.76073e-02
1.94970e+03,1.12521e+01,-3.40603e+01,-7.55258e-03,1.50491e-02,2.71380e-02
1.94970e+03,1.02599e+01,-3.55412e+01,-7.17677e-03,1.48245e-02,2.66610e-02
1.94970e+03,9.12460e+00,-3.70221e+01,-6.70010e-03,1.46120e-02,2.61806e-02
1.94970e+03,7.78184e+00,-3.85029e+01,-6.07713e-03,1.44132e-02,2.56934e-02
1.94970e+03,6.05831e+00,-3.99838e+01,-5.18571e-03,1.42379e-02,2.52001e-02
1.94970e+03,3.72729e+00,-4.14647e+01,-3.86598e-03,1.41307e-02,2.47785e-02
1.94970e+03,-1.51027e+00,-4.29456e+01,-4.97018e-04,1.41729e-02,2.45532e-02
1.94970e+03,-1.88827e+00,-4.29490e+01,-2.31266e-04,1.43045e-02,2.47772e-02
1.94970e+03,-5.33209e+00,-4.14151e+01,2.53209e-03,1.45541e-02,2.53354e-02
1.94970e+03,-5.74905e+00,-3.98812e+01,3.16139e-03,1.47386e-02,2.57230e-02
1.94970e+03,-5.89293e+00,-3.83473e+01,3.59816e-03,1.49327e-02,2.61133e-02
1.94970e+03,-5.91477e+00,-3.68135e+01,3.94887e-03,1.51359e-02,2.65119e-02
1.94970e+03,-5.84465e+00,-3.52796e+01,4.23475e-03,1.53464e-02,2.69160e-02
1.94970e+03,-5.71682e+00,-3.37457e+01,4.47996e-03,1.55632e-02,2.73260e-02
1.94970e+03,-5.53106e+00,-3.22118e+01,4.68431e-03,1.57848e-02,2.77385e-02
1.94970e+03,-5.30995e+00,-3.06779e+01,4.86374e-03,1.60103e-02,2.81540e-02
1.94970e+03,-5.06834e+00,-2.91440e+01,5.02871e-03,1.62391e-02,2.85730e-02
1.94970e+03,-4.79584e+00,-2.76101e+01,5.17192e-03,1.64705e-02,2.89928e-02
1.94970e+03,-4.50405e+00,-2.60762e+01,5.30151e-03,1.67039e-02,2.94137e-02
1.94970e+03,-4.19345e+00,-2.45423e+01,5.41785e-03,1.69388e-02,2.98349e-02
1.94970e+03,-3.86414e+00,-2.30084e+01,5.52099e-03,1.71748e-02,3.02556e-02
1.94970e+03,-3.52308e+00,-2.14745e+01,5.61586e-03,1.74114e-02,3.06758e-02
1.94970e+03,-3.16699e+00,-1.99406e+01,5.70012e-03,1.76482e-02,3.10946e-02
1.94970e+03,-2.80126e+00,-1.84067e+01,5.77759e-03,1.78850e-02,3.15120e-02
1.94970e+03,-2.42690e+00,-1.68728e+01,5.84897e-03,1.81215e-02,3.19277e-02
1.94970e+03,-2.04484e+00,-1.53389e+01,5.91492e-03,1.83574e-02,3.23414e-02
1.94970e+03,-1.65951e+00,-1.38050e+01,5.97857e-03,1.85924e-02,3.27533e-02
1.94970e+03,-1.26912e+00,-1.22712e+01,6.03866e-03,1.88266e-02,3.31631e-02
1.94970e+03,-8.77888e-01,-1.07373e+01,6.09814e-03,1.90598e-02,3.35711e-02
1.94970e+03,-4.83637e-01,-9.20336e+00,6.15550e-03,1.92919e-02,3.39769e-02
1.94970e+03,-8.94260e-02,-7.66947e+00,6.21289e-03,1.95229e-02,3.43807e-02
1.94970e+03,3.03295e-01,-6.13558e+00,6.27133e-03,1.97527e-02,3.47828e-02
1.94970e+03,6.96016e-01,-4.60168e+00,6.32977e-03,1.99814e-02,3.51828e-02
1.94970e+03,1.07944e+00,-3.06779e+00,6.39476e-03,2.02089e-02,3.55822e-02
1.94970e+03,1.46113e+00,-1.53389e+00,6.46098e-03,2.04354e-02,3.59801e-02
1.98010e+03,1.80504e+01,0.00000e+00,-2.74636e-03,1.40823e-02,2.45454e-02
1.98010e+03,1.79595e+01,-1.37164e+00,-2.87333e-03,1.39496e-02,2.43316e-02
1.98010e+03,1.78386e+01,-2.74329e+00,-2.98962e-03,1.38136e-02,2.41120e-02
1.98010e+03,1.77165e+01,-4.11493e+00,-3.10547e-03,1.36746e-02,2.38878e-02
1.98010e+03,1.75678e+01,-5.48657e+00,-3.21191e-03,1.35327e-02,2.36583e-02
1.98010e+03,1.74130e+01,-6.85822e+00,-3.31615e-03,1.33881e-02,2.34248e-02
1.98010e+03,1.72378e+01,-8.22986e+00,-3.41315e-03,1.32412e-02,2.31870e-02
1.98010e+03,1.70528e+01,-9.60150e+00,-3.50664e-03,1.30920e-02,2.29456e-02
1.98010e+03,1.68514e+01,-1.09731e+01,-3.59432e-03,1.29408e-02,2.27006e-02
1.98010e+03,1.66366e+01,-1.23448e+01,-3.67722e-03,1.27878e-02,2.24524e-02
1.98010e+03,1.64070e+01,-1.37164e+01,-3.75487e-03,1.26332e-02,2.22012e-02
1.98010e+03,1.61595e+01,-1.50881e+01,-3.82616e-03,1.24772e-02,2.19473e-02
1.98010e+03,1.58938e+01,-1.64597e+01,-3.89093e-03,1.23200e-02,2.16907e-02
1.98010e+03,1.56020e+01,-1.78314e+01,-3.94649e-03,1.21618e-02,2.14314e-02
1.98010e+03,1.52851e+01,-1.92030e+01,-3.99306e-03,1.20030e-02,2.11698e-02
1.98010e+03,1.49379e+01,-2.05747e+01,-4.02889e-03,1.18438e-02,2.09060e-02
1.98010e+03,1.45498e+01,-2.19463e+01,-4.05018e-03,1.16848e-02,2.06399e-02
1.98010e+03,1.41333e+01,-2.33179e+01,-4.06135e-03,1.15260e-02,2.03726e-02
1.98010e+03,1.36527e+01,-2.46896e+01,-4.04975e-03,1.13684e-02,2.01028e-02
1.98010e+03,1.31457e+01,-2.60612e+01,-4.02872e-03,1.12123e-02,1.98337e-02
1.98010e+03,1.25646e+01,-2.74329e+01,-3.98139e-03,1.10581e-02,1.95626e-02
1.98010e+03,1.19244e+01,-2.88045e+01,-3.91299e-03,1.09070e-02,1.92925e-02
1.98010e+03,1.12238e+01,-3.01762e+01,-3.82315e-03,1.07594e-02,1.90240e-02
1.98010e+03,1.04220e+01,-3.15478e+01,-3.69732e-03,1.06158e-02,1.87552e-02
1.98010e+03,9.50303e+00,-3.29194e+01,-3.52980e-03,1.04779e-02,1.84884e-02
1.98010e+03,8.45151e+00,-3.42911e+01,-3.31516e-03,1.03474e-02,1.82263e-02
1.98010e+03,7.20780e+00,-3.56627e+01,-3.03217e-03,1.02254e-02,1.79685e-02
1.98010e+03,5.61141e+00,-3.70344e+01,-2.62376e-03,1.01178e-02,1.77198e-02
1.98010e+03,3.45234e+00,-3.84060e+01,-2.01525e-03,1.00519e-02,1.75267e-02
1.98010e+03,-1.39886e+00,-3.97777e+01,-4.49369e-04,1.00779e-02,1.74613e-02
1.98010e+03,-1.74898e+00,-3.97808e+01,-3.25232e-04,1.01588e-02,1.75985e-02
1.98010e+03,-4.93876e+00,-3.83601e+01,9.74105e-04,1.03121e-02,1.78876e-02
1.98010e+03,-5.32496e+00,-3.69394e+01,1.27644e-03,1.04254e-02,1.81023e-02
1.98010e+03,-5.45823e+00,-3.55186e+01,1.48883e-03,1.05446e-02,1.83243e-02
1.98010e+03,-5.47846e+00,-3.40979e+01,1.66102e-03,1.06693e-02,1.85543e-02
1.98010e+03,-5.41351e+00,-3.26771e+01,1.80292e-03,1.07986e-02,1.87905e-02
1.98010e+03,-5.29511e+00,-3.12564e+01,1.92581e-03,1.09317e-02,1.90320e-02
1.98010e+03,-5.12305e+00,-2.98356e+01,2.02962e-03,1.10678e-02,1.92772e-02
1.98010e+03,-4.91825e+00,-2.84149e+01,2.12178e-03,1.12063e-02,1.95255e-02
1.98010e+03,-4.69446e+00,-2.69941e+01,2.20720e-03,1.13468e-02,1.97767e-02
1.98010e+03,-4.44207e+00,-2.55734e+01,2.28244e-03,1.14888e-02,2.00297e-02
1.98010e+03,-4.17180e+00,-2.41527e+01,2.35132e-03,1.16321e-02,2.02842e-02
1.98010e+03,-3.88412e+00,-2.27319e+01,2.41401e-03,1.17764e-02,2.05396e-02
1.98010e+03,-3.57909e+00,-2.13112e+01,2.47054e-03,1.19213e-02,2.07955e-02
1.98010e+03,-3.26320e+00,-1.98904e+01,2.52319e-03,1.20665e-02,2.10516e-02
1.98010e+03,-2.93337e+00,-1.84697e+01,2.57090e-03,1.22120e-02,2.13074e-02
1.98010e+03,-2.59462e+00,-1.70489e+01,2.61543e-03,1.23573e-02,2.15627e-02
1.98010e+03,-2.24788e+00,-1.56282e+01,2.65712e-03,1.25025e-02,2.18174e-02
1.98010e+03,-1.89400e+00,-1.42074e+01,2.69626e-03,1.26473e-02,2.20711e-02
1.98010e+03,-1.53709e+00,-1.27867e+01,2.73434e-03,1.27916e-02,2.23239e-02
1.98010e+03,-1.17550e+00,-1.13660e+01,2.77075e-03,1.29354e-02,2.25755e-02
1.98010e+03,-8.13129e-01,-9.94521e+00,2.80688e-03,1.30786e-02,2.28260e-02
1.98010e+03,-4.47961e-01,-8.52447e+00,2.84201e-03,1.32211e-02,2.30752e-02
1.98010e+03,-8.28294e-02,-7.10372e+00,2.87716e-03,1.33628e-02,2.33233e-02
1.98010e+03,2.80922e-01,-5.68298e+00,2.91280e-03,1.35039e-02,2.35702e-02
1.98010e+03,6.44673e-01,-4.26223e+00,2.94844e-03,1.36443e-02,2.38158e-02
1.98010e+03,9.99811e-01,-2.84149e+00,2.98714e-03,1.37839e-02,2.40606e-02
1.98010e+03,1.35334e+00,-1.42074e+00,3.02642e-03,1.39230e-02,2.43045e-02
2.00520e+03,1.68635e+01,0.00000e+00,-1.03853e-03,8.59515e-03,1.49234e-02
2.00520e+03,1.67786e+01,-1.28145e+00,-1.09147e-03,8.52251e-03,1.48017e-02
2.00520e+03,1.66656e+01,-2.56290e+00,-1.14033e-03,8.44809e-03,1.46769e-02
2.00520e+03,1.65515e+01,-3.84435e+00,-1.18903e-03,8.37199e-03,1.45494e-02
2.00520e+03,1.64126e+01,-5.12580e+00,-1.23413e-03,8.29433e-03,1.44191e-02
2.00520e+03,1.62680e+01,-6.40725e+00,-1.27839e-03,8.21523e-03,1.42865e-02
2.00520e+03,1.61044e+01,-7.68870e+00,-1.31989e-03,8.13481e-03,1.41516e-02
2.00520e+03,1.59315e+01,-8.97015e+00,-1.36005e-03,8.05318e-03,1.40147e-02
2.00520e+03,1.57433e+01,-1.02516e+01,-1.39799e-03,7.97044e-03,1.38758e-02
2.00520e+03,1.55427e+01,-1.15330e+01,-1.43411e-03,7.88672e-03,1.37353e-02
2.00520e+03,1.53282e+01,-1.28145e+01,-1.46822e-03,7.80210e-03,1.35932e-02
2.00520e+03,1.50970e+01,-1.40959e+01,-1.49990e-03,7.71672e-03,1.34497e-02
2.00520e+03,1.48486e+01,-1.53774e+01,-1.52910e-03,7.63068e-03,1.33049e-02
2.00520e+03,1.45761e+01,-1.66588e+01,-1.55478e-03,7.54412e-03,1.31590e-02
2.00520e+03,1.42800e+01,-1.79403e+01,-1.57703e-03,7.45723e-03,1.30122e-02
2.00520e+03,1.39556e+01,-1.92217e+01,-1.59518e-03,7.37011e-03,1.28647e-02
2.00520e+03,1.35931e+01,-2.05032e+01,-1.60778e-03,7.28309e-03,1.27167e-02
2.00520e+03,1.32039e+01,-2.17846e+01,-1.61652e-03,7.19623e-03,1.25686e-02
2.00520e+03,1.27550e+01,-2.30661e+01,-1.61656e-03,7.10998e-03,1.24205e-02
2.00520e+03,1.22812e+01,-2.43475e+01,-1.61301e-03,7.02455e-03,1.22733e-02
2.00520e+03,1.17384e+01,-2.56290e+01,-1.59942e-03,6.94016e-03,1.21267e-02
2.00520e+03,1.11403e+01,-2.69104e+01,-1.57778e-03,6.85752e-03,1.19819e-02
2.00520e+03,1.04858e+01,-2.81919e+01,-1.54796e-03,6.77675e-03,1.18393e-02
2.00520e+03,9.73672e+00,-2.94733e+01,-1.50440e-03,6.69817e-03,1.16987e-02
2.00520e+03,8.87814e+00,-3.07548e+01,-1.44493e-03,6.62273e-03,1.15615e-02
2.00520e+03,7.89577e+00,-3.20362e+01,-1.36747e-03,6.55132e-03,1.14293e-02
2.00520e+03,6.73385e+00,-3.33177e+01,-1.26393e-03,6.48456e-03,1.13025e-02
2.00520e+03,5.24243e+00,-3.45991e+01,-1.11251e-03,6.42568e-03,1.11851e-02
2.00520e+03,3.22533e+00,-3.58806e+01,-8.84704e-04,6.38970e-03,1.11026e-02
2.00520e+03,-1.30688e+00,-3.71620e+01,-2.91465e-04,6.40393e-03,1.10958e-02
2.00520e+03,-1.63397e+00,-3.71650e+01,-2.44091e-04,6.44817e-03,1.11712e-02
2.00520e+03,-4.61400e+00,-3.58377e+01,2.56512e-04,6.53208e-03,1.13168e-02
2.00520e+03,-4.97481e+00,-3.45104e+01,3.76551e-04,6.59407e-03,1.14275e-02
2.00520e+03,-5.09932e+00,-3.31830e+01,4.62255e-04,6.65931e-03,1.15435e-02
2.00520e+03,-5.11821e+00,-3.18557e+01,5.32614e-04,6.72758e-03,1.16647e-02
2.00520e+03,-5.05754e+00,-3.05284e+01,5.91412e-04,6.79833e-03,1.17899e-02
2.00520e+03,-4.94693e+00,-2.92011e+01,6.42954e-04,6.87116e-03,1.19186e-02
2.00520e+03,-4.78618e+00,-2.78738e+01,6.87212e-04,6.94564e-03,1.20498e-02
2.00520e+03,-4.59485e+00,-2.65464e+01,7.27026e-04,7.02141e-03,1.21831e-02
2.00520e+03,-4.38577e+00,-2.52191e+01,7.64262e-04,7.09827e-03,1.23183e-02
2.00520e+03,-4.14998e+00,-2.38918e+01,7.97615e-04,7.17601e-03,1.24548e-02
2.00520e+03,-3.89748e+00,-2.25645e+01,8.28542e-04,7.25441e-03,1.25923e-02
2.00520e+03,-3.62871e+00,-2.12371e+01,8.57105e-04,7.33334e-03,1.27306e-02
2.00520e+03,-3.34375e+00,-1.99098e+01,8.83314e-04,7.41261e-03,1.28694e-02
2.00520e+03,-3.04862e+00,-1.85825e+01,9.08047e-04,7.49209e-03,1.30084e-02
2.00520e+03,-2.74048e+00,-1.72552e+01,9.30889e-04,7.57166e-03,1.31475e-02
2.00520e+03,-2.42401e+00,-1.59279e+01,9.52521e-04,7.65120e-03,1.32865e-02
2.00520e+03,-2.10007e+00,-1.46005e+01,9.73066e-04,7.73063e-03,1.34252e-02
2.00520e+03,-1.76946e+00,-1.32732e+01,9.92643e-04,7.80985e-03,1.35634e-02
2.00520e+03,-1.43602e+00,-1.19459e+01,1.01181e-03,7.88882e-03,1.37012e-02
2.00520e+03,-1.09820e+00,-1.06186e+01,1.03034e-03,7.96747e-03,1.38385e-02
2.00520e+03,-7.59661e-01,-9.29125e+00,1.04876e-03,8.04579e-03,1.39751e-02
2.00520e+03,-4.18505e-01,-7.96393e+00,1.06681e-03,8.12375e-03,1.41111e-02
2.00520e+03,-7.73829e-02,-6.63661e+00,1.08486e-03,8.20131e-03,1.42465e-02
2.00520e+03,2.62450e-01,-5.30929e+00,1.10310e-03,8.27850e-03,1.43811e-02
2.00520e+03,6.02282e-01,-3.98196e+00,1.12133e-03,8.35527e-03,1.45151e-02
2.00520e+03,9.34067e-01,-2.65464e+00,1.14074e-03,8.43167e-03,1.46486e-02
2.00520e+03,1.26435e+00,-1.32732e+00,1.16036e-03,8.50775e-03,1.47815e-02
2.02480e+03,1.59367e+01,0.00000e+00,-2.87529e-04,4.43274e-03,7.68311e-03
2.02480e+03,1.58564e+01,-1.21102e+00,-3.04378e-04,4.39953e-03,7.62629e-03
2.02480e+03,1.57496e+01,-2.42204e+00,-3.20081e-04,4.36551e-03,7.56806e-03
2.02480e+03,1.56418e+01,-3.63306e+00,-3.35738e-04,4.33072e-03,7.50854e-03
2.02480e+03,1.55106e+01,-4.84408e+00,-3.50382e-04,4.29522e-03,7.44779e-03
2.02480e+03,1.53739e+01,-6.05509e+00,-3.64792e-04,4.25906e-03,7.38593e-03
2.02480e+03,1.52192e+01,-7.26611e+00,-3.78424e-04,4.22230e-03,7.32302e-03
2.02480e+03,1.50559e+01,-8.47713e+00,-3.91680e-04,4.18498e-03,7.25918e-03
2.02480e+03,1.48781e+01,-9.68815e+00,-4.04311e-04,4.14716e-03,7.19447e-03
2.02480e+03,1.46884e+01,-1.08992e+01,-4.16429e-04,4.10889e-03,7.12898e-03
2.02480e+03,1.44857e+01,-1.21102e+01,-4.27984e-04,4.07021e-03,7.06280e-03
2.02480e+03,1.42672e+01,-1.33212e+01,-4.38855e-04,4.03119e-03,6.99600e-03
2.02480e+03,1.40325e+01,-1.45322e+01,-4.49028e-04,3.99186e-03,6.92866e-03
2.02480e+03,1.37750e+01,-1.57432e+01,-4.58210e-04,3.95229e-03,6.86089e-03
2.02480e+03,1.34951e+01,-1.69543e+01,-4.66428e-04,3.91257e-03,6.79281e-03
2.02480e+03,1.31886e+01,-1.81653e+01,-4.73494e-04,3.87275e-03,6.72450e-03
2.02480e+03,1.28460e+01,-1.93763e+01,-4.78997e-04,3.83298e-03,6.65617e-03
2.02480e+03,1.24782e+01,-2.05873e+01,-4.83415e-04,3.79327e-03,6.58790e-03
2.02480e+03,1.20540e+01,-2.17983e+01,-4.85388e-04,3.75385e-03,6.51995e-03
2.02480e+03,1.16063e+01,-2.30094e+01,-4.86348e-04,3.71480e-03,6.45259e-03
2.02480e+03,1.10933e+01,-2.42204e+01,-4.84486e-04,3.67623e-03,6.38583e-03
2.02480e+03,1.05280e+01,-2.54314e+01,-4.80361e-04,3.63846e-03,6.32028e-03
2.02480e+03,9.90946e+00,-2.66424e+01,-4.73935e-04,3.60155e-03,6.25604e-03
2.02480e+03,9.20158e+00,-2.78534e+01,-4.63644e-04,3.56563e-03,6.19323e-03
2.02480e+03,8.39019e+00,-2.90645e+01,-4.48878e-04,3.53115e-03,6.13258e-03
2.02480e+03,7.46181e+00,-3.02755e+01,-4.29052e-04,3.49852e-03,6.07478e-03
2.02480e+03,6.36374e+00,-3.14865e+01,-4.01889e-04,3.46800e-03,6.02018e-03
2.02480e+03,4.95429e+00,-3.26975e+01,-3.61261e-04,3.44110e-03,5.97109e-03
2.02480e+03,3.04806e+00,-3.39085e+01,-2.99151e-04,3.42466e-03,5.93922e-03
2.02480e+03,-1.23505e+00,-3.51195e+01,-1.34260e-04,3.43117e-03,5.94448e-03
2.02480e+03,-1.54416e+00,-3.51224e+01,-1.20940e-04,3.45139e-03,5.97921e-03
2.02480e+03,-4.36041e+00,-3.38680e+01,2.18875e-05,3.48975e-03,6.04447e-03
2.02480e+03,-4.70139e+00,-3.26136e+01,5.76794e-05,3.51809e-03,6.09378e-03
2.02480e+03,-4.81905e+00,-3.13592e+01,8.38147e-05,3.54791e-03,6.14573e-03
2.02480e+03,-4.83691e+00,-3.01049e+01,1.05634e-04,3.57911e-03,6.20011e-03
2.02480e+03,-4.77957e+00,-2.88505e+01,1.24201e-04,3.61146e-03,6.25646e-03
2.02480e+03,-4.67504e+00,-2.75961e+01,1.40728e-04,3.64474e-03,6.31445e-03
2.02480e+03,-4.52312e+00,-2.63418e+01,1.55207e-04,3.67879e-03,6.37374e-03
2.02480e+03,-4.34231e+00,-2.50874e+01,1.68435e-04,3.71342e-03,6.43403e-03
2.02480e+03,-4.14473e+00,-2.38330e+01,1.80938e-04,3.74855e-03,6.49520e-03
2.02480e+03,-3.92189e+00,-2.25787e+01,1.92349e-04,3.78408e-03,6.55704e-03
2.02480e+03,-3.68327e+00,-2.13243e+01,2.03078e-04,3.81992e-03,6.61941e-03
2.02480e+03,-3.42927e+00,-2.00699e+01,2.13142e-04,3.85599e-03,6.68217e-03
2.02480e+03,-3.15997e+00,-1.88155e+01,2.22544e-04,3.89222e-03,6.74519e-03
2.02480e+03,-2.88106e+00,-1.75612e+01,2.31531e-04,3.92855e-03,6.80838e-03
2.02480e+03,-2.58986e+00,-1.63068e+01,2.39986e-04,3.96491e-03,6.87162e-03
2.02480e+03,-2.29078e+00,-1.50524e+01,2.48100e-04,4.00127e-03,6.93484e-03
2.02480e+03,-1.98465e+00,-1.37981e+01,2.55909e-04,4.03757e-03,6.99795e-03
2.02480e+03,-1.67220e+00,-1.25437e+01,2.63446e-04,4.07377e-03,7.06090e-03
2.02480e+03,-1.35709e+00,-1.12893e+01,2.70867e-04,4.10986e-03,7.12364e-03
2.02480e+03,-1.03784e+00,-1.00350e+01,2.78109e-04,4.14581e-03,7.18613e-03
2.02480e+03,-7.17909e-01,-8.78059e+00,2.85321e-04,4.18160e-03,7.24836e-03
2.02480e+03,-3.95503e-01,-7.52622e+00,2.92427e-04,4.21723e-03,7.31030e-03
2.02480e+03,-7.31298e-02,-6.27185e+00,2.99534e-04,4.25267e-03,7.37194e-03
2.02480e+03,2.48025e-01,-5.01748e+00,3.06694e-04,4.28795e-03,7.43327e-03
2.02480e+03,5.69180e-01,-3.76311e+00,3.13853e-04,4.32303e-03,7.49428e-03
2.02480e+03,8.82730e-01,-2.50874e+00,3.21342e-04,4.35795e-03,7.55502e-03
2.02480e+03,1.19486e+00,-1.25437e+00,3.28892e-04,4.39271e-03,7.61551e-03
2.03880e+03,1.52746e+01,0.00000e+00,-4.79469e-05,1.72746e-03,2.99243e-03
2.03880e+03,1.51977e+01,-1.16071e+00,-5.14553e-05,1.71650e-03,2.97350e-03
2.03880e+03,1.50954e+01,-2.32142e+00,-5.47666e-05,1.70527e-03,2.95412e-03
2.03880e+03,1.49920e+01,-3.48213e+00,-5.80699e-05,1.69378e-03,2.93430e-03
2.03880e+03,1.48662e+01,-4.64285e+00,-6.11992e-05,1.68207e-03,2.91407e-03
2.03880e+03,1.47352e+01,-5.80356e+00,-6.42881e-05,1.67013e-03,2.89347e-03
2.03880e+03,1.45870e+01,-6.96427e+00,-6.72433e-05,1.65800e-03,2.87253e-03
2.03880e+03,1.44304e+01,-8.12498e+00,-7.01337e-05,1.64568e-03,2.85127e-03
2.03880e+03,1.42600e+01,-9.28569e+00,-7.29168e-05,1.63320e-03,2.82973e-03
2.03880e+03,1.40782e+01,-1.04464e+01,-7.56117e-05,1.62057e-03,2.80793e-03
2.03880e+03,1.38839e+01,-1.16071e+01,-7.82095e-05,1.60781e-03,2.78590e-03
2.03880e+03,1.36745e+01,-1.27678e+01,-8.06900e-05,1.59493e-03,2.76367e-03
2.03880e+03,1.34496e+01,-1.39285e+01,-8.30502e-05,1.58194e-03,2.74127e-03
2.03880e+03,1.32028e+01,-1.50892e+01,-8.52402e-05,1.56889e-03,2.71873e-03
2.03880e+03,1.29345e+01,-1.62500e+01,-8.72643e-05,1.55578e-03,2.69610e-03
2.03880e+03,1.26407e+01,-1.74107e+01,-8.90901e-05,1.54264e-03,2.67341e-03
2.03880e+03,1.23123e+01,-1.85714e+01,-9.06475e-05,1.52951e-03,2.65074e-03
2.03880e+03,1.19599e+01,-1.97321e+01,-9.20180e-05,1.51641e-03,2.62811e-03
2.03880e+03,1.15532e+01,-2.08928e+01,-9.29682e-05,1.50340e-03,2.60562e-03
2.03880e+03,1.11241e+01,-2.20535e+01,-9.37442e-05,1.49051e-03,2.58334e-03
2.03880e+03,1.06324e+01,-2.32142e+01,-9.40347e-05,1.47778e-03,2.56132e-03
2.03880e+03,1.00906e+01,-2.43749e+01,-9.39362e-05,1.46532e-03,2.53974e-03
2.03880e+03,9.49781e+00,-2.55357e+01,-9.34419e-05,1.45313e-03,2.51864e-03
2.03880e+03,8.81933e+00,-2.66964e+01,-9.22831e-05,1.44128e-03,2.49808e-03
2.03880e+03,8.04165e+00,-2.78571e+01,-9.03545e-05,1.42990e-03,2.47831e-03
2.03880e+03,7.15183e+00,-2.90178e+01,-8.75559e-05,1.41913e-03,2.45957e-03
2.03880e+03,6.09938e+00,-3.01785e+01,-8.34955e-05,1.40906e-03,2.44200e-03
2.03880e+03,4.74849e+00,-3.13392e+01,-7.71195e-05,1.40019e-03,2.42642e-03
2.03880e+03,2.92144e+00,-3.24999e+01,-6.70492e-05,1.39476e-03,2.41673e-03
2.03880e+03,-1.18374e+00,-3.36606e+01,-3.93035e-05,1.39691e-03,2.41985e-03
2.03880e+03,-1.48002e+00,-3.36633e+01,-3.70143e-05,1.40359e-03,2.43137e-03
2.03880e+03,-4.17927e+00,-3.24611e+01,-1.18193e-05,1.41625e-03,2.45305e-03
2.03880e+03,-4.50609e+00,-3.12588e+01,-5.03137e-06,1.42560e-03,2.46922e-03
2.03880e+03,-4.61886e+00,-3.00565e+01,9.58566e-08,1.43544e-03,2.48626e-03
2.03880e+03,-4.63598e+00,-2.88543e+01,4.48085e-06,1.44574e-03,2.50410e-03
2.03880e+03,-4.58102e+00,-2.76520e+01,8.30665e-06,1.45642e-03,2.52260e-03
2.03880e+03,-4.48083e+00,-2.64498e+01,1.17815e-05,1.46740e-03,2.54164e-03
2.03880e+03,-4.33523e+00,-2.52475e+01,1.49041e-05,1.47864e-03,2.56112e-03
2.03880e+03,-4.16192e+00,-2.40452e+01,1.78117e-05,1.49007e-03,2.58093e-03
2.03880e+03,-3.97255e+00,-2.28430e+01,2.05946e-05,1.50166e-03,2.60103e-03
2.03880e+03,-3.75897e+00,-2.16407e+01,2.31897e-05,1.51339e-03,2.62136e-03
2.03880e+03,-3.53026e+00,-2.04384e+01,2.56675e-05,1.52521e-03,2.64187e-03
2.03880e+03,-3.28682e+00,-1.92362e+01,2.80309e-05,1.53712e-03,2.66251e-03
2.03880e+03,-3.02870e+00,-1.80339e+01,3.02804e-05,1.54907e-03,2.68324e-03
2.03880e+03,-2.76138e+00,-1.68317e+01,3.24586e-05,1.56106e-03,2.70403e-03
2.03880e+03,-2.48228e+00,-1.56294e+01,3.45453e-05,1.57306e-03,2.72484e-03
2.03880e+03,-2.19562e+00,-1.44271e+01,3.65735e-05,1.58506e-03,2.74565e-03
2.03880e+03,-1.90220e+00,-1.32249e+01,3.85491e-05,1.59704e-03,2.76642e-03
2.03880e+03,-1.60274e+00,-1.20226e+01,4.04779e-05,1.60899e-03,2.78714e-03
2.03880e+03,-1.30072e+00,-1.08204e+01,4.23868e-05,1.62089e-03,2.80779e-03
2.03880e+03,-9.94731e-01,-9.61809e+00,4.42650e-05,1.63276e-03,2.82836e-03
2.03880e+03,-6.88086e-01,-8.41583e+00,4.61380e-05,1.64457e-03,2.84885e-03
2.03880e+03,-3.79073e-01,-7.21357e+00,4.79927e-05,1.65632e-03,2.86924e-03
2.03880e+03,-7.00919e-02,-6.01131e+00,4.98476e-05,1.66802e-03,2.88953e-03
2.03880e+03,2.37722e-01,-4.80905e+00,5.17116e-05,1.67966e-03,2.90971e-03
2.03880e+03,5.45535e-01,-3.60678e+00,5.35756e-05,1.69124e-03,2.92980e-03
2.03880e+03,8.46060e-01,-2.40452e+00,5.54961e-05,1.70276e-03,2.94978e-03
2.03880e+03,1.14523e+00,-1.20226e+00,5.74272e-05,1.71423e-03,2.96969e-03
2.04720e+03,1.48774e+01,0.00000e+00,-5.42760e-06,3.42282e-04,5.92875e-04
2.04720e+03,1.48025e+01,-1.13053e+00,-5.98030e-06,3.40695e-04,5.90131e-04
2.04720e+03,1.47028e+01,-2.26105e+00,-6.50932e-06,3.39068e-04,5.87320e-04
2.04720e+03,1.46021e+01,-3.39158e+00,-7.03740e-06,3.37405e-04,5.84445e-04
2.04720e+03,1.44796e+01,-4.52211e+00,-7.54457e-06,3.35708e-04,5.81512e-04
2.04720e+03,1.43520e+01,-5.65264e+00,-8.04689e-06,3.33980e-04,5.78525e-04
2.04720e+03,1.42077e+01,-6.78316e+00,-8.53315e-06,3.32222e-04,5.75489e-04
2.04720e+03,1.40552e+01,-7.91369e+00,-9.01163e-06,3.30438e-04,5.72407e-04
2.04720e+03,1.38892e+01,-9.04422e+00,-9.47722e-06,3.28630e-04,5.69283e-04
2.04720e+03,1.37121e+01,-1.01747e+01,-9.93221e-06,3.26801e-04,5.66123e-04
2.04720e+03,1.35229e+01,-1.13053e+01,-1.03756e-05,3.24952e-04,5.62929e-04
2.04720e+03,1.33189e+01,-1.24358e+01,-1.08048e-05,3.23087e-04,5.59707e-04
2.04720e+03,1.30998e+01,-1.35663e+01,-1.12196e-05,3.21207e-04,5.56459e-04
2.04720e+03,1.28594e+01,-1.46969e+01,-1.16139e-05,3.19315e-04,5.53192e-04
2.04720e+03,1.25982e+01,-1.58274e+01,-1.19884e-05,3.17417e-04,5.49913e-04
2.04720e+03,1.23120e+01,-1.69579e+01,-1.23390e-05,3.15514e-04,5.46625e-04
2.04720e+03,1.19922e+01,-1.80884e+01,-1.26574e-05,3.13612e-04,5.43340e-04
2.04720e+03,1.16489e+01,-1.92190e+01,-1.29533e-05,3.11715e-04,5.40061e-04
2.04720e+03,1.12528e+01,-2.03495e+01,-1.31987e-05,3.09830e-04,5.36804e-04
2.04720e+03,1.08348e+01,-2.14800e+01,-1.34232e-05,3.07964e-04,5.33578e-04
2.04720e+03,1.03559e+01,-2.26105e+01,-1.35895e-05,3.06120e-04,5.30390e-04
2.04720e+03,9.82823e+00,-2.37411e+01,-1.37090e-05,3.04315e-04,5.27267e-04
2.04720e+03,9.25081e+00,-2.48716e+01,-1.37809e-05,3.02551e-04,5.24214e-04
2.04720e+03,8.58998e+00,-2.60021e+01,-1.37730e-05,3.00834e-04,5.21242e-04
2.04720e+03,7.83252e+00,-2.71326e+01,-1.36727e-05,2.99186e-04,5.18386e-04
2.04720e+03,6.96585e+00,-2.82632e+01,-1.34679e-05,2.97627e-04,5.15680e-04
2.04720e+03,5.94077e+00,-2.93937e+01,-1.31115e-05,2.96168e-04,5.13146e-04
2.04720e+03,4.62500e+00,-3.05242e+01,-1.24771e-05,2.94883e-04,5.10904e-04
2.04720e+03,2.84547e+00,-3.16548e+01,-1.13989e-05,2.94097e-04,5.09519e-04
2.04720e+03,-1.15296e+00,-3.27853e+01,-8.19771e-06,2.94409e-04,5.09997e-04
2.04720e+03,-1.44153e+00,-3.27879e+01,-7.92307e-06,2.95376e-04,5.11667e-04
2.04720e+03,-4.07059e+00,-3.16169e+01,-4.76094e-06,2.97210e-04,5.14804e-04
2.04720e+03,-4.38891e+00,-3.04459e+01,-3.80965e-06,2.98564e-04,5.17142e-04
2.04720e+03,-4.49875e+00,-2.92749e+01,-3.05781e-06,2.99990e-04,5.19606e-04
2.04720e+03,-4.51542e+00,-2.81039e+01,-2.39512e-06,3.01481e-04,5.22186e-04
2.04720e+03,-4.46189e+00,-2.69329e+01,-1.79959e-06,3.03027e-04,5.24861e-04
2.04720e+03,-4.36430e+00,-2.57619e+01,-1.24621e-06,3.04618e-04,5.27616e-04
2.04720e+03,-4.22249e+00,-2.45909e+01,-7.35155e-07,3.06245e-04,5.30433e-04
2.04720e+03,-4.05369e+00,-2.34199e+01,-2.49911e-07,3.07901e-04,5.33300e-04
2.04720e+03,-3.86924e+00,-2.22489e+01,2.20358e-07,3.09580e-04,5.36208e-04
2.04720e+03,-3.66121e+00,-2.10779e+01,6.68071e-07,3.11278e-04,5.39150e-04
2.04720e+03,-3.43845e+00,-1.99069e+01,1.10169e-06,3.12991e-04,5.42117e-04
2.04720e+03,-3.20134e+00,-1.87359e+01,1.52157e-06,3.14715e-04,5.45105e-04
2.04720e+03,-2.94994e+00,-1.75649e+01,1.92778e-06,3.16447e-04,5.48105e-04
2.04720e+03,-2.68957e+00,-1.63940e+01,2.32541e-06,3.18183e-04,5.51114e-04
2.04720e+03,-2.41772e+00,-1.52230e+01,2.71206e-06,3.19921e-04,5.54126e-04
2.04720e+03,-2.13852e+00,-1.40520e+01,3.09168e-06,3.21658e-04,5.57137e-04
2.04720e+03,-1.85273e+00,-1.28810e+01,3.46499e-06,3.23393e-04,5.60144e-04
2.04720e+03,-1.56106e+00,-1.17100e+01,3.83267e-06,3.25124e-04,5.63144e-04
2.04720e+03,-1.26689e+00,-1.05390e+01,4.19796e-06,3.26848e-04,5.66133e-04
2.04720e+03,-9.68863e-01,-9.36797e+00,4.55957e-06,3.28566e-04,5.69111e-04
2.04720e+03,-6.70192e-01,-8.19698e+00,4.92055e-06,3.30277e-04,5.72077e-04
2.04720e+03,-3.69215e-01,-7.02598e+00,5.27933e-06,3.31979e-04,5.75029e-04
2.04720e+03,-6.82691e-02,-5.85498e+00,5.63814e-06,3.33673e-04,5.77966e-04
2.04720e+03,2.31540e-01,-4.68399e+00,5.99804e-06,3.35359e-04,5.80889e-04
2.04720e+03,5.31348e-01,-3.51299e+00,6.35794e-06,3.37035e-04,5.83797e-04
2.04720e+03,8.24058e-01,-2.34199e+00,6.72463e-06,3.38704e-04,5.86691e-04
2.04720e+03,1.11544e+00,-1.17100e+00,7.09258e-06,3.40365e-04,5.89572e-04
2.05000e+03,1.47450e+01,0.00000e+00,0.00000e+00,0.00000e+00,0.00000e+00
2.05000e+03,1.46708e+01,-1.12047e+00,0.00000e+00,0.00000e+00,0.00000e+00
2.05000e+03,1.45720e+01,-2.24093e+00,0.00000e+00,0.00000e+00,0.00000e+00
2.05000e+03,1.44722e+01,-3.36140e+00,0.00000e+00,0.00000e+00,0.00000e+00
2.05000e+03,1.43508e+01,-4.48186e+00,0.00000e+00,0.00000e+00,0.00000e+00
2.05000e+03,1.42243e+01,-5.60233e+00,0.00000e+00,0.00000e+00,0.00000e+00
2.05000e+03,1.40812e+01,-6.72279e+00,0.00000e+00,0.00000e+00,0.00000e+00
2.05000e+03,1.39301e+01,-7.84326e+00,0.00000e+00,0.00000e+00,0.00000e+00
2.05000e+03,1.37656e+01,-8.96372e+00,0.00000e+00,0.00000e+00,0.00000e+00
2.05000e+03,1.35901e+01,-1.00842e+01,0.00000e+00,0.00000e+00,0.00000e+00
2.05000e+03,1.34025e+01,-1.12047e+01,0.00000e+00,0.00000e+00,0.00000e+00
2.05000e+03,1.32004e+01,-1.23251e+01,0.00000e+00,0.00000e+00,0.00000e+00
2.05000e+03,1.29833e+01,-1.34456e+01,0.00000e+00,0.00000e+00,0.00000e+00
2.05000e+03,1.27450e+01,-1.45661e+01,0.00000e+00,0.00000e+00,0.00000e+00
2.05000e+03,1.24860e+01,-1.56865e+01,0.00000e+00,0.00000e+00,0.00000e+00
2.05000e+03,1.22024e+01,-1.68070e+01,0.00000e+00,0.00000e+00,0.00000e+00
2.05000e+03,1.18854e+01,-1.79274e+01,0.00000e+00,0.00000e+00,0.00000e+00
2.05000e+03,1.15452e+01,-1.90479e+01,0.00000e+00,0.00000e+00,0.00000e+00
2.05000e+03,1.11526e+01,-2.01684e+01,0.00000e+00,0.00000e+00,0.00000e+00
2.05000e+03,1.07384e+01,-2.12888e+01,0.00000e+00,0.00000e+00,0.00000e+00
2.05000e+03,1.02638e+01,-2.24093e+01,0.00000e+00,0.00000e+00,0.00000e+00
2.05000e+03,9.74076e+00,-2.35298e+01,0.00000e+00,0.00000e+00,0.00000e+00
2.05000e+03,9.16848e+00,-2.46502e+01,0.00000e+00,0.00000e+00,0.00000e+00
2.05000e+03,8.51353e+00,-2.57707e+01,0.00000e+00,0.00000e+00,0.00000e+00
2.05000e+03,7.76281e+00,-2.68912e+01,0.00000e+00,0.00000e+00,0.00000e+00
2.05000e+03,6.90385e+00,-2.80116e+01,0.00000e+00,0.00000e+00,0.00000e+00
2.05000e+03,5.88790e+00,-2.91321e+01,0.00000e+00,0.00000e+00,0.00000e+00
2.05000e+03,4.58384e+00,-3.02526e+01,0.00000e+00,0.00000e+00,0.00000e+00
2.05000e+03,2.82014e+00,-3.13730e+01,0.00000e+00,0.00000e+00,0.00000e+00
2.05000e+03,-1.14270e+00,-3.24935e+01,0.00000e+00,0.00000e+00,0.00000e+00
2.05000e+03,-1.42870e+00,-3.24961e+01,0.00000e+00,0.00000e+00,0.00000e+00
2.05000e+03,-4.03436e+00,-3.13355e+01,0.00000e+00,0.00000e+00,0.00000e+00
2.05000e+03,-4.34985e+00,-3.01749e+01,0.00000e+00,0.00000e+00,0.00000e+00
2.05000e+03,-4.45871e+00,-2.90144e+01,0.00000e+00,0.00000e+00,0.00000e+00
2.05000e+03,-4.47523e+00,-2.78538e+01,0.00000e+00,0.00000e+00,0.00000e+00
2.05000e+03,-4.42218e+00,-2.66932e+01,0.00000e+00,0.00000e+00,0.00000e+00
2.05000e+03,-4.32546e+00,-2.55327e+01,0.00000e+00,0.00000e+00,0.00000e+00
2.05000e+03,-4.18491e+00,-2.43721e+01,0.00000e+00,0.00000e+00,0.00000e+00
2.05000e+03,-4.01761e+00,-2.32115e+01,0.00000e+00,0.00000e+00,0.00000e+00
2.05000e+03,-3.83480e+00,-2.20509e+01,0.00000e+00,0.00000e+00,0.00000e+00
2.05000e+03,-3.62863e+00,-2.08903e+01,0.00000e+00,0.00000e+00,0.00000e+00
2.05000e+03,-3.40785e+00,-1.97298e+01,0.00000e+00,0.00000e+00,0.00000e+00
2.05000e+03,-3.17285e+00,-1.85692e+01,0.00000e+00,0.00000e+00,0.00000e+00
2.05000e+03,-2.92368e+00,-1.74086e+01,0.00000e+00,0.00000e+00,0.00000e+00
2.05000e+03,-2.66563e+00,-1.62480e+01,0.00000e+00,0.00000e+00,0.00000e+00
2.05000e+03,-2.39621e+00,-1.50875e+01,0.00000e+00,0.00000e+00,0.00000e+00
2.05000e+03,-2.11949e+00,-1.39269e+01,0.00000e+00,0.00000e+00,0.00000e+00
2.05000e+03,-1.83624e+00,-1.27663e+01,0.00000e+00,0.00000e+00,0.00000e+00
2.05000e+03,-1.54717e+00,-1.16057e+01,0.00000e+00,0.00000e+00,0.00000e+00
2.05000e+03,-1.25562e+00,-1.04452e+01,0.00000e+00,0.00000e+00,0.00000e+00
2.05000e+03,-9.60241e-01,-9.28460e+00,0.00000e+00,0.00000e+00,0.00000e+00
2.05000e+03,-6.64227e-01,-8.12402e+00,0.00000e+00,0.00000e+00,0.00000e+00
2.05000e+03,-3.65929e-01,-6.96345e+00,0.00000e+00,0.00000e+00,0.00000e+00
2.05000e+03,-6.76615e-02,-5.80287e+00,0.00000e+00,0.00000e+00,0.00000e+00
2.05000e+03,2.29479e-01,-4.64230e+00,0.00000e+00,0.00000e+00,0.00000e+00
2.05000e+03,5.26620e-01,-3.48173e+00,0.00000e+00,0.00000e+00,0.00000e+00
2.05000e+03,8.16724e-01,-2.32115e+00,0.00000e+00,0.00000e+00,0.00000e+00
2.05000e+03,1.10552e+00,-1.16058e+00,0.00000e+00,0.00000e+00,0.00000e+00
--------------------------------------------------------------------------------------------------------------------------------------------------------------------------------------------------------------------------------------------------------------------------------------------------------------------------------------------------------------------------------

LAMINADO 
--------------------------------------------------------------------------------------------------------------------------------------------------------------------------------------------------------------------------------------------------------------------------------------------------------------------------------------------------------------------------------
X,Y,Z,Sigma,Tau,Von Mises
0.00000e+00,4.31008e+01,0.00000e+00,0.00000e+00,0.00000e+00,0.00000e+00
0.00000e+00,4.28837e+01,-3.27521e+00,0.00000e+00,0.00000e+00,0.00000e+00
0.00000e+00,4.25950e+01,-6.55041e+00,0.00000e+00,0.00000e+00,0.00000e+00
0.00000e+00,4.23033e+01,-9.82562e+00,0.00000e+00,0.00000e+00,0.00000e+00
0.00000e+00,4.19484e+01,-1.31008e+01,0.00000e+00,0.00000e+00,0.00000e+00
0.00000e+00,4.15787e+01,-1.63760e+01,0.00000e+00,0.00000e+00,0.00000e+00
0.00000e+00,4.11605e+01,-1.96512e+01,0.00000e+00,0.00000e+00,0.00000e+00
0.00000e+00,4.07187e+01,-2.29264e+01,0.00000e+00,0.00000e+00,0.00000e+00
0.00000e+00,4.02378e+01,-2.62017e+01,0.00000e+00,0.00000e+00,0.00000e+00
0.00000e+00,3.97249e+01,-2.94769e+01,0.00000e+00,0.00000e+00,0.00000e+00
0.00000e+00,3.91766e+01,-3.27521e+01,0.00000e+00,0.00000e+00,0.00000e+00
0.00000e+00,3.85857e+01,-3.60273e+01,0.00000e+00,0.00000e+00,0.00000e+00
0.00000e+00,3.79511e+01,-3.93025e+01,0.00000e+00,0.00000e+00,0.00000e+00
0.00000e+00,3.72545e+01,-4.25777e+01,0.00000e+00,0.00000e+00,0.00000e+00
0.00000e+00,3.64976e+01,-4.58529e+01,0.00000e+00,0.00000e+00,0.00000e+00
0.00000e+00,3.56687e+01,-4.91281e+01,0.00000e+00,0.00000e+00,0.00000e+00
0.00000e+00,3.47420e+01,-5.24033e+01,0.00000e+00,0.00000e+00,0.00000e+00
0.00000e+00,3.37474e+01,-5.56785e+01,0.00000e+00,0.00000e+00,0.00000e+00
0.00000e+00,3.26000e+01,-5.89537e+01,0.00000e+00,0.00000e+00,0.00000e+00
0.00000e+00,3.13892e+01,-6.22289e+01,0.00000e+00,0.00000e+00,0.00000e+00
0.00000e+00,3.00018e+01,-6.55041e+01,0.00000e+00,0.00000e+00,0.00000e+00
0.00000e+00,2.84730e+01,-6.87793e+01,0.00000e+00,0.00000e+00,0.00000e+00
0.00000e+00,2.68002e+01,-7.20546e+01,0.00000e+00,0.00000e+00,0.00000e+00
0.00000e+00,2.48857e+01,-7.53298e+01,0.00000e+00,0.00000e+00,0.00000e+00
0.00000e+00,2.26913e+01,-7.86050e+01,0.00000e+00,0.00000e+00,0.00000e+00
0.00000e+00,2.01805e+01,-8.18802e+01,0.00000e+00,0.00000e+00,0.00000e+00
0.00000e+00,1.72108e+01,-8.51554e+01,0.00000e+00,0.00000e+00,0.00000e+00
0.00000e+00,1.33989e+01,-8.84306e+01,0.00000e+00,0.00000e+00,0.00000e+00
0.00000e+00,8.24350e+00,-9.17058e+01,0.00000e+00,0.00000e+00,0.00000e+00
0.00000e+00,-3.34020e+00,-9.49810e+01,0.00000e+00,0.00000e+00,0.00000e+00
0.00000e+00,-4.17620e+00,-9.49886e+01,0.00000e+00,0.00000e+00,0.00000e+00
0.00000e+00,-1.17928e+01,-9.15961e+01,0.00000e+00,0.00000e+00,0.00000e+00
0.00000e+00,-1.27149e+01,-8.82037e+01,0.00000e+00,0.00000e+00,0.00000e+00
0.00000e+00,-1.30332e+01,-8.48113e+01,0.00000e+00,0.00000e+00,0.00000e+00
0.00000e+00,-1.30814e+01,-8.14188e+01,0.00000e+00,0.00000e+00,0.00000e+00
0.00000e+00,-1.29264e+01,-7.80264e+01,0.00000e+00,0.00000e+00,0.00000e+00
0.00000e+00,-1.26437e+01,-7.46339e+01,0.00000e+00,0.00000e+00,0.00000e+00
0.00000e+00,-1.22328e+01,-7.12415e+01,0.00000e+00,0.00000e+00,0.00000e+00
0.00000e+00,-1.17438e+01,-6.78490e+01,0.00000e+00,0.00000e+00,0.00000e+00
0.00000e+00,-1.12094e+01,-6.44565e+01,0.00000e+00,0.00000e+00,0.00000e+00
0.00000e+00,-1.06068e+01,-6.10641e+01,0.00000e+00,0.00000e+00,0.00000e+00
0.00000e+00,-9.96142e+00,-5.76716e+01,0.00000e+00,0.00000e+00,0.00000e+00
0.00000e+00,-9.27449e+00,-5.42792e+01,0.00000e+00,0.00000e+00,0.00000e+00
0.00000e+00,-8.54615e+00,-5.08867e+01,0.00000e+00,0.00000e+00,0.00000e+00
0.00000e+00,-7.79185e+00,-4.74943e+01,0.00000e+00,0.00000e+00,0.00000e+00
0.00000e+00,-7.00429e+00,-4.41018e+01,0.00000e+00,0.00000e+00,0.00000e+00
0.00000e+00,-6.19544e+00,-4.07094e+01,0.00000e+00,0.00000e+00,0.00000e+00
0.00000e+00,-5.36748e+00,-3.73169e+01,0.00000e+00,0.00000e+00,0.00000e+00
0.00000e+00,-4.52248e+00,-3.39245e+01,0.00000e+00,0.00000e+00,0.00000e+00
0.00000e+00,-3.67026e+00,-3.05320e+01,0.00000e+00,0.00000e+00,0.00000e+00
0.00000e+00,-2.80686e+00,-2.71396e+01,0.00000e+00,0.00000e+00,0.00000e+00
0.00000e+00,-1.94159e+00,-2.37472e+01,0.00000e+00,0.00000e+00,0.00000e+00
0.00000e+00,-1.06964e+00,-2.03547e+01,0.00000e+00,0.00000e+00,0.00000e+00
0.00000e+00,-1.97780e-01,-1.69622e+01,0.00000e+00,0.00000e+00,0.00000e+00
0.00000e+00,6.70785e-01,-1.35698e+01,0.00000e+00,0.00000e+00,0.00000e+00
0.00000e+00,1.53935e+00,-1.01774e+01,0.00000e+00,0.00000e+00,0.00000e+00
0.00000e+00,2.38735e+00,-6.78490e+00,0.00000e+00,0.00000e+00,0.00000e+00
0.00000e+00,3.23151e+00,-3.39245e+00,0.00000e+00,0.00000e+00,0.00000e+00
1.07300e+02,4.26785e+01,0.00000e+00,0.00000e+00,0.00000e+00,0.00000e+00
1.07300e+02,4.24636e+01,-3.24312e+00,0.00000e+00,0.00000e+00,0.00000e+00
1.07300e+02,4.21777e+01,-6.48624e+00,0.00000e+00,0.00000e+00,0.00000e+00
1.07300e+02,4.18889e+01,-9.72936e+00,0.00000e+00,0.00000e+00,0.00000e+00
1.07300e+02,4.15374e+01,-1.29725e+01,0.00000e+00,0.00000e+00,0.00000e+00
1.07300e+02,4.11714e+01,-1.62156e+01,0.00000e+00,0.00000e+00,0.00000e+00
1.07300e+02,4.07572e+01,-1.94587e+01,0.00000e+00,0.00000e+00,0.00000e+00
1.07300e+02,4.03197e+01,-2.27018e+01,0.00000e+00,0.00000e+00,0.00000e+00
1.07300e+02,3.98436e+01,-2.59450e+01,0.00000e+00,0.00000e+00,0.00000e+00
1.07300e+02,3.93357e+01,-2.91881e+01,0.00000e+00,0.00000e+00,0.00000e+00
1.07300e+02,3.87928e+01,-3.24312e+01,0.00000e+00,0.00000e+00,0.00000e+00
1.07300e+02,3.82077e+01,-3.56743e+01,0.00000e+00,0.00000e+00,0.00000e+00
1.07300e+02,3.75793e+01,-3.89174e+01,0.00000e+00,0.00000e+00,0.00000e+00
1.07300e+02,3.68895e+01,-4.21606e+01,0.00000e+00,0.00000e+00,0.00000e+00
1.07300e+02,3.61401e+01,-4.54037e+01,0.00000e+00,0.00000e+00,0.00000e+00
1.07300e+02,3.53192e+01,-4.86468e+01,0.00000e+00,0.00000e+00,0.00000e+00
1.07300e+02,3.44016e+01,-5.18899e+01,0.00000e+00,0.00000e+00,0.00000e+00
1.07300e+02,3.34168e+01,-5.51330e+01,0.00000e+00,0.00000e+00,0.00000e+00
1.07300e+02,3.22806e+01,-5.83762e+01,0.00000e+00,0.00000e+00,0.00000e+00
1.07300e+02,3.10816e+01,-6.16193e+01,0.00000e+00,0.00000e+00,0.00000e+00
1.07300e+02,2.97079e+01,-6.48624e+01,0.00000e+00,0.00000e+00,0.00000e+00
1.07300e+02,2.81940e+01,-6.81055e+01,0.00000e+00,0.00000e+00,0.00000e+00
1.07300e+02,2.65376e+01,-7.13486e+01,0.00000e+00,0.00000e+00,0.00000e+00
1.07300e+02,2.46419e+01,-7.45918e+01,0.00000e+00,0.00000e+00,0.00000e+00
1.07300e+02,2.24690e+01,-7.78349e+01,0.00000e+00,0.00000e+00,0.00000e+00
1.07300e+02,1.99828e+01,-8.10780e+01,0.00000e+00,0.00000e+00,0.00000e+00
1.07300e+02,1.70422e+01,-8.43211e+01,0.00000e+00,0.00000e+00,0.00000e+00
1.07300e+02,1.32676e+01,-8.75642e+01,0.00000e+00,0.00000e+00,0.00000e+00
1.07300e+02,8.16273e+00,-9.08074e+01,0.00000e+00,0.00000e+00,0.00000e+00
1.07300e+02,-3.30748e+00,-9.40505e+01,0.00000e+00,0.00000e+00,0.00000e+00
1.07300e+02,-4.13529e+00,-9.40580e+01,0.00000e+00,0.00000e+00,0.00000e+00
1.07300e+02,-1.16772e+01,-9.06988e+01,0.00000e+00,0.00000e+00,0.00000e+00
1.07300e+02,-1.25904e+01,-8.73396e+01,0.00000e+00,0.00000e+00,0.00000e+00
1.07300e+02,-1.29055e+01,-8.39804e+01,0.00000e+00,0.00000e+00,0.00000e+00
1.07300e+02,-1.29533e+01,-8.06211e+01,0.00000e+00,0.00000e+00,0.00000e+00
1.07300e+02,-1.27997e+01,-7.72619e+01,0.00000e+00,0.00000e+00,0.00000e+00
1.07300e+02,-1.25198e+01,-7.39027e+01,0.00000e+00,0.00000e+00,0.00000e+00
1.07300e+02,-1.21130e+01,-7.05435e+01,0.00000e+00,0.00000e+00,0.00000e+00
1.07300e+02,-1.16287e+01,-6.71843e+01,0.00000e+00,0.00000e+00,0.00000e+00
1.07300e+02,-1.10996e+01,-6.38251e+01,0.00000e+00,0.00000e+00,0.00000e+00
1.07300e+02,-1.05029e+01,-6.04659e+01,0.00000e+00,0.00000e+00,0.00000e+00
1.07300e+02,-9.86382e+00,-5.71066e+01,0.00000e+00,0.00000e+00,0.00000e+00
1.07300e+02,-9.18363e+00,-5.37474e+01,0.00000e+00,0.00000e+00,0.00000e+00
1.07300e+02,-8.46243e+00,-5.03882e+01,0.00000e+00,0.00000e+00,0.00000e+00
1.07300e+02,-7.71552e+00,-4.70290e+01,0.00000e+00,0.00000e+00,0.00000e+00
1.07300e+02,-6.93567e+00,-4.36698e+01,0.00000e+00,0.00000e+00,0.00000e+00
1.07300e+02,-6.13474e+00,-4.03106e+01,0.00000e+00,0.00000e+00,0.00000e+00
1.07300e+02,-5.31490e+00,-3.69514e+01,0.00000e+00,0.00000e+00,0.00000e+00
1.07300e+02,-4.47818e+00,-3.35921e+01,0.00000e+00,0.00000e+00,0.00000e+00
1.07300e+02,-3.63431e+00,-3.02329e+01,0.00000e+00,0.00000e+00,0.00000e+00
1.07300e+02,-2.77936e+00,-2.68737e+01,0.00000e+00,0.00000e+00,0.00000e+00
1.07300e+02,-1.92257e+00,-2.35145e+01,0.00000e+00,0.00000e+00,0.00000e+00
1.07300e+02,-1.05916e+00,-2.01553e+01,0.00000e+00,0.00000e+00,0.00000e+00
1.07300e+02,-1.95842e-01,-1.67961e+01,0.00000e+00,0.00000e+00,0.00000e+00
1.07300e+02,6.64213e-01,-1.34369e+01,0.00000e+00,0.00000e+00,0.00000e+00
1.07300e+02,1.52427e+00,-1.00776e+01,0.00000e+00,0.00000e+00,0.00000e+00
1.07300e+02,2.36396e+00,-6.71843e+00,0.00000e+00,0.00000e+00,0.00000e+00
1.07300e+02,3.19985e+00,-3.35921e+00,0.00000e+00,0.00000e+00,0.00000e+00
2.14300e+02,4.22575e+01,0.00000e+00,0.00000e+00,0.00000e+00,0.00000e+00
2.14300e+02,4.20447e+01,-3.21112e+00,0.00000e+00,0.00000e+00,0.00000e+00
2.14300e+02,4.17615e+01,-6.42224e+00,0.00000e+00,0.00000e+00,0.00000e+00
2.14300e+02,4.14756e+01,-9.63337e+00,0.00000e+00,0.00000e+00,0.00000e+00
2.14300e+02,4.11276e+01,-1.28445e+01,0.00000e+00,0.00000e+00,0.00000e+00
2.14300e+02,4.07652e+01,-1.60556e+01,0.00000e+00,0.00000e+00,0.00000e+00
2.14300e+02,4.03551e+01,-1.92667e+01,0.00000e+00,0.00000e+00,0.00000e+00
2.14300e+02,3.99219e+01,-2.24779e+01,0.00000e+00,0.00000e+00,0.00000e+00
2.14300e+02,3.94505e+01,-2.56890e+01,0.00000e+00,0.00000e+00,0.00000e+00
2.14300e+02,3.89476e+01,-2.89001e+01,0.00000e+00,0.00000e+00,0.00000e+00
2.14300e+02,3.84101e+01,-3.21112e+01,0.00000e+00,0.00000e+00,0.00000e+00
2.14300e+02,3.78307e+01,-3.53223e+01,0.00000e+00,0.00000e+00,0.00000e+00
2.14300e+02,3.72085e+01,-3.85335e+01,0.00000e+00,0.00000e+00,0.00000e+00
2.14300e+02,3.65256e+01,-4.17446e+01,0.00000e+00,0.00000e+00,0.00000e+00
2.14300e+02,3.57835e+01,-4.49557e+01,0.00000e+00,0.00000e+00,0.00000e+00
2.14300e+02,3.49707e+01,-4.81668e+01,0.00000e+00,0.00000e+00,0.00000e+00
2.14300e+02,3.40622e+01,-5.13780e+01,0.00000e+00,0.00000e+00,0.00000e+00
2.14300e+02,3.30871e+01,-5.45891e+01,0.00000e+00,0.00000e+00,0.00000e+00
2.14300e+02,3.19621e+01,-5.78002e+01,0.00000e+00,0.00000e+00,0.00000e+00
2.14300e+02,3.07750e+01,-6.10113e+01,0.00000e+00,0.00000e+00,0.00000e+00
2.14300e+02,2.94148e+01,-6.42224e+01,0.00000e+00,0.00000e+00,0.00000e+00
2.14300e+02,2.79159e+01,-6.74336e+01,0.00000e+00,0.00000e+00,0.00000e+00
2.14300e+02,2.62758e+01,-7.06447e+01,0.00000e+00,0.00000e+00,0.00000e+00
2.14300e+02,2.43988e+01,-7.38558e+01,0.00000e+00,0.00000e+00,0.00000e+00
2.14300e+02,2.22473e+01,-7.70669e+01,0.00000e+00,0.00000e+00,0.00000e+00
2.14300e+02,1.97856e+01,-8.02781e+01,0.00000e+00,0.00000e+00,0.00000e+00
2.14300e+02,1.68740e+01,-8.34892e+01,0.00000e+00,0.00000e+00,0.00000e+00
2.14300e+02,1.31367e+01,-8.67003e+01,0.00000e+00,0.00000e+00,0.00000e+00
2.14300e+02,8.08220e+00,-8.99114e+01,0.00000e+00,0.00000e+00,0.00000e+00
2.14300e+02,-3.27484e+00,-9.31226e+01,0.00000e+00,0.00000e+00,0.00000e+00
2.14300e+02,-4.09449e+00,-9.31300e+01,0.00000e+00,0.00000e+00,0.00000e+00
2.14300e+02,-1.15620e+01,-8.98039e+01,0.00000e+00,0.00000e+00,0.00000e+00
2.14300e+02,-1.24661e+01,-8.64779e+01,0.00000e+00,0.00000e+00,0.00000e+00
2.14300e+02,-1.27781e+01,-8.31518e+01,0.00000e+00,0.00000e+00,0.00000e+00
2.14300e+02,-1.28255e+01,-7.98257e+01,0.00000e+00,0.00000e+00,0.00000e+00
2.14300e+02,-1.26734e+01,-7.64996e+01,0.00000e+00,0.00000e+00,0.00000e+00
2.14300e+02,-1.23963e+01,-7.31736e+01,0.00000e+00,0.00000e+00,0.00000e+00
2.14300e+02,-1.19935e+01,-6.98475e+01,0.00000e+00,0.00000e+00,0.00000e+00
2.14300e+02,-1.15140e+01,-6.65214e+01,0.00000e+00,0.00000e+00,0.00000e+00
2.14300e+02,-1.09901e+01,-6.31954e+01,0.00000e+00,0.00000e+00,0.00000e+00
2.14300e+02,-1.03992e+01,-5.98693e+01,0.00000e+00,0.00000e+00,0.00000e+00
2.14300e+02,-9.76651e+00,-5.65432e+01,0.00000e+00,0.00000e+00,0.00000e+00
2.14300e+02,-9.09302e+00,-5.32171e+01,0.00000e+00,0.00000e+00,0.00000e+00
2.14300e+02,-8.37893e+00,-4.98911e+01,0.00000e+00,0.00000e+00,0.00000e+00
2.14300e+02,-7.63939e+00,-4.65650e+01,0.00000e+00,0.00000e+00,0.00000e+00
2.14300e+02,-6.86724e+00,-4.32389e+01,0.00000e+00,0.00000e+00,0.00000e+00
2.14300e+02,-6.07421e+00,-3.99129e+01,0.00000e+00,0.00000e+00,0.00000e+00
2.14300e+02,-5.26246e+00,-3.65868e+01,0.00000e+00,0.00000e+00,0.00000e+00
2.14300e+02,-4.43399e+00,-3.32607e+01,0.00000e+00,0.00000e+00,0.00000e+00
2.14300e+02,-3.59845e+00,-2.99346e+01,0.00000e+00,0.00000e+00,0.00000e+00
2.14300e+02,-2.75194e+00,-2.66086e+01,0.00000e+00,0.00000e+00,0.00000e+00
2.14300e+02,-1.90360e+00,-2.32825e+01,0.00000e+00,0.00000e+00,0.00000e+00
2.14300e+02,-1.04871e+00,-1.99564e+01,0.00000e+00,0.00000e+00,0.00000e+00
2.14300e+02,-1.93910e-01,-1.66304e+01,0.00000e+00,0.00000e+00,0.00000e+00
2.14300e+02,6.57660e-01,-1.33043e+01,0.00000e+00,0.00000e+00,0.00000e+00
2.14300e+02,1.50923e+00,-9.97821e+00,0.00000e+00,0.00000e+00,0.00000e+00
2.14300e+02,2.34063e+00,-6.65214e+00,0.00000e+00,0.00000e+00,0.00000e+00
2.14300e+02,3.16828e+00,-3.32607e+00,0.00000e+00,0.00000e+00,0.00000e+00
3.20700e+02,4.18388e+01,0.00000e+00,0.00000e+00,0.00000e+00,0.00000e+00
3.20700e+02,4.16280e+01,-3.17930e+00,0.00000e+00,0.00000e+00,0.00000e+00
3.20700e+02,4.13477e+01,-6.35861e+00,0.00000e+00,0.00000e+00,0.00000e+00
3.20700e+02,4.10646e+01,-9.53791e+00,0.00000e+00,0.00000e+00,0.00000e+00
3.20700e+02,4.07201e+01,-1.27172e+01,0.00000e+00,0.00000e+00,0.00000e+00
3.20700e+02,4.03613e+01,-1.58965e+01,0.00000e+00,0.00000e+00,0.00000e+00
3.20700e+02,3.99553e+01,-1.90758e+01,0.00000e+00,0.00000e+00,0.00000e+00
3.20700e+02,3.95264e+01,-2.22551e+01,0.00000e+00,0.00000e+00,0.00000e+00
3.20700e+02,3.90596e+01,-2.54344e+01,0.00000e+00,0.00000e+00,0.00000e+00
3.20700e+02,3.85617e+01,-2.86137e+01,0.00000e+00,0.00000e+00,0.00000e+00
3.20700e+02,3.80295e+01,-3.17930e+01,0.00000e+00,0.00000e+00,0.00000e+00
3.20700e+02,3.74559e+01,-3.49724e+01,0.00000e+00,0.00000e+00,0.00000e+00
3.20700e+02,3.68398e+01,-3.81517e+01,0.00000e+00,0.00000e+00,0.00000e+00
3.20700e+02,3.61637e+01,-4.13310e+01,0.00000e+00,0.00000e+00,0.00000e+00
3.20700e+02,3.54289e+01,-4.45103e+01,0.00000e+00,0.00000e+00,0.00000e+00
3.20700e+02,3.46242e+01,-4.76896e+01,0.00000e+00,0.00000e+00,0.00000e+00
3.20700e+02,3.37247e+01,-5.08689e+01,0.00000e+00,0.00000e+00,0.00000e+00
3.20700e+02,3.27593e+01,-5.40482e+01,0.00000e+00,0.00000e+00,0.00000e+00
3.20700e+02,3.16454e+01,-5.72275e+01,0.00000e+00,0.00000e+00,0.00000e+00
3.20700e+02,3.04701e+01,-6.04068e+01,0.00000e+00,0.00000e+00,0.00000e+00
3.20700e+02,2.91233e+01,-6.35861e+01,0.00000e+00,0.00000e+00,0.00000e+00
3.20700e+02,2.76393e+01,-6.67654e+01,0.00000e+00,0.00000e+00,0.00000e+00
3.20700e+02,2.60154e+01,-6.99447e+01,0.00000e+00,0.00000e+00,0.00000e+00
3.20700e+02,2.41570e+01,-7.31240e+01,0.00000e+00,0.00000e+00,0.00000e+00
3.20700e+02,2.20269e+01,-7.63033e+01,0.00000e+00,0.00000e+00,0.00000e+00
3.20700e+02,1.95896e+01,-7.94826e+01,0.00000e+00,0.00000e+00,0.00000e+00
3.20700e+02,1.67068e+01,-8.26619e+01,0.00000e+00,0.00000e+00,0.00000e+00
3.20700e+02,1.30066e+01,-8.58412e+01,0.00000e+00,0.00000e+00,0.00000e+00
3.20700e+02,8.00212e+00,-8.90205e+01,0.00000e+00,0.00000e+00,0.00000e+00
3.20700e+02,-3.24239e+00,-9.21998e+01,0.00000e+00,0.00000e+00,0.00000e+00
3.20700e+02,-4.05392e+00,-9.22072e+01,0.00000e+00,0.00000e+00,0.00000e+00
3.20700e+02,-1.14474e+01,-8.89141e+01,0.00000e+00,0.00000e+00,0.00000e+00
3.20700e+02,-1.23426e+01,-8.56210e+01,0.00000e+00,0.00000e+00,0.00000e+00
3.20700e+02,-1.26515e+01,-8.23279e+01,0.00000e+00,0.00000e+00,0.00000e+00
3.20700e+02,-1.26984e+01,-7.90348e+01,0.00000e+00,0.00000e+00,0.00000e+00
3.20700e+02,-1.25479e+01,-7.57416e+01,0.00000e+00,0.00000e+00,0.00000e+00
3.20700e+02,-1.22734e+01,-7.24485e+01,0.00000e+00,0.00000e+00,0.00000e+00
3.20700e+02,-1.18746e+01,-6.91554e+01,0.00000e+00,0.00000e+00,0.00000e+00
3.20700e+02,-1.13999e+01,-6.58623e+01,0.00000e+00,0.00000e+00,0.00000e+00
3.20700e+02,-1.08812e+01,-6.25692e+01,0.00000e+00,0.00000e+00,0.00000e+00
3.20700e+02,-1.02962e+01,-5.92761e+01,0.00000e+00,0.00000e+00,0.00000e+00
3.20700e+02,-9.66973e+00,-5.59829e+01,0.00000e+00,0.00000e+00,0.00000e+00
3.20700e+02,-9.00292e+00,-5.26898e+01,0.00000e+00,0.00000e+00,0.00000e+00
3.20700e+02,-8.29591e+00,-4.93967e+01,0.00000e+00,0.00000e+00,0.00000e+00
3.20700e+02,-7.56370e+00,-4.61036e+01,0.00000e+00,0.00000e+00,0.00000e+00
3.20700e+02,-6.79920e+00,-4.28105e+01,0.00000e+00,0.00000e+00,0.00000e+00
3.20700e+02,-6.01403e+00,-3.95174e+01,0.00000e+00,0.00000e+00,0.00000e+00
3.20700e+02,-5.21032e+00,-3.62243e+01,0.00000e+00,0.00000e+00,0.00000e+00
3.20700e+02,-4.39006e+00,-3.29311e+01,0.00000e+00,0.00000e+00,0.00000e+00
3.20700e+02,-3.56279e+00,-2.96380e+01,0.00000e+00,0.00000e+00,0.00000e+00
3.20700e+02,-2.72467e+00,-2.63449e+01,0.00000e+00,0.00000e+00,0.00000e+00
3.20700e+02,-1.88474e+00,-2.30518e+01,0.00000e+00,0.00000e+00,0.00000e+00
3.20700e+02,-1.03832e+00,-1.97587e+01,0.00000e+00,0.00000e+00,0.00000e+00
3.20700e+02,-1.91989e-01,-1.64656e+01,0.00000e+00,0.00000e+00,0.00000e+00
3.20700e+02,6.51143e-01,-1.31725e+01,0.00000e+00,0.00000e+00,0.00000e+00
3.20700e+02,1.49428e+00,-9.87934e+00,0.00000e+00,0.00000e+00,0.00000e+00
3.20700e+02,2.31744e+00,-6.58623e+00,0.00000e+00,0.00000e+00,0.00000e+00
3.20700e+02,3.13689e+00,-3.29311e+00,0.00000e+00,0.00000e+00,0.00000e+00
4.26200e+02,4.14236e+01,0.00000e+00,0.00000e+00,0.00000e+00,0.00000e+00
4.26200e+02,4.12150e+01,-3.14776e+00,0.00000e+00,0.00000e+00,0.00000e+00
4.26200e+02,4.09374e+01,-6.29551e+00,0.00000e+00,0.00000e+00,0.00000e+00
4.26200e+02,4.06571e+01,-9.44327e+00,0.00000e+00,0.00000e+00,0.00000e+00
4.26200e+02,4.03160e+01,-1.25910e+01,0.00000e+00,0.00000e+00,0.00000e+00
4.26200e+02,3.99607e+01,-1.57388e+01,0.00000e+00,0.00000e+00,0.00000e+00
4.26200e+02,3.95588e+01,-1.88865e+01,0.00000e+00,0.00000e+00,0.00000e+00
4.26200e+02,3.91341e+01,-2.20343e+01,0.00000e+00,0.00000e+00,0.00000e+00
4.26200e+02,3.86720e+01,-2.51820e+01,0.00000e+00,0.00000e+00,0.00000e+00
4.26200e+02,3.81790e+01,-2.83298e+01,0.00000e+00,0.00000e+00,0.00000e+00
4.26200e+02,3.76521e+01,-3.14776e+01,0.00000e+00,0.00000e+00,0.00000e+00
4.26200e+02,3.70842e+01,-3.46253e+01,0.00000e+00,0.00000e+00,0.00000e+00
4.26200e+02,3.64743e+01,-3.77731e+01,0.00000e+00,0.00000e+00,0.00000e+00
4.26200e+02,3.58048e+01,-4.09208e+01,0.00000e+00,0.00000e+00,0.00000e+00
4.26200e+02,3.50774e+01,-4.40686e+01,0.00000e+00,0.00000e+00,0.00000e+00
4.26200e+02,3.42806e+01,-4.72163e+01,0.00000e+00,0.00000e+00,0.00000e+00
4.26200e+02,3.33901e+01,-5.03641e+01,0.00000e+00,0.00000e+00,0.00000e+00
4.26200e+02,3.24342e+01,-5.35118e+01,0.00000e+00,0.00000e+00,0.00000e+00
4.26200e+02,3.13314e+01,-5.66596e+01,0.00000e+00,0.00000e+00,0.00000e+00
4.26200e+02,3.01677e+01,-5.98074e+01,0.00000e+00,0.00000e+00,0.00000e+00
4.26200e+02,2.88343e+01,-6.29551e+01,0.00000e+00,0.00000e+00,0.00000e+00
4.26200e+02,2.73650e+01,-6.61029e+01,0.00000e+00,0.00000e+00,0.00000e+00
4.26200e+02,2.57573e+01,-6.92506e+01,0.00000e+00,0.00000e+00,0.00000e+00
4.26200e+02,2.39173e+01,-7.23984e+01,0.00000e+00,0.00000e+00,0.00000e+00
4.26200e+02,2.18083e+01,-7.55461e+01,0.00000e+00,0.00000e+00,0.00000e+00
4.26200e+02,1.93952e+01,-7.86939e+01,0.00000e+00,0.00000e+00,0.00000e+00
4.26200e+02,1.65410e+01,-8.18417e+01,0.00000e+00,0.00000e+00,0.00000e+00
4.26200e+02,1.28775e+01,-8.49894e+01,0.00000e+00,0.00000e+00,0.00000e+00
4.26200e+02,7.92271e+00,-8.81372e+01,0.00000e+00,0.00000e+00,0.00000e+00
4.26200e+02,-3.21022e+00,-9.12849e+01,0.00000e+00,0.00000e+00,0.00000e+00
4.26200e+02,-4.01369e+00,-9.12922e+01,0.00000e+00,0.00000e+00,0.00000e+00
4.26200e+02,-1.13339e+01,-8.80318e+01,0.00000e+00,0.00000e+00,0.00000e+00
4.26200e+02,-1.22201e+01,-8.47713e+01,0.00000e+00,0.00000e+00,0.00000e+00
4.26200e+02,-1.25260e+01,-8.15109e+01,0.00000e+00,0.00000e+00,0.00000e+00
4.26200e+02,-1.25724e+01,-7.82505e+01,0.00000e+00,0.00000e+00,0.00000e+00
4.26200e+02,-1.24233e+01,-7.49900e+01,0.00000e+00,0.00000e+00,0.00000e+00
4.26200e+02,-1.21516e+01,-7.17296e+01,0.00000e+00,0.00000e+00,0.00000e+00
4.26200e+02,-1.17568e+01,-6.84692e+01,0.00000e+00,0.00000e+00,0.00000e+00
4.26200e+02,-1.12868e+01,-6.52087e+01,0.00000e+00,0.00000e+00,0.00000e+00
4.26200e+02,-1.07732e+01,-6.19483e+01,0.00000e+00,0.00000e+00,0.00000e+00
4.26200e+02,-1.01940e+01,-5.86879e+01,0.00000e+00,0.00000e+00,0.00000e+00
4.26200e+02,-9.57378e+00,-5.54274e+01,0.00000e+00,0.00000e+00,0.00000e+00
4.26200e+02,-8.91358e+00,-5.21670e+01,0.00000e+00,0.00000e+00,0.00000e+00
4.26200e+02,-8.21359e+00,-4.89065e+01,0.00000e+00,0.00000e+00,0.00000e+00
4.26200e+02,-7.48864e+00,-4.56461e+01,0.00000e+00,0.00000e+00,0.00000e+00
4.26200e+02,-6.73173e+00,-4.23857e+01,0.00000e+00,0.00000e+00,0.00000e+00
4.26200e+02,-5.95435e+00,-3.91252e+01,0.00000e+00,0.00000e+00,0.00000e+00
4.26200e+02,-5.15861e+00,-3.58648e+01,0.00000e+00,0.00000e+00,0.00000e+00
4.26200e+02,-4.34650e+00,-3.26044e+01,0.00000e+00,0.00000e+00,0.00000e+00
4.26200e+02,-3.52744e+00,-2.93439e+01,0.00000e+00,0.00000e+00,0.00000e+00
4.26200e+02,-2.69763e+00,-2.60835e+01,0.00000e+00,0.00000e+00,0.00000e+00
4.26200e+02,-1.86603e+00,-2.28231e+01,0.00000e+00,0.00000e+00,0.00000e+00
4.26200e+02,-1.02802e+00,-1.95626e+01,0.00000e+00,0.00000e+00,0.00000e+00
4.26200e+02,-1.90083e-01,-1.63022e+01,0.00000e+00,0.00000e+00,0.00000e+00
4.26200e+02,6.44682e-01,-1.30417e+01,0.00000e+00,0.00000e+00,0.00000e+00
4.26200e+02,1.47945e+00,-9.78131e+00,0.00000e+00,0.00000e+00,0.00000e+00
4.26200e+02,2.29445e+00,-6.52087e+00,0.00000e+00,0.00000e+00,0.00000e+00
4.26200e+02,3.10576e+00,-3.26044e+00,0.00000e+00,0.00000e+00,0.00000e+00
5.30600e+02,4.10127e+01,0.00000e+00,0.00000e+00,0.00000e+00,0.00000e+00
5.30600e+02,4.08062e+01,-3.11654e+00,0.00000e+00,0.00000e+00,0.00000e+00
5.30600e+02,4.05314e+01,-6.23307e+00,0.00000e+00,0.00000e+00,0.00000e+00
5.30600e+02,4.02539e+01,-9.34961e+00,0.00000e+00,0.00000e+00,0.00000e+00
5.30600e+02,3.99161e+01,-1.24661e+01,0.00000e+00,0.00000e+00,0.00000e+00
5.30600e+02,3.95644e+01,-1.55827e+01,0.00000e+00,0.00000e+00,0.00000e+00
5.30600e+02,3.91664e+01,-1.86992e+01,0.00000e+00,0.00000e+00,0.00000e+00
5.30600e+02,3.87460e+01,-2.18158e+01,0.00000e+00,0.00000e+00,0.00000e+00
5.30600e+02,3.82884e+01,-2.49323e+01,0.00000e+00,0.00000e+00,0.00000e+00
5.30600e+02,3.78003e+01,-2.80488e+01,0.00000e+00,0.00000e+00,0.00000e+00
5.30600e+02,3.72787e+01,-3.11654e+01,0.00000e+00,0.00000e+00,0.00000e+00
5.30600e+02,3.67164e+01,-3.42819e+01,0.00000e+00,0.00000e+00,0.00000e+00
5.30600e+02,3.61125e+01,-3.73984e+01,0.00000e+00,0.00000e+00,0.00000e+00
5.30600e+02,3.54497e+01,-4.05150e+01,0.00000e+00,0.00000e+00,0.00000e+00
5.30600e+02,3.47295e+01,-4.36315e+01,0.00000e+00,0.00000e+00,0.00000e+00
5.30600e+02,3.39406e+01,-4.67480e+01,0.00000e+00,0.00000e+00,0.00000e+00
5.30600e+02,3.30589e+01,-4.98646e+01,0.00000e+00,0.00000e+00,0.00000e+00
5.30600e+02,3.21125e+01,-5.29811e+01,0.00000e+00,0.00000e+00,0.00000e+00
5.30600e+02,3.10206e+01,-5.60976e+01,0.00000e+00,0.00000e+00,0.00000e+00
5.30600e+02,2.98685e+01,-5.92142e+01,0.00000e+00,0.00000e+00,0.00000e+00
5.30600e+02,2.85484e+01,-6.23307e+01,0.00000e+00,0.00000e+00,0.00000e+00
5.30600e+02,2.70936e+01,-6.54473e+01,0.00000e+00,0.00000e+00,0.00000e+00
5.30600e+02,2.55018e+01,-6.85638e+01,0.00000e+00,0.00000e+00,0.00000e+00
5.30600e+02,2.36801e+01,-7.16803e+01,0.00000e+00,0.00000e+00,0.00000e+00
5.30600e+02,2.15920e+01,-7.47969e+01,0.00000e+00,0.00000e+00,0.00000e+00
5.30600e+02,1.92028e+01,-7.79134e+01,0.00000e+00,0.00000e+00,0.00000e+00
5.30600e+02,1.63770e+01,-8.10299e+01,0.00000e+00,0.00000e+00,0.00000e+00
5.30600e+02,1.27498e+01,-8.41465e+01,0.00000e+00,0.00000e+00,0.00000e+00
5.30600e+02,7.84413e+00,-8.72630e+01,0.00000e+00,0.00000e+00,0.00000e+00
5.30600e+02,-3.17838e+00,-9.03795e+01,0.00000e+00,0.00000e+00,0.00000e+00
5.30600e+02,-3.97388e+00,-9.03868e+01,0.00000e+00,0.00000e+00,0.00000e+00
5.30600e+02,-1.12214e+01,-8.71587e+01,0.00000e+00,0.00000e+00,0.00000e+00
5.30600e+02,-1.20989e+01,-8.39306e+01,0.00000e+00,0.00000e+00,0.00000e+00
5.30600e+02,-1.24018e+01,-8.07025e+01,0.00000e+00,0.00000e+00,0.00000e+00
5.30600e+02,-1.24477e+01,-7.74744e+01,0.00000e+00,0.00000e+00,0.00000e+00
5.30600e+02,-1.23001e+01,-7.42463e+01,0.00000e+00,0.00000e+00,0.00000e+00
5.30600e+02,-1.20311e+01,-7.10182e+01,0.00000e+00,0.00000e+00,0.00000e+00
5.30600e+02,-1.16402e+01,-6.77901e+01,0.00000e+00,0.00000e+00,0.00000e+00
5.30600e+02,-1.11748e+01,-6.45620e+01,0.00000e+00,0.00000e+00,0.00000e+00
5.30600e+02,-1.06664e+01,-6.13339e+01,0.00000e+00,0.00000e+00,0.00000e+00
5.30600e+02,-1.00929e+01,-5.81058e+01,0.00000e+00,0.00000e+00,0.00000e+00
5.30600e+02,-9.47882e+00,-5.48777e+01,0.00000e+00,0.00000e+00,0.00000e+00
5.30600e+02,-8.82518e+00,-5.16496e+01,0.00000e+00,0.00000e+00,0.00000e+00
5.30600e+02,-8.13212e+00,-4.84215e+01,0.00000e+00,0.00000e+00,0.00000e+00
5.30600e+02,-7.41437e+00,-4.51934e+01,0.00000e+00,0.00000e+00,0.00000e+00
5.30600e+02,-6.66496e+00,-4.19653e+01,0.00000e+00,0.00000e+00,0.00000e+00
5.30600e+02,-5.89529e+00,-3.87372e+01,0.00000e+00,0.00000e+00,0.00000e+00
5.30600e+02,-5.10745e+00,-3.55091e+01,0.00000e+00,0.00000e+00,0.00000e+00
5.30600e+02,-4.30339e+00,-3.22810e+01,0.00000e+00,0.00000e+00,0.00000e+00
5.30600e+02,-3.49245e+00,-2.90529e+01,0.00000e+00,0.00000e+00,0.00000e+00
5.30600e+02,-2.67088e+00,-2.58248e+01,0.00000e+00,0.00000e+00,0.00000e+00
5.30600e+02,-1.84753e+00,-2.25967e+01,0.00000e+00,0.00000e+00,0.00000e+00
5.30600e+02,-1.01782e+00,-1.93686e+01,0.00000e+00,0.00000e+00,0.00000e+00
5.30600e+02,-1.88198e-01,-1.61405e+01,0.00000e+00,0.00000e+00,0.00000e+00
5.30600e+02,6.38288e-01,-1.29124e+01,0.00000e+00,0.00000e+00,0.00000e+00
5.30600e+02,1.46477e+00,-9.68430e+00,0.00000e+00,0.00000e+00,0.00000e+00
5.30600e+02,2.27169e+00,-6.45620e+00,0.00000e+00,0.00000e+00,0.00000e+00
5.30600e+02,3.07496e+00,-3.22810e+00,0.00000e+00,0.00000e+00,0.00000e+00
6.33500e+02,4.06078e+01,0.00000e+00,0.00000e+00,0.00000e+00,0.00000e+00
6.33500e+02,4.04033e+01,-3.08576e+00,0.00000e+00,0.00000e+00,0.00000e+00
6.33500e+02,4.01312e+01,-6.17153e+00,0.00000e+00,0.00000e+00,0.00000e+00
6.33500e+02,3.98564e+01,-9.25729e+00,0.00000e+00,0.00000e+00,0.00000e+00
6.33500e+02,3.95220e+01,-1.23431e+01,0.00000e+00,0.00000e+00,0.00000e+00
6.33500e+02,3.91738e+01,-1.54288e+01,0.00000e+00,0.00000e+00,0.00000e+00
6.33500e+02,3.87797e+01,-1.85146e+01,0.00000e+00,0.00000e+00,0.00000e+00
6.33500e+02,3.83634e+01,-2.16004e+01,0.00000e+00,0.00000e+00,0.00000e+00
6.33500e+02,3.79104e+01,-2.46861e+01,0.00000e+00,0.00000e+00,0.00000e+00
6.33500e+02,3.74271e+01,-2.77719e+01,0.00000e+00,0.00000e+00,0.00000e+00
6.33500e+02,3.69106e+01,-3.08576e+01,0.00000e+00,0.00000e+00,0.00000e+00
6.33500e+02,3.63539e+01,-3.39434e+01,0.00000e+00,0.00000e+00,0.00000e+00
6.33500e+02,3.57559e+01,-3.70292e+01,0.00000e+00,0.00000e+00,0.00000e+00
6.33500e+02,3.50997e+01,-4.01149e+01,0.00000e+00,0.00000e+00,0.00000e+00
6.33500e+02,3.43866e+01,-4.32007e+01,0.00000e+00,0.00000e+00,0.00000e+00
6.33500e+02,3.36055e+01,-4.62865e+01,0.00000e+00,0.00000e+00,0.00000e+00
6.33500e+02,3.27325e+01,-4.93722e+01,0.00000e+00,0.00000e+00,0.00000e+00
6.33500e+02,3.17954e+01,-5.24580e+01,0.00000e+00,0.00000e+00,0.00000e+00
6.33500e+02,3.07144e+01,-5.55438e+01,0.00000e+00,0.00000e+00,0.00000e+00
6.33500e+02,2.95736e+01,-5.86295e+01,0.00000e+00,0.00000e+00,0.00000e+00
6.33500e+02,2.82665e+01,-6.17153e+01,0.00000e+00,0.00000e+00,0.00000e+00
6.33500e+02,2.68261e+01,-6.48011e+01,0.00000e+00,0.00000e+00,0.00000e+00
6.33500e+02,2.52500e+01,-6.78868e+01,0.00000e+00,0.00000e+00,0.00000e+00
6.33500e+02,2.34463e+01,-7.09726e+01,0.00000e+00,0.00000e+00,0.00000e+00
6.33500e+02,2.13788e+01,-7.40584e+01,0.00000e+00,0.00000e+00,0.00000e+00
6.33500e+02,1.90132e+01,-7.71441e+01,0.00000e+00,0.00000e+00,0.00000e+00
6.33500e+02,1.62153e+01,-8.02299e+01,0.00000e+00,0.00000e+00,0.00000e+00
6.33500e+02,1.26239e+01,-8.33156e+01,0.00000e+00,0.00000e+00,0.00000e+00
6.33500e+02,7.76668e+00,-8.64014e+01,0.00000e+00,0.00000e+00,0.00000e+00
6.33500e+02,-3.14700e+00,-8.94872e+01,0.00000e+00,0.00000e+00,0.00000e+00
6.33500e+02,-3.93464e+00,-8.94943e+01,0.00000e+00,0.00000e+00,0.00000e+00
6.33500e+02,-1.11106e+01,-8.62981e+01,0.00000e+00,0.00000e+00,0.00000e+00
6.33500e+02,-1.19795e+01,-8.31019e+01,0.00000e+00,0.00000e+00,0.00000e+00
6.33500e+02,-1.22793e+01,-7.99057e+01,0.00000e+00,0.00000e+00,0.00000e+00
6.33500e+02,-1.23248e+01,-7.67094e+01,0.00000e+00,0.00000e+00,0.00000e+00
6.33500e+02,-1.21787e+01,-7.35132e+01,0.00000e+00,0.00000e+00,0.00000e+00
6.33500e+02,-1.19123e+01,-7.03170e+01,0.00000e+00,0.00000e+00,0.00000e+00
6.33500e+02,-1.15252e+01,-6.71208e+01,0.00000e+00,0.00000e+00,0.00000e+00
6.33500e+02,-1.10645e+01,-6.39245e+01,0.00000e+00,0.00000e+00,0.00000e+00
6.33500e+02,-1.05611e+01,-6.07283e+01,0.00000e+00,0.00000e+00,0.00000e+00
6.33500e+02,-9.99326e+00,-5.75321e+01,0.00000e+00,0.00000e+00,0.00000e+00
6.33500e+02,-9.38524e+00,-5.43358e+01,0.00000e+00,0.00000e+00,0.00000e+00
6.33500e+02,-8.73804e+00,-5.11396e+01,0.00000e+00,0.00000e+00,0.00000e+00
6.33500e+02,-8.05183e+00,-4.79434e+01,0.00000e+00,0.00000e+00,0.00000e+00
6.33500e+02,-7.34116e+00,-4.47472e+01,0.00000e+00,0.00000e+00,0.00000e+00
6.33500e+02,-6.59916e+00,-4.15509e+01,0.00000e+00,0.00000e+00,0.00000e+00
6.33500e+02,-5.83709e+00,-3.83547e+01,0.00000e+00,0.00000e+00,0.00000e+00
6.33500e+02,-5.05702e+00,-3.51585e+01,0.00000e+00,0.00000e+00,0.00000e+00
6.33500e+02,-4.26090e+00,-3.19623e+01,0.00000e+00,0.00000e+00,0.00000e+00
6.33500e+02,-3.45797e+00,-2.87660e+01,0.00000e+00,0.00000e+00,0.00000e+00
6.33500e+02,-2.64450e+00,-2.55698e+01,0.00000e+00,0.00000e+00,0.00000e+00
6.33500e+02,-1.82928e+00,-2.23736e+01,0.00000e+00,0.00000e+00,0.00000e+00
6.33500e+02,-1.00777e+00,-1.91774e+01,0.00000e+00,0.00000e+00,0.00000e+00
6.33500e+02,-1.86340e-01,-1.59811e+01,0.00000e+00,0.00000e+00,0.00000e+00
6.33500e+02,6.31986e-01,-1.27849e+01,0.00000e+00,0.00000e+00,0.00000e+00
6.33500e+02,1.45031e+00,-9.58868e+00,0.00000e+00,0.00000e+00,0.00000e+00
6.33500e+02,2.24926e+00,-6.39245e+00,0.00000e+00,0.00000e+00,0.00000e+00
6.33500e+02,3.04460e+00,-3.19623e+00,0.00000e+00,0.00000e+00,0.00000e+00
7.34700e+02,4.02095e+01,0.00000e+00,0.00000e+00,0.00000e+00,0.00000e+00
7.34700e+02,4.00070e+01,-3.05550e+00,0.00000e+00,0.00000e+00,0.00000e+00
7.34700e+02,3.97376e+01,-6.11100e+00,0.00000e+00,0.00000e+00,0.00000e+00
7.34700e+02,3.94656e+01,-9.16651e+00,0.00000e+00,0.00000e+00,0.00000e+00
7.34700e+02,3.91344e+01,-1.22220e+01,0.00000e+00,0.00000e+00,0.00000e+00
7.34700e+02,3.87896e+01,-1.52775e+01,0.00000e+00,0.00000e+00,0.00000e+00
7.34700e+02,3.83994e+01,-1.83330e+01,0.00000e+00,0.00000e+00,0.00000e+00
7.34700e+02,3.79872e+01,-2.13885e+01,0.00000e+00,0.00000e+00,0.00000e+00
7.34700e+02,3.75386e+01,-2.44440e+01,0.00000e+00,0.00000e+00,0.00000e+00
7.34700e+02,3.70601e+01,-2.74995e+01,0.00000e+00,0.00000e+00,0.00000e+00
7.34700e+02,3.65486e+01,-3.05550e+01,0.00000e+00,0.00000e+00,0.00000e+00
7.34700e+02,3.59973e+01,-3.36105e+01,0.00000e+00,0.00000e+00,0.00000e+00
7.34700e+02,3.54053e+01,-3.66660e+01,0.00000e+00,0.00000e+00,0.00000e+00
7.34700e+02,3.47554e+01,-3.97215e+01,0.00000e+00,0.00000e+00,0.00000e+00
7.34700e+02,3.40493e+01,-4.27770e+01,0.00000e+00,0.00000e+00,0.00000e+00
7.34700e+02,3.32760e+01,-4.58325e+01,0.00000e+00,0.00000e+00,0.00000e+00
7.34700e+02,3.24115e+01,-4.88880e+01,0.00000e+00,0.00000e+00,0.00000e+00
7.34700e+02,3.14836e+01,-5.19435e+01,0.00000e+00,0.00000e+00,0.00000e+00
7.34700e+02,3.04131e+01,-5.49990e+01,0.00000e+00,0.00000e+00,0.00000e+00
7.34700e+02,2.92835e+01,-5.80545e+01,0.00000e+00,0.00000e+00,0.00000e+00
7.34700e+02,2.79893e+01,-6.11100e+01,0.00000e+00,0.00000e+00,0.00000e+00
7.34700e+02,2.65630e+01,-6.41655e+01,0.00000e+00,0.00000e+00,0.00000e+00
7.34700e+02,2.50024e+01,-6.72210e+01,0.00000e+00,0.00000e+00,0.00000e+00
7.34700e+02,2.32164e+01,-7.02765e+01,0.00000e+00,0.00000e+00,0.00000e+00
7.34700e+02,2.11691e+01,-7.33320e+01,0.00000e+00,0.00000e+00,0.00000e+00
7.34700e+02,1.88268e+01,-7.63875e+01,0.00000e+00,0.00000e+00,0.00000e+00
7.34700e+02,1.60563e+01,-7.94430e+01,0.00000e+00,0.00000e+00,0.00000e+00
7.34700e+02,1.25001e+01,-8.24985e+01,0.00000e+00,0.00000e+00,0.00000e+00
7.34700e+02,7.69051e+00,-8.55540e+01,0.00000e+00,0.00000e+00,0.00000e+00
7.34700e+02,-3.11614e+00,-8.86096e+01,0.00000e+00,0.00000e+00,0.00000e+00
7.34700e+02,-3.89606e+00,-8.86166e+01,0.00000e+00,0.00000e+00,0.00000e+00
7.34700e+02,-1.10017e+01,-8.54518e+01,0.00000e+00,0.00000e+00,0.00000e+00
7.34700e+02,-1.18620e+01,-8.22869e+01,0.00000e+00,0.00000e+00,0.00000e+00
7.34700e+02,-1.21589e+01,-7.91220e+01,0.00000e+00,0.00000e+00,0.00000e+00
7.34700e+02,-1.22039e+01,-7.59571e+01,0.00000e+00,0.00000e+00,0.00000e+00
7.34700e+02,-1.20592e+01,-7.27922e+01,0.00000e+00,0.00000e+00,0.00000e+00
7.34700e+02,-1.17955e+01,-6.96274e+01,0.00000e+00,0.00000e+00,0.00000e+00
7.34700e+02,-1.14122e+01,-6.64625e+01,0.00000e+00,0.00000e+00,0.00000e+00
7.34700e+02,-1.09560e+01,-6.32976e+01,0.00000e+00,0.00000e+00,0.00000e+00
7.34700e+02,-1.04575e+01,-6.01327e+01,0.00000e+00,0.00000e+00,0.00000e+00
7.34700e+02,-9.89525e+00,-5.69678e+01,0.00000e+00,0.00000e+00,0.00000e+00
7.34700e+02,-9.29319e+00,-5.38030e+01,0.00000e+00,0.00000e+00,0.00000e+00
7.34700e+02,-8.65235e+00,-5.06381e+01,0.00000e+00,0.00000e+00,0.00000e+00
7.34700e+02,-7.97287e+00,-4.74732e+01,0.00000e+00,0.00000e+00,0.00000e+00
7.34700e+02,-7.26917e+00,-4.43083e+01,0.00000e+00,0.00000e+00,0.00000e+00
7.34700e+02,-6.53444e+00,-4.11434e+01,0.00000e+00,0.00000e+00,0.00000e+00
7.34700e+02,-5.77984e+00,-3.79786e+01,0.00000e+00,0.00000e+00,0.00000e+00
7.34700e+02,-5.00742e+00,-3.48137e+01,0.00000e+00,0.00000e+00,0.00000e+00
7.34700e+02,-4.21911e+00,-3.16488e+01,0.00000e+00,0.00000e+00,0.00000e+00
7.34700e+02,-3.42406e+00,-2.84839e+01,0.00000e+00,0.00000e+00,0.00000e+00
7.34700e+02,-2.61857e+00,-2.53190e+01,0.00000e+00,0.00000e+00,0.00000e+00
7.34700e+02,-1.81134e+00,-2.21542e+01,0.00000e+00,0.00000e+00,0.00000e+00
7.34700e+02,-9.97887e-01,-1.89893e+01,0.00000e+00,0.00000e+00,0.00000e+00
7.34700e+02,-1.84513e-01,-1.58244e+01,0.00000e+00,0.00000e+00,0.00000e+00
7.34700e+02,6.25788e-01,-1.26595e+01,0.00000e+00,0.00000e+00,0.00000e+00
7.34700e+02,1.43609e+00,-9.49464e+00,0.00000e+00,0.00000e+00,0.00000e+00
7.34700e+02,2.22720e+00,-6.32976e+00,0.00000e+00,0.00000e+00,0.00000e+00
7.34700e+02,3.01474e+00,-3.16488e+00,0.00000e+00,0.00000e+00,0.00000e+00
8.33800e+02,3.98196e+01,0.00000e+00,0.00000e+00,0.00000e+00,0.00000e+00
8.33800e+02,3.96190e+01,-3.02587e+00,0.00000e+00,0.00000e+00,0.00000e+00
8.33800e+02,3.93522e+01,-6.05173e+00,0.00000e+00,0.00000e+00,0.00000e+00
8.33800e+02,3.90828e+01,-9.07760e+00,0.00000e+00,0.00000e+00,0.00000e+00
8.33800e+02,3.87549e+01,-1.21035e+01,0.00000e+00,0.00000e+00,0.00000e+00
8.33800e+02,3.84134e+01,-1.51293e+01,0.00000e+00,0.00000e+00,0.00000e+00
8.33800e+02,3.80270e+01,-1.81552e+01,0.00000e+00,0.00000e+00,0.00000e+00
8.33800e+02,3.76188e+01,-2.11811e+01,0.00000e+00,0.00000e+00,0.00000e+00
8.33800e+02,3.71745e+01,-2.42069e+01,0.00000e+00,0.00000e+00,0.00000e+00
8.33800e+02,3.67006e+01,-2.72328e+01,0.00000e+00,0.00000e+00,0.00000e+00
8.33800e+02,3.61941e+01,-3.02587e+01,0.00000e+00,0.00000e+00,0.00000e+00
8.33800e+02,3.56482e+01,-3.32845e+01,0.00000e+00,0.00000e+00,0.00000e+00
8.33800e+02,3.50619e+01,-3.63104e+01,0.00000e+00,0.00000e+00,0.00000e+00
8.33800e+02,3.44183e+01,-3.93363e+01,0.00000e+00,0.00000e+00,0.00000e+00
8.33800e+02,3.37191e+01,-4.23621e+01,0.00000e+00,0.00000e+00,0.00000e+00
8.33800e+02,3.29532e+01,-4.53880e+01,0.00000e+00,0.00000e+00,0.00000e+00
8.33800e+02,3.20971e+01,-4.84139e+01,0.00000e+00,0.00000e+00,0.00000e+00
8.33800e+02,3.11783e+01,-5.14397e+01,0.00000e+00,0.00000e+00,0.00000e+00
8.33800e+02,3.01182e+01,-5.44656e+01,0.00000e+00,0.00000e+00,0.00000e+00
8.33800e+02,2.89995e+01,-5.74915e+01,0.00000e+00,0.00000e+00,0.00000e+00
8.33800e+02,2.77178e+01,-6.05173e+01,0.00000e+00,0.00000e+00,0.00000e+00
8.33800e+02,2.63054e+01,-6.35432e+01,0.00000e+00,0.00000e+00,0.00000e+00
8.33800e+02,2.47599e+01,-6.65691e+01,0.00000e+00,0.00000e+00,0.00000e+00
8.33800e+02,2.29912e+01,-6.95949e+01,0.00000e+00,0.00000e+00,0.00000e+00
8.33800e+02,2.09638e+01,-7.26208e+01,0.00000e+00,0.00000e+00,0.00000e+00
8.33800e+02,1.86442e+01,-7.56467e+01,0.00000e+00,0.00000e+00,0.00000e+00
8.33800e+02,1.59005e+01,-7.86725e+01,0.00000e+00,0.00000e+00,0.00000e+00
8.33800e+02,1.23789e+01,-8.16984e+01,0.00000e+00,0.00000e+00,0.00000e+00
8.33800e+02,7.61592e+00,-8.47243e+01,0.00000e+00,0.00000e+00,0.00000e+00
8.33800e+02,-3.08591e+00,-8.77501e+01,0.00000e+00,0.00000e+00,0.00000e+00
8.33800e+02,-3.85827e+00,-8.77572e+01,0.00000e+00,0.00000e+00,0.00000e+00
8.33800e+02,-1.08950e+01,-8.46230e+01,0.00000e+00,0.00000e+00,0.00000e+00
8.33800e+02,-1.17470e+01,-8.14888e+01,0.00000e+00,0.00000e+00,0.00000e+00
8.33800e+02,-1.20409e+01,-7.83546e+01,0.00000e+00,0.00000e+00,0.00000e+00
8.33800e+02,-1.20856e+01,-7.52204e+01,0.00000e+00,0.00000e+00,0.00000e+00
8.33800e+02,-1.19423e+01,-7.20862e+01,0.00000e+00,0.00000e+00,0.00000e+00
8.33800e+02,-1.16811e+01,-6.89521e+01,0.00000e+00,0.00000e+00,0.00000e+00
8.33800e+02,-1.13015e+01,-6.58179e+01,0.00000e+00,0.00000e+00,0.00000e+00
8.33800e+02,-1.08497e+01,-6.26837e+01,0.00000e+00,0.00000e+00,0.00000e+00
8.33800e+02,-1.03561e+01,-5.95495e+01,0.00000e+00,0.00000e+00,0.00000e+00
8.33800e+02,-9.79928e+00,-5.64153e+01,0.00000e+00,0.00000e+00,0.00000e+00
8.33800e+02,-9.20306e+00,-5.32811e+01,0.00000e+00,0.00000e+00,0.00000e+00
8.33800e+02,-8.56843e+00,-5.01469e+01,0.00000e+00,0.00000e+00,0.00000e+00
8.33800e+02,-7.89554e+00,-4.70128e+01,0.00000e+00,0.00000e+00,0.00000e+00
8.33800e+02,-7.19866e+00,-4.38786e+01,0.00000e+00,0.00000e+00,0.00000e+00
8.33800e+02,-6.47106e+00,-4.07444e+01,0.00000e+00,0.00000e+00,0.00000e+00
8.33800e+02,-5.72378e+00,-3.76102e+01,0.00000e+00,0.00000e+00,0.00000e+00
8.33800e+02,-4.95886e+00,-3.44760e+01,0.00000e+00,0.00000e+00,0.00000e+00
8.33800e+02,-4.17819e+00,-3.13418e+01,0.00000e+00,0.00000e+00,0.00000e+00
8.33800e+02,-3.39085e+00,-2.82077e+01,0.00000e+00,0.00000e+00,0.00000e+00
8.33800e+02,-2.59317e+00,-2.50735e+01,0.00000e+00,0.00000e+00,0.00000e+00
8.33800e+02,-1.79378e+00,-2.19393e+01,0.00000e+00,0.00000e+00,0.00000e+00
8.33800e+02,-9.88209e-01,-1.88051e+01,0.00000e+00,0.00000e+00,0.00000e+00
8.33800e+02,-1.82723e-01,-1.56709e+01,0.00000e+00,0.00000e+00,0.00000e+00
8.33800e+02,6.19718e-01,-1.25367e+01,0.00000e+00,0.00000e+00,0.00000e+00
8.33800e+02,1.42216e+00,-9.40255e+00,0.00000e+00,0.00000e+00,0.00000e+00
8.33800e+02,2.20560e+00,-6.26837e+00,0.00000e+00,0.00000e+00,0.00000e+00
8.33800e+02,2.98550e+00,-3.13418e+00,0.00000e+00,0.00000e+00,0.00000e+00
9.30700e+02,3.94382e+01,0.00000e+00,0.00000e+00,0.00000e+00,0.00000e+00
9.30700e+02,3.92396e+01,-2.99689e+00,0.00000e+00,0.00000e+00,0.00000e+00
9.30700e+02,3.89754e+01,-5.99378e+00,0.00000e+00,0.00000e+00,0.00000e+00
9.30700e+02,3.87085e+01,-8.99067e+00,0.00000e+00,0.00000e+00,0.00000e+00
9.30700e+02,3.83837e+01,-1.19876e+01,0.00000e+00,0.00000e+00,0.00000e+00
9.30700e+02,3.80455e+01,-1.49844e+01,0.00000e+00,0.00000e+00,0.00000e+00
9.30700e+02,3.76628e+01,-1.79813e+01,0.00000e+00,0.00000e+00,0.00000e+00
9.30700e+02,3.72585e+01,-2.09782e+01,0.00000e+00,0.00000e+00,0.00000e+00
9.30700e+02,3.68185e+01,-2.39751e+01,0.00000e+00,0.00000e+00,0.00000e+00
9.30700e+02,3.63492e+01,-2.69720e+01,0.00000e+00,0.00000e+00,0.00000e+00
9.30700e+02,3.58475e+01,-2.99689e+01,0.00000e+00,0.00000e+00,0.00000e+00
9.30700e+02,3.53068e+01,-3.29658e+01,0.00000e+00,0.00000e+00,0.00000e+00
9.30700e+02,3.47261e+01,-3.59627e+01,0.00000e+00,0.00000e+00,0.00000e+00
9.30700e+02,3.40887e+01,-3.89596e+01,0.00000e+00,0.00000e+00,0.00000e+00
9.30700e+02,3.33962e+01,-4.19565e+01,0.00000e+00,0.00000e+00,0.00000e+00
9.30700e+02,3.26376e+01,-4.49533e+01,0.00000e+00,0.00000e+00,0.00000e+00
9.30700e+02,3.17897e+01,-4.79502e+01,0.00000e+00,0.00000e+00,0.00000e+00
9.30700e+02,3.08797e+01,-5.09471e+01,0.00000e+00,0.00000e+00,0.00000e+00
9.30700e+02,2.98297e+01,-5.39440e+01,0.00000e+00,0.00000e+00,0.00000e+00
9.30700e+02,2.87218e+01,-5.69409e+01,0.00000e+00,0.00000e+00,0.00000e+00
9.30700e+02,2.74524e+01,-5.99378e+01,0.00000e+00,0.00000e+00,0.00000e+00
9.30700e+02,2.60534e+01,-6.29347e+01,0.00000e+00,0.00000e+00,0.00000e+00
9.30700e+02,2.45228e+01,-6.59316e+01,0.00000e+00,0.00000e+00,0.00000e+00
9.30700e+02,2.27710e+01,-6.89285e+01,0.00000e+00,0.00000e+00,0.00000e+00
9.30700e+02,2.07631e+01,-7.19254e+01,0.00000e+00,0.00000e+00,0.00000e+00
9.30700e+02,1.84656e+01,-7.49222e+01,0.00000e+00,0.00000e+00,0.00000e+00
9.30700e+02,1.57483e+01,-7.79191e+01,0.00000e+00,0.00000e+00,0.00000e+00
9.30700e+02,1.22603e+01,-8.09160e+01,0.00000e+00,0.00000e+00,0.00000e+00
9.30700e+02,7.54299e+00,-8.39129e+01,0.00000e+00,0.00000e+00,0.00000e+00
9.30700e+02,-3.05636e+00,-8.69098e+01,0.00000e+00,0.00000e+00,0.00000e+00
9.30700e+02,-3.82132e+00,-8.69168e+01,0.00000e+00,0.00000e+00,0.00000e+00
9.30700e+02,-1.07906e+01,-8.38126e+01,0.00000e+00,0.00000e+00,0.00000e+00
9.30700e+02,-1.16345e+01,-8.07084e+01,0.00000e+00,0.00000e+00,0.00000e+00
9.30700e+02,-1.19256e+01,-7.76042e+01,0.00000e+00,0.00000e+00,0.00000e+00
9.30700e+02,-1.19698e+01,-7.45001e+01,0.00000e+00,0.00000e+00,0.00000e+00
9.30700e+02,-1.18279e+01,-7.13959e+01,0.00000e+00,0.00000e+00,0.00000e+00
9.30700e+02,-1.15692e+01,-6.82917e+01,0.00000e+00,0.00000e+00,0.00000e+00
9.30700e+02,-1.11933e+01,-6.51876e+01,0.00000e+00,0.00000e+00,0.00000e+00
9.30700e+02,-1.07458e+01,-6.20834e+01,0.00000e+00,0.00000e+00,0.00000e+00
9.30700e+02,-1.02569e+01,-5.89792e+01,0.00000e+00,0.00000e+00,0.00000e+00
9.30700e+02,-9.70544e+00,-5.58751e+01,0.00000e+00,0.00000e+00,0.00000e+00
9.30700e+02,-9.11493e+00,-5.27709e+01,0.00000e+00,0.00000e+00,0.00000e+00
9.30700e+02,-8.48637e+00,-4.96667e+01,0.00000e+00,0.00000e+00,0.00000e+00
9.30700e+02,-7.81993e+00,-4.65625e+01,0.00000e+00,0.00000e+00,0.00000e+00
9.30700e+02,-7.12973e+00,-4.34584e+01,0.00000e+00,0.00000e+00,0.00000e+00
9.30700e+02,-6.40909e+00,-4.03542e+01,0.00000e+00,0.00000e+00,0.00000e+00
9.30700e+02,-5.66897e+00,-3.72500e+01,0.00000e+00,0.00000e+00,0.00000e+00
9.30700e+02,-4.91137e+00,-3.41459e+01,0.00000e+00,0.00000e+00,0.00000e+00
9.30700e+02,-4.13818e+00,-3.10417e+01,0.00000e+00,0.00000e+00,0.00000e+00
9.30700e+02,-3.35837e+00,-2.79375e+01,0.00000e+00,0.00000e+00,0.00000e+00
9.30700e+02,-2.56834e+00,-2.48334e+01,0.00000e+00,0.00000e+00,0.00000e+00
9.30700e+02,-1.77660e+00,-2.17292e+01,0.00000e+00,0.00000e+00,0.00000e+00
9.30700e+02,-9.78745e-01,-1.86250e+01,0.00000e+00,0.00000e+00,0.00000e+00
9.30700e+02,-1.80973e-01,-1.55208e+01,0.00000e+00,0.00000e+00,0.00000e+00
9.30700e+02,6.13784e-01,-1.24167e+01,0.00000e+00,0.00000e+00,0.00000e+00
9.30700e+02,1.40854e+00,-9.31251e+00,0.00000e+00,0.00000e+00,0.00000e+00
9.30700e+02,2.18448e+00,-6.20834e+00,0.00000e+00,0.00000e+00,0.00000e+00
9.30700e+02,2.95691e+00,-3.10417e+00,0.00000e+00,0.00000e+00,0.00000e+00
1.02500e+03,3.90671e+01,0.00000e+00,0.00000e+00,0.00000e+00,0.00000e+00
1.02500e+03,3.88704e+01,-2.96869e+00,0.00000e+00,0.00000e+00,0.00000e+00
1.02500e+03,3.86086e+01,-5.93738e+00,0.00000e+00,0.00000e+00,0.00000e+00
1.02500e+03,3.83443e+01,-8.90607e+00,0.00000e+00,0.00000e+00,0.00000e+00
1.02500e+03,3.80226e+01,-1.18748e+01,0.00000e+00,0.00000e+00,0.00000e+00
1.02500e+03,3.76875e+01,-1.48435e+01,0.00000e+00,0.00000e+00,0.00000e+00
1.02500e+03,3.73084e+01,-1.78121e+01,0.00000e+00,0.00000e+00,0.00000e+00
1.02500e+03,3.69079e+01,-2.07808e+01,0.00000e+00,0.00000e+00,0.00000e+00
1.02500e+03,3.64721e+01,-2.37495e+01,0.00000e+00,0.00000e+00,0.00000e+00
1.02500e+03,3.60071e+01,-2.67182e+01,0.00000e+00,0.00000e+00,0.00000e+00
1.02500e+03,3.55102e+01,-2.96869e+01,0.00000e+00,0.00000e+00,0.00000e+00
1.02500e+03,3.49746e+01,-3.26556e+01,0.00000e+00,0.00000e+00,0.00000e+00
1.02500e+03,3.43994e+01,-3.56243e+01,0.00000e+00,0.00000e+00,0.00000e+00
1.02500e+03,3.37680e+01,-3.85930e+01,0.00000e+00,0.00000e+00,0.00000e+00
1.02500e+03,3.30819e+01,-4.15617e+01,0.00000e+00,0.00000e+00,0.00000e+00
1.02500e+03,3.23305e+01,-4.45304e+01,0.00000e+00,0.00000e+00,0.00000e+00
1.02500e+03,3.14906e+01,-4.74990e+01,0.00000e+00,0.00000e+00,0.00000e+00
1.02500e+03,3.05891e+01,-5.04677e+01,0.00000e+00,0.00000e+00,0.00000e+00
1.02500e+03,2.95491e+01,-5.34364e+01,0.00000e+00,0.00000e+00,0.00000e+00
1.02500e+03,2.84516e+01,-5.64051e+01,0.00000e+00,0.00000e+00,0.00000e+00
1.02500e+03,2.71940e+01,-5.93738e+01,0.00000e+00,0.00000e+00,0.00000e+00
1.02500e+03,2.58083e+01,-6.23425e+01,0.00000e+00,0.00000e+00,0.00000e+00
1.02500e+03,2.42920e+01,-6.53112e+01,0.00000e+00,0.00000e+00,0.00000e+00
1.02500e+03,2.25567e+01,-6.82799e+01,0.00000e+00,0.00000e+00,0.00000e+00
1.02500e+03,2.05677e+01,-7.12486e+01,0.00000e+00,0.00000e+00,0.00000e+00
1.02500e+03,1.82919e+01,-7.42173e+01,0.00000e+00,0.00000e+00,0.00000e+00
1.02500e+03,1.56001e+01,-7.71859e+01,0.00000e+00,0.00000e+00,0.00000e+00
1.02500e+03,1.21450e+01,-8.01546e+01,0.00000e+00,0.00000e+00,0.00000e+00
1.02500e+03,7.47201e+00,-8.31233e+01,0.00000e+00,0.00000e+00,0.00000e+00
1.02500e+03,-3.02760e+00,-8.60920e+01,0.00000e+00,0.00000e+00,0.00000e+00
1.02500e+03,-3.78536e+00,-8.60989e+01,0.00000e+00,0.00000e+00,0.00000e+00
1.02500e+03,-1.06891e+01,-8.30239e+01,0.00000e+00,0.00000e+00,0.00000e+00
1.02500e+03,-1.15250e+01,-7.99490e+01,0.00000e+00,0.00000e+00,0.00000e+00
1.02500e+03,-1.18134e+01,-7.68740e+01,0.00000e+00,0.00000e+00,0.00000e+00
1.02500e+03,-1.18572e+01,-7.37991e+01,0.00000e+00,0.00000e+00,0.00000e+00
1.02500e+03,-1.17166e+01,-7.07241e+01,0.00000e+00,0.00000e+00,0.00000e+00
1.02500e+03,-1.14604e+01,-6.76491e+01,0.00000e+00,0.00000e+00,0.00000e+00
1.02500e+03,-1.10880e+01,-6.45742e+01,0.00000e+00,0.00000e+00,0.00000e+00
1.02500e+03,-1.06447e+01,-6.14992e+01,0.00000e+00,0.00000e+00,0.00000e+00
1.02500e+03,-1.01604e+01,-5.84243e+01,0.00000e+00,0.00000e+00,0.00000e+00
1.02500e+03,-9.61411e+00,-5.53493e+01,0.00000e+00,0.00000e+00,0.00000e+00
1.02500e+03,-9.02916e+00,-5.22743e+01,0.00000e+00,0.00000e+00,0.00000e+00
1.02500e+03,-8.40652e+00,-4.91994e+01,0.00000e+00,0.00000e+00,0.00000e+00
1.02500e+03,-7.74634e+00,-4.61244e+01,0.00000e+00,0.00000e+00,0.00000e+00
1.02500e+03,-7.06264e+00,-4.30495e+01,0.00000e+00,0.00000e+00,0.00000e+00
1.02500e+03,-6.34878e+00,-3.99745e+01,0.00000e+00,0.00000e+00,0.00000e+00
1.02500e+03,-5.61563e+00,-3.68995e+01,0.00000e+00,0.00000e+00,0.00000e+00
1.02500e+03,-4.86516e+00,-3.38246e+01,0.00000e+00,0.00000e+00,0.00000e+00
1.02500e+03,-4.09924e+00,-3.07496e+01,0.00000e+00,0.00000e+00,0.00000e+00
1.02500e+03,-3.32677e+00,-2.76746e+01,0.00000e+00,0.00000e+00,0.00000e+00
1.02500e+03,-2.54417e+00,-2.45997e+01,0.00000e+00,0.00000e+00,0.00000e+00
1.02500e+03,-1.75988e+00,-2.15247e+01,0.00000e+00,0.00000e+00,0.00000e+00
1.02500e+03,-9.69535e-01,-1.84498e+01,0.00000e+00,0.00000e+00,0.00000e+00
1.02500e+03,-1.79270e-01,-1.53748e+01,0.00000e+00,0.00000e+00,0.00000e+00
1.02500e+03,6.08008e-01,-1.22998e+01,0.00000e+00,0.00000e+00,0.00000e+00
1.02500e+03,1.39529e+00,-9.22488e+00,0.00000e+00,0.00000e+00,0.00000e+00
1.02500e+03,2.16392e+00,-6.14992e+00,0.00000e+00,0.00000e+00,0.00000e+00
1.02500e+03,2.92908e+00,-3.07496e+00,0.00000e+00,0.00000e+00,0.00000e+00
1.11650e+03,3.87070e+01,0.00000e+00,0.00000e+00,0.00000e+00,0.00000e+00
1.11650e+03,3.85121e+01,-2.94133e+00,0.00000e+00,0.00000e+00,0.00000e+00
1.11650e+03,3.82528e+01,-5.88266e+00,0.00000e+00,0.00000e+00,0.00000e+00
1.11650e+03,3.79909e+01,-8.82398e+00,0.00000e+00,0.00000e+00,0.00000e+00
1.11650e+03,3.76721e+01,-1.17653e+01,0.00000e+00,0.00000e+00,0.00000e+00
1.11650e+03,3.73401e+01,-1.47066e+01,0.00000e+00,0.00000e+00,0.00000e+00
1.11650e+03,3.69645e+01,-1.76480e+01,0.00000e+00,0.00000e+00,0.00000e+00
1.11650e+03,3.65678e+01,-2.05893e+01,0.00000e+00,0.00000e+00,0.00000e+00
1.11650e+03,3.61359e+01,-2.35306e+01,0.00000e+00,0.00000e+00,0.00000e+00
1.11650e+03,3.56753e+01,-2.64720e+01,0.00000e+00,0.00000e+00,0.00000e+00
1.11650e+03,3.51829e+01,-2.94133e+01,0.00000e+00,0.00000e+00,0.00000e+00
1.11650e+03,3.46522e+01,-3.23546e+01,0.00000e+00,0.00000e+00,0.00000e+00
1.11650e+03,3.40823e+01,-3.52959e+01,0.00000e+00,0.00000e+00,0.00000e+00
1.11650e+03,3.34567e+01,-3.82373e+01,0.00000e+00,0.00000e+00,0.00000e+00
1.11650e+03,3.27770e+01,-4.11786e+01,0.00000e+00,0.00000e+00,0.00000e+00
1.11650e+03,3.20325e+01,-4.41199e+01,0.00000e+00,0.00000e+00,0.00000e+00
1.11650e+03,3.12004e+01,-4.70612e+01,0.00000e+00,0.00000e+00,0.00000e+00
1.11650e+03,3.03072e+01,-5.00026e+01,0.00000e+00,0.00000e+00,0.00000e+00
1.11650e+03,2.92767e+01,-5.29439e+01,0.00000e+00,0.00000e+00,0.00000e+00
1.11650e+03,2.81893e+01,-5.58852e+01,0.00000e+00,0.00000e+00,0.00000e+00
1.11650e+03,2.69434e+01,-5.88266e+01,0.00000e+00,0.00000e+00,0.00000e+00
1.11650e+03,2.55704e+01,-6.17679e+01,0.00000e+00,0.00000e+00,0.00000e+00
1.11650e+03,2.40681e+01,-6.47092e+01,0.00000e+00,0.00000e+00,0.00000e+00
1.11650e+03,2.23488e+01,-6.76505e+01,0.00000e+00,0.00000e+00,0.00000e+00
1.11650e+03,2.03781e+01,-7.05919e+01,0.00000e+00,0.00000e+00,0.00000e+00
1.11650e+03,1.81233e+01,-7.35332e+01,0.00000e+00,0.00000e+00,0.00000e+00
1.11650e+03,1.54563e+01,-7.64745e+01,0.00000e+00,0.00000e+00,0.00000e+00
1.11650e+03,1.20330e+01,-7.94159e+01,0.00000e+00,0.00000e+00,0.00000e+00
1.11650e+03,7.40314e+00,-8.23572e+01,0.00000e+00,0.00000e+00,0.00000e+00
1.11650e+03,-2.99970e+00,-8.52985e+01,0.00000e+00,0.00000e+00,0.00000e+00
1.11650e+03,-3.75047e+00,-8.53053e+01,0.00000e+00,0.00000e+00,0.00000e+00
1.11650e+03,-1.05906e+01,-8.22587e+01,0.00000e+00,0.00000e+00,0.00000e+00
1.11650e+03,-1.14188e+01,-7.92121e+01,0.00000e+00,0.00000e+00,0.00000e+00
1.11650e+03,-1.17045e+01,-7.61655e+01,0.00000e+00,0.00000e+00,0.00000e+00
1.11650e+03,-1.17479e+01,-7.31189e+01,0.00000e+00,0.00000e+00,0.00000e+00
1.11650e+03,-1.16086e+01,-7.00722e+01,0.00000e+00,0.00000e+00,0.00000e+00
1.11650e+03,-1.13547e+01,-6.70256e+01,0.00000e+00,0.00000e+00,0.00000e+00
1.11650e+03,-1.09858e+01,-6.39790e+01,0.00000e+00,0.00000e+00,0.00000e+00
1.11650e+03,-1.05466e+01,-6.09324e+01,0.00000e+00,0.00000e+00,0.00000e+00
1.11650e+03,-1.00667e+01,-5.78858e+01,0.00000e+00,0.00000e+00,0.00000e+00
1.11650e+03,-9.52550e+00,-5.48391e+01,0.00000e+00,0.00000e+00,0.00000e+00
1.11650e+03,-8.94594e+00,-5.17925e+01,0.00000e+00,0.00000e+00,0.00000e+00
1.11650e+03,-8.32904e+00,-4.87459e+01,0.00000e+00,0.00000e+00,0.00000e+00
1.11650e+03,-7.67495e+00,-4.56993e+01,0.00000e+00,0.00000e+00,0.00000e+00
1.11650e+03,-6.99754e+00,-4.26527e+01,0.00000e+00,0.00000e+00,0.00000e+00
1.11650e+03,-6.29027e+00,-3.96060e+01,0.00000e+00,0.00000e+00,0.00000e+00
1.11650e+03,-5.56387e+00,-3.65594e+01,0.00000e+00,0.00000e+00,0.00000e+00
1.11650e+03,-4.82031e+00,-3.35128e+01,0.00000e+00,0.00000e+00,0.00000e+00
1.11650e+03,-4.06146e+00,-3.04662e+01,0.00000e+00,0.00000e+00,0.00000e+00
1.11650e+03,-3.29611e+00,-2.74196e+01,0.00000e+00,0.00000e+00,0.00000e+00
1.11650e+03,-2.52072e+00,-2.43730e+01,0.00000e+00,0.00000e+00,0.00000e+00
1.11650e+03,-1.74366e+00,-2.13263e+01,0.00000e+00,0.00000e+00,0.00000e+00
1.11650e+03,-9.60599e-01,-1.82797e+01,0.00000e+00,0.00000e+00,0.00000e+00
1.11650e+03,-1.77618e-01,-1.52331e+01,0.00000e+00,0.00000e+00,0.00000e+00
1.11650e+03,6.02404e-01,-1.21865e+01,0.00000e+00,0.00000e+00,0.00000e+00
1.11650e+03,1.38243e+00,-9.13986e+00,0.00000e+00,0.00000e+00,0.00000e+00
1.11650e+03,2.14398e+00,-6.09324e+00,0.00000e+00,0.00000e+00,0.00000e+00
1.11650e+03,2.90209e+00,-3.04662e+00,0.00000e+00,0.00000e+00,0.00000e+00
1.20500e+03,3.76912e+01,0.00000e+00,0.00000e+00,0.00000e+00,0.00000e+00
1.20500e+03,3.75014e+01,-2.86413e+00,0.00000e+00,0.00000e+00,0.00000e+00
1.20500e+03,3.72488e+01,-5.72827e+00,0.00000e+00,0.00000e+00,0.00000e+00
1.20500e+03,3.69938e+01,-8.59240e+00,0.00000e+00,0.00000e+00,0.00000e+00
1.20500e+03,3.66834e+01,-1.14565e+01,0.00000e+00,0.00000e+00,0.00000e+00
1.20500e+03,3.63602e+01,-1.43207e+01,0.00000e+00,0.00000e+00,0.00000e+00
1.20500e+03,3.59944e+01,-1.71848e+01,0.00000e+00,0.00000e+00,0.00000e+00
1.20500e+03,3.56080e+01,-2.00489e+01,0.00000e+00,0.00000e+00,0.00000e+00
1.20500e+03,3.51875e+01,-2.29131e+01,0.00000e+00,0.00000e+00,0.00000e+00
1.20500e+03,3.47390e+01,-2.57772e+01,0.00000e+00,0.00000e+00,0.00000e+00
1.20500e+03,3.42596e+01,-2.86413e+01,0.00000e+00,0.00000e+00,0.00000e+00
1.20500e+03,3.37428e+01,-3.15055e+01,0.00000e+00,0.00000e+00,0.00000e+00
1.20500e+03,3.31878e+01,-3.43696e+01,0.00000e+00,0.00000e+00,0.00000e+00
1.20500e+03,3.25787e+01,-3.72337e+01,0.00000e+00,0.00000e+00,0.00000e+00
1.20500e+03,3.19168e+01,-4.00979e+01,0.00000e+00,0.00000e+00,0.00000e+00
1.20500e+03,3.11919e+01,-4.29620e+01,0.00000e+00,0.00000e+00,0.00000e+00
1.20500e+03,3.03815e+01,-4.58261e+01,0.00000e+00,0.00000e+00,0.00000e+00
1.20500e+03,2.95118e+01,-4.86903e+01,0.00000e+00,0.00000e+00,0.00000e+00
1.20500e+03,2.85084e+01,-5.15544e+01,0.00000e+00,0.00000e+00,0.00000e+00
1.20500e+03,2.74495e+01,-5.44186e+01,0.00000e+00,0.00000e+00,0.00000e+00
1.20500e+03,2.62363e+01,-5.72827e+01,0.00000e+00,0.00000e+00,0.00000e+00
1.20500e+03,2.48993e+01,-6.01468e+01,0.00000e+00,0.00000e+00,0.00000e+00
1.20500e+03,2.34365e+01,-6.30110e+01,0.00000e+00,0.00000e+00,0.00000e+00
1.20500e+03,2.17623e+01,-6.58751e+01,0.00000e+00,0.00000e+00,0.00000e+00
1.20500e+03,1.98433e+01,-6.87392e+01,0.00000e+00,0.00000e+00,0.00000e+00
1.20500e+03,1.76476e+01,-7.16034e+01,0.00000e+00,0.00000e+00,0.00000e+00
1.20500e+03,1.50506e+01,-7.44675e+01,0.00000e+00,0.00000e+00,0.00000e+00
1.20500e+03,1.17172e+01,-7.73316e+01,0.00000e+00,0.00000e+00,0.00000e+00
1.20500e+03,7.20885e+00,-8.01958e+01,0.00000e+00,0.00000e+00,0.00000e+00
1.20500e+03,-2.92097e+00,-8.30599e+01,0.00000e+00,0.00000e+00,0.00000e+00
1.20500e+03,-3.65204e+00,-8.30665e+01,0.00000e+00,0.00000e+00,0.00000e+00
1.20500e+03,-1.03126e+01,-8.00999e+01,0.00000e+00,0.00000e+00,0.00000e+00
1.20500e+03,-1.11191e+01,-7.71332e+01,0.00000e+00,0.00000e+00,0.00000e+00
1.20500e+03,-1.13974e+01,-7.41666e+01,0.00000e+00,0.00000e+00,0.00000e+00
1.20500e+03,-1.14396e+01,-7.11999e+01,0.00000e+00,0.00000e+00,0.00000e+00
1.20500e+03,-1.13040e+01,-6.82332e+01,0.00000e+00,0.00000e+00,0.00000e+00
1.20500e+03,-1.10567e+01,-6.52666e+01,0.00000e+00,0.00000e+00,0.00000e+00
1.20500e+03,-1.06975e+01,-6.22999e+01,0.00000e+00,0.00000e+00,0.00000e+00
1.20500e+03,-1.02698e+01,-5.93332e+01,0.00000e+00,0.00000e+00,0.00000e+00
1.20500e+03,-9.80253e+00,-5.63666e+01,0.00000e+00,0.00000e+00,0.00000e+00
1.20500e+03,-9.27551e+00,-5.33999e+01,0.00000e+00,0.00000e+00,0.00000e+00
1.20500e+03,-8.71115e+00,-5.04333e+01,0.00000e+00,0.00000e+00,0.00000e+00
1.20500e+03,-8.11045e+00,-4.74666e+01,0.00000e+00,0.00000e+00,0.00000e+00
1.20500e+03,-7.47352e+00,-4.44999e+01,0.00000e+00,0.00000e+00,0.00000e+00
1.20500e+03,-6.81389e+00,-4.15333e+01,0.00000e+00,0.00000e+00,0.00000e+00
1.20500e+03,-6.12518e+00,-3.85666e+01,0.00000e+00,0.00000e+00,0.00000e+00
1.20500e+03,-5.41785e+00,-3.55999e+01,0.00000e+00,0.00000e+00,0.00000e+00
1.20500e+03,-4.69381e+00,-3.26333e+01,0.00000e+00,0.00000e+00,0.00000e+00
1.20500e+03,-3.95486e+00,-2.96666e+01,0.00000e+00,0.00000e+00,0.00000e+00
1.20500e+03,-3.20961e+00,-2.67000e+01,0.00000e+00,0.00000e+00,0.00000e+00
1.20500e+03,-2.45457e+00,-2.37333e+01,0.00000e+00,0.00000e+00,0.00000e+00
1.20500e+03,-1.69790e+00,-2.07666e+01,0.00000e+00,0.00000e+00,0.00000e+00
1.20500e+03,-9.35389e-01,-1.78000e+01,0.00000e+00,0.00000e+00,0.00000e+00
1.20500e+03,-1.72956e-01,-1.48333e+01,0.00000e+00,0.00000e+00,0.00000e+00
1.20500e+03,5.86594e-01,-1.18666e+01,0.00000e+00,0.00000e+00,0.00000e+00
1.20500e+03,1.34615e+00,-8.89999e+00,0.00000e+00,0.00000e+00,0.00000e+00
1.20500e+03,2.08771e+00,-5.93332e+00,0.00000e+00,0.00000e+00,0.00000e+00
1.20500e+03,2.82592e+00,-2.96666e+00,0.00000e+00,0.00000e+00,0.00000e+00
1.29010e+03,3.63234e+01,0.00000e+00,0.00000e+00,0.00000e+00,0.00000e+00
1.29010e+03,3.61405e+01,-2.76019e+00,0.00000e+00,0.00000e+00,0.00000e+00
1.29010e+03,3.58971e+01,-5.52039e+00,0.00000e+00,0.00000e+00,0.00000e+00
1.29010e+03,3.56513e+01,-8.28058e+00,0.00000e+00,0.00000e+00,0.00000e+00
1.29010e+03,3.53522e+01,-1.10408e+01,0.00000e+00,0.00000e+00,0.00000e+00
1.29010e+03,3.50407e+01,-1.38010e+01,0.00000e+00,0.00000e+00,0.00000e+00
1.29010e+03,3.46882e+01,-1.65612e+01,0.00000e+00,0.00000e+00,0.00000e+00
1.29010e+03,3.43158e+01,-1.93214e+01,0.00000e+00,0.00000e+00,0.00000e+00
1.29010e+03,3.39106e+01,-2.20816e+01,0.00000e+00,0.00000e+00,0.00000e+00
1.29010e+03,3.34783e+01,-2.48418e+01,0.00000e+00,0.00000e+00,0.00000e+00
1.29010e+03,3.30163e+01,-2.76019e+01,0.00000e+00,0.00000e+00,0.00000e+00
1.29010e+03,3.25183e+01,-3.03621e+01,0.00000e+00,0.00000e+00,0.00000e+00
1.29010e+03,3.19834e+01,-3.31223e+01,0.00000e+00,0.00000e+00,0.00000e+00
1.29010e+03,3.13964e+01,-3.58825e+01,0.00000e+00,0.00000e+00,0.00000e+00
1.29010e+03,3.07585e+01,-3.86427e+01,0.00000e+00,0.00000e+00,0.00000e+00
1.29010e+03,3.00599e+01,-4.14029e+01,0.00000e+00,0.00000e+00,0.00000e+00
1.29010e+03,2.92790e+01,-4.41631e+01,0.00000e+00,0.00000e+00,0.00000e+00
1.29010e+03,2.84408e+01,-4.69233e+01,0.00000e+00,0.00000e+00,0.00000e+00
1.29010e+03,2.74738e+01,-4.96835e+01,0.00000e+00,0.00000e+00,0.00000e+00
1.29010e+03,2.64534e+01,-5.24437e+01,0.00000e+00,0.00000e+00,0.00000e+00
1.29010e+03,2.52842e+01,-5.52039e+01,0.00000e+00,0.00000e+00,0.00000e+00
1.29010e+03,2.39957e+01,-5.79641e+01,0.00000e+00,0.00000e+00,0.00000e+00
1.29010e+03,2.25860e+01,-6.07243e+01,0.00000e+00,0.00000e+00,0.00000e+00
1.29010e+03,2.09725e+01,-6.34845e+01,0.00000e+00,0.00000e+00,0.00000e+00
1.29010e+03,1.91232e+01,-6.62447e+01,0.00000e+00,0.00000e+00,0.00000e+00
1.29010e+03,1.70072e+01,-6.90049e+01,0.00000e+00,0.00000e+00,0.00000e+00
1.29010e+03,1.45045e+01,-7.17651e+01,0.00000e+00,0.00000e+00,0.00000e+00
1.29010e+03,1.12920e+01,-7.45253e+01,0.00000e+00,0.00000e+00,0.00000e+00
1.29010e+03,6.94724e+00,-7.72855e+01,0.00000e+00,0.00000e+00,0.00000e+00
1.29010e+03,-2.81497e+00,-8.00457e+01,0.00000e+00,0.00000e+00,0.00000e+00
1.29010e+03,-3.51951e+00,-8.00521e+01,0.00000e+00,0.00000e+00,0.00000e+00
1.29010e+03,-9.93839e+00,-7.71931e+01,0.00000e+00,0.00000e+00,0.00000e+00
1.29010e+03,-1.07156e+01,-7.43341e+01,0.00000e+00,0.00000e+00,0.00000e+00
1.29010e+03,-1.09838e+01,-7.14751e+01,0.00000e+00,0.00000e+00,0.00000e+00
1.29010e+03,-1.10244e+01,-6.86160e+01,0.00000e+00,0.00000e+00,0.00000e+00
1.29010e+03,-1.08937e+01,-6.57570e+01,0.00000e+00,0.00000e+00,0.00000e+00
1.29010e+03,-1.06555e+01,-6.28980e+01,0.00000e+00,0.00000e+00,0.00000e+00
1.29010e+03,-1.03093e+01,-6.00390e+01,0.00000e+00,0.00000e+00,0.00000e+00
1.29010e+03,-9.89713e+00,-5.71800e+01,0.00000e+00,0.00000e+00,0.00000e+00
1.29010e+03,-9.44680e+00,-5.43210e+01,0.00000e+00,0.00000e+00,0.00000e+00
1.29010e+03,-8.93890e+00,-5.14620e+01,0.00000e+00,0.00000e+00,0.00000e+00
1.29010e+03,-8.39503e+00,-4.86030e+01,0.00000e+00,0.00000e+00,0.00000e+00
1.29010e+03,-7.81612e+00,-4.57440e+01,0.00000e+00,0.00000e+00,0.00000e+00
1.29010e+03,-7.20231e+00,-4.28850e+01,0.00000e+00,0.00000e+00,0.00000e+00
1.29010e+03,-6.56662e+00,-4.00260e+01,0.00000e+00,0.00000e+00,0.00000e+00
1.29010e+03,-5.90290e+00,-3.71670e+01,0.00000e+00,0.00000e+00,0.00000e+00
1.29010e+03,-5.22123e+00,-3.43080e+01,0.00000e+00,0.00000e+00,0.00000e+00
1.29010e+03,-4.52347e+00,-3.14490e+01,0.00000e+00,0.00000e+00,0.00000e+00
1.29010e+03,-3.81134e+00,-2.85900e+01,0.00000e+00,0.00000e+00,0.00000e+00
1.29010e+03,-3.09313e+00,-2.57310e+01,0.00000e+00,0.00000e+00,0.00000e+00
1.29010e+03,-2.36549e+00,-2.28720e+01,0.00000e+00,0.00000e+00,0.00000e+00
1.29010e+03,-1.63628e+00,-2.00130e+01,0.00000e+00,0.00000e+00,0.00000e+00
1.29010e+03,-9.01444e-01,-1.71540e+01,0.00000e+00,0.00000e+00,0.00000e+00
1.29010e+03,-1.66680e-01,-1.42950e+01,0.00000e+00,0.00000e+00,0.00000e+00
1.29010e+03,5.65307e-01,-1.14360e+01,0.00000e+00,0.00000e+00,0.00000e+00
1.29010e+03,1.29729e+00,-8.57701e+00,0.00000e+00,0.00000e+00,0.00000e+00
1.29010e+03,2.01195e+00,-5.71800e+00,0.00000e+00,0.00000e+00,0.00000e+00
1.29010e+03,2.72337e+00,-2.85900e+00,0.00000e+00,0.00000e+00,0.00000e+00
1.37170e+03,3.50118e+01,0.00000e+00,0.00000e+00,0.00000e+00,0.00000e+00
1.37170e+03,3.48355e+01,-2.66053e+00,0.00000e+00,0.00000e+00,0.00000e+00
1.37170e+03,3.46009e+01,-5.32106e+00,0.00000e+00,0.00000e+00,0.00000e+00
1.37170e+03,3.43640e+01,-7.98159e+00,0.00000e+00,0.00000e+00,0.00000e+00
1.37170e+03,3.40757e+01,-1.06421e+01,0.00000e+00,0.00000e+00,0.00000e+00
1.37170e+03,3.37754e+01,-1.33027e+01,0.00000e+00,0.00000e+00,0.00000e+00
1.37170e+03,3.34357e+01,-1.59632e+01,0.00000e+00,0.00000e+00,0.00000e+00
1.37170e+03,3.30768e+01,-1.86237e+01,0.00000e+00,0.00000e+00,0.00000e+00
1.37170e+03,3.26861e+01,-2.12842e+01,0.00000e+00,0.00000e+00,0.00000e+00
1.37170e+03,3.22695e+01,-2.39448e+01,0.00000e+00,0.00000e+00,0.00000e+00
1.37170e+03,3.18241e+01,-2.66053e+01,0.00000e+00,0.00000e+00,0.00000e+00
1.37170e+03,3.13441e+01,-2.92658e+01,0.00000e+00,0.00000e+00,0.00000e+00
1.37170e+03,3.08286e+01,-3.19264e+01,0.00000e+00,0.00000e+00,0.00000e+00
1.37170e+03,3.02627e+01,-3.45869e+01,0.00000e+00,0.00000e+00,0.00000e+00
1.37170e+03,2.96479e+01,-3.72474e+01,0.00000e+00,0.00000e+00,0.00000e+00
1.37170e+03,2.89745e+01,-3.99080e+01,0.00000e+00,0.00000e+00,0.00000e+00
1.37170e+03,2.82218e+01,-4.25685e+01,0.00000e+00,0.00000e+00,0.00000e+00
1.37170e+03,2.74139e+01,-4.52290e+01,0.00000e+00,0.00000e+00,0.00000e+00
1.37170e+03,2.64818e+01,-4.78895e+01,0.00000e+00,0.00000e+00,0.00000e+00
1.37170e+03,2.54982e+01,-5.05501e+01,0.00000e+00,0.00000e+00,0.00000e+00
1.37170e+03,2.43712e+01,-5.32106e+01,0.00000e+00,0.00000e+00,0.00000e+00
1.37170e+03,2.31293e+01,-5.58711e+01,0.00000e+00,0.00000e+00,0.00000e+00
1.37170e+03,2.17704e+01,-5.85317e+01,0.00000e+00,0.00000e+00,0.00000e+00
1.37170e+03,2.02153e+01,-6.11922e+01,0.00000e+00,0.00000e+00,0.00000e+00
1.37170e+03,1.84327e+01,-6.38527e+01,0.00000e+00,0.00000e+00,0.00000e+00
1.37170e+03,1.63931e+01,-6.65133e+01,0.00000e+00,0.00000e+00,0.00000e+00
1.37170e+03,1.39807e+01,-6.91738e+01,0.00000e+00,0.00000e+00,0.00000e+00
1.37170e+03,1.08843e+01,-7.18343e+01,0.00000e+00,0.00000e+00,0.00000e+00
1.37170e+03,6.69639e+00,-7.44949e+01,0.00000e+00,0.00000e+00,0.00000e+00
1.37170e+03,-2.71333e+00,-7.71554e+01,0.00000e+00,0.00000e+00,0.00000e+00
1.37170e+03,-3.39243e+00,-7.71616e+01,0.00000e+00,0.00000e+00,0.00000e+00
1.37170e+03,-9.57954e+00,-7.44058e+01,0.00000e+00,0.00000e+00,0.00000e+00
1.37170e+03,-1.03287e+01,-7.16500e+01,0.00000e+00,0.00000e+00,0.00000e+00
1.37170e+03,-1.05872e+01,-6.88942e+01,0.00000e+00,0.00000e+00,0.00000e+00
1.37170e+03,-1.06264e+01,-6.61385e+01,0.00000e+00,0.00000e+00,0.00000e+00
1.37170e+03,-1.05004e+01,-6.33827e+01,0.00000e+00,0.00000e+00,0.00000e+00
1.37170e+03,-1.02708e+01,-6.06269e+01,0.00000e+00,0.00000e+00,0.00000e+00
1.37170e+03,-9.93701e+00,-5.78712e+01,0.00000e+00,0.00000e+00,0.00000e+00
1.37170e+03,-9.53977e+00,-5.51154e+01,0.00000e+00,0.00000e+00,0.00000e+00
1.37170e+03,-9.10569e+00,-5.23596e+01,0.00000e+00,0.00000e+00,0.00000e+00
1.37170e+03,-8.61613e+00,-4.96039e+01,0.00000e+00,0.00000e+00,0.00000e+00
1.37170e+03,-8.09190e+00,-4.68481e+01,0.00000e+00,0.00000e+00,0.00000e+00
1.37170e+03,-7.53389e+00,-4.40923e+01,0.00000e+00,0.00000e+00,0.00000e+00
1.37170e+03,-6.94225e+00,-4.13365e+01,0.00000e+00,0.00000e+00,0.00000e+00
1.37170e+03,-6.32951e+00,-3.85808e+01,0.00000e+00,0.00000e+00,0.00000e+00
1.37170e+03,-5.68976e+00,-3.58250e+01,0.00000e+00,0.00000e+00,0.00000e+00
1.37170e+03,-5.03271e+00,-3.30692e+01,0.00000e+00,0.00000e+00,0.00000e+00
1.37170e+03,-4.36014e+00,-3.03135e+01,0.00000e+00,0.00000e+00,0.00000e+00
1.37170e+03,-3.67372e+00,-2.75577e+01,0.00000e+00,0.00000e+00,0.00000e+00
1.37170e+03,-2.98144e+00,-2.48019e+01,0.00000e+00,0.00000e+00,0.00000e+00
1.37170e+03,-2.28008e+00,-2.20462e+01,0.00000e+00,0.00000e+00,0.00000e+00
1.37170e+03,-1.57720e+00,-1.92904e+01,0.00000e+00,0.00000e+00,0.00000e+00
1.37170e+03,-8.68894e-01,-1.65346e+01,0.00000e+00,0.00000e+00,0.00000e+00
1.37170e+03,-1.60661e-01,-1.37788e+01,0.00000e+00,0.00000e+00,0.00000e+00
1.37170e+03,5.44895e-01,-1.10231e+01,0.00000e+00,0.00000e+00,0.00000e+00
1.37170e+03,1.25045e+00,-8.26731e+00,0.00000e+00,0.00000e+00,0.00000e+00
1.37170e+03,1.93930e+00,-5.51154e+00,0.00000e+00,0.00000e+00,0.00000e+00
1.37170e+03,2.62503e+00,-2.75577e+00,0.00000e+00,0.00000e+00,0.00000e+00
1.44960e+03,3.37597e+01,0.00000e+00,0.00000e+00,0.00000e+00,0.00000e+00
1.44960e+03,3.35897e+01,-2.56538e+00,0.00000e+00,0.00000e+00,0.00000e+00
1.44960e+03,3.33635e+01,-5.13077e+00,0.00000e+00,0.00000e+00,0.00000e+00
1.44960e+03,3.31351e+01,-7.69615e+00,0.00000e+00,0.00000e+00,0.00000e+00
1.44960e+03,3.28571e+01,-1.02615e+01,0.00000e+00,0.00000e+00,0.00000e+00
1.44960e+03,3.25675e+01,-1.28269e+01,0.00000e+00,0.00000e+00,0.00000e+00
1.44960e+03,3.22399e+01,-1.53923e+01,0.00000e+00,0.00000e+00,0.00000e+00
1.44960e+03,3.18939e+01,-1.79577e+01,0.00000e+00,0.00000e+00,0.00000e+00
1.44960e+03,3.15172e+01,-2.05231e+01,0.00000e+00,0.00000e+00,0.00000e+00
1.44960e+03,3.11155e+01,-2.30885e+01,0.00000e+00,0.00000e+00,0.00000e+00
1.44960e+03,3.06860e+01,-2.56538e+01,0.00000e+00,0.00000e+00,0.00000e+00
1.44960e+03,3.02232e+01,-2.82192e+01,0.00000e+00,0.00000e+00,0.00000e+00
1.44960e+03,2.97261e+01,-3.07846e+01,0.00000e+00,0.00000e+00,0.00000e+00
1.44960e+03,2.91805e+01,-3.33500e+01,0.00000e+00,0.00000e+00,0.00000e+00
1.44960e+03,2.85877e+01,-3.59154e+01,0.00000e+00,0.00000e+00,0.00000e+00
1.44960e+03,2.79383e+01,-3.84808e+01,0.00000e+00,0.00000e+00,0.00000e+00
1.44960e+03,2.72125e+01,-4.10462e+01,0.00000e+00,0.00000e+00,0.00000e+00
1.44960e+03,2.64335e+01,-4.36115e+01,0.00000e+00,0.00000e+00,0.00000e+00
1.44960e+03,2.55347e+01,-4.61769e+01,0.00000e+00,0.00000e+00,0.00000e+00
1.44960e+03,2.45863e+01,-4.87423e+01,0.00000e+00,0.00000e+00,0.00000e+00
1.44960e+03,2.34997e+01,-5.13077e+01,0.00000e+00,0.00000e+00,0.00000e+00
1.44960e+03,2.23022e+01,-5.38731e+01,0.00000e+00,0.00000e+00,0.00000e+00
1.44960e+03,2.09919e+01,-5.64385e+01,0.00000e+00,0.00000e+00,0.00000e+00
1.44960e+03,1.94923e+01,-5.90039e+01,0.00000e+00,0.00000e+00,0.00000e+00
1.44960e+03,1.77735e+01,-6.15692e+01,0.00000e+00,0.00000e+00,0.00000e+00
1.44960e+03,1.58069e+01,-6.41346e+01,0.00000e+00,0.00000e+00,0.00000e+00
1.44960e+03,1.34808e+01,-6.67000e+01,0.00000e+00,0.00000e+00,0.00000e+00
1.44960e+03,1.04950e+01,-6.92654e+01,0.00000e+00,0.00000e+00,0.00000e+00
1.44960e+03,6.45692e+00,-7.18308e+01,0.00000e+00,0.00000e+00,0.00000e+00
1.44960e+03,-2.61629e+00,-7.43962e+01,0.00000e+00,0.00000e+00,0.00000e+00
1.44960e+03,-3.27111e+00,-7.44021e+01,0.00000e+00,0.00000e+00,0.00000e+00
1.44960e+03,-9.23696e+00,-7.17449e+01,0.00000e+00,0.00000e+00,0.00000e+00
1.44960e+03,-9.95928e+00,-6.90877e+01,0.00000e+00,0.00000e+00,0.00000e+00
1.44960e+03,-1.02085e+01,-6.64305e+01,0.00000e+00,0.00000e+00,0.00000e+00
1.44960e+03,-1.02464e+01,-6.37732e+01,0.00000e+00,0.00000e+00,0.00000e+00
1.44960e+03,-1.01249e+01,-6.11160e+01,0.00000e+00,0.00000e+00,0.00000e+00
1.44960e+03,-9.90345e+00,-5.84588e+01,0.00000e+00,0.00000e+00,0.00000e+00
1.44960e+03,-9.58164e+00,-5.58016e+01,0.00000e+00,0.00000e+00,0.00000e+00
1.44960e+03,-9.19861e+00,-5.31444e+01,0.00000e+00,0.00000e+00,0.00000e+00
1.44960e+03,-8.78006e+00,-5.04872e+01,0.00000e+00,0.00000e+00,0.00000e+00
1.44960e+03,-8.30801e+00,-4.78299e+01,0.00000e+00,0.00000e+00,0.00000e+00
1.44960e+03,-7.80252e+00,-4.51727e+01,0.00000e+00,0.00000e+00,0.00000e+00
1.44960e+03,-7.26447e+00,-4.25155e+01,0.00000e+00,0.00000e+00,0.00000e+00
1.44960e+03,-6.69398e+00,-3.98583e+01,0.00000e+00,0.00000e+00,0.00000e+00
1.44960e+03,-6.10316e+00,-3.72011e+01,0.00000e+00,0.00000e+00,0.00000e+00
1.44960e+03,-5.48628e+00,-3.45438e+01,0.00000e+00,0.00000e+00,0.00000e+00
1.44960e+03,-4.85273e+00,-3.18866e+01,0.00000e+00,0.00000e+00,0.00000e+00
1.44960e+03,-4.20421e+00,-2.92294e+01,0.00000e+00,0.00000e+00,0.00000e+00
1.44960e+03,-3.54234e+00,-2.65722e+01,0.00000e+00,0.00000e+00,0.00000e+00
1.44960e+03,-2.87482e+00,-2.39150e+01,0.00000e+00,0.00000e+00,0.00000e+00
1.44960e+03,-2.19854e+00,-2.12577e+01,0.00000e+00,0.00000e+00,0.00000e+00
1.44960e+03,-1.52080e+00,-1.86005e+01,0.00000e+00,0.00000e+00,0.00000e+00
1.44960e+03,-8.37821e-01,-1.59433e+01,0.00000e+00,0.00000e+00,0.00000e+00
1.44960e+03,-1.54916e-01,-1.32861e+01,0.00000e+00,0.00000e+00,0.00000e+00
1.44960e+03,5.25408e-01,-1.06289e+01,0.00000e+00,0.00000e+00,0.00000e+00
1.44960e+03,1.20573e+00,-7.97166e+00,0.00000e+00,0.00000e+00,0.00000e+00
1.44960e+03,1.86995e+00,-5.31444e+00,0.00000e+00,0.00000e+00,0.00000e+00
1.44960e+03,2.53116e+00,-2.65722e+00,0.00000e+00,0.00000e+00,0.00000e+00
1.52340e+03,3.25736e+01,0.00000e+00,0.00000e+00,0.00000e+00,0.00000e+00
1.52340e+03,3.24095e+01,-2.47525e+00,0.00000e+00,0.00000e+00,0.00000e+00
1.52340e+03,3.21913e+01,-4.95049e+00,0.00000e+00,0.00000e+00,0.00000e+00
1.52340e+03,3.19709e+01,-7.42574e+00,0.00000e+00,0.00000e+00,0.00000e+00
1.52340e+03,3.17026e+01,-9.90099e+00,0.00000e+00,0.00000e+00,0.00000e+00
1.52340e+03,3.14232e+01,-1.23762e+01,0.00000e+00,0.00000e+00,0.00000e+00
1.52340e+03,3.11072e+01,-1.48515e+01,0.00000e+00,0.00000e+00,0.00000e+00
1.52340e+03,3.07733e+01,-1.73267e+01,0.00000e+00,0.00000e+00,0.00000e+00
1.52340e+03,3.04098e+01,-1.98020e+01,0.00000e+00,0.00000e+00,0.00000e+00
1.52340e+03,3.00222e+01,-2.22772e+01,0.00000e+00,0.00000e+00,0.00000e+00
1.52340e+03,2.96079e+01,-2.47525e+01,0.00000e+00,0.00000e+00,0.00000e+00
1.52340e+03,2.91613e+01,-2.72277e+01,0.00000e+00,0.00000e+00,0.00000e+00
1.52340e+03,2.86816e+01,-2.97030e+01,0.00000e+00,0.00000e+00,0.00000e+00
1.52340e+03,2.81552e+01,-3.21782e+01,0.00000e+00,0.00000e+00,0.00000e+00
1.52340e+03,2.75832e+01,-3.46535e+01,0.00000e+00,0.00000e+00,0.00000e+00
1.52340e+03,2.69567e+01,-3.71287e+01,0.00000e+00,0.00000e+00,0.00000e+00
1.52340e+03,2.62564e+01,-3.96040e+01,0.00000e+00,0.00000e+00,0.00000e+00
1.52340e+03,2.55047e+01,-4.20792e+01,0.00000e+00,0.00000e+00,0.00000e+00
1.52340e+03,2.46375e+01,-4.45544e+01,0.00000e+00,0.00000e+00,0.00000e+00
1.52340e+03,2.37225e+01,-4.70297e+01,0.00000e+00,0.00000e+00,0.00000e+00
1.52340e+03,2.26740e+01,-4.95049e+01,0.00000e+00,0.00000e+00,0.00000e+00
1.52340e+03,2.15185e+01,-5.19802e+01,0.00000e+00,0.00000e+00,0.00000e+00
1.52340e+03,2.02543e+01,-5.44554e+01,0.00000e+00,0.00000e+00,0.00000e+00
1.52340e+03,1.88075e+01,-5.69307e+01,0.00000e+00,0.00000e+00,0.00000e+00
1.52340e+03,1.71490e+01,-5.94059e+01,0.00000e+00,0.00000e+00,0.00000e+00
1.52340e+03,1.52515e+01,-6.18812e+01,0.00000e+00,0.00000e+00,0.00000e+00
1.52340e+03,1.30071e+01,-6.43564e+01,0.00000e+00,0.00000e+00,0.00000e+00
1.52340e+03,1.01263e+01,-6.68317e+01,0.00000e+00,0.00000e+00,0.00000e+00
1.52340e+03,6.23005e+00,-6.93069e+01,0.00000e+00,0.00000e+00,0.00000e+00
1.52340e+03,-2.52437e+00,-7.17822e+01,0.00000e+00,0.00000e+00,0.00000e+00
1.52340e+03,-3.15618e+00,-7.17879e+01,0.00000e+00,0.00000e+00,0.00000e+00
1.52340e+03,-8.91241e+00,-6.92241e+01,0.00000e+00,0.00000e+00,0.00000e+00
1.52340e+03,-9.60935e+00,-6.66602e+01,0.00000e+00,0.00000e+00,0.00000e+00
1.52340e+03,-9.84985e+00,-6.40963e+01,0.00000e+00,0.00000e+00,0.00000e+00
1.52340e+03,-9.88634e+00,-6.15325e+01,0.00000e+00,0.00000e+00,0.00000e+00
1.52340e+03,-9.76914e+00,-5.89686e+01,0.00000e+00,0.00000e+00,0.00000e+00
1.52340e+03,-9.55548e+00,-5.64048e+01,0.00000e+00,0.00000e+00,0.00000e+00
1.52340e+03,-9.24498e+00,-5.38409e+01,0.00000e+00,0.00000e+00,0.00000e+00
1.52340e+03,-8.87540e+00,-5.12771e+01,0.00000e+00,0.00000e+00,0.00000e+00
1.52340e+03,-8.47156e+00,-4.87132e+01,0.00000e+00,0.00000e+00,0.00000e+00
1.52340e+03,-8.01609e+00,-4.61494e+01,0.00000e+00,0.00000e+00,0.00000e+00
1.52340e+03,-7.52837e+00,-4.35855e+01,0.00000e+00,0.00000e+00,0.00000e+00
1.52340e+03,-7.00922e+00,-4.10217e+01,0.00000e+00,0.00000e+00,0.00000e+00
1.52340e+03,-6.45878e+00,-3.84578e+01,0.00000e+00,0.00000e+00,0.00000e+00
1.52340e+03,-5.88872e+00,-3.58940e+01,0.00000e+00,0.00000e+00,0.00000e+00
1.52340e+03,-5.29352e+00,-3.33301e+01,0.00000e+00,0.00000e+00,0.00000e+00
1.52340e+03,-4.68222e+00,-3.07662e+01,0.00000e+00,0.00000e+00,0.00000e+00
1.52340e+03,-4.05649e+00,-2.82024e+01,0.00000e+00,0.00000e+00,0.00000e+00
1.52340e+03,-3.41788e+00,-2.56385e+01,0.00000e+00,0.00000e+00,0.00000e+00
1.52340e+03,-2.77381e+00,-2.30747e+01,0.00000e+00,0.00000e+00,0.00000e+00
1.52340e+03,-2.12129e+00,-2.05108e+01,0.00000e+00,0.00000e+00,0.00000e+00
1.52340e+03,-1.46736e+00,-1.79470e+01,0.00000e+00,0.00000e+00,0.00000e+00
1.52340e+03,-8.08383e-01,-1.53831e+01,0.00000e+00,0.00000e+00,0.00000e+00
1.52340e+03,-1.49473e-01,-1.28193e+01,0.00000e+00,0.00000e+00,0.00000e+00
1.52340e+03,5.06948e-01,-1.02554e+01,0.00000e+00,0.00000e+00,0.00000e+00
1.52340e+03,1.16337e+00,-7.69156e+00,0.00000e+00,0.00000e+00,0.00000e+00
1.52340e+03,1.80424e+00,-5.12771e+00,0.00000e+00,0.00000e+00,0.00000e+00
1.52340e+03,2.44222e+00,-2.56385e+00,0.00000e+00,0.00000e+00,0.00000e+00
1.59310e+03,3.14533e+01,0.00000e+00,0.00000e+00,0.00000e+00,0.00000e+00
1.59310e+03,3.12949e+01,-2.39012e+00,0.00000e+00,0.00000e+00,0.00000e+00
1.59310e+03,3.10841e+01,-4.78023e+00,0.00000e+00,0.00000e+00,0.00000e+00
1.59310e+03,3.08713e+01,-7.17035e+00,0.00000e+00,0.00000e+00,0.00000e+00
1.59310e+03,3.06123e+01,-9.56047e+00,0.00000e+00,0.00000e+00,0.00000e+00
1.59310e+03,3.03425e+01,-1.19506e+01,0.00000e+00,0.00000e+00,0.00000e+00
1.59310e+03,3.00373e+01,-1.43407e+01,0.00000e+00,0.00000e+00,0.00000e+00
1.59310e+03,2.97149e+01,-1.67308e+01,0.00000e+00,0.00000e+00,0.00000e+00
1.59310e+03,2.93640e+01,-1.91209e+01,0.00000e+00,0.00000e+00,0.00000e+00
1.59310e+03,2.89896e+01,-2.15111e+01,0.00000e+00,0.00000e+00,0.00000e+00
1.59310e+03,2.85896e+01,-2.39012e+01,0.00000e+00,0.00000e+00,0.00000e+00
1.59310e+03,2.81583e+01,-2.62913e+01,0.00000e+00,0.00000e+00,0.00000e+00
1.59310e+03,2.76952e+01,-2.86814e+01,0.00000e+00,0.00000e+00,0.00000e+00
1.59310e+03,2.71869e+01,-3.10715e+01,0.00000e+00,0.00000e+00,0.00000e+00
1.59310e+03,2.66345e+01,-3.34616e+01,0.00000e+00,0.00000e+00,0.00000e+00
1.59310e+03,2.60296e+01,-3.58518e+01,0.00000e+00,0.00000e+00,0.00000e+00
1.59310e+03,2.53533e+01,-3.82419e+01,0.00000e+00,0.00000e+00,0.00000e+00
1.59310e+03,2.46276e+01,-4.06320e+01,0.00000e+00,0.00000e+00,0.00000e+00
1.59310e+03,2.37902e+01,-4.30221e+01,0.00000e+00,0.00000e+00,0.00000e+00
1.59310e+03,2.29066e+01,-4.54122e+01,0.00000e+00,0.00000e+00,0.00000e+00
1.59310e+03,2.18941e+01,-4.78023e+01,0.00000e+00,0.00000e+00,0.00000e+00
1.59310e+03,2.07785e+01,-5.01925e+01,0.00000e+00,0.00000e+00,0.00000e+00
1.59310e+03,1.95577e+01,-5.25826e+01,0.00000e+00,0.00000e+00,0.00000e+00
1.59310e+03,1.81606e+01,-5.49727e+01,0.00000e+00,0.00000e+00,0.00000e+00
1.59310e+03,1.65592e+01,-5.73628e+01,0.00000e+00,0.00000e+00,0.00000e+00
1.59310e+03,1.47269e+01,-5.97529e+01,0.00000e+00,0.00000e+00,0.00000e+00
1.59310e+03,1.25597e+01,-6.21430e+01,0.00000e+00,0.00000e+00,0.00000e+00
1.59310e+03,9.77800e+00,-6.45332e+01,0.00000e+00,0.00000e+00,0.00000e+00
1.59310e+03,6.01578e+00,-6.69233e+01,0.00000e+00,0.00000e+00,0.00000e+00
1.59310e+03,-2.43755e+00,-6.93134e+01,0.00000e+00,0.00000e+00,0.00000e+00
1.59310e+03,-3.04763e+00,-6.93189e+01,0.00000e+00,0.00000e+00,0.00000e+00
1.59310e+03,-8.60589e+00,-6.68433e+01,0.00000e+00,0.00000e+00,0.00000e+00
1.59310e+03,-9.27886e+00,-6.43676e+01,0.00000e+00,0.00000e+00,0.00000e+00
1.59310e+03,-9.51109e+00,-6.18919e+01,0.00000e+00,0.00000e+00,0.00000e+00
1.59310e+03,-9.54632e+00,-5.94162e+01,0.00000e+00,0.00000e+00,0.00000e+00
1.59310e+03,-9.43315e+00,-5.69406e+01,0.00000e+00,0.00000e+00,0.00000e+00
1.59310e+03,-9.22684e+00,-5.44649e+01,0.00000e+00,0.00000e+00,0.00000e+00
1.59310e+03,-8.92702e+00,-5.19892e+01,0.00000e+00,0.00000e+00,0.00000e+00
1.59310e+03,-8.57016e+00,-4.95135e+01,0.00000e+00,0.00000e+00,0.00000e+00
1.59310e+03,-8.18020e+00,-4.70379e+01,0.00000e+00,0.00000e+00,0.00000e+00
1.59310e+03,-7.74040e+00,-4.45622e+01,0.00000e+00,0.00000e+00,0.00000e+00
1.59310e+03,-7.26945e+00,-4.20865e+01,0.00000e+00,0.00000e+00,0.00000e+00
1.59310e+03,-6.76816e+00,-3.96108e+01,0.00000e+00,0.00000e+00,0.00000e+00
1.59310e+03,-6.23665e+00,-3.71351e+01,0.00000e+00,0.00000e+00,0.00000e+00
1.59310e+03,-5.68619e+00,-3.46595e+01,0.00000e+00,0.00000e+00,0.00000e+00
1.59310e+03,-5.11146e+00,-3.21838e+01,0.00000e+00,0.00000e+00,0.00000e+00
1.59310e+03,-4.52119e+00,-2.97081e+01,0.00000e+00,0.00000e+00,0.00000e+00
1.59310e+03,-3.91698e+00,-2.72324e+01,0.00000e+00,0.00000e+00,0.00000e+00
1.59310e+03,-3.30033e+00,-2.47568e+01,0.00000e+00,0.00000e+00,0.00000e+00
1.59310e+03,-2.67841e+00,-2.22811e+01,0.00000e+00,0.00000e+00,0.00000e+00
1.59310e+03,-2.04833e+00,-1.98054e+01,0.00000e+00,0.00000e+00,0.00000e+00
1.59310e+03,-1.41689e+00,-1.73297e+01,0.00000e+00,0.00000e+00,0.00000e+00
1.59310e+03,-7.80581e-01,-1.48541e+01,0.00000e+00,0.00000e+00,0.00000e+00
1.59310e+03,-1.44332e-01,-1.23784e+01,0.00000e+00,0.00000e+00,0.00000e+00
1.59310e+03,4.89512e-01,-9.90271e+00,0.00000e+00,0.00000e+00,0.00000e+00
1.59310e+03,1.12336e+00,-7.42703e+00,0.00000e+00,0.00000e+00,0.00000e+00
1.59310e+03,1.74219e+00,-4.95135e+00,0.00000e+00,0.00000e+00,0.00000e+00
1.59310e+03,2.35823e+00,-2.47568e+00,0.00000e+00,0.00000e+00,0.00000e+00
1.65850e+03,3.04021e+01,0.00000e+00,0.00000e+00,0.00000e+00,0.00000e+00
1.65850e+03,3.02490e+01,-2.31024e+00,0.00000e+00,0.00000e+00,0.00000e+00
1.65850e+03,3.00453e+01,-4.62048e+00,0.00000e+00,0.00000e+00,0.00000e+00
1.65850e+03,2.98396e+01,-6.93072e+00,0.00000e+00,0.00000e+00,0.00000e+00
1.65850e+03,2.95892e+01,-9.24096e+00,0.00000e+00,0.00000e+00,0.00000e+00
1.65850e+03,2.93285e+01,-1.15512e+01,0.00000e+00,0.00000e+00,0.00000e+00
1.65850e+03,2.90335e+01,-1.38614e+01,0.00000e+00,0.00000e+00,0.00000e+00
1.65850e+03,2.87218e+01,-1.61717e+01,0.00000e+00,0.00000e+00,0.00000e+00
1.65850e+03,2.83826e+01,-1.84819e+01,0.00000e+00,0.00000e+00,0.00000e+00
1.65850e+03,2.80208e+01,-2.07921e+01,0.00000e+00,0.00000e+00,0.00000e+00
1.65850e+03,2.76341e+01,-2.31024e+01,0.00000e+00,0.00000e+00,0.00000e+00
1.65850e+03,2.72173e+01,-2.54126e+01,0.00000e+00,0.00000e+00,0.00000e+00
1.65850e+03,2.67696e+01,-2.77229e+01,0.00000e+00,0.00000e+00,0.00000e+00
1.65850e+03,2.62783e+01,-3.00331e+01,0.00000e+00,0.00000e+00,0.00000e+00
1.65850e+03,2.57444e+01,-3.23433e+01,0.00000e+00,0.00000e+00,0.00000e+00
1.65850e+03,2.51597e+01,-3.46536e+01,0.00000e+00,0.00000e+00,0.00000e+00
1.65850e+03,2.45060e+01,-3.69638e+01,0.00000e+00,0.00000e+00,0.00000e+00
1.65850e+03,2.38045e+01,-3.92741e+01,0.00000e+00,0.00000e+00,0.00000e+00
1.65850e+03,2.29951e+01,-4.15843e+01,0.00000e+00,0.00000e+00,0.00000e+00
1.65850e+03,2.21410e+01,-4.38945e+01,0.00000e+00,0.00000e+00,0.00000e+00
1.65850e+03,2.11624e+01,-4.62048e+01,0.00000e+00,0.00000e+00,0.00000e+00
1.65850e+03,2.00840e+01,-4.85150e+01,0.00000e+00,0.00000e+00,0.00000e+00
1.65850e+03,1.89041e+01,-5.08253e+01,0.00000e+00,0.00000e+00,0.00000e+00
1.65850e+03,1.75537e+01,-5.31355e+01,0.00000e+00,0.00000e+00,0.00000e+00
1.65850e+03,1.60058e+01,-5.54457e+01,0.00000e+00,0.00000e+00,0.00000e+00
1.65850e+03,1.42348e+01,-5.77560e+01,0.00000e+00,0.00000e+00,0.00000e+00
1.65850e+03,1.21400e+01,-6.00662e+01,0.00000e+00,0.00000e+00,0.00000e+00
1.65850e+03,9.45122e+00,-6.23764e+01,0.00000e+00,0.00000e+00,0.00000e+00
1.65850e+03,5.81473e+00,-6.46867e+01,0.00000e+00,0.00000e+00,0.00000e+00
1.65850e+03,-2.35608e+00,-6.69969e+01,0.00000e+00,0.00000e+00,0.00000e+00
1.65850e+03,-2.94577e+00,-6.70023e+01,0.00000e+00,0.00000e+00,0.00000e+00
1.65850e+03,-8.31828e+00,-6.46093e+01,0.00000e+00,0.00000e+00,0.00000e+00
1.65850e+03,-8.96876e+00,-6.22164e+01,0.00000e+00,0.00000e+00,0.00000e+00
1.65850e+03,-9.19322e+00,-5.98235e+01,0.00000e+00,0.00000e+00,0.00000e+00
1.65850e+03,-9.22728e+00,-5.74305e+01,0.00000e+00,0.00000e+00,0.00000e+00
1.65850e+03,-9.11789e+00,-5.50376e+01,0.00000e+00,0.00000e+00,0.00000e+00
1.65850e+03,-8.91848e+00,-5.26447e+01,0.00000e+00,0.00000e+00,0.00000e+00
1.65850e+03,-8.62868e+00,-5.02517e+01,0.00000e+00,0.00000e+00,0.00000e+00
1.65850e+03,-8.28374e+00,-4.78588e+01,0.00000e+00,0.00000e+00,0.00000e+00
1.65850e+03,-7.90682e+00,-4.54658e+01,0.00000e+00,0.00000e+00,0.00000e+00
1.65850e+03,-7.48171e+00,-4.30729e+01,0.00000e+00,0.00000e+00,0.00000e+00
1.65850e+03,-7.02650e+00,-4.06800e+01,0.00000e+00,0.00000e+00,0.00000e+00
1.65850e+03,-6.54196e+00,-3.82870e+01,0.00000e+00,0.00000e+00,0.00000e+00
1.65850e+03,-6.02822e+00,-3.58941e+01,0.00000e+00,0.00000e+00,0.00000e+00
1.65850e+03,-5.49615e+00,-3.35011e+01,0.00000e+00,0.00000e+00,0.00000e+00
1.65850e+03,-4.94063e+00,-3.11082e+01,0.00000e+00,0.00000e+00,0.00000e+00
1.65850e+03,-4.37009e+00,-2.87153e+01,0.00000e+00,0.00000e+00,0.00000e+00
1.65850e+03,-3.78607e+00,-2.63223e+01,0.00000e+00,0.00000e+00,0.00000e+00
1.65850e+03,-3.19003e+00,-2.39294e+01,0.00000e+00,0.00000e+00,0.00000e+00
1.65850e+03,-2.58890e+00,-2.15364e+01,0.00000e+00,0.00000e+00,0.00000e+00
1.65850e+03,-1.97988e+00,-1.91435e+01,0.00000e+00,0.00000e+00,0.00000e+00
1.65850e+03,-1.36954e+00,-1.67506e+01,0.00000e+00,0.00000e+00,0.00000e+00
1.65850e+03,-7.54494e-01,-1.43576e+01,0.00000e+00,0.00000e+00,0.00000e+00
1.65850e+03,-1.39508e-01,-1.19647e+01,0.00000e+00,0.00000e+00,0.00000e+00
1.65850e+03,4.73153e-01,-9.57176e+00,0.00000e+00,0.00000e+00,0.00000e+00
1.65850e+03,1.08581e+00,-7.17882e+00,0.00000e+00,0.00000e+00,0.00000e+00
1.65850e+03,1.68397e+00,-4.78588e+00,0.00000e+00,0.00000e+00,0.00000e+00
1.65850e+03,2.27942e+00,-2.39294e+00,0.00000e+00,0.00000e+00,0.00000e+00
1.71930e+03,2.94249e+01,0.00000e+00,0.00000e+00,0.00000e+00,0.00000e+00
1.71930e+03,2.92767e+01,-2.23598e+00,0.00000e+00,0.00000e+00,0.00000e+00
1.71930e+03,2.90795e+01,-4.47196e+00,0.00000e+00,0.00000e+00,0.00000e+00
1.71930e+03,2.88804e+01,-6.70794e+00,0.00000e+00,0.00000e+00,0.00000e+00
1.71930e+03,2.86381e+01,-8.94392e+00,0.00000e+00,0.00000e+00,0.00000e+00
1.71930e+03,2.83857e+01,-1.11799e+01,0.00000e+00,0.00000e+00,0.00000e+00
1.71930e+03,2.81002e+01,-1.34159e+01,0.00000e+00,0.00000e+00,0.00000e+00
1.71930e+03,2.77986e+01,-1.56519e+01,0.00000e+00,0.00000e+00,0.00000e+00
1.71930e+03,2.74703e+01,-1.78878e+01,0.00000e+00,0.00000e+00,0.00000e+00
1.71930e+03,2.71201e+01,-2.01238e+01,0.00000e+00,0.00000e+00,0.00000e+00
1.71930e+03,2.67458e+01,-2.23598e+01,0.00000e+00,0.00000e+00,0.00000e+00
1.71930e+03,2.63424e+01,-2.45958e+01,0.00000e+00,0.00000e+00,0.00000e+00
1.71930e+03,2.59091e+01,-2.68317e+01,0.00000e+00,0.00000e+00,0.00000e+00
1.71930e+03,2.54336e+01,-2.90677e+01,0.00000e+00,0.00000e+00,0.00000e+00
1.71930e+03,2.49169e+01,-3.13037e+01,0.00000e+00,0.00000e+00,0.00000e+00
1.71930e+03,2.43509e+01,-3.35397e+01,0.00000e+00,0.00000e+00,0.00000e+00
1.71930e+03,2.37183e+01,-3.57757e+01,0.00000e+00,0.00000e+00,0.00000e+00
1.71930e+03,2.30393e+01,-3.80116e+01,0.00000e+00,0.00000e+00,0.00000e+00
1.71930e+03,2.22560e+01,-4.02476e+01,0.00000e+00,0.00000e+00,0.00000e+00
1.71930e+03,2.14293e+01,-4.24836e+01,0.00000e+00,0.00000e+00,0.00000e+00
1.71930e+03,2.04822e+01,-4.47196e+01,0.00000e+00,0.00000e+00,0.00000e+00
1.71930e+03,1.94385e+01,-4.69556e+01,0.00000e+00,0.00000e+00,0.00000e+00
1.71930e+03,1.82964e+01,-4.91915e+01,0.00000e+00,0.00000e+00,0.00000e+00
1.71930e+03,1.69894e+01,-5.14275e+01,0.00000e+00,0.00000e+00,0.00000e+00
1.71930e+03,1.54913e+01,-5.36635e+01,0.00000e+00,0.00000e+00,0.00000e+00
1.71930e+03,1.37772e+01,-5.58995e+01,0.00000e+00,0.00000e+00,0.00000e+00
1.71930e+03,1.17498e+01,-5.81355e+01,0.00000e+00,0.00000e+00,0.00000e+00
1.71930e+03,9.14742e+00,-6.03714e+01,0.00000e+00,0.00000e+00,0.00000e+00
1.71930e+03,5.62782e+00,-6.26074e+01,0.00000e+00,0.00000e+00,0.00000e+00
1.71930e+03,-2.28035e+00,-6.48434e+01,0.00000e+00,0.00000e+00,0.00000e+00
1.71930e+03,-2.85109e+00,-6.48486e+01,0.00000e+00,0.00000e+00,0.00000e+00
1.71930e+03,-8.05090e+00,-6.25326e+01,0.00000e+00,0.00000e+00,0.00000e+00
1.71930e+03,-8.68047e+00,-6.02165e+01,0.00000e+00,0.00000e+00,0.00000e+00
1.71930e+03,-8.89772e+00,-5.79005e+01,0.00000e+00,0.00000e+00,0.00000e+00
1.71930e+03,-8.93068e+00,-5.55845e+01,0.00000e+00,0.00000e+00,0.00000e+00
1.71930e+03,-8.82481e+00,-5.32685e+01,0.00000e+00,0.00000e+00,0.00000e+00
1.71930e+03,-8.63181e+00,-5.09525e+01,0.00000e+00,0.00000e+00,0.00000e+00
1.71930e+03,-8.35132e+00,-4.86364e+01,0.00000e+00,0.00000e+00,0.00000e+00
1.71930e+03,-8.01747e+00,-4.63204e+01,0.00000e+00,0.00000e+00,0.00000e+00
1.71930e+03,-7.65266e+00,-4.40044e+01,0.00000e+00,0.00000e+00,0.00000e+00
1.71930e+03,-7.24122e+00,-4.16884e+01,0.00000e+00,0.00000e+00,0.00000e+00
1.71930e+03,-6.80064e+00,-3.93724e+01,0.00000e+00,0.00000e+00,0.00000e+00
1.71930e+03,-6.33168e+00,-3.70563e+01,0.00000e+00,0.00000e+00,0.00000e+00
1.71930e+03,-5.83445e+00,-3.47403e+01,0.00000e+00,0.00000e+00,0.00000e+00
1.71930e+03,-5.31949e+00,-3.24243e+01,0.00000e+00,0.00000e+00,0.00000e+00
1.71930e+03,-4.78182e+00,-3.01083e+01,0.00000e+00,0.00000e+00,0.00000e+00
1.71930e+03,-4.22962e+00,-2.77922e+01,0.00000e+00,0.00000e+00,0.00000e+00
1.71930e+03,-3.66437e+00,-2.54762e+01,0.00000e+00,0.00000e+00,0.00000e+00
1.71930e+03,-3.08749e+00,-2.31602e+01,0.00000e+00,0.00000e+00,0.00000e+00
1.71930e+03,-2.50568e+00,-2.08442e+01,0.00000e+00,0.00000e+00,0.00000e+00
1.71930e+03,-1.91624e+00,-1.85282e+01,0.00000e+00,0.00000e+00,0.00000e+00
1.71930e+03,-1.32552e+00,-1.62121e+01,0.00000e+00,0.00000e+00,0.00000e+00
1.71930e+03,-7.30242e-01,-1.38961e+01,0.00000e+00,0.00000e+00,0.00000e+00
1.71930e+03,-1.35024e-01,-1.15801e+01,0.00000e+00,0.00000e+00,0.00000e+00
1.71930e+03,4.57944e-01,-9.26408e+00,0.00000e+00,0.00000e+00,0.00000e+00
1.71930e+03,1.05091e+00,-6.94806e+00,0.00000e+00,0.00000e+00,0.00000e+00
1.71930e+03,1.62984e+00,-4.63204e+00,0.00000e+00,0.00000e+00,0.00000e+00
1.71930e+03,2.20615e+00,-2.31602e+00,0.00000e+00,0.00000e+00,0.00000e+00
1.77540e+03,2.77303e+01,0.00000e+00,0.00000e+00,0.00000e+00,0.00000e+00
1.77540e+03,2.75906e+01,-2.10721e+00,0.00000e+00,0.00000e+00,0.00000e+00
1.77540e+03,2.74048e+01,-4.21442e+00,0.00000e+00,0.00000e+00,0.00000e+00
1.77540e+03,2.72172e+01,-6.32163e+00,0.00000e+00,0.00000e+00,0.00000e+00
1.77540e+03,2.69888e+01,-8.42884e+00,0.00000e+00,0.00000e+00,0.00000e+00
1.77540e+03,2.67510e+01,-1.05361e+01,0.00000e+00,0.00000e+00,0.00000e+00
1.77540e+03,2.64819e+01,-1.26433e+01,0.00000e+00,0.00000e+00,0.00000e+00
1.77540e+03,2.61977e+01,-1.47505e+01,0.00000e+00,0.00000e+00,0.00000e+00
1.77540e+03,2.58883e+01,-1.68577e+01,0.00000e+00,0.00000e+00,0.00000e+00
1.77540e+03,2.55583e+01,-1.89649e+01,0.00000e+00,0.00000e+00,0.00000e+00
1.77540e+03,2.52056e+01,-2.10721e+01,0.00000e+00,0.00000e+00,0.00000e+00
1.77540e+03,2.48254e+01,-2.31793e+01,0.00000e+00,0.00000e+00,0.00000e+00
1.77540e+03,2.44171e+01,-2.52865e+01,0.00000e+00,0.00000e+00,0.00000e+00
1.77540e+03,2.39689e+01,-2.73937e+01,0.00000e+00,0.00000e+00,0.00000e+00
1.77540e+03,2.34819e+01,-2.95009e+01,0.00000e+00,0.00000e+00,0.00000e+00
1.77540e+03,2.29486e+01,-3.16082e+01,0.00000e+00,0.00000e+00,0.00000e+00
1.77540e+03,2.23524e+01,-3.37154e+01,0.00000e+00,0.00000e+00,0.00000e+00
1.77540e+03,2.17125e+01,-3.58226e+01,0.00000e+00,0.00000e+00,0.00000e+00
1.77540e+03,2.09743e+01,-3.79298e+01,0.00000e+00,0.00000e+00,0.00000e+00
1.77540e+03,2.01952e+01,-4.00370e+01,0.00000e+00,0.00000e+00,0.00000e+00
1.77540e+03,1.93026e+01,-4.21442e+01,0.00000e+00,0.00000e+00,0.00000e+00
1.77540e+03,1.83190e+01,-4.42514e+01,0.00000e+00,0.00000e+00,0.00000e+00
1.77540e+03,1.72428e+01,-4.63586e+01,0.00000e+00,0.00000e+00,0.00000e+00
1.77540e+03,1.60110e+01,-4.84658e+01,0.00000e+00,0.00000e+00,0.00000e+00
1.77540e+03,1.45992e+01,-5.05731e+01,0.00000e+00,0.00000e+00,0.00000e+00
1.77540e+03,1.29838e+01,-5.26803e+01,0.00000e+00,0.00000e+00,0.00000e+00
1.77540e+03,1.10731e+01,-5.47875e+01,0.00000e+00,0.00000e+00,0.00000e+00
1.77540e+03,8.62063e+00,-5.68947e+01,0.00000e+00,0.00000e+00,0.00000e+00
1.77540e+03,5.30372e+00,-5.90019e+01,0.00000e+00,0.00000e+00,0.00000e+00
1.77540e+03,-2.14903e+00,-6.11091e+01,0.00000e+00,0.00000e+00,0.00000e+00
1.77540e+03,-2.68689e+00,-6.11140e+01,0.00000e+00,0.00000e+00,0.00000e+00
1.77540e+03,-7.58725e+00,-5.89314e+01,0.00000e+00,0.00000e+00,0.00000e+00
1.77540e+03,-8.18057e+00,-5.67487e+01,0.00000e+00,0.00000e+00,0.00000e+00
1.77540e+03,-8.38530e+00,-5.45661e+01,0.00000e+00,0.00000e+00,0.00000e+00
1.77540e+03,-8.41637e+00,-5.23834e+01,0.00000e+00,0.00000e+00,0.00000e+00
1.77540e+03,-8.31659e+00,-5.02008e+01,0.00000e+00,0.00000e+00,0.00000e+00
1.77540e+03,-8.13471e+00,-4.80181e+01,0.00000e+00,0.00000e+00,0.00000e+00
1.77540e+03,-7.87037e+00,-4.58355e+01,0.00000e+00,0.00000e+00,0.00000e+00
1.77540e+03,-7.55575e+00,-4.36529e+01,0.00000e+00,0.00000e+00,0.00000e+00
1.77540e+03,-7.21195e+00,-4.14702e+01,0.00000e+00,0.00000e+00,0.00000e+00
1.77540e+03,-6.82421e+00,-3.92876e+01,0.00000e+00,0.00000e+00,0.00000e+00
1.77540e+03,-6.40900e+00,-3.71049e+01,0.00000e+00,0.00000e+00,0.00000e+00
1.77540e+03,-5.96704e+00,-3.49223e+01,0.00000e+00,0.00000e+00,0.00000e+00
1.77540e+03,-5.49844e+00,-3.27396e+01,0.00000e+00,0.00000e+00,0.00000e+00
1.77540e+03,-5.01314e+00,-3.05570e+01,0.00000e+00,0.00000e+00,0.00000e+00
1.77540e+03,-4.50644e+00,-2.83744e+01,0.00000e+00,0.00000e+00,0.00000e+00
1.77540e+03,-3.98604e+00,-2.61917e+01,0.00000e+00,0.00000e+00,0.00000e+00
1.77540e+03,-3.45334e+00,-2.40091e+01,0.00000e+00,0.00000e+00,0.00000e+00
1.77540e+03,-2.90969e+00,-2.18264e+01,0.00000e+00,0.00000e+00,0.00000e+00
1.77540e+03,-2.36138e+00,-1.96438e+01,0.00000e+00,0.00000e+00,0.00000e+00
1.77540e+03,-1.80588e+00,-1.74611e+01,0.00000e+00,0.00000e+00,0.00000e+00
1.77540e+03,-1.24918e+00,-1.52785e+01,0.00000e+00,0.00000e+00,0.00000e+00
1.77540e+03,-6.88187e-01,-1.30959e+01,0.00000e+00,0.00000e+00,0.00000e+00
1.77540e+03,-1.27248e-01,-1.09132e+01,0.00000e+00,0.00000e+00,0.00000e+00
1.77540e+03,4.31571e-01,-8.73057e+00,0.00000e+00,0.00000e+00,0.00000e+00
1.77540e+03,9.90390e-01,-6.54793e+00,0.00000e+00,0.00000e+00,0.00000e+00
1.77540e+03,1.53598e+00,-4.36529e+00,0.00000e+00,0.00000e+00,0.00000e+00
1.77540e+03,2.07910e+00,-2.18264e+00,0.00000e+00,0.00000e+00,0.00000e+00
1.82660e+03,2.53092e+01,0.00000e+00,0.00000e+00,0.00000e+00,0.00000e+00
1.82660e+03,2.51817e+01,-1.92323e+00,0.00000e+00,0.00000e+00,0.00000e+00
1.82660e+03,2.50121e+01,-3.84646e+00,0.00000e+00,0.00000e+00,0.00000e+00
1.82660e+03,2.48409e+01,-5.76969e+00,0.00000e+00,0.00000e+00,0.00000e+00
1.82660e+03,2.46324e+01,-7.69292e+00,0.00000e+00,0.00000e+00,0.00000e+00
1.82660e+03,2.44154e+01,-9.61614e+00,0.00000e+00,0.00000e+00,0.00000e+00
1.82660e+03,2.41698e+01,-1.15394e+01,0.00000e+00,0.00000e+00,0.00000e+00
1.82660e+03,2.39103e+01,-1.34626e+01,0.00000e+00,0.00000e+00,0.00000e+00
1.82660e+03,2.36280e+01,-1.53858e+01,0.00000e+00,0.00000e+00,0.00000e+00
1.82660e+03,2.33268e+01,-1.73091e+01,0.00000e+00,0.00000e+00,0.00000e+00
1.82660e+03,2.30049e+01,-1.92323e+01,0.00000e+00,0.00000e+00,0.00000e+00
1.82660e+03,2.26579e+01,-2.11555e+01,0.00000e+00,0.00000e+00,0.00000e+00
1.82660e+03,2.22852e+01,-2.30787e+01,0.00000e+00,0.00000e+00,0.00000e+00
1.82660e+03,2.18762e+01,-2.50020e+01,0.00000e+00,0.00000e+00,0.00000e+00
1.82660e+03,2.14317e+01,-2.69252e+01,0.00000e+00,0.00000e+00,0.00000e+00
1.82660e+03,2.09449e+01,-2.88484e+01,0.00000e+00,0.00000e+00,0.00000e+00
1.82660e+03,2.04008e+01,-3.07717e+01,0.00000e+00,0.00000e+00,0.00000e+00
1.82660e+03,1.98168e+01,-3.26949e+01,0.00000e+00,0.00000e+00,0.00000e+00
1.82660e+03,1.91430e+01,-3.46181e+01,0.00000e+00,0.00000e+00,0.00000e+00
1.82660e+03,1.84320e+01,-3.65413e+01,0.00000e+00,0.00000e+00,0.00000e+00
1.82660e+03,1.76173e+01,-3.84646e+01,0.00000e+00,0.00000e+00,0.00000e+00
1.82660e+03,1.67196e+01,-4.03878e+01,0.00000e+00,0.00000e+00,0.00000e+00
1.82660e+03,1.57373e+01,-4.23110e+01,0.00000e+00,0.00000e+00,0.00000e+00
1.82660e+03,1.46131e+01,-4.42343e+01,0.00000e+00,0.00000e+00,0.00000e+00
1.82660e+03,1.33245e+01,-4.61575e+01,0.00000e+00,0.00000e+00,0.00000e+00
1.82660e+03,1.18502e+01,-4.80807e+01,0.00000e+00,0.00000e+00,0.00000e+00
1.82660e+03,1.01063e+01,-5.00040e+01,0.00000e+00,0.00000e+00,0.00000e+00
1.82660e+03,7.86795e+00,-5.19272e+01,0.00000e+00,0.00000e+00,0.00000e+00
1.82660e+03,4.84065e+00,-5.38504e+01,0.00000e+00,0.00000e+00,0.00000e+00
1.82660e+03,-1.96139e+00,-5.57736e+01,0.00000e+00,0.00000e+00,0.00000e+00
1.82660e+03,-2.45230e+00,-5.57781e+01,0.00000e+00,0.00000e+00,0.00000e+00
1.82660e+03,-6.92480e+00,-5.37860e+01,0.00000e+00,0.00000e+00,0.00000e+00
1.82660e+03,-7.46632e+00,-5.17940e+01,0.00000e+00,0.00000e+00,0.00000e+00
1.82660e+03,-7.65318e+00,-4.98019e+01,0.00000e+00,0.00000e+00,0.00000e+00
1.82660e+03,-7.68153e+00,-4.78098e+01,0.00000e+00,0.00000e+00,0.00000e+00
1.82660e+03,-7.59047e+00,-4.58177e+01,0.00000e+00,0.00000e+00,0.00000e+00
1.82660e+03,-7.42446e+00,-4.38257e+01,0.00000e+00,0.00000e+00,0.00000e+00
1.82660e+03,-7.18321e+00,-4.18336e+01,0.00000e+00,0.00000e+00,0.00000e+00
1.82660e+03,-6.89605e+00,-3.98415e+01,0.00000e+00,0.00000e+00,0.00000e+00
1.82660e+03,-6.58227e+00,-3.78494e+01,0.00000e+00,0.00000e+00,0.00000e+00
1.82660e+03,-6.22838e+00,-3.58574e+01,0.00000e+00,0.00000e+00,0.00000e+00
1.82660e+03,-5.84943e+00,-3.38653e+01,0.00000e+00,0.00000e+00,0.00000e+00
1.82660e+03,-5.44606e+00,-3.18732e+01,0.00000e+00,0.00000e+00,0.00000e+00
1.82660e+03,-5.01837e+00,-2.98811e+01,0.00000e+00,0.00000e+00,0.00000e+00
1.82660e+03,-4.57544e+00,-2.78891e+01,0.00000e+00,0.00000e+00,0.00000e+00
1.82660e+03,-4.11298e+00,-2.58970e+01,0.00000e+00,0.00000e+00,0.00000e+00
1.82660e+03,-3.63801e+00,-2.39049e+01,0.00000e+00,0.00000e+00,0.00000e+00
1.82660e+03,-3.15183e+00,-2.19128e+01,0.00000e+00,0.00000e+00,0.00000e+00
1.82660e+03,-2.65564e+00,-1.99208e+01,0.00000e+00,0.00000e+00,0.00000e+00
1.82660e+03,-2.15521e+00,-1.79287e+01,0.00000e+00,0.00000e+00,0.00000e+00
1.82660e+03,-1.64821e+00,-1.59366e+01,0.00000e+00,0.00000e+00,0.00000e+00
1.82660e+03,-1.14012e+00,-1.39445e+01,0.00000e+00,0.00000e+00,0.00000e+00
1.82660e+03,-6.28101e-01,-1.19525e+01,0.00000e+00,0.00000e+00,0.00000e+00
1.82660e+03,-1.16138e-01,-9.96038e+00,0.00000e+00,0.00000e+00,0.00000e+00
1.82660e+03,3.93890e-01,-7.96830e+00,0.00000e+00,0.00000e+00,0.00000e+00
1.82660e+03,9.03919e-01,-5.97623e+00,0.00000e+00,0.00000e+00,0.00000e+00
1.82660e+03,1.40187e+00,-3.98415e+00,0.00000e+00,0.00000e+00,0.00000e+00
1.82660e+03,1.89757e+00,-1.99208e+00,0.00000e+00,0.00000e+00,0.00000e+00
1.87280e+03,2.31244e+01,0.00000e+00,0.00000e+00,0.00000e+00,0.00000e+00
1.87280e+03,2.30080e+01,-1.75721e+00,0.00000e+00,0.00000e+00,0.00000e+00
1.87280e+03,2.28531e+01,-3.51443e+00,0.00000e+00,0.00000e+00,0.00000e+00
1.87280e+03,2.26966e+01,-5.27164e+00,0.00000e+00,0.00000e+00,0.00000e+00
1.87280e+03,2.25061e+01,-7.02886e+00,0.00000e+00,0.00000e+00,0.00000e+00
1.87280e+03,2.23078e+01,-8.78607e+00,0.00000e+00,0.00000e+00,0.00000e+00
1.87280e+03,2.20834e+01,-1.05433e+01,0.00000e+00,0.00000e+00,0.00000e+00
1.87280e+03,2.18464e+01,-1.23005e+01,0.00000e+00,0.00000e+00,0.00000e+00
1.87280e+03,2.15884e+01,-1.40577e+01,0.00000e+00,0.00000e+00,0.00000e+00
1.87280e+03,2.13132e+01,-1.58149e+01,0.00000e+00,0.00000e+00,0.00000e+00
1.87280e+03,2.10191e+01,-1.75721e+01,0.00000e+00,0.00000e+00,0.00000e+00
1.87280e+03,2.07020e+01,-1.93294e+01,0.00000e+00,0.00000e+00,0.00000e+00
1.87280e+03,2.03615e+01,-2.10866e+01,0.00000e+00,0.00000e+00,0.00000e+00
1.87280e+03,1.99878e+01,-2.28438e+01,0.00000e+00,0.00000e+00,0.00000e+00
1.87280e+03,1.95817e+01,-2.46010e+01,0.00000e+00,0.00000e+00,0.00000e+00
1.87280e+03,1.91369e+01,-2.63582e+01,0.00000e+00,0.00000e+00,0.00000e+00
1.87280e+03,1.86398e+01,-2.81154e+01,0.00000e+00,0.00000e+00,0.00000e+00
1.87280e+03,1.81062e+01,-2.98726e+01,0.00000e+00,0.00000e+00,0.00000e+00
1.87280e+03,1.74905e+01,-3.16299e+01,0.00000e+00,0.00000e+00,0.00000e+00
1.87280e+03,1.68409e+01,-3.33871e+01,0.00000e+00,0.00000e+00,0.00000e+00
1.87280e+03,1.60966e+01,-3.51443e+01,0.00000e+00,0.00000e+00,0.00000e+00
1.87280e+03,1.52763e+01,-3.69015e+01,0.00000e+00,0.00000e+00,0.00000e+00
1.87280e+03,1.43788e+01,-3.86587e+01,0.00000e+00,0.00000e+00,0.00000e+00
1.87280e+03,1.33517e+01,-4.04159e+01,0.00000e+00,0.00000e+00,0.00000e+00
1.87280e+03,1.21743e+01,-4.21731e+01,0.00000e+00,0.00000e+00,0.00000e+00
1.87280e+03,1.08272e+01,-4.39304e+01,0.00000e+00,0.00000e+00,0.00000e+00
1.87280e+03,9.23393e+00,-4.56876e+01,0.00000e+00,0.00000e+00,0.00000e+00
1.87280e+03,7.18879e+00,-4.74448e+01,0.00000e+00,0.00000e+00,0.00000e+00
1.87280e+03,4.42280e+00,-4.92020e+01,0.00000e+00,0.00000e+00,0.00000e+00
1.87280e+03,-1.79208e+00,-5.09592e+01,0.00000e+00,0.00000e+00,0.00000e+00
1.87280e+03,-2.24062e+00,-5.09633e+01,0.00000e+00,0.00000e+00,0.00000e+00
1.87280e+03,-6.32705e+00,-4.91432e+01,0.00000e+00,0.00000e+00,0.00000e+00
1.87280e+03,-6.82182e+00,-4.73231e+01,0.00000e+00,0.00000e+00,0.00000e+00
1.87280e+03,-6.99255e+00,-4.55029e+01,0.00000e+00,0.00000e+00,0.00000e+00
1.87280e+03,-7.01846e+00,-4.36828e+01,0.00000e+00,0.00000e+00,0.00000e+00
1.87280e+03,-6.93525e+00,-4.18627e+01,0.00000e+00,0.00000e+00,0.00000e+00
1.87280e+03,-6.78358e+00,-4.00426e+01,0.00000e+00,0.00000e+00,0.00000e+00
1.87280e+03,-6.56315e+00,-3.82225e+01,0.00000e+00,0.00000e+00,0.00000e+00
1.87280e+03,-6.30078e+00,-3.64024e+01,0.00000e+00,0.00000e+00,0.00000e+00
1.87280e+03,-6.01408e+00,-3.45822e+01,0.00000e+00,0.00000e+00,0.00000e+00
1.87280e+03,-5.69074e+00,-3.27621e+01,0.00000e+00,0.00000e+00,0.00000e+00
1.87280e+03,-5.34450e+00,-3.09420e+01,0.00000e+00,0.00000e+00,0.00000e+00
1.87280e+03,-4.97595e+00,-2.91219e+01,0.00000e+00,0.00000e+00,0.00000e+00
1.87280e+03,-4.58518e+00,-2.73018e+01,0.00000e+00,0.00000e+00,0.00000e+00
1.87280e+03,-4.18049e+00,-2.54816e+01,0.00000e+00,0.00000e+00,0.00000e+00
1.87280e+03,-3.75794e+00,-2.36615e+01,0.00000e+00,0.00000e+00,0.00000e+00
1.87280e+03,-3.32398e+00,-2.18414e+01,0.00000e+00,0.00000e+00,0.00000e+00
1.87280e+03,-2.87976e+00,-2.00213e+01,0.00000e+00,0.00000e+00,0.00000e+00
1.87280e+03,-2.42640e+00,-1.82012e+01,0.00000e+00,0.00000e+00,0.00000e+00
1.87280e+03,-1.96917e+00,-1.63811e+01,0.00000e+00,0.00000e+00,0.00000e+00
1.87280e+03,-1.50594e+00,-1.45609e+01,0.00000e+00,0.00000e+00,0.00000e+00
1.87280e+03,-1.04170e+00,-1.27408e+01,0.00000e+00,0.00000e+00,0.00000e+00
1.87280e+03,-5.73883e-01,-1.09207e+01,0.00000e+00,0.00000e+00,0.00000e+00
1.87280e+03,-1.06113e-01,-9.10059e+00,0.00000e+00,0.00000e+00,0.00000e+00
1.87280e+03,3.59890e-01,-7.28047e+00,0.00000e+00,0.00000e+00,0.00000e+00
1.87280e+03,8.25892e-01,-5.46035e+00,0.00000e+00,0.00000e+00,0.00000e+00
1.87280e+03,1.28086e+00,-3.64024e+00,0.00000e+00,0.00000e+00,0.00000e+00
1.87280e+03,1.73377e+00,-1.82012e+00,0.00000e+00,0.00000e+00,0.00000e+00
1.91380e+03,2.11856e+01,0.00000e+00,0.00000e+00,0.00000e+00,0.00000e+00
1.91380e+03,2.10789e+01,-1.60989e+00,0.00000e+00,0.00000e+00,0.00000e+00
1.91380e+03,2.09370e+01,-3.21977e+00,0.00000e+00,0.00000e+00,0.00000e+00
1.91380e+03,2.07936e+01,-4.82966e+00,0.00000e+00,0.00000e+00,0.00000e+00
1.91380e+03,2.06192e+01,-6.43954e+00,0.00000e+00,0.00000e+00,0.00000e+00
1.91380e+03,2.04375e+01,-8.04943e+00,0.00000e+00,0.00000e+00,0.00000e+00
1.91380e+03,2.02319e+01,-9.65931e+00,0.00000e+00,0.00000e+00,0.00000e+00
1.91380e+03,2.00147e+01,-1.12692e+01,0.00000e+00,0.00000e+00,0.00000e+00
1.91380e+03,1.97784e+01,-1.28791e+01,0.00000e+00,0.00000e+00,0.00000e+00
1.91380e+03,1.95262e+01,-1.44890e+01,0.00000e+00,0.00000e+00,0.00000e+00
1.91380e+03,1.92568e+01,-1.60989e+01,0.00000e+00,0.00000e+00,0.00000e+00
1.91380e+03,1.89663e+01,-1.77087e+01,0.00000e+00,0.00000e+00,0.00000e+00
1.91380e+03,1.86544e+01,-1.93186e+01,0.00000e+00,0.00000e+00,0.00000e+00
1.91380e+03,1.83120e+01,-2.09285e+01,0.00000e+00,0.00000e+00,0.00000e+00
1.91380e+03,1.79399e+01,-2.25384e+01,0.00000e+00,0.00000e+00,0.00000e+00
1.91380e+03,1.75325e+01,-2.41483e+01,0.00000e+00,0.00000e+00,0.00000e+00
1.91380e+03,1.70770e+01,-2.57582e+01,0.00000e+00,0.00000e+00,0.00000e+00
1.91380e+03,1.65881e+01,-2.73680e+01,0.00000e+00,0.00000e+00,0.00000e+00
1.91380e+03,1.60241e+01,-2.89779e+01,0.00000e+00,0.00000e+00,0.00000e+00
1.91380e+03,1.54289e+01,-3.05878e+01,0.00000e+00,0.00000e+00,0.00000e+00
1.91380e+03,1.47470e+01,-3.21977e+01,0.00000e+00,0.00000e+00,0.00000e+00
1.91380e+03,1.39955e+01,-3.38076e+01,0.00000e+00,0.00000e+00,0.00000e+00
1.91380e+03,1.31733e+01,-3.54175e+01,0.00000e+00,0.00000e+00,0.00000e+00
1.91380e+03,1.22322e+01,-3.70274e+01,0.00000e+00,0.00000e+00,0.00000e+00
1.91380e+03,1.11536e+01,-3.86372e+01,0.00000e+00,0.00000e+00,0.00000e+00
1.91380e+03,9.91946e+00,-4.02471e+01,0.00000e+00,0.00000e+00,0.00000e+00
1.91380e+03,8.45973e+00,-4.18570e+01,0.00000e+00,0.00000e+00,0.00000e+00
1.91380e+03,6.58606e+00,-4.34669e+01,0.00000e+00,0.00000e+00,0.00000e+00
1.91380e+03,4.05198e+00,-4.50768e+01,0.00000e+00,0.00000e+00,0.00000e+00
1.91380e+03,-1.64183e+00,-4.66867e+01,0.00000e+00,0.00000e+00,0.00000e+00
1.91380e+03,-2.05276e+00,-4.66904e+01,0.00000e+00,0.00000e+00,0.00000e+00
1.91380e+03,-5.79657e+00,-4.50229e+01,0.00000e+00,0.00000e+00,0.00000e+00
1.91380e+03,-6.24986e+00,-4.33554e+01,0.00000e+00,0.00000e+00,0.00000e+00
1.91380e+03,-6.40628e+00,-4.16879e+01,0.00000e+00,0.00000e+00,0.00000e+00
1.91380e+03,-6.43001e+00,-4.00204e+01,0.00000e+00,0.00000e+00,0.00000e+00
1.91380e+03,-6.35378e+00,-3.83528e+01,0.00000e+00,0.00000e+00,0.00000e+00
1.91380e+03,-6.21483e+00,-3.66853e+01,0.00000e+00,0.00000e+00,0.00000e+00
1.91380e+03,-6.01288e+00,-3.50178e+01,0.00000e+00,0.00000e+00,0.00000e+00
1.91380e+03,-5.77251e+00,-3.33503e+01,0.00000e+00,0.00000e+00,0.00000e+00
1.91380e+03,-5.50985e+00,-3.16828e+01,0.00000e+00,0.00000e+00,0.00000e+00
1.91380e+03,-5.21362e+00,-3.00153e+01,0.00000e+00,0.00000e+00,0.00000e+00
1.91380e+03,-4.89640e+00,-2.83477e+01,0.00000e+00,0.00000e+00,0.00000e+00
1.91380e+03,-4.55876e+00,-2.66802e+01,0.00000e+00,0.00000e+00,0.00000e+00
1.91380e+03,-4.20075e+00,-2.50127e+01,0.00000e+00,0.00000e+00,0.00000e+00
1.91380e+03,-3.82998e+00,-2.33452e+01,0.00000e+00,0.00000e+00,0.00000e+00
1.91380e+03,-3.44287e+00,-2.16777e+01,0.00000e+00,0.00000e+00,0.00000e+00
1.91380e+03,-3.04529e+00,-2.00102e+01,0.00000e+00,0.00000e+00,0.00000e+00
1.91380e+03,-2.63832e+00,-1.83427e+01,0.00000e+00,0.00000e+00,0.00000e+00
1.91380e+03,-2.22297e+00,-1.66751e+01,0.00000e+00,0.00000e+00,0.00000e+00
1.91380e+03,-1.80407e+00,-1.50076e+01,0.00000e+00,0.00000e+00,0.00000e+00
1.91380e+03,-1.37967e+00,-1.33401e+01,0.00000e+00,0.00000e+00,0.00000e+00
1.91380e+03,-9.54362e-01,-1.16726e+01,0.00000e+00,0.00000e+00,0.00000e+00
1.91380e+03,-5.25768e-01,-1.00051e+01,0.00000e+00,0.00000e+00,0.00000e+00
1.91380e+03,-9.72161e-02,-8.33757e+00,0.00000e+00,0.00000e+00,0.00000e+00
1.91380e+03,3.29716e-01,-6.67006e+00,0.00000e+00,0.00000e+00,0.00000e+00
1.91380e+03,7.56647e-01,-5.00254e+00,0.00000e+00,0.00000e+00,0.00000e+00
1.91380e+03,1.17347e+00,-3.33503e+00,0.00000e+00,0.00000e+00,0.00000e+00
1.91380e+03,1.58841e+00,-1.66751e+00,0.00000e+00,0.00000e+00,0.00000e+00
1.94970e+03,1.94880e+01,0.00000e+00,0.00000e+00,0.00000e+00,0.00000e+00
1.94970e+03,1.93899e+01,-1.48088e+00,0.00000e+00,0.00000e+00,0.00000e+00
1.94970e+03,1.92593e+01,-2.96177e+00,0.00000e+00,0.00000e+00,0.00000e+00
1.94970e+03,1.91274e+01,-4.44265e+00,0.00000e+00,0.00000e+00,0.00000e+00
1.94970e+03,1.89669e+01,-5.92353e+00,0.00000e+00,0.00000e+00,0.00000e+00
1.94970e+03,1.87998e+01,-7.40441e+00,0.00000e+00,0.00000e+00,0.00000e+00
1.94970e+03,1.86107e+01,-8.88530e+00,0.00000e+00,0.00000e+00,0.00000e+00
1.94970e+03,1.84109e+01,-1.03662e+01,0.00000e+00,0.00000e+00,0.00000e+00
1.94970e+03,1.81935e+01,-1.18471e+01,0.00000e+00,0.00000e+00,0.00000e+00
1.94970e+03,1.79616e+01,-1.33279e+01,0.00000e+00,0.00000e+00,0.00000e+00
1.94970e+03,1.77137e+01,-1.48088e+01,0.00000e+00,0.00000e+00,0.00000e+00
1.94970e+03,1.74465e+01,-1.62897e+01,0.00000e+00,0.00000e+00,0.00000e+00
1.94970e+03,1.71596e+01,-1.77706e+01,0.00000e+00,0.00000e+00,0.00000e+00
1.94970e+03,1.68446e+01,-1.92515e+01,0.00000e+00,0.00000e+00,0.00000e+00
1.94970e+03,1.65024e+01,-2.07324e+01,0.00000e+00,0.00000e+00,0.00000e+00
1.94970e+03,1.61276e+01,-2.22132e+01,0.00000e+00,0.00000e+00,0.00000e+00
1.94970e+03,1.57086e+01,-2.36941e+01,0.00000e+00,0.00000e+00,0.00000e+00
1.94970e+03,1.52589e+01,-2.51750e+01,0.00000e+00,0.00000e+00,0.00000e+00
1.94970e+03,1.47401e+01,-2.66559e+01,0.00000e+00,0.00000e+00,0.00000e+00
1.94970e+03,1.41926e+01,-2.81368e+01,0.00000e+00,0.00000e+00,0.00000e+00
1.94970e+03,1.35653e+01,-2.96177e+01,0.00000e+00,0.00000e+00,0.00000e+00
1.94970e+03,1.28740e+01,-3.10985e+01,0.00000e+00,0.00000e+00,0.00000e+00
1.94970e+03,1.21177e+01,-3.25794e+01,0.00000e+00,0.00000e+00,0.00000e+00
1.94970e+03,1.12521e+01,-3.40603e+01,0.00000e+00,0.00000e+00,0.00000e+00
1.94970e+03,1.02599e+01,-3.55412e+01,0.00000e+00,0.00000e+00,0.00000e+00
1.94970e+03,9.12460e+00,-3.70221e+01,0.00000e+00,0.00000e+00,0.00000e+00
1.94970e+03,7.78184e+00,-3.85029e+01,0.00000e+00,0.00000e+00,0.00000e+00
1.94970e+03,6.05831e+00,-3.99838e+01,0.00000e+00,0.00000e+00,0.00000e+00
1.94970e+03,3.72729e+00,-4.14647e+01,0.00000e+00,0.00000e+00,0.00000e+00
1.94970e+03,-1.51027e+00,-4.29456e+01,0.00000e+00,0.00000e+00,0.00000e+00
1.94970e+03,-1.88827e+00,-4.29490e+01,0.00000e+00,0.00000e+00,0.00000e+00
1.94970e+03,-5.33209e+00,-4.14151e+01,0.00000e+00,0.00000e+00,0.00000e+00
1.94970e+03,-5.74905e+00,-3.98812e+01,0.00000e+00,0.00000e+00,0.00000e+00
1.94970e+03,-5.89293e+00,-3.83473e+01,0.00000e+00,0.00000e+00,0.00000e+00
1.94970e+03,-5.91477e+00,-3.68135e+01,0.00000e+00,0.00000e+00,0.00000e+00
1.94970e+03,-5.84465e+00,-3.52796e+01,0.00000e+00,0.00000e+00,0.00000e+00
1.94970e+03,-5.71682e+00,-3.37457e+01,0.00000e+00,0.00000e+00,0.00000e+00
1.94970e+03,-5.53106e+00,-3.22118e+01,0.00000e+00,0.00000e+00,0.00000e+00
1.94970e+03,-5.30995e+00,-3.06779e+01,0.00000e+00,0.00000e+00,0.00000e+00
1.94970e+03,-5.06834e+00,-2.91440e+01,0.00000e+00,0.00000e+00,0.00000e+00
1.94970e+03,-4.79584e+00,-2.76101e+01,0.00000e+00,0.00000e+00,0.00000e+00
1.94970e+03,-4.50405e+00,-2.60762e+01,0.00000e+00,0.00000e+00,0.00000e+00
1.94970e+03,-4.19345e+00,-2.45423e+01,0.00000e+00,0.00000e+00,0.00000e+00
1.94970e+03,-3.86414e+00,-2.30084e+01,0.00000e+00,0.00000e+00,0.00000e+00
1.94970e+03,-3.52308e+00,-2.14745e+01,0.00000e+00,0.00000e+00,0.00000e+00
1.94970e+03,-3.16699e+00,-1.99406e+01,0.00000e+00,0.00000e+00,0.00000e+00
1.94970e+03,-2.80126e+00,-1.84067e+01,0.00000e+00,0.00000e+00,0.00000e+00
1.94970e+03,-2.42690e+00,-1.68728e+01,0.00000e+00,0.00000e+00,0.00000e+00
1.94970e+03,-2.04484e+00,-1.53389e+01,0.00000e+00,0.00000e+00,0.00000e+00
1.94970e+03,-1.65951e+00,-1.38050e+01,0.00000e+00,0.00000e+00,0.00000e+00
1.94970e+03,-1.26912e+00,-1.22712e+01,0.00000e+00,0.00000e+00,0.00000e+00
1.94970e+03,-8.77888e-01,-1.07373e+01,0.00000e+00,0.00000e+00,0.00000e+00
1.94970e+03,-4.83637e-01,-9.20336e+00,0.00000e+00,0.00000e+00,0.00000e+00
1.94970e+03,-8.94260e-02,-7.66947e+00,0.00000e+00,0.00000e+00,0.00000e+00
1.94970e+03,3.03295e-01,-6.13558e+00,0.00000e+00,0.00000e+00,0.00000e+00
1.94970e+03,6.96016e-01,-4.60168e+00,0.00000e+00,0.00000e+00,0.00000e+00
1.94970e+03,1.07944e+00,-3.06779e+00,0.00000e+00,0.00000e+00,0.00000e+00
1.94970e+03,1.46113e+00,-1.53389e+00,0.00000e+00,0.00000e+00,0.00000e+00
1.98010e+03,1.80504e+01,0.00000e+00,0.00000e+00,0.00000e+00,0.00000e+00
1.98010e+03,1.79595e+01,-1.37164e+00,0.00000e+00,0.00000e+00,0.00000e+00
1.98010e+03,1.78386e+01,-2.74329e+00,0.00000e+00,0.00000e+00,0.00000e+00
1.98010e+03,1.77165e+01,-4.11493e+00,0.00000e+00,0.00000e+00,0.00000e+00
1.98010e+03,1.75678e+01,-5.48657e+00,0.00000e+00,0.00000e+00,0.00000e+00
1.98010e+03,1.74130e+01,-6.85822e+00,0.00000e+00,0.00000e+00,0.00000e+00
1.98010e+03,1.72378e+01,-8.22986e+00,0.00000e+00,0.00000e+00,0.00000e+00
1.98010e+03,1.70528e+01,-9.60150e+00,0.00000e+00,0.00000e+00,0.00000e+00
1.98010e+03,1.68514e+01,-1.09731e+01,0.00000e+00,0.00000e+00,0.00000e+00
1.98010e+03,1.66366e+01,-1.23448e+01,0.00000e+00,0.00000e+00,0.00000e+00
1.98010e+03,1.64070e+01,-1.37164e+01,0.00000e+00,0.00000e+00,0.00000e+00
1.98010e+03,1.61595e+01,-1.50881e+01,0.00000e+00,0.00000e+00,0.00000e+00
1.98010e+03,1.58938e+01,-1.64597e+01,0.00000e+00,0.00000e+00,0.00000e+00
1.98010e+03,1.56020e+01,-1.78314e+01,0.00000e+00,0.00000e+00,0.00000e+00
1.98010e+03,1.52851e+01,-1.92030e+01,0.00000e+00,0.00000e+00,0.00000e+00
1.98010e+03,1.49379e+01,-2.05747e+01,0.00000e+00,0.00000e+00,0.00000e+00
1.98010e+03,1.45498e+01,-2.19463e+01,0.00000e+00,0.00000e+00,0.00000e+00
1.98010e+03,1.41333e+01,-2.33179e+01,0.00000e+00,0.00000e+00,0.00000e+00
1.98010e+03,1.36527e+01,-2.46896e+01,0.00000e+00,0.00000e+00,0.00000e+00
1.98010e+03,1.31457e+01,-2.60612e+01,0.00000e+00,0.00000e+00,0.00000e+00
1.98010e+03,1.25646e+01,-2.74329e+01,0.00000e+00,0.00000e+00,0.00000e+00
1.98010e+03,1.19244e+01,-2.88045e+01,0.00000e+00,0.00000e+00,0.00000e+00
1.98010e+03,1.12238e+01,-3.01762e+01,0.00000e+00,0.00000e+00,0.00000e+00
1.98010e+03,1.04220e+01,-3.15478e+01,0.00000e+00,0.00000e+00,0.00000e+00
1.98010e+03,9.50303e+00,-3.29194e+01,0.00000e+00,0.00000e+00,0.00000e+00
1.98010e+03,8.45151e+00,-3.42911e+01,0.00000e+00,0.00000e+00,0.00000e+00
1.98010e+03,7.20780e+00,-3.56627e+01,0.00000e+00,0.00000e+00,0.00000e+00
1.98010e+03,5.61141e+00,-3.70344e+01,0.00000e+00,0.00000e+00,0.00000e+00
1.98010e+03,3.45234e+00,-3.84060e+01,0.00000e+00,0.00000e+00,0.00000e+00
1.98010e+03,-1.39886e+00,-3.97777e+01,0.00000e+00,0.00000e+00,0.00000e+00
1.98010e+03,-1.74898e+00,-3.97808e+01,0.00000e+00,0.00000e+00,0.00000e+00
1.98010e+03,-4.93876e+00,-3.83601e+01,0.00000e+00,0.00000e+00,0.00000e+00
1.98010e+03,-5.32496e+00,-3.69394e+01,0.00000e+00,0.00000e+00,0.00000e+00
1.98010e+03,-5.45823e+00,-3.55186e+01,0.00000e+00,0.00000e+00,0.00000e+00
1.98010e+03,-5.47846e+00,-3.40979e+01,0.00000e+00,0.00000e+00,0.00000e+00
1.98010e+03,-5.41351e+00,-3.26771e+01,0.00000e+00,0.00000e+00,0.00000e+00
1.98010e+03,-5.29511e+00,-3.12564e+01,0.00000e+00,0.00000e+00,0.00000e+00
1.98010e+03,-5.12305e+00,-2.98356e+01,0.00000e+00,0.00000e+00,0.00000e+00
1.98010e+03,-4.91825e+00,-2.84149e+01,0.00000e+00,0.00000e+00,0.00000e+00
1.98010e+03,-4.69446e+00,-2.69941e+01,0.00000e+00,0.00000e+00,0.00000e+00
1.98010e+03,-4.44207e+00,-2.55734e+01,0.00000e+00,0.00000e+00,0.00000e+00
1.98010e+03,-4.17180e+00,-2.41527e+01,0.00000e+00,0.00000e+00,0.00000e+00
1.98010e+03,-3.88412e+00,-2.27319e+01,0.00000e+00,0.00000e+00,0.00000e+00
1.98010e+03,-3.57909e+00,-2.13112e+01,0.00000e+00,0.00000e+00,0.00000e+00
1.98010e+03,-3.26320e+00,-1.98904e+01,0.00000e+00,0.00000e+00,0.00000e+00
1.98010e+03,-2.93337e+00,-1.84697e+01,0.00000e+00,0.00000e+00,0.00000e+00
1.98010e+03,-2.59462e+00,-1.70489e+01,0.00000e+00,0.00000e+00,0.00000e+00
1.98010e+03,-2.24788e+00,-1.56282e+01,0.00000e+00,0.00000e+00,0.00000e+00
1.98010e+03,-1.89400e+00,-1.42074e+01,0.00000e+00,0.00000e+00,0.00000e+00
1.98010e+03,-1.53709e+00,-1.27867e+01,0.00000e+00,0.00000e+00,0.00000e+00
1.98010e+03,-1.17550e+00,-1.13660e+01,0.00000e+00,0.00000e+00,0.00000e+00
1.98010e+03,-8.13129e-01,-9.94521e+00,0.00000e+00,0.00000e+00,0.00000e+00
1.98010e+03,-4.47961e-01,-8.52447e+00,0.00000e+00,0.00000e+00,0.00000e+00
1.98010e+03,-8.28294e-02,-7.10372e+00,0.00000e+00,0.00000e+00,0.00000e+00
1.98010e+03,2.80922e-01,-5.68298e+00,0.00000e+00,0.00000e+00,0.00000e+00
1.98010e+03,6.44673e-01,-4.26223e+00,0.00000e+00,0.00000e+00,0.00000e+00
1.98010e+03,9.99811e-01,-2.84149e+00,0.00000e+00,0.00000e+00,0.00000e+00
1.98010e+03,1.35334e+00,-1.42074e+00,0.00000e+00,0.00000e+00,0.00000e+00
2.00520e+03,1.68635e+01,0.00000e+00,0.00000e+00,0.00000e+00,0.00000e+00
2.00520e+03,1.67786e+01,-1.28145e+00,0.00000e+00,0.00000e+00,0.00000e+00
2.00520e+03,1.66656e+01,-2.56290e+00,0.00000e+00,0.00000e+00,0.00000e+00
2.00520e+03,1.65515e+01,-3.84435e+00,0.00000e+00,0.00000e+00,0.00000e+00
2.00520e+03,1.64126e+01,-5.12580e+00,0.00000e+00,0.00000e+00,0.00000e+00
2.00520e+03,1.62680e+01,-6.40725e+00,0.00000e+00,0.00000e+00,0.00000e+00
2.00520e+03,1.61044e+01,-7.68870e+00,0.00000e+00,0.00000e+00,0.00000e+00
2.00520e+03,1.59315e+01,-8.97015e+00,0.00000e+00,0.00000e+00,0.00000e+00
2.00520e+03,1.57433e+01,-1.02516e+01,0.00000e+00,0.00000e+00,0.00000e+00
2.00520e+03,1.55427e+01,-1.15330e+01,0.00000e+00,0.00000e+00,0.00000e+00
2.00520e+03,1.53282e+01,-1.28145e+01,0.00000e+00,0.00000e+00,0.00000e+00
2.00520e+03,1.50970e+01,-1.40959e+01,0.00000e+00,0.00000e+00,0.00000e+00
2.00520e+03,1.48486e+01,-1.53774e+01,0.00000e+00,0.00000e+00,0.00000e+00
2.00520e+03,1.45761e+01,-1.66588e+01,0.00000e+00,0.00000e+00,0.00000e+00
2.00520e+03,1.42800e+01,-1.79403e+01,0.00000e+00,0.00000e+00,0.00000e+00
2.00520e+03,1.39556e+01,-1.92217e+01,0.00000e+00,0.00000e+00,0.00000e+00
2.00520e+03,1.35931e+01,-2.05032e+01,0.00000e+00,0.00000e+00,0.00000e+00
2.00520e+03,1.32039e+01,-2.17846e+01,0.00000e+00,0.00000e+00,0.00000e+00
2.00520e+03,1.27550e+01,-2.30661e+01,0.00000e+00,0.00000e+00,0.00000e+00
2.00520e+03,1.22812e+01,-2.43475e+01,0.00000e+00,0.00000e+00,0.00000e+00
2.00520e+03,1.17384e+01,-2.56290e+01,0.00000e+00,0.00000e+00,0.00000e+00
2.00520e+03,1.11403e+01,-2.69104e+01,0.00000e+00,0.00000e+00,0.00000e+00
2.00520e+03,1.04858e+01,-2.81919e+01,0.00000e+00,0.00000e+00,0.00000e+00
2.00520e+03,9.73672e+00,-2.94733e+01,0.00000e+00,0.00000e+00,0.00000e+00
2.00520e+03,8.87814e+00,-3.07548e+01,0.00000e+00,0.00000e+00,0.00000e+00
2.00520e+03,7.89577e+00,-3.20362e+01,0.00000e+00,0.00000e+00,0.00000e+00
2.00520e+03,6.73385e+00,-3.33177e+01,0.00000e+00,0.00000e+00,0.00000e+00
2.00520e+03,5.24243e+00,-3.45991e+01,0.00000e+00,0.00000e+00,0.00000e+00
2.00520e+03,3.22533e+00,-3.58806e+01,0.00000e+00,0.00000e+00,0.00000e+00
2.00520e+03,-1.30688e+00,-3.71620e+01,0.00000e+00,0.00000e+00,0.00000e+00
2.00520e+03,-1.63397e+00,-3.71650e+01,0.00000e+00,0.00000e+00,0.00000e+00
2.00520e+03,-4.61400e+00,-3.58377e+01,0.00000e+00,0.00000e+00,0.00000e+00
2.00520e+03,-4.97481e+00,-3.45104e+01,0.00000e+00,0.00000e+00,0.00000e+00
2.00520e+03,-5.09932e+00,-3.31830e+01,0.00000e+00,0.00000e+00,0.00000e+00
2.00520e+03,-5.11821e+00,-3.18557e+01,0.00000e+00,0.00000e+00,0.00000e+00
2.00520e+03,-5.05754e+00,-3.05284e+01,0.00000e+00,0.00000e+00,0.00000e+00
2.00520e+03,-4.94693e+00,-2.92011e+01,0.00000e+00,0.00000e+00,0.00000e+00
2.00520e+03,-4.78618e+00,-2.78738e+01,0.00000e+00,0.00000e+00,0.00000e+00
2.00520e+03,-4.59485e+00,-2.65464e+01,0.00000e+00,0.00000e+00,0.00000e+00
2.00520e+03,-4.38577e+00,-2.52191e+01,0.00000e+00,0.00000e+00,0.00000e+00
2.00520e+03,-4.14998e+00,-2.38918e+01,0.00000e+00,0.00000e+00,0.00000e+00
2.00520e+03,-3.89748e+00,-2.25645e+01,0.00000e+00,0.00000e+00,0.00000e+00
2.00520e+03,-3.62871e+00,-2.12371e+01,0.00000e+00,0.00000e+00,0.00000e+00
2.00520e+03,-3.34375e+00,-1.99098e+01,0.00000e+00,0.00000e+00,0.00000e+00
2.00520e+03,-3.04862e+00,-1.85825e+01,0.00000e+00,0.00000e+00,0.00000e+00
2.00520e+03,-2.74048e+00,-1.72552e+01,0.00000e+00,0.00000e+00,0.00000e+00
2.00520e+03,-2.42401e+00,-1.59279e+01,0.00000e+00,0.00000e+00,0.00000e+00
2.00520e+03,-2.10007e+00,-1.46005e+01,0.00000e+00,0.00000e+00,0.00000e+00
2.00520e+03,-1.76946e+00,-1.32732e+01,0.00000e+00,0.00000e+00,0.00000e+00
2.00520e+03,-1.43602e+00,-1.19459e+01,0.00000e+00,0.00000e+00,0.00000e+00
2.00520e+03,-1.09820e+00,-1.06186e+01,0.00000e+00,0.00000e+00,0.00000e+00
2.00520e+03,-7.59661e-01,-9.29125e+00,0.00000e+00,0.00000e+00,0.00000e+00
2.00520e+03,-4.18505e-01,-7.96393e+00,0.00000e+00,0.00000e+00,0.00000e+00
2.00520e+03,-7.73829e-02,-6.63661e+00,0.00000e+00,0.00000e+00,0.00000e+00
2.00520e+03,2.62450e-01,-5.30929e+00,0.00000e+00,0.00000e+00,0.00000e+00
2.00520e+03,6.02282e-01,-3.98196e+00,0.00000e+00,0.00000e+00,0.00000e+00
2.00520e+03,9.34067e-01,-2.65464e+00,0.00000e+00,0.00000e+00,0.00000e+00
2.00520e+03,1.26435e+00,-1.32732e+00,0.00000e+00,0.00000e+00,0.00000e+00
2.02480e+03,1.59367e+01,0.00000e+00,0.00000e+00,0.00000e+00,0.00000e+00
2.02480e+03,1.58564e+01,-1.21102e+00,0.00000e+00,0.00000e+00,0.00000e+00
2.02480e+03,1.57496e+01,-2.42204e+00,0.00000e+00,0.00000e+00,0.00000e+00
2.02480e+03,1.56418e+01,-3.63306e+00,0.00000e+00,0.00000e+00,0.00000e+00
2.02480e+03,1.55106e+01,-4.84408e+00,0.00000e+00,0.00000e+00,0.00000e+00
2.02480e+03,1.53739e+01,-6.05509e+00,0.00000e+00,0.00000e+00,0.00000e+00
2.02480e+03,1.52192e+01,-7.26611e+00,0.00000e+00,0.00000e+00,0.00000e+00
2.02480e+03,1.50559e+01,-8.47713e+00,0.00000e+00,0.00000e+00,0.00000e+00
2.02480e+03,1.48781e+01,-9.68815e+00,0.00000e+00,0.00000e+00,0.00000e+00
2.02480e+03,1.46884e+01,-1.08992e+01,0.00000e+00,0.00000e+00,0.00000e+00
2.02480e+03,1.44857e+01,-1.21102e+01,0.00000e+00,0.00000e+00,0.00000e+00
2.02480e+03,1.42672e+01,-1.33212e+01,0.00000e+00,0.00000e+00,0.00000e+00
2.02480e+03,1.40325e+01,-1.45322e+01,0.00000e+00,0.00000e+00,0.00000e+00
2.02480e+03,1.37750e+01,-1.57432e+01,0.00000e+00,0.00000e+00,0.00000e+00
2.02480e+03,1.34951e+01,-1.69543e+01,0.00000e+00,0.00000e+00,0.00000e+00
2.02480e+03,1.31886e+01,-1.81653e+01,0.00000e+00,0.00000e+00,0.00000e+00
2.02480e+03,1.28460e+01,-1.93763e+01,0.00000e+00,0.00000e+00,0.00000e+00
2.02480e+03,1.24782e+01,-2.05873e+01,0.00000e+00,0.00000e+00,0.00000e+00
2.02480e+03,1.20540e+01,-2.17983e+01,0.00000e+00,0.00000e+00,0.00000e+00
2.02480e+03,1.16063e+01,-2.30094e+01,0.00000e+00,0.00000e+00,0.00000e+00
2.02480e+03,1.10933e+01,-2.42204e+01,0.00000e+00,0.00000e+00,0.00000e+00
2.02480e+03,1.05280e+01,-2.54314e+01,0.00000e+00,0.00000e+00,0.00000e+00
2.02480e+03,9.90946e+00,-2.66424e+01,0.00000e+00,0.00000e+00,0.00000e+00
2.02480e+03,9.20158e+00,-2.78534e+01,0.00000e+00,0.00000e+00,0.00000e+00
2.02480e+03,8.39019e+00,-2.90645e+01,0.00000e+00,0.00000e+00,0.00000e+00
2.02480e+03,7.46181e+00,-3.02755e+01,0.00000e+00,0.00000e+00,0.00000e+00
2.02480e+03,6.36374e+00,-3.14865e+01,0.00000e+00,0.00000e+00,0.00000e+00
2.02480e+03,4.95429e+00,-3.26975e+01,0.00000e+00,0.00000e+00,0.00000e+00
2.02480e+03,3.04806e+00,-3.39085e+01,0.00000e+00,0.00000e+00,0.00000e+00
2.02480e+03,-1.23505e+00,-3.51195e+01,0.00000e+00,0.00000e+00,0.00000e+00
2.02480e+03,-1.54416e+00,-3.51224e+01,0.00000e+00,0.00000e+00,0.00000e+00
2.02480e+03,-4.36041e+00,-3.38680e+01,0.00000e+00,0.00000e+00,0.00000e+00
2.02480e+03,-4.70139e+00,-3.26136e+01,0.00000e+00,0.00000e+00,0.00000e+00
2.02480e+03,-4.81905e+00,-3.13592e+01,0.00000e+00,0.00000e+00,0.00000e+00
2.02480e+03,-4.83691e+00,-3.01049e+01,0.00000e+00,0.00000e+00,0.00000e+00
2.02480e+03,-4.77957e+00,-2.88505e+01,0.00000e+00,0.00000e+00,0.00000e+00
2.02480e+03,-4.67504e+00,-2.75961e+01,0.00000e+00,0.00000e+00,0.00000e+00
2.02480e+03,-4.52312e+00,-2.63418e+01,0.00000e+00,0.00000e+00,0.00000e+00
2.02480e+03,-4.34231e+00,-2.50874e+01,0.00000e+00,0.00000e+00,0.00000e+00
2.02480e+03,-4.14473e+00,-2.38330e+01,0.00000e+00,0.00000e+00,0.00000e+00
2.02480e+03,-3.92189e+00,-2.25787e+01,0.00000e+00,0.00000e+00,0.00000e+00
2.02480e+03,-3.68327e+00,-2.13243e+01,0.00000e+00,0.00000e+00,0.00000e+00
2.02480e+03,-3.42927e+00,-2.00699e+01,0.00000e+00,0.00000e+00,0.00000e+00
2.02480e+03,-3.15997e+00,-1.88155e+01,0.00000e+00,0.00000e+00,0.00000e+00
2.02480e+03,-2.88106e+00,-1.75612e+01,0.00000e+00,0.00000e+00,0.00000e+00
2.02480e+03,-2.58986e+00,-1.63068e+01,0.00000e+00,0.00000e+00,0.00000e+00
2.02480e+03,-2.29078e+00,-1.50524e+01,0.00000e+00,0.00000e+00,0.00000e+00
2.02480e+03,-1.98465e+00,-1.37981e+01,0.00000e+00,0.00000e+00,0.00000e+00
2.02480e+03,-1.67220e+00,-1.25437e+01,0.00000e+00,0.00000e+00,0.00000e+00
2.02480e+03,-1.35709e+00,-1.12893e+01,0.00000e+00,0.00000e+00,0.00000e+00
2.02480e+03,-1.03784e+00,-1.00350e+01,0.00000e+00,0.00000e+00,0.00000e+00
2.02480e+03,-7.17909e-01,-8.78059e+00,0.00000e+00,0.00000e+00,0.00000e+00
2.02480e+03,-3.95503e-01,-7.52622e+00,0.00000e+00,0.00000e+00,0.00000e+00
2.02480e+03,-7.31298e-02,-6.27185e+00,0.00000e+00,0.00000e+00,0.00000e+00
2.02480e+03,2.48025e-01,-5.01748e+00,0.00000e+00,0.00000e+00,0.00000e+00
2.02480e+03,5.69180e-01,-3.76311e+00,0.00000e+00,0.00000e+00,0.00000e+00
2.02480e+03,8.82730e-01,-2.50874e+00,0.00000e+00,0.00000e+00,0.00000e+00
2.02480e+03,1.19486e+00,-1.25437e+00,0.00000e+00,0.00000e+00,0.00000e+00
2.03880e+03,1.52746e+01,0.00000e+00,0.00000e+00,0.00000e+00,0.00000e+00
2.03880e+03,1.51977e+01,-1.16071e+00,0.00000e+00,0.00000e+00,0.00000e+00
2.03880e+03,1.50954e+01,-2.32142e+00,0.00000e+00,0.00000e+00,0.00000e+00
2.03880e+03,1.49920e+01,-3.48213e+00,0.00000e+00,0.00000e+00,0.00000e+00
2.03880e+03,1.48662e+01,-4.64285e+00,0.00000e+00,0.00000e+00,0.00000e+00
2.03880e+03,1.47352e+01,-5.80356e+00,0.00000e+00,0.00000e+00,0.00000e+00
2.03880e+03,1.45870e+01,-6.96427e+00,0.00000e+00,0.00000e+00,0.00000e+00
2.03880e+03,1.44304e+01,-8.12498e+00,0.00000e+00,0.00000e+00,0.00000e+00
2.03880e+03,1.42600e+01,-9.28569e+00,0.00000e+00,0.00000e+00,0.00000e+00
2.03880e+03,1.40782e+01,-1.04464e+01,0.00000e+00,0.00000e+00,0.00000e+00
2.03880e+03,1.38839e+01,-1.16071e+01,0.00000e+00,0.00000e+00,0.00000e+00
2.03880e+03,1.36745e+01,-1.27678e+01,0.00000e+00,0.00000e+00,0.00000e+00
2.03880e+03,1.34496e+01,-1.39285e+01,0.00000e+00,0.00000e+00,0.00000e+00
2.03880e+03,1.32028e+01,-1.50892e+01,0.00000e+00,0.00000e+00,0.00000e+00
2.03880e+03,1.29345e+01,-1.62500e+01,0.00000e+00,0.00000e+00,0.00000e+00
2.03880e+03,1.26407e+01,-1.74107e+01,0.00000e+00,0.00000e+00,0.00000e+00
2.03880e+03,1.23123e+01,-1.85714e+01,0.00000e+00,0.00000e+00,0.00000e+00
2.03880e+03,1.19599e+01,-1.97321e+01,0.00000e+00,0.00000e+00,0.00000e+00
2.03880e+03,1.15532e+01,-2.08928e+01,0.00000e+00,0.00000e+00,0.00000e+00
2.03880e+03,1.11241e+01,-2.20535e+01,0.00000e+00,0.00000e+00,0.00000e+00
2.03880e+03,1.06324e+01,-2.32142e+01,0.00000e+00,0.00000e+00,0.00000e+00
2.03880e+03,1.00906e+01,-2.43749e+01,0.00000e+00,0.00000e+00,0.00000e+00
2.03880e+03,9.49781e+00,-2.55357e+01,0.00000e+00,0.00000e+00,0.00000e+00
2.03880e+03,8.81933e+00,-2.66964e+01,0.00000e+00,0.00000e+00,0.00000e+00
2.03880e+03,8.04165e+00,-2.78571e+01,0.00000e+00,0.00000e+00,0.00000e+00
2.03880e+03,7.15183e+00,-2.90178e+01,0.00000e+00,0.00000e+00,0.00000e+00
2.03880e+03,6.09938e+00,-3.01785e+01,0.00000e+00,0.00000e+00,0.00000e+00
2.03880e+03,4.74849e+00,-3.13392e+01,0.00000e+00,0.00000e+00,0.00000e+00
2.03880e+03,2.92144e+00,-3.24999e+01,0.00000e+00,0.00000e+00,0.00000e+00
2.03880e+03,-1.18374e+00,-3.36606e+01,0.00000e+00,0.00000e+00,0.00000e+00
2.03880e+03,-1.48002e+00,-3.36633e+01,0.00000e+00,0.00000e+00,0.00000e+00
2.03880e+03,-4.17927e+00,-3.24611e+01,0.00000e+00,0.00000e+00,0.00000e+00
2.03880e+03,-4.50609e+00,-3.12588e+01,0.00000e+00,0.00000e+00,0.00000e+00
2.03880e+03,-4.61886e+00,-3.00565e+01,0.00000e+00,0.00000e+00,0.00000e+00
2.03880e+03,-4.63598e+00,-2.88543e+01,0.00000e+00,0.00000e+00,0.00000e+00
2.03880e+03,-4.58102e+00,-2.76520e+01,0.00000e+00,0.00000e+00,0.00000e+00
2.03880e+03,-4.48083e+00,-2.64498e+01,0.00000e+00,0.00000e+00,0.00000e+00
2.03880e+03,-4.33523e+00,-2.52475e+01,0.00000e+00,0.00000e+00,0.00000e+00
2.03880e+03,-4.16192e+00,-2.40452e+01,0.00000e+00,0.00000e+00,0.00000e+00
2.03880e+03,-3.97255e+00,-2.28430e+01,0.00000e+00,0.00000e+00,0.00000e+00
2.03880e+03,-3.75897e+00,-2.16407e+01,0.00000e+00,0.00000e+00,0.00000e+00
2.03880e+03,-3.53026e+00,-2.04384e+01,0.00000e+00,0.00000e+00,0.00000e+00
2.03880e+03,-3.28682e+00,-1.92362e+01,0.00000e+00,0.00000e+00,0.00000e+00
2.03880e+03,-3.02870e+00,-1.80339e+01,0.00000e+00,0.00000e+00,0.00000e+00
2.03880e+03,-2.76138e+00,-1.68317e+01,0.00000e+00,0.00000e+00,0.00000e+00
2.03880e+03,-2.48228e+00,-1.56294e+01,0.00000e+00,0.00000e+00,0.00000e+00
2.03880e+03,-2.19562e+00,-1.44271e+01,0.00000e+00,0.00000e+00,0.00000e+00
2.03880e+03,-1.90220e+00,-1.32249e+01,0.00000e+00,0.00000e+00,0.00000e+00
2.03880e+03,-1.60274e+00,-1.20226e+01,0.00000e+00,0.00000e+00,0.00000e+00
2.03880e+03,-1.30072e+00,-1.08204e+01,0.00000e+00,0.00000e+00,0.00000e+00
2.03880e+03,-9.94731e-01,-9.61809e+00,0.00000e+00,0.00000e+00,0.00000e+00
2.03880e+03,-6.88086e-01,-8.41583e+00,0.00000e+00,0.00000e+00,0.00000e+00
2.03880e+03,-3.79073e-01,-7.21357e+00,0.00000e+00,0.00000e+00,0.00000e+00
2.03880e+03,-7.00919e-02,-6.01131e+00,0.00000e+00,0.00000e+00,0.00000e+00
2.03880e+03,2.37722e-01,-4.80905e+00,0.00000e+00,0.00000e+00,0.00000e+00
2.03880e+03,5.45535e-01,-3.60678e+00,0.00000e+00,0.00000e+00,0.00000e+00
2.03880e+03,8.46060e-01,-2.40452e+00,0.00000e+00,0.00000e+00,0.00000e+00
2.03880e+03,1.14523e+00,-1.20226e+00,0.00000e+00,0.00000e+00,0.00000e+00
2.04720e+03,1.48774e+01,0.00000e+00,0.00000e+00,0.00000e+00,0.00000e+00
2.04720e+03,1.48025e+01,-1.13053e+00,0.00000e+00,0.00000e+00,0.00000e+00
2.04720e+03,1.47028e+01,-2.26105e+00,0.00000e+00,0.00000e+00,0.00000e+00
2.04720e+03,1.46021e+01,-3.39158e+00,0.00000e+00,0.00000e+00,0.00000e+00
2.04720e+03,1.44796e+01,-4.52211e+00,0.00000e+00,0.00000e+00,0.00000e+00
2.04720e+03,1.43520e+01,-5.65264e+00,0.00000e+00,0.00000e+00,0.00000e+00
2.04720e+03,1.42077e+01,-6.78316e+00,0.00000e+00,0.00000e+00,0.00000e+00
2.04720e+03,1.40552e+01,-7.91369e+00,0.00000e+00,0.00000e+00,0.00000e+00
2.04720e+03,1.38892e+01,-9.04422e+00,0.00000e+00,0.00000e+00,0.00000e+00
2.04720e+03,1.37121e+01,-1.01747e+01,0.00000e+00,0.00000e+00,0.00000e+00
2.04720e+03,1.35229e+01,-1.13053e+01,0.00000e+00,0.00000e+00,0.00000e+00
2.04720e+03,1.33189e+01,-1.24358e+01,0.00000e+00,0.00000e+00,0.00000e+00
2.04720e+03,1.30998e+01,-1.35663e+01,0.00000e+00,0.00000e+00,0.00000e+00
2.04720e+03,1.28594e+01,-1.46969e+01,0.00000e+00,0.00000e+00,0.00000e+00
2.04720e+03,1.25982e+01,-1.58274e+01,0.00000e+00,0.00000e+00,0.00000e+00
2.04720e+03,1.23120e+01,-1.69579e+01,0.00000e+00,0.00000e+00,0.00000e+00
2.04720e+03,1.19922e+01,-1.80884e+01,0.00000e+00,0.00000e+00,0.00000e+00
2.04720e+03,1.16489e+01,-1.92190e+01,0.00000e+00,0.00000e+00,0.00000e+00
2.04720e+03,1.12528e+01,-2.03495e+01,0.00000e+00,0.00000e+00,0.00000e+00
2.04720e+03,1.08348e+01,-2.14800e+01,0.00000e+00,0.00000e+00,0.00000e+00
2.04720e+03,1.03559e+01,-2.26105e+01,0.00000e+00,0.00000e+00,0.00000e+00
2.04720e+03,9.82823e+00,-2.37411e+01,0.00000e+00,0.00000e+00,0.00000e+00
2.04720e+03,9.25081e+00,-2.48716e+01,0.00000e+00,0.00000e+00,0.00000e+00
2.04720e+03,8.58998e+00,-2.60021e+01,0.00000e+00,0.00000e+00,0.00000e+00
2.04720e+03,7.83252e+00,-2.71326e+01,0.00000e+00,0.00000e+00,0.00000e+00
2.04720e+03,6.96585e+00,-2.82632e+01,0.00000e+00,0.00000e+00,0.00000e+00
2.04720e+03,5.94077e+00,-2.93937e+01,0.00000e+00,0.00000e+00,0.00000e+00
2.04720e+03,4.62500e+00,-3.05242e+01,0.00000e+00,0.00000e+00,0.00000e+00
2.04720e+03,2.84547e+00,-3.16548e+01,0.00000e+00,0.00000e+00,0.00000e+00
2.04720e+03,-1.15296e+00,-3.27853e+01,0.00000e+00,0.00000e+00,0.00000e+00
2.04720e+03,-1.44153e+00,-3.27879e+01,0.00000e+00,0.00000e+00,0.00000e+00
2.04720e+03,-4.07059e+00,-3.16169e+01,0.00000e+00,0.00000e+00,0.00000e+00
2.04720e+03,-4.38891e+00,-3.04459e+01,0.00000e+00,0.00000e+00,0.00000e+00
2.04720e+03,-4.49875e+00,-2.92749e+01,0.00000e+00,0.00000e+00,0.00000e+00
2.04720e+03,-4.51542e+00,-2.81039e+01,0.00000e+00,0.00000e+00,0.00000e+00
2.04720e+03,-4.46189e+00,-2.69329e+01,0.00000e+00,0.00000e+00,0.00000e+00
2.04720e+03,-4.36430e+00,-2.57619e+01,0.00000e+00,0.00000e+00,0.00000e+00
2.04720e+03,-4.22249e+00,-2.45909e+01,0.00000e+00,0.00000e+00,0.00000e+00
2.04720e+03,-4.05369e+00,-2.34199e+01,0.00000e+00,0.00000e+00,0.00000e+00
2.04720e+03,-3.86924e+00,-2.22489e+01,0.00000e+00,0.00000e+00,0.00000e+00
2.04720e+03,-3.66121e+00,-2.10779e+01,0.00000e+00,0.00000e+00,0.00000e+00
2.04720e+03,-3.43845e+00,-1.99069e+01,0.00000e+00,0.00000e+00,0.00000e+00
2.04720e+03,-3.20134e+00,-1.87359e+01,0.00000e+00,0.00000e+00,0.00000e+00
2.04720e+03,-2.94994e+00,-1.75649e+01,0.00000e+00,0.00000e+00,0.00000e+00
2.04720e+03,-2.68957e+00,-1.63940e+01,0.00000e+00,0.00000e+00,0.00000e+00
2.04720e+03,-2.41772e+00,-1.52230e+01,0.00000e+00,0.00000e+00,0.00000e+00
2.04720e+03,-2.13852e+00,-1.40520e+01,0.00000e+00,0.00000e+00,0.00000e+00
2.04720e+03,-1.85273e+00,-1.28810e+01,0.00000e+00,0.00000e+00,0.00000e+00
2.04720e+03,-1.56106e+00,-1.17100e+01,0.00000e+00,0.00000e+00,0.00000e+00
2.04720e+03,-1.26689e+00,-1.05390e+01,0.00000e+00,0.00000e+00,0.00000e+00
2.04720e+03,-9.68863e-01,-9.36797e+00,0.00000e+00,0.00000e+00,0.00000e+00
2.04720e+03,-6.70192e-01,-8.19698e+00,0.00000e+00,0.00000e+00,0.00000e+00
2.04720e+03,-3.69215e-01,-7.02598e+00,0.00000e+00,0.00000e+00,0.00000e+00
2.04720e+03,-6.82691e-02,-5.85498e+00,0.00000e+00,0.00000e+00,0.00000e+00
2.04720e+03,2.31540e-01,-4.68399e+00,0.00000e+00,0.00000e+00,0.00000e+00
2.04720e+03,5.31348e-01,-3.51299e+00,0.00000e+00,0.00000e+00,0.00000e+00
2.04720e+03,8.24058e-01,-2.34199e+00,0.00000e+00,0.00000e+00,0.00000e+00
2.04720e+03,1.11544e+00,-1.17100e+00,0.00000e+00,0.00000e+00,0.00000e+00
2.05000e+03,1.47450e+01,0.00000e+00,0.00000e+00,0.00000e+00,0.00000e+00
2.05000e+03,1.46708e+01,-1.12047e+00,0.00000e+00,0.00000e+00,0.00000e+00
2.05000e+03,1.45720e+01,-2.24093e+00,0.00000e+00,0.00000e+00,0.00000e+00
2.05000e+03,1.44722e+01,-3.36140e+00,0.00000e+00,0.00000e+00,0.00000e+00
2.05000e+03,1.43508e+01,-4.48186e+00,0.00000e+00,0.00000e+00,0.00000e+00
2.05000e+03,1.42243e+01,-5.60233e+00,0.00000e+00,0.00000e+00,0.00000e+00
2.05000e+03,1.40812e+01,-6.72279e+00,0.00000e+00,0.00000e+00,0.00000e+00
2.05000e+03,1.39301e+01,-7.84326e+00,0.00000e+00,0.00000e+00,0.00000e+00
2.05000e+03,1.37656e+01,-8.96372e+00,0.00000e+00,0.00000e+00,0.00000e+00
2.05000e+03,1.35901e+01,-1.00842e+01,0.00000e+00,0.00000e+00,0.00000e+00
2.05000e+03,1.34025e+01,-1.12047e+01,0.00000e+00,0.00000e+00,0.00000e+00
2.05000e+03,1.32004e+01,-1.23251e+01,0.00000e+00,0.00000e+00,0.00000e+00
2.05000e+03,1.29833e+01,-1.34456e+01,0.00000e+00,0.00000e+00,0.00000e+00
2.05000e+03,1.27450e+01,-1.45661e+01,0.00000e+00,0.00000e+00,0.00000e+00
2.05000e+03,1.24860e+01,-1.56865e+01,0.00000e+00,0.00000e+00,0.00000e+00
2.05000e+03,1.22024e+01,-1.68070e+01,0.00000e+00,0.00000e+00,0.00000e+00
2.05000e+03,1.18854e+01,-1.79274e+01,0.00000e+00,0.00000e+00,0.00000e+00
2.05000e+03,1.15452e+01,-1.90479e+01,0.00000e+00,0.00000e+00,0.00000e+00
2.05000e+03,1.11526e+01,-2.01684e+01,0.00000e+00,0.00000e+00,0.00000e+00
2.05000e+03,1.07384e+01,-2.12888e+01,0.00000e+00,0.00000e+00,0.00000e+00
2.05000e+03,1.02638e+01,-2.24093e+01,0.00000e+00,0.00000e+00,0.00000e+00
2.05000e+03,9.74076e+00,-2.35298e+01,0.00000e+00,0.00000e+00,0.00000e+00
2.05000e+03,9.16848e+00,-2.46502e+01,0.00000e+00,0.00000e+00,0.00000e+00
2.05000e+03,8.51353e+00,-2.57707e+01,0.00000e+00,0.00000e+00,0.00000e+00
2.05000e+03,7.76281e+00,-2.68912e+01,0.00000e+00,0.00000e+00,0.00000e+00
2.05000e+03,6.90385e+00,-2.80116e+01,0.00000e+00,0.00000e+00,0.00000e+00
2.05000e+03,5.88790e+00,-2.91321e+01,0.00000e+00,0.00000e+00,0.00000e+00
2.05000e+03,4.58384e+00,-3.02526e+01,0.00000e+00,0.00000e+00,0.00000e+00
2.05000e+03,2.82014e+00,-3.13730e+01,0.00000e+00,0.00000e+00,0.00000e+00
2.05000e+03,-1.14270e+00,-3.24935e+01,0.00000e+00,0.00000e+00,0.00000e+00
2.05000e+03,-1.42870e+00,-3.24961e+01,0.00000e+00,0.00000e+00,0.00000e+00
2.05000e+03,-4.03436e+00,-3.13355e+01,0.00000e+00,0.00000e+00,0.00000e+00
2.05000e+03,-4.34985e+00,-3.01749e+01,0.00000e+00,0.00000e+00,0.00000e+00
2.05000e+03,-4.45871e+00,-2.90144e+01,0.00000e+00,0.00000e+00,0.00000e+00
2.05000e+03,-4.47523e+00,-2.78538e+01,0.00000e+00,0.00000e+00,0.00000e+00
2.05000e+03,-4.42218e+00,-2.66932e+01,0.00000e+00,0.00000e+00,0.00000e+00
2.05000e+03,-4.32546e+00,-2.55327e+01,0.00000e+00,0.00000e+00,0.00000e+00
2.05000e+03,-4.18491e+00,-2.43721e+01,0.00000e+00,0.00000e+00,0.00000e+00
2.05000e+03,-4.01761e+00,-2.32115e+01,0.00000e+00,0.00000e+00,0.00000e+00
2.05000e+03,-3.83480e+00,-2.20509e+01,0.00000e+00,0.00000e+00,0.00000e+00
2.05000e+03,-3.62863e+00,-2.08903e+01,0.00000e+00,0.00000e+00,0.00000e+00
2.05000e+03,-3.40785e+00,-1.97298e+01,0.00000e+00,0.00000e+00,0.00000e+00
2.05000e+03,-3.17285e+00,-1.85692e+01,0.00000e+00,0.00000e+00,0.00000e+00
2.05000e+03,-2.92368e+00,-1.74086e+01,0.00000e+00,0.00000e+00,0.00000e+00
2.05000e+03,-2.66563e+00,-1.62480e+01,0.00000e+00,0.00000e+00,0.00000e+00
2.05000e+03,-2.39621e+00,-1.50875e+01,0.00000e+00,0.00000e+00,0.00000e+00
2.05000e+03,-2.11949e+00,-1.39269e+01,0.00000e+00,0.00000e+00,0.00000e+00
2.05000e+03,-1.83624e+00,-1.27663e+01,0.00000e+00,0.00000e+00,0.00000e+00
2.05000e+03,-1.54717e+00,-1.16057e+01,0.00000e+00,0.00000e+00,0.00000e+00
2.05000e+03,-1.25562e+00,-1.04452e+01,0.00000e+00,0.00000e+00,0.00000e+00
2.05000e+03,-9.60241e-01,-9.28460e+00,0.00000e+00,0.00000e+00,0.00000e+00
2.05000e+03,-6.64227e-01,-8.12402e+00,0.00000e+00,0.00000e+00,0.00000e+00
2.05000e+03,-3.65929e-01,-6.96345e+00,0.00000e+00,0.00000e+00,0.00000e+00
2.05000e+03,-6.76615e-02,-5.80287e+00,0.00000e+00,0.00000e+00,0.00000e+00
2.05000e+03,2.29479e-01,-4.64230e+00,0.00000e+00,0.00000e+00,0.00000e+00
2.05000e+03,5.26620e-01,-3.48173e+00,0.00000e+00,0.00000e+00,0.00000e+00
2.05000e+03,8.16724e-01,-2.32115e+00,0.00000e+00,0.00000e+00,0.00000e+00
2.05000e+03,1.10552e+00,-1.16058e+00,0.00000e+00,0.00000e+00,0.00000e+00
--------------------------------------------------------------------------------------------------------------------------------------------------------------------------------------------------------------------------------------------------------------------------------------------------------------------------------------------------------------------------------

ALMA 
--------------------------------------------------------------------------------------------------------------------------------------------------------------------------------------------------------------------------------------------------------------------------------------------------------------------------------------------------------------------------------
X,Y,Z,Sigma,Tau,Von Mises
0.00000e+00,4.05613e+00,0.00000e+00,9.75919e-02,4.04978e-01,7.08198e-01
0.00000e+00,1.70710e+01,0.00000e+00,3.43230e-02,4.05440e-01,7.03080e-01
0.00000e+00,3.00859e+01,0.00000e+00,-2.89459e-02,4.05440e-01,7.02838e-01
0.00000e+00,4.31008e+01,0.00000e+00,-9.22148e-02,4.04987e-01,7.07494e-01
1.07300e+02,4.01639e+00,0.00000e+00,8.71594e-02,3.82226e-01,6.67748e-01
1.07300e+02,1.69038e+01,0.00000e+00,3.06608e-02,3.82659e-01,6.63493e-01
1.07300e+02,2.97912e+01,0.00000e+00,-2.58378e-02,3.82659e-01,6.63288e-01
1.07300e+02,4.26785e+01,0.00000e+00,-8.23364e-02,3.82235e-01,6.67151e-01
2.14300e+02,3.97676e+00,0.00000e+00,7.72915e-02,3.59356e-01,6.27204e-01
2.14300e+02,1.67370e+01,0.00000e+00,2.71966e-02,3.59759e-01,6.23714e-01
2.14300e+02,2.94972e+01,0.00000e+00,-2.28983e-02,3.59759e-01,6.23542e-01
2.14300e+02,4.22575e+01,0.00000e+00,-7.29932e-02,3.59364e-01,6.26703e-01
3.20700e+02,3.93736e+00,0.00000e+00,6.80263e-02,3.36056e-01,5.86028e-01
3.20700e+02,1.65712e+01,0.00000e+00,2.39437e-02,3.36430e-01,5.83205e-01
3.20700e+02,2.92050e+01,0.00000e+00,-2.01389e-02,3.36430e-01,5.83061e-01
3.20700e+02,4.18388e+01,0.00000e+00,-6.42215e-02,3.36064e-01,5.85611e-01
4.26200e+02,3.89829e+00,0.00000e+00,5.93988e-02,3.12773e-01,5.44986e-01
4.26200e+02,1.64067e+01,0.00000e+00,2.09143e-02,3.13118e-01,5.42740e-01
4.26200e+02,2.89151e+01,0.00000e+00,-1.75702e-02,3.13118e-01,5.42621e-01
4.26200e+02,4.14236e+01,0.00000e+00,-5.60547e-02,3.12780e-01,5.44643e-01
5.30600e+02,3.85963e+00,0.00000e+00,5.14217e-02,2.89604e-01,5.04238e-01
5.30600e+02,1.62440e+01,0.00000e+00,1.81128e-02,2.89921e-01,5.02485e-01
5.30600e+02,2.86284e+01,0.00000e+00,-1.51960e-02,2.89921e-01,5.02388e-01
5.30600e+02,4.10127e+01,0.00000e+00,-4.85048e-02,2.89611e-01,5.03960e-01
6.33500e+02,3.82152e+00,0.00000e+00,4.41139e-02,2.66616e-01,4.63895e-01
6.33500e+02,1.60836e+01,0.00000e+00,1.55459e-02,2.66905e-01,4.62555e-01
6.33500e+02,2.83457e+01,0.00000e+00,-1.30221e-02,2.66905e-01,4.62477e-01
6.33500e+02,4.06078e+01,0.00000e+00,-4.15902e-02,2.66622e-01,4.63672e-01
7.34700e+02,3.78404e+00,0.00000e+00,3.74711e-02,2.43910e-01,4.24123e-01
7.34700e+02,1.59259e+01,0.00000e+00,1.32117e-02,2.44172e-01,4.23125e-01
7.34700e+02,2.80677e+01,0.00000e+00,-1.10477e-02,2.44172e-01,4.23063e-01
7.34700e+02,4.02095e+01,0.00000e+00,-3.53072e-02,2.43915e-01,4.23946e-01
8.33800e+02,3.74734e+00,0.00000e+00,3.14946e-02,2.21637e-01,3.85177e-01
8.33800e+02,1.57714e+01,0.00000e+00,1.11106e-02,2.21874e-01,3.84458e-01
8.33800e+02,2.77955e+01,0.00000e+00,-9.27345e-03,2.21874e-01,3.84409e-01
8.33800e+02,3.98196e+01,0.00000e+00,-2.96575e-02,2.21642e-01,3.85039e-01
9.30700e+02,3.71145e+00,0.00000e+00,2.61615e-02,1.99816e-01,3.47078e-01
9.30700e+02,1.56204e+01,0.00000e+00,9.23456e-03,2.00028e-01,3.46581e-01
9.30700e+02,2.75293e+01,0.00000e+00,-7.69240e-03,2.00028e-01,3.46543e-01
9.30700e+02,3.94382e+01,0.00000e+00,-2.46194e-02,1.99820e-01,3.46972e-01
1.02500e+03,3.67653e+00,0.00000e+00,2.14575e-02,1.78772e-01,3.10384e-01
1.02500e+03,1.54734e+01,0.00000e+00,7.57880e-03,1.78960e-01,3.10061e-01
1.02500e+03,2.72703e+01,0.00000e+00,-6.29993e-03,1.78960e-01,3.10032e-01
1.02500e+03,3.90671e+01,0.00000e+00,-2.01787e-02,1.78775e-01,3.10304e-01
1.11650e+03,3.64264e+00,0.00000e+00,1.73551e-02,1.58174e-01,2.74515e-01
1.11650e+03,1.53308e+01,0.00000e+00,6.13383e-03,1.58340e-01,2.74322e-01
1.11650e+03,2.70189e+01,0.00000e+00,-5.08747e-03,1.58340e-01,2.74301e-01
1.11650e+03,3.87070e+01,0.00000e+00,-1.63088e-02,1.58177e-01,2.74456e-01
1.20500e+03,3.54704e+00,0.00000e+00,1.98112e-02,1.39974e-01,2.43250e-01
1.20500e+03,1.49284e+01,0.00000e+00,7.03976e-03,1.40179e-01,2.42899e-01
1.20500e+03,2.63098e+01,0.00000e+00,-5.73164e-03,1.40179e-01,2.42864e-01
1.20500e+03,3.76912e+01,0.00000e+00,-1.85030e-02,1.39979e-01,2.43156e-01
1.29010e+03,3.41832e+00,0.00000e+00,1.60536e-02,1.25960e-01,2.18758e-01
1.29010e+03,1.43867e+01,0.00000e+00,5.70640e-03,1.26138e-01,2.18552e-01
1.29010e+03,2.53550e+01,0.00000e+00,-4.64084e-03,1.26138e-01,2.18526e-01
1.29010e+03,3.63234e+01,0.00000e+00,-1.49881e-02,1.25964e-01,2.18691e-01
1.37170e+03,3.29489e+00,0.00000e+00,1.27623e-02,1.11982e-01,1.94379e-01
1.37170e+03,1.38672e+01,0.00000e+00,4.53807e-03,1.12136e-01,1.94278e-01
1.37170e+03,2.44395e+01,0.00000e+00,-3.68616e-03,1.12136e-01,1.94260e-01
1.37170e+03,3.50118e+01,0.00000e+00,-1.19104e-02,1.11986e-01,1.94331e-01
1.44960e+03,3.17706e+00,0.00000e+00,9.92478e-03,9.84038e-02,1.70729e-01
1.44960e+03,1.33713e+01,0.00000e+00,3.53033e-03,9.85342e-02,1.70703e-01
1.44960e+03,2.35655e+01,0.00000e+00,-2.86412e-03,9.85342e-02,1.70690e-01
1.44960e+03,3.37597e+01,0.00000e+00,-9.25856e-03,9.84070e-02,1.70697e-01
1.52340e+03,3.06543e+00,0.00000e+00,7.53159e-03,8.49772e-02,1.47377e-01
1.52340e+03,1.29015e+01,0.00000e+00,2.67991e-03,8.50863e-02,1.47398e-01
1.52340e+03,2.27375e+01,0.00000e+00,-2.17177e-03,8.50863e-02,1.47390e-01
1.52340e+03,3.25736e+01,0.00000e+00,-7.02344e-03,8.49798e-02,1.47357e-01
1.59310e+03,2.96000e+00,0.00000e+00,5.55817e-03,7.20240e-02,1.24873e-01
1.59310e+03,1.24578e+01,0.00000e+00,1.97861e-03,7.21135e-02,1.24920e-01
1.59310e+03,2.19555e+01,0.00000e+00,-1.60095e-03,7.21135e-02,1.24914e-01
1.59310e+03,3.14533e+01,0.00000e+00,-5.18051e-03,7.20260e-02,1.24860e-01
1.65850e+03,2.86108e+00,0.00000e+00,3.97354e-03,5.98192e-02,1.03686e-01
1.65850e+03,1.20414e+01,0.00000e+00,1.41544e-03,5.98913e-02,1.03744e-01
1.65850e+03,2.12218e+01,0.00000e+00,-1.14265e-03,5.98913e-02,1.03741e-01
1.65850e+03,3.04021e+01,0.00000e+00,-3.70075e-03,5.98208e-02,1.03679e-01
1.71930e+03,2.76911e+00,0.00000e+00,2.73964e-03,4.84169e-02,8.39053e-02
1.71930e+03,1.16544e+01,0.00000e+00,9.76547e-04,4.84737e-02,8.39646e-02
1.71930e+03,2.05396e+01,0.00000e+00,-7.86545e-04,4.84737e-02,8.39626e-02
1.71930e+03,2.94249e+01,0.00000e+00,-2.54964e-03,4.84182e-02,8.39014e-02
1.77540e+03,2.60964e+00,0.00000e+00,3.26876e-03,6.41336e-02,1.11131e-01
1.77540e+03,1.09832e+01,0.00000e+00,1.17893e-03,6.42103e-02,1.11222e-01
1.77540e+03,1.93567e+01,0.00000e+00,-9.10899e-04,6.42103e-02,1.11219e-01
1.77540e+03,2.77303e+01,0.00000e+00,-3.00073e-03,6.41365e-02,1.11128e-01
1.82660e+03,2.38179e+00,0.00000e+00,2.22900e-03,5.30216e-02,9.18631e-02
1.82660e+03,1.00242e+01,0.00000e+00,8.04172e-04,5.30798e-02,9.19404e-02
1.82660e+03,1.76667e+01,0.00000e+00,-6.20653e-04,5.30798e-02,9.19390e-02
1.82660e+03,2.53092e+01,0.00000e+00,-2.04548e-03,5.30236e-02,9.18624e-02
1.87280e+03,2.17619e+00,0.00000e+00,1.43141e-03,4.24573e-02,7.35521e-02
1.87280e+03,9.15894e+00,0.00000e+00,5.17430e-04,4.25000e-02,7.36139e-02
1.87280e+03,1.61417e+01,0.00000e+00,-3.96551e-04,4.25000e-02,7.36132e-02
1.87280e+03,2.31244e+01,0.00000e+00,-1.31053e-03,4.24587e-02,7.35523e-02
1.91380e+03,1.99374e+00,0.00000e+00,8.52029e-04,3.26314e-02,5.65256e-02
1.91380e+03,8.39104e+00,0.00000e+00,3.09132e-04,3.26613e-02,5.65719e-02
1.91380e+03,1.47883e+01,0.00000e+00,-2.33765e-04,3.26613e-02,5.65716e-02
1.91380e+03,2.11856e+01,0.00000e+00,-7.76662e-04,3.26323e-02,5.65261e-02
1.94970e+03,1.83398e+00,0.00000e+00,4.57340e-04,2.36366e-02,4.09424e-02
1.94970e+03,7.71865e+00,0.00000e+00,1.66914e-04,2.36565e-02,4.09745e-02
1.94970e+03,1.36033e+01,0.00000e+00,-1.23511e-04,2.36565e-02,4.09744e-02
1.94970e+03,1.94880e+01,0.00000e+00,-4.13937e-04,2.36372e-02,4.09429e-02
1.98010e+03,1.69869e+00,0.00000e+00,2.14802e-04,1.58505e-02,2.74548e-02
1.98010e+03,7.14927e+00,0.00000e+00,7.91196e-05,1.58627e-02,2.74751e-02
1.98010e+03,1.25999e+01,0.00000e+00,-5.65629e-05,1.58627e-02,2.74751e-02
1.98010e+03,1.80504e+01,0.00000e+00,-1.92245e-04,1.58509e-02,2.74552e-02
2.00520e+03,1.58699e+00,0.00000e+00,8.26770e-05,9.45681e-03,1.63799e-02
2.00520e+03,6.67917e+00,0.00000e+00,3.08856e-05,9.46346e-03,1.63912e-02
2.00520e+03,1.17713e+01,0.00000e+00,-2.09058e-05,9.46346e-03,1.63912e-02
2.00520e+03,1.68635e+01,0.00000e+00,-7.26973e-05,9.45697e-03,1.63801e-02
2.02480e+03,1.49977e+00,0.00000e+00,2.35728e-05,4.71151e-03,8.16060e-03
2.02480e+03,6.31207e+00,0.00000e+00,9.00619e-06,4.71454e-03,8.16583e-03
2.02480e+03,1.11244e+01,0.00000e+00,-5.56042e-06,4.71454e-03,8.16583e-03
2.02480e+03,1.59367e+01,0.00000e+00,-2.01270e-05,4.71158e-03,8.16071e-03
2.03880e+03,1.43746e+00,0.00000e+00,4.15884e-06,1.72282e-03,2.98402e-03
2.03880e+03,6.04986e+00,0.00000e+00,1.65380e-06,1.72382e-03,2.98575e-03
2.03880e+03,1.06622e+01,0.00000e+00,-8.51242e-07,1.72382e-03,2.98575e-03
2.03880e+03,1.52746e+01,0.00000e+00,-3.35628e-06,1.72284e-03,2.98406e-03
2.04720e+03,1.40008e+00,0.00000e+00,5.22690e-07,2.98884e-04,5.17682e-04
2.04720e+03,5.89253e+00,0.00000e+00,2.21816e-07,2.99029e-04,5.17933e-04
2.04720e+03,1.03850e+01,0.00000e+00,-7.90579e-08,2.99029e-04,5.17933e-04
2.04720e+03,1.48774e+01,0.00000e+00,-3.79932e-07,2.98887e-04,5.17687e-04
2.05000e+03,1.38762e+00,0.00000e+00,0.00000e+00,0.00000e+00,0.00000e+00
2.05000e+03,5.84009e+00,0.00000e+00,0.00000e+00,0.00000e+00,0.00000e+00
2.05000e+03,1.02925e+01,0.00000e+00,0.00000e+00,0.00000e+00,0.00000e+00
2.05000e+03,1.47450e+01,0.00000e+00,0.00000e+00,0.00000e+00,0.00000e+00
MESA INFERIOR 
--------------------------------------------------------------------------------------------------------------------------------------------------------------------------------------------------------------------------------------------------------------------------------------------------------------------------------------------------------------------------------
X,Y,Z,Sigma,Von Mises
0.00000e+00,4.05613e+00,0.00000e+00,0.00000e+00,0.00000e+00
1.07300e+02,4.01639e+00,0.00000e+00,0.00000e+00,0.00000e+00
2.14300e+02,3.97676e+00,0.00000e+00,0.00000e+00,0.00000e+00
3.20700e+02,3.93736e+00,0.00000e+00,0.00000e+00,0.00000e+00
4.26200e+02,3.89829e+00,0.00000e+00,0.00000e+00,0.00000e+00
5.30600e+02,3.85963e+00,0.00000e+00,0.00000e+00,0.00000e+00
6.33500e+02,3.82152e+00,0.00000e+00,0.00000e+00,0.00000e+00
7.34700e+02,3.78404e+00,0.00000e+00,0.00000e+00,0.00000e+00
8.33800e+02,3.74734e+00,0.00000e+00,0.00000e+00,0.00000e+00
9.30700e+02,3.71145e+00,0.00000e+00,0.00000e+00,0.00000e+00
1.02500e+03,3.67653e+00,0.00000e+00,0.00000e+00,0.00000e+00
1.11650e+03,3.64264e+00,0.00000e+00,0.00000e+00,0.00000e+00
1.20500e+03,3.54704e+00,0.00000e+00,0.00000e+00,0.00000e+00
1.29010e+03,3.41832e+00,0.00000e+00,0.00000e+00,0.00000e+00
1.37170e+03,3.29489e+00,0.00000e+00,0.00000e+00,0.00000e+00
1.44960e+03,3.17706e+00,0.00000e+00,0.00000e+00,0.00000e+00
1.52340e+03,3.06543e+00,0.00000e+00,0.00000e+00,0.00000e+00
1.59310e+03,2.96000e+00,0.00000e+00,0.00000e+00,0.00000e+00
1.65850e+03,2.86108e+00,0.00000e+00,0.00000e+00,0.00000e+00
1.71930e+03,2.76911e+00,0.00000e+00,0.00000e+00,0.00000e+00
1.77540e+03,2.60964e+00,0.00000e+00,0.00000e+00,0.00000e+00
1.82660e+03,2.38179e+00,0.00000e+00,0.00000e+00,0.00000e+00
1.87280e+03,2.17619e+00,0.00000e+00,0.00000e+00,0.00000e+00
1.91380e+03,1.99374e+00,0.00000e+00,0.00000e+00,0.00000e+00
1.94970e+03,1.83398e+00,0.00000e+00,0.00000e+00,0.00000e+00
1.98010e+03,1.69869e+00,0.00000e+00,0.00000e+00,0.00000e+00
2.00520e+03,1.58699e+00,0.00000e+00,0.00000e+00,0.00000e+00
2.02480e+03,1.49977e+00,0.00000e+00,0.00000e+00,0.00000e+00
2.03880e+03,1.43746e+00,0.00000e+00,0.00000e+00,0.00000e+00
2.04720e+03,1.40008e+00,0.00000e+00,0.00000e+00,0.00000e+00
2.05000e+03,1.38762e+00,0.00000e+00,0.00000e+00,0.00000e+00
--------------------------------------------------------------------------------------------------------------------------------------------------------------------------------------------------------------------------------------------------------------------------------------------------------------------------------------------------------------------------------

MESA SUPERIOR 
--------------------------------------------------------------------------------------------------------------------------------------------------------------------------------------------------------------------------------------------------------------------------------------------------------------------------------------------------------------------------------
X,Y,Z,Sigma,Von Mises
0.00000e+00,4.31008e+01,0.00000e+00,0.00000e+00,0.00000e+00
1.07300e+02,4.26785e+01,0.00000e+00,0.00000e+00,0.00000e+00
2.14300e+02,4.22575e+01,0.00000e+00,0.00000e+00,0.00000e+00
3.20700e+02,4.18388e+01,0.00000e+00,0.00000e+00,0.00000e+00
4.26200e+02,4.14236e+01,0.00000e+00,0.00000e+00,0.00000e+00
5.30600e+02,4.10127e+01,0.00000e+00,0.00000e+00,0.00000e+00
6.33500e+02,4.06078e+01,0.00000e+00,0.00000e+00,0.00000e+00
7.34700e+02,4.02095e+01,0.00000e+00,0.00000e+00,0.00000e+00
8.33800e+02,3.98196e+01,0.00000e+00,0.00000e+00,0.00000e+00
9.30700e+02,3.94382e+01,0.00000e+00,0.00000e+00,0.00000e+00
1.02500e+03,3.90671e+01,0.00000e+00,0.00000e+00,0.00000e+00
1.11650e+03,3.87070e+01,0.00000e+00,0.00000e+00,0.00000e+00
1.20500e+03,3.76912e+01,0.00000e+00,0.00000e+00,0.00000e+00
1.29010e+03,3.63234e+01,0.00000e+00,0.00000e+00,0.00000e+00
1.37170e+03,3.50118e+01,0.00000e+00,0.00000e+00,0.00000e+00
1.44960e+03,3.37597e+01,0.00000e+00,0.00000e+00,0.00000e+00
1.52340e+03,3.25736e+01,0.00000e+00,0.00000e+00,0.00000e+00
1.59310e+03,3.14533e+01,0.00000e+00,0.00000e+00,0.00000e+00
1.65850e+03,3.04021e+01,0.00000e+00,0.00000e+00,0.00000e+00
1.71930e+03,2.94249e+01,0.00000e+00,0.00000e+00,0.00000e+00
1.77540e+03,2.77303e+01,0.00000e+00,0.00000e+00,0.00000e+00
1.82660e+03,2.53092e+01,0.00000e+00,0.00000e+00,0.00000e+00
1.87280e+03,2.31244e+01,0.00000e+00,0.00000e+00,0.00000e+00
1.91380e+03,2.11856e+01,0.00000e+00,0.00000e+00,0.00000e+00
1.94970e+03,1.94880e+01,0.00000e+00,0.00000e+00,0.00000e+00
1.98010e+03,1.80504e+01,0.00000e+00,0.00000e+00,0.00000e+00
2.00520e+03,1.68635e+01,0.00000e+00,0.00000e+00,0.00000e+00
2.02480e+03,1.59367e+01,0.00000e+00,0.00000e+00,0.00000e+00
2.03880e+03,1.52746e+01,0.00000e+00,0.00000e+00,0.00000e+00
2.04720e+03,1.48774e+01,0.00000e+00,0.00000e+00,0.00000e+00
2.05000e+03,1.47450e+01,0.00000e+00,0.00000e+00,0.00000e+00
--------------------------------------------------------------------------------------------------------------------------------------------------------------------------------------------------------------------------------------------------------------------------------------------------------------------------------------------------------------------------------

