----------------------------------------------
LOG MATLAB Estruturas Copyright Charles 2020
----------------------------------------------

VISÃO GERAL POR SEÇÃO
--------------------------------------------------------------------------------------------------------------------------------------------------------------------------------------------------------------------------------------------------------------------------------------------------------------------------------------------------------------------------------
SEÇÃO,POSIÇÃO .25c,, ESFORÇOS,,,,,INÉRCIAS,,,,CENTROS GEOMÉTRICOS,,,DEFLEXÇOES,,,,,TENSÕES NORMAIS,,,,,,,,TENSÕES CISALHAMENTO,,,TENSÕES DE VON MISES
NUMERO,X,Y,MFz,MFy,MTx,Vz,Vy,EIzz,EIyy,EIzy,GJ,Zcg,Ycg,Zcc,Z,Y,Z´,Y´,Theta,Sigma_Chap+,Sigma_Chap-,Sigma_Lam+,Sigma_Lam-,Sigma_Mesa+,Sigma_Mesa-,Sigma_Alma+,Sigma_Alma-,  Tau_Alma,  Tau_Chap,  Tau_Lam, Von Mises_Alma,  Von Mises_Chap,  Von Mises_Lam
--------------------------------------------------------------------------------------------------------------------------------------------------------------------------------------------------------------------------------------------------------------------------------------------------------------------------------------------------------------------------------
01,0.00000e+00,0.00000e+00,2.66741e+05,5.29900e+04,-2.73338e+04,5.66449e+01,2.95226e+02,2.43720e+09,3.02407e+09,6.88619e+08,4.52049e+07,8.66395e+01,2.17434e+01,7.43235e+01,0.00000e+00,0.00000e+00,0.00000e+00,0.00000e+00,0.00000e+00,3.73303e+00,-5.43448e+00,0.00000e+00,0.00000e+00,2.13340e+02,-1.87337e+02,2.66885e-01,-2.34356e-01,1.09049e+00,1.50655e+00,0.00000e+00,1.90554e+00,5.84666e+00,0.00000e+00
02,1.07300e+02,0.00000e+00,2.36068e+05,4.70988e+04,-2.53363e+04,5.31635e+01,2.76501e+02,2.38487e+09,2.93941e+09,6.69313e+08,4.38958e+07,8.58583e+01,2.15452e+01,7.36225e+01,-4.27985e-02,6.11988e-01,-7.97735e-04,1.14070e-02,-6.34066e-02,3.34185e+00,-4.88158e+00,0.00000e+00,0.00000e+00,1.91035e+02,-1.67698e+02,2.38982e-01,-2.09788e-01,1.03151e+00,1.42219e+00,0.00000e+00,1.80067e+00,5.28930e+00,0.00000e+00
03,2.14300e+02,0.00000e+00,2.07468e+05,4.15935e+04,-2.33701e+04,4.97387e+01,2.58083e+02,2.33333e+09,2.85653e+09,6.50412e+08,4.26047e+07,8.50782e+01,2.13473e+01,7.29231e+01,-1.65453e-01,2.38079e+00,-1.49488e-03,2.16548e-02,-1.23633e-01,2.97115e+00,-4.35562e+00,0.00000e+00,0.00000e+00,1.69892e+02,-1.49082e+02,2.12532e-01,-1.86499e-01,9.72018e-01,1.33653e+00,0.00000e+00,1.69519e+00,4.75774e+00,0.00000e+00
04,3.20700e+02,0.00000e+00,1.80989e+05,3.64813e+04,-2.14589e+04,4.63548e+01,2.39631e+02,2.28273e+09,2.77562e+09,6.31961e+08,4.13518e+07,8.43013e+01,2.11503e+01,7.22271e+01,-3.56514e-01,5.16980e+00,-2.09649e-03,3.07702e-02,-1.80422e-01,2.62231e+00,-3.85866e+00,0.00000e+00,0.00000e+00,1.49990e+02,-1.31559e+02,1.87635e-01,-1.64578e-01,9.11427e-01,1.25027e+00,0.00000e+00,1.58812e+00,4.25439e+00,0.00000e+00
05,4.26200e+02,0.00000e+00,1.56665e+05,3.17659e+04,-1.96090e+04,4.30378e+01,2.21494e+02,2.23318e+09,2.69686e+09,6.14002e+08,4.01319e+07,8.35299e+01,2.09548e+01,7.15366e+01,-6.04719e-01,8.83935e+00,-2.60880e-03,3.87946e-02,-2.33570e-01,2.29656e+00,-3.39258e+00,0.00000e+00,0.00000e+00,1.31400e+02,-1.15194e+02,1.64379e-01,-1.44106e-01,8.50686e-01,1.16405e+00,0.00000e+00,1.48106e+00,3.78105e+00,0.00000e+00
06,5.30600e+02,0.00000e+00,1.34468e+05,2.74421e+04,-1.78237e+04,3.97932e+01,2.03741e+02,2.18477e+09,2.62035e+09,5.96558e+08,3.89451e+07,8.27655e+01,2.07610e+01,7.08528e+01,-8.99550e-01,1.32545e+01,-3.03931e-03,4.57873e-02,-2.82966e-01,1.99439e+00,-2.95825e+00,0.00000e+00,0.00000e+00,1.14149e+02,-1.00013e+02,1.42798e-01,-1.25114e-01,7.90027e-01,1.07812e+00,0.00000e+00,1.37441e+00,3.33851e+00,0.00000e+00
07,6.33500e+02,0.00000e+00,1.14392e+05,2.35097e+04,-1.61069e+04,3.66389e+01,1.86465e+02,2.13765e+09,2.54632e+09,5.79679e+08,3.77929e+07,8.20110e+01,2.05698e+01,7.01785e+01,-1.23061e+00,1.82756e+01,-3.39523e-03,5.18041e-02,-3.28440e-01,1.71658e+00,-2.55701e+00,0.00000e+00,0.00000e+00,9.82826e+01,-8.60547e+01,1.22950e-01,-1.07653e-01,7.29757e-01,9.92790e-01,0.00000e+00,1.26866e+00,2.92818e+00,0.00000e+00
08,7.34700e+02,0.00000e+00,9.63689e+04,1.99566e+04,-1.44600e+04,3.35798e+01,1.69714e+02,2.09189e+09,2.47483e+09,5.63383e+08,3.66744e+07,8.12680e+01,2.03815e+01,6.95148e+01,-1.58886e+00,2.37771e+01,-3.68493e-03,5.69212e-02,-3.69956e-01,1.46306e+00,-2.18902e+00,0.00000e+00,0.00000e+00,8.37986e+01,-7.33191e+01,1.04831e-01,-9.17210e-02,6.70074e-01,9.08296e-01,0.00000e+00,1.16416e+00,2.54961e+00,0.00000e+00
09,8.33800e+02,0.00000e+00,8.03501e+04,1.67751e+04,-1.28885e+04,3.06277e+01,1.53571e+02,2.04762e+09,2.40610e+09,5.47713e+08,3.55909e+07,8.05393e+01,2.01969e+01,6.88645e+01,-1.96550e+00,2.96305e+01,-3.91629e-03,6.12103e-02,-4.07436e-01,1.23404e+00,-1.85481e+00,0.00000e+00,0.00000e+00,7.07083e+01,-6.18160e+01,8.84548e-02,-7.73308e-02,6.11336e-01,8.25093e-01,0.00000e+00,1.06150e+00,2.20311e+00,0.00000e+00
10,9.30700e+02,0.00000e+00,6.62218e+04,1.39458e+04,-1.13902e+04,2.77691e+01,1.38035e+02,2.00486e+09,2.34009e+09,5.32666e+08,3.45396e+07,7.98259e+01,2.00162e+01,6.82283e+01,-2.35379e+00,3.57338e+01,-4.09785e-03,6.47603e-02,-4.40958e-01,1.02876e+00,-1.55358e+00,0.00000e+00,0.00000e+00,5.89697e+01,-5.15083e+01,7.37701e-02,-6.44360e-02,5.53590e-01,7.43224e-01,0.00000e+00,9.60729e-01,1.88751e+00,0.00000e+00
11,1.02500e+03,0.00000e+00,5.38991e+04,1.14568e+04,-9.96884e+03,2.50205e+01,1.23316e+02,1.96375e+09,2.27699e+09,5.18282e+08,3.35123e+07,7.91308e+01,1.98401e+01,6.76088e+01,-2.74678e+00,4.19769e+01,-4.23709e-03,6.76487e-02,-4.70533e-01,8.46836e-01,-1.28512e+00,0.00000e+00,0.00000e+00,4.85620e+01,-4.23764e+01,6.07503e-02,-5.30121e-02,4.97554e-01,6.63251e-01,0.00000e+00,8.63076e-01,1.60232e+00,0.00000e+00
12,1.11650e+03,0.00000e+00,4.32644e+04,9.28908e+03,-8.62483e+03,2.23605e+01,1.09137e+02,1.92432e+09,2.21681e+09,5.04566e+08,3.25197e+07,7.84554e+01,1.96691e+01,6.70073e+01,-3.13925e+00,4.82725e+01,-4.34137e-03,6.99604e-02,-4.96276e-01,6.87353e-01,-1.04841e+00,0.00000e+00,0.00000e+00,3.94339e+01,-3.43739e+01,4.93311e-02,-4.30012e-02,4.42595e-01,5.85128e-01,0.00000e+00,7.67427e-01,1.34615e+00,0.00000e+00
13,1.20500e+03,0.00000e+00,3.41952e+04,7.42229e+03,-7.36935e+03,1.98267e+01,9.58159e+01,1.32148e+09,1.95268e+09,4.45208e+08,2.97151e+07,7.39632e+01,1.86188e+01,6.42675e+01,-3.52984e+00,5.45607e+01,-4.48559e-03,7.21457e-02,-5.18986e-01,7.93744e-01,-1.10533e+00,0.00000e+00,0.00000e+00,4.52508e+01,-3.90530e+01,5.66079e-02,-4.88546e-02,3.94671e-01,5.61981e-01,0.00000e+00,6.84996e-01,1.35161e+00,0.00000e+00
14,1.29010e+03,0.00000e+00,2.65717e+04,5.83636e+03,-6.23422e+03,1.74454e+01,8.33490e+01,1.21619e+09,1.75686e+09,4.00479e+08,2.66728e+07,7.15330e+01,1.79989e+01,6.20379e+01,-3.91892e+00,6.07891e+01,-4.65861e-03,7.42341e-02,-5.39483e-01,6.44682e-01,-9.06646e-01,0.00000e+00,0.00000e+00,3.67810e+01,-3.17245e+01,4.60124e-02,-3.96868e-02,3.57740e-01,5.07437e-01,0.00000e+00,6.20511e-01,1.15072e+00,0.00000e+00
15,1.37170e+03,0.00000e+00,2.02474e+04,4.50419e+03,-5.21484e+03,1.52060e+01,7.16581e+01,1.12002e+09,1.58132e+09,3.60391e+08,2.39555e+07,6.91884e+01,1.74013e+01,5.98941e+01,-4.30434e+00,6.69148e+01,-4.78775e-03,7.59052e-02,-5.57901e-01,5.13270e-01,-7.29336e-01,0.00000e+00,0.00000e+00,2.93074e+01,-2.52596e+01,3.66631e-02,-3.15993e-02,3.20442e-01,4.52966e-01,0.00000e+00,5.55523e-01,9.69474e-01,0.00000e+00
16,1.44960e+03,0.00000e+00,1.50868e+04,3.40297e+03,-4.29101e+03,1.30665e+01,6.08353e+01,1.03251e+09,1.42458e+09,3.24609e+08,2.15196e+07,6.69366e+01,1.68278e+01,5.78421e+01,-4.68092e+00,7.28786e+01,-4.88067e-03,7.72080e-02,-5.74147e-01,3.99385e-01,-5.73868e-01,0.00000e+00,0.00000e+00,2.28246e+01,-1.96536e+01,2.85532e-02,-2.45864e-02,2.82932e-01,3.97923e-01,0.00000e+00,4.90278e-01,8.06387e-01,0.00000e+00
17,1.52340e+03,0.00000e+00,1.09677e+04,2.51147e+03,-3.48110e+03,1.10934e+01,5.07941e+01,9.53418e+08,1.28561e+09,2.92889e+08,1.93747e+07,6.47909e+01,1.62818e+01,5.58929e+01,-5.04347e+00,7.86128e+01,-4.94453e-03,7.81916e-02,-5.88134e-01,3.02943e-01,-4.40542e-01,0.00000e+00,0.00000e+00,1.73292e+01,-1.49043e+01,2.16785e-02,-1.86451e-02,2.45667e-01,3.44162e-01,0.00000e+00,4.25587e-01,6.63544e-01,0.00000e+00
18,1.59310e+03,0.00000e+00,7.74787e+03,1.80375e+03,-2.77418e+03,9.21437e+00,4.15972e+01,8.82075e+08,1.16263e+09,2.64824e+08,1.74854e+07,6.27531e+01,1.57637e+01,5.40474e+01,-5.38956e+00,8.40879e+01,-4.98634e-03,7.89113e-02,-5.99925e-01,2.23083e-01,-3.28508e-01,0.00000e+00,0.00000e+00,1.27737e+01,-1.09707e+01,1.59796e-02,-1.37242e-02,2.09104e-01,2.92002e-01,0.00000e+00,3.62230e-01,5.47716e-01,0.00000e+00
19,1.65850e+03,0.00000e+00,5.29663e+03,1.25535e+03,-2.16689e+03,7.55616e+00,3.33640e+01,8.18049e+08,1.05434e+09,2.40117e+08,1.58262e+07,6.08309e+01,1.52752e+01,5.23116e+01,-5.71651e+00,8.92652e+01,-5.01206e-03,7.94179e-02,-6.09590e-01,1.58781e-01,-2.36895e-01,0.00000e+00,0.00000e+00,9.10137e+00,-7.80370e+00,1.13857e-02,-9.76230e-03,1.74120e-01,2.42431e-01,0.00000e+00,3.01615e-01,4.44743e-01,0.00000e+00
20,1.71930e+03,0.00000e+00,3.49071e+03,8.43061e+02,-1.63607e+03,6.00604e+00,2.60413e+01,7.61023e+08,9.59670e+08,2.18523e+08,1.43592e+07,5.90349e+01,1.48192e+01,5.06943e+01,-6.02169e+00,9.41042e+01,-5.02671e-03,7.97585e-02,-6.17216e-01,1.08778e-01,-1.64485e-01,0.00000e+00,0.00000e+00,6.24207e+00,-5.34202e+00,7.80872e-03,-6.68278e-03,1.40518e-01,1.94411e-01,0.00000e+00,2.43402e-01,3.50525e-01,0.00000e+00
21,1.77540e+03,0.00000e+00,2.20678e+03,5.45672e+02,-1.18986e+03,4.59606e+00,1.97318e+01,3.98519e+08,7.29057e+08,1.66652e+08,1.03747e+07,5.21005e+01,1.31900e+01,4.07358e+01,-6.30428e+00,9.85868e+01,-5.04774e-03,8.00506e-02,-6.23629e-01,1.30655e-01,-1.72233e-01,0.00000e+00,0.00000e+00,7.43088e+00,-6.20841e+00,9.29590e-03,-7.76662e-03,1.85424e-01,1.77767e-01,0.00000e+00,3.21185e-01,3.30317e-01,0.00000e+00
22,1.82660e+03,0.00000e+00,1.33010e+03,3.40563e+02,-8.37082e+02,3.41599e+00,1.45133e+01,3.22692e+08,5.63581e+08,1.28741e+08,7.99777e+06,4.80842e+01,1.21552e+01,3.73499e+01,-6.56334e+00,1.02692e+02,-5.07188e-03,8.03078e-02,-6.29245e-01,8.84267e-02,-1.18992e-01,0.00000e+00,0.00000e+00,5.03729e+00,-4.20067e+00,6.30157e-03,-5.25497e-03,1.52466e-01,1.45697e-01,0.00000e+00,2.64090e-01,2.64168e-01,0.00000e+00
23,1.87280e+03,0.00000e+00,7.56555e+02,2.03778e+02,-5.76484e+02,2.50546e+00,1.03155e+01,2.62353e+08,4.36581e+08,9.96683e+07,6.19828e+06,4.43938e+01,1.12070e+01,3.42731e+01,-6.79797e+00,1.06406e+02,-5.08530e-03,8.04749e-02,-6.33811e-01,5.64156e-02,-7.78892e-02,0.00000e+00,0.00000e+00,3.22053e+00,-2.67275e+00,4.02883e-03,-3.34357e-03,1.21566e-01,1.16594e-01,0.00000e+00,2.10565e-01,2.07519e-01,0.00000e+00
24,1.91380e+03,0.00000e+00,4.00657e+02,1.15515e+02,-3.83948e+02,1.80002e+00,7.04536e+00,2.14932e+08,3.40501e+08,7.76906e+07,4.84223e+06,4.10625e+01,1.03532e+01,3.15244e+01,-7.00659e+00,1.09708e+02,-5.09152e-03,8.05745e-02,-6.37343e-01,3.34251e-02,-4.76777e-02,0.00000e+00,0.00000e+00,1.91330e+00,-1.57471e+00,2.39350e-03,-1.96994e-03,9.30591e-02,8.99455e-02,0.00000e+00,1.61186e-01,1.58312e-01,0.00000e+00
25,1.94970e+03,0.00000e+00,1.92390e+02,6.06433e+01,-2.46458e+02,1.25693e+00,4.55726e+00,1.77937e+08,2.68420e+08,6.12136e+07,3.83577e+06,3.80992e+01,9.59536e+00,2.91026e+01,-7.18942e+00,1.12601e+02,-5.09361e-03,8.06282e-02,-6.39920e-01,1.78987e-02,-2.65781e-02,0.00000e+00,0.00000e+00,1.02820e+00,-8.35297e-01,1.28626e-03,-1.04494e-03,6.75917e-02,6.63797e-02,0.00000e+00,1.17073e-01,1.15938e-01,0.00000e+00
26,1.98010e+03,0.00000e+00,8.14041e+01,2.87855e+01,-1.49681e+02,8.38978e-01,2.74443e+00,1.49784e+08,2.15653e+08,4.91590e+07,3.10345e+06,3.55543e+01,8.94582e+00,2.70403e+01,-7.34427e+00,1.15053e+02,-5.09379e-03,8.06529e-02,-6.41630e-01,8.40203e-03,-1.31270e-02,0.00000e+00,0.00000e+00,4.84917e-01,-3.86291e-01,6.06623e-04,-4.83243e-04,4.56100e-02,4.58170e-02,0.00000e+00,7.89993e-02,7.96571e-02,0.00000e+00
27,2.00520e+03,0.00000e+00,2.83999e+01,1.16944e+01,-8.36604e+01,5.22861e-01,1.47901e+00,1.28656e+08,1.77484e+08,4.04436e+07,2.58160e+06,3.34272e+01,8.40385e+00,2.53292e+01,-7.47212e+00,1.17077e+02,-5.09345e-03,8.06624e-02,-6.42642e-01,3.23871e-03,-5.41703e-03,0.00000e+00,0.00000e+00,1.88125e-01,-1.45364e-01,2.35341e-04,-1.81848e-04,2.75771e-02,2.86361e-02,0.00000e+00,4.77650e-02,4.96672e-02,0.00000e+00
28,2.02480e+03,0.00000e+00,7.36425e+00,3.73704e+00,-4.07219e+01,2.89120e-01,6.67490e-01,1.13447e+08,1.50904e+08,3.43767e+07,2.22817e+06,3.17493e+01,7.97693e+00,2.39876e+01,-7.57194e+00,1.18658e+02,-5.09318e-03,8.06651e-02,-6.43138e-01,9.26623e-04,-1.70811e-03,0.00000e+00,0.00000e+00,5.43324e-02,-3.99259e-02,6.79688e-05,-4.99467e-05,1.40169e-02,1.52451e-02,0.00000e+00,2.42780e-02,2.64149e-02,0.00000e+00
29,2.03880e+03,0.00000e+00,1.17047e+00,8.13952e-01,-1.55529e+01,1.28465e-01,2.17337e-01,1.03260e+08,1.33576e+08,3.04229e+07,2.01973e+06,3.05414e+01,7.66993e+00,2.30264e+01,-7.64325e+00,1.19788e+02,-5.09308e-03,8.06656e-02,-6.43320e-01,1.64585e-04,-3.53047e-04,0.00000e+00,0.00000e+00,9.80267e-03,-6.54406e-03,1.22630e-05,-8.18651e-06,5.27554e-03,6.17568e-03,0.00000e+00,9.13750e-03,1.06972e-02,0.00000e+00
30,2.04720e+03,0.00000e+00,1.28827e-01,1.37199e-01,-3.22205e+00,3.26665e-02,3.06731e-02,9.74134e+07,1.23821e+08,2.81976e+07,1.95156e+06,2.98129e+01,7.48488e+00,2.24484e+01,-7.68603e+00,1.20465e+02,-5.09306e-03,8.06657e-02,-6.43359e-01,2.08990e-05,-5.58485e-05,0.00000e+00,0.00000e+00,1.27568e-03,-7.14323e-04,1.59585e-06,-8.93606e-07,9.69409e-04,1.30211e-03,0.00000e+00,1.67907e-03,2.25536e-03,0.00000e+00
31,2.05000e+03,0.00000e+00,0.00000e+00,0.00000e+00,0.00000e+00,0.00000e+00,0.00000e+00,5.74754e+07,1.08343e+08,2.47732e+07,NaN,2.74871e+01,6.96602e+00,2.15905e+01,-7.70029e+00,1.20691e+02,-5.09306e-03,8.06657e-02,-6.43362e-01,0.00000e+00,0.00000e+00,0.00000e+00,0.00000e+00,0.00000e+00,0.00000e+00,0.00000e+00,0.00000e+00,0.00000e+00,0.00000e+00,0.00000e+00,0.00000e+00,0.00000e+00,0.00000e+00
--------------------------------------------------------------------------------------------------------------------------------------------------------------------------------------------------------------------------------------------------------------------------------------------------------------------------------------------------------------------------------

CHAPEADO 
--------------------------------------------------------------------------------------------------------------------------------------------------------------------------------------------------------------------------------------------------------------------------------------------------------------------------------------------------------------------------------
X,Y,Z,Sigma,Tau,Von Mises
0.00000e+00,4.31008e+01,0.00000e+00,-3.34794e+00,1.50655e+00,4.24473e+00
0.00000e+00,4.28837e+01,-3.27521e+00,-3.53099e+00,1.49381e+00,4.37747e+00
0.00000e+00,4.25950e+01,-6.55041e+00,-3.70090e+00,1.48076e+00,4.50273e+00
0.00000e+00,4.23033e+01,-9.82562e+00,-3.87027e+00,1.46741e+00,4.63021e+00
0.00000e+00,4.19484e+01,-1.31008e+01,-4.02804e+00,1.45379e+00,4.75033e+00
0.00000e+00,4.15787e+01,-1.63760e+01,-4.18311e+00,1.43992e+00,4.87017e+00
0.00000e+00,4.11605e+01,-1.96512e+01,-4.32927e+00,1.42582e+00,4.98412e+00
0.00000e+00,4.07187e+01,-2.29264e+01,-4.47111e+00,1.41150e+00,5.09586e+00
0.00000e+00,4.02378e+01,-2.62017e+01,-4.60578e+00,1.39699e+00,5.20269e+00
0.00000e+00,3.97249e+01,-2.94769e+01,-4.73457e+00,1.38231e+00,5.30552e+00
0.00000e+00,3.91766e+01,-3.27521e+01,-4.85690e+00,1.36748e+00,5.40365e+00
0.00000e+00,3.85857e+01,-3.60273e+01,-4.97139e+00,1.35251e+00,5.49568e+00
0.00000e+00,3.79511e+01,-3.93025e+01,-5.07786e+00,1.33742e+00,5.58129e+00
0.00000e+00,3.72545e+01,-4.25777e+01,-5.17298e+00,1.32225e+00,5.65727e+00
0.00000e+00,3.64976e+01,-4.58529e+01,-5.25703e+00,1.30701e+00,5.72374e+00
0.00000e+00,3.56687e+01,-4.91281e+01,-5.32786e+00,1.29174e+00,5.77857e+00
0.00000e+00,3.47420e+01,-5.24033e+01,-5.38079e+00,1.27648e+00,5.81731e+00
0.00000e+00,3.37474e+01,-5.56785e+01,-5.42125e+00,1.26125e+00,5.84485e+00
0.00000e+00,3.26000e+01,-5.89537e+01,-5.43368e+00,1.24613e+00,5.84666e+00
0.00000e+00,3.13892e+01,-6.22289e+01,-5.43448e+00,1.23116e+00,5.83788e+00
0.00000e+00,3.00018e+01,-6.55041e+01,-5.40291e+00,1.21636e+00,5.79915e+00
0.00000e+00,2.84730e+01,-6.87793e+01,-5.34540e+00,1.20188e+00,5.73644e+00
0.00000e+00,2.68002e+01,-7.20546e+01,-5.26148e+00,1.18772e+00,5.64935e+00
0.00000e+00,2.48857e+01,-7.53298e+01,-5.13324e+00,1.17394e+00,5.52128e+00
0.00000e+00,2.26913e+01,-7.86050e+01,-4.95366e+00,1.16072e+00,5.34608e+00
0.00000e+00,2.01805e+01,-8.18802e+01,-4.71605e+00,1.14820e+00,5.11823e+00
0.00000e+00,1.72108e+01,-8.51554e+01,-4.39428e+00,1.13650e+00,4.81504e+00
0.00000e+00,1.33989e+01,-8.84306e+01,-3.91807e+00,1.12619e+00,4.37678e+00
0.00000e+00,8.24350e+00,-9.17058e+01,-3.19546e+00,1.11988e+00,3.73810e+00
0.00000e+00,-3.34020e+00,-9.49810e+01,-1.29394e+00,1.12238e+00,2.33527e+00
0.00000e+00,-4.17620e+00,-9.49886e+01,-1.14114e+00,1.13014e+00,2.26580e+00
0.00000e+00,-1.17928e+01,-9.15961e+01,4.86539e-01,1.14485e+00,2.04176e+00
0.00000e+00,-1.27149e+01,-8.82037e+01,8.86502e-01,1.15572e+00,2.18928e+00
0.00000e+00,-1.30332e+01,-8.48113e+01,1.17570e+00,1.16716e+00,2.33860e+00
0.00000e+00,-1.30814e+01,-8.14188e+01,1.41540e+00,1.17913e+00,2.48483e+00
0.00000e+00,-1.29264e+01,-7.80264e+01,1.61780e+00,1.19153e+00,2.62231e+00
0.00000e+00,-1.26437e+01,-7.46339e+01,1.79679e+00,1.20430e+00,2.75308e+00
0.00000e+00,-1.22328e+01,-7.12415e+01,1.95229e+00,1.21735e+00,2.87354e+00
0.00000e+00,-1.17438e+01,-6.78490e+01,2.09344e+00,1.23063e+00,2.98762e+00
0.00000e+00,-1.12094e+01,-6.44565e+01,2.22629e+00,1.24410e+00,3.09834e+00
0.00000e+00,-1.06068e+01,-6.10641e+01,2.34660e+00,1.25773e+00,3.20190e+00
0.00000e+00,-9.96142e+00,-5.76716e+01,2.45909e+00,1.27147e+00,3.30107e+00
0.00000e+00,-9.27449e+00,-5.42792e+01,2.56395e+00,1.28531e+00,3.39557e+00
0.00000e+00,-8.54615e+00,-5.08867e+01,2.66122e+00,1.29920e+00,3.48509e+00
0.00000e+00,-7.79185e+00,-4.74943e+01,2.75372e+00,1.31313e+00,3.57154e+00
0.00000e+00,-7.00429e+00,-4.41018e+01,2.84013e+00,1.32707e+00,3.65373e+00
0.00000e+00,-6.19544e+00,-4.07094e+01,2.92263e+00,1.34101e+00,3.73319e+00
0.00000e+00,-5.36748e+00,-3.73169e+01,3.00163e+00,1.35493e+00,3.81016e+00
0.00000e+00,-4.52248e+00,-3.39245e+01,3.07750e+00,1.36882e+00,3.88484e+00
0.00000e+00,-3.67026e+00,-3.05320e+01,3.15205e+00,1.38265e+00,3.95861e+00
0.00000e+00,-2.80686e+00,-2.71396e+01,3.22455e+00,1.39644e+00,4.03086e+00
0.00000e+00,-1.94159e+00,-2.37472e+01,3.29670e+00,1.41016e+00,4.10291e+00
0.00000e+00,-1.06964e+00,-2.03547e+01,3.36763e+00,1.42382e+00,4.17406e+00
0.00000e+00,-1.97780e-01,-1.69622e+01,3.43858e+00,1.43741e+00,4.24526e+00
0.00000e+00,6.70785e-01,-1.35698e+01,3.51013e+00,1.45093e+00,4.31702e+00
0.00000e+00,1.53935e+00,-1.01774e+01,3.58168e+00,1.46438e+00,4.38882e+00
0.00000e+00,2.38735e+00,-6.78490e+00,3.65700e+00,1.47777e+00,4.46375e+00
0.00000e+00,3.23151e+00,-3.39245e+00,3.73303e+00,1.49110e+00,4.53934e+00
1.07300e+02,4.26785e+01,0.00000e+00,-2.99697e+00,1.42219e+00,3.87939e+00
1.07300e+02,4.24636e+01,-3.24312e+00,-3.16173e+00,1.41024e+00,3.99535e+00
1.07300e+02,4.21777e+01,-6.48624e+00,-3.31471e+00,1.39800e+00,4.10494e+00
1.07300e+02,4.18889e+01,-9.72936e+00,-3.46723e+00,1.38548e+00,4.21667e+00
1.07300e+02,4.15374e+01,-1.29725e+01,-3.60935e+00,1.37270e+00,4.32207e+00
1.07300e+02,4.11714e+01,-1.62156e+01,-3.74906e+00,1.35969e+00,4.42738e+00
1.07300e+02,4.07572e+01,-1.94587e+01,-3.88078e+00,1.34646e+00,4.52762e+00
1.07300e+02,4.03197e+01,-2.27018e+01,-4.00864e+00,1.33303e+00,4.62602e+00
1.07300e+02,3.98436e+01,-2.59450e+01,-4.13008e+00,1.31942e+00,4.72019e+00
1.07300e+02,3.93357e+01,-2.91881e+01,-4.24626e+00,1.30565e+00,4.81092e+00
1.07300e+02,3.87928e+01,-3.24312e+01,-4.35665e+00,1.29174e+00,4.89756e+00
1.07300e+02,3.82077e+01,-3.56743e+01,-4.46002e+00,1.27769e+00,4.97888e+00
1.07300e+02,3.75793e+01,-3.89174e+01,-4.55621e+00,1.26354e+00,5.05457e+00
1.07300e+02,3.68895e+01,-4.21606e+01,-4.64224e+00,1.24931e+00,5.12179e+00
1.07300e+02,3.61401e+01,-4.54037e+01,-4.71837e+00,1.23502e+00,5.18062e+00
1.07300e+02,3.53192e+01,-4.86468e+01,-4.78265e+00,1.22069e+00,5.22915e+00
1.07300e+02,3.44016e+01,-5.18899e+01,-4.83090e+00,1.20638e+00,5.26343e+00
1.07300e+02,3.34168e+01,-5.51330e+01,-4.86800e+00,1.19209e+00,5.28779e+00
1.07300e+02,3.22806e+01,-5.83762e+01,-4.87999e+00,1.17791e+00,5.28930e+00
1.07300e+02,3.10816e+01,-6.16193e+01,-4.88158e+00,1.16386e+00,5.28144e+00
1.07300e+02,2.97079e+01,-6.48624e+01,-4.85418e+00,1.14999e+00,5.24695e+00
1.07300e+02,2.81940e+01,-6.81055e+01,-4.80356e+00,1.13640e+00,5.19118e+00
1.07300e+02,2.65376e+01,-7.13486e+01,-4.72929e+00,1.12312e+00,5.11374e+00
1.07300e+02,2.46419e+01,-7.45918e+01,-4.61534e+00,1.11020e+00,4.99990e+00
1.07300e+02,2.24690e+01,-7.78349e+01,-4.45543e+00,1.09779e+00,4.84420e+00
1.07300e+02,1.99828e+01,-8.10780e+01,-4.24356e+00,1.08605e+00,4.64181e+00
1.07300e+02,1.70422e+01,-8.43211e+01,-3.95635e+00,1.07508e+00,4.37265e+00
1.07300e+02,1.32676e+01,-8.75642e+01,-3.53086e+00,1.06540e+00,3.98399e+00
1.07300e+02,8.16273e+00,-9.08074e+01,-2.88476e+00,1.05949e+00,3.41897e+00
1.07300e+02,-3.30748e+00,-9.40505e+01,-1.18316e+00,1.06183e+00,2.18685e+00
1.07300e+02,-4.13529e+00,-9.40580e+01,-1.04635e+00,1.06911e+00,2.12693e+00
1.07300e+02,-1.16772e+01,-9.06988e+01,4.11830e-01,1.08291e+00,1.92033e+00
1.07300e+02,-1.25904e+01,-8.73396e+01,7.70824e-01,1.09310e+00,2.04421e+00
1.07300e+02,-1.29055e+01,-8.39804e+01,1.03065e+00,1.10383e+00,2.17200e+00
1.07300e+02,-1.29533e+01,-8.06211e+01,1.24615e+00,1.11506e+00,2.29847e+00
1.07300e+02,-1.27997e+01,-7.72619e+01,1.42826e+00,1.12669e+00,2.41832e+00
1.07300e+02,-1.25198e+01,-7.39027e+01,1.58942e+00,1.13867e+00,2.53297e+00
1.07300e+02,-1.21130e+01,-7.05435e+01,1.72953e+00,1.15092e+00,2.63915e+00
1.07300e+02,-1.16287e+01,-6.71843e+01,1.85681e+00,1.16337e+00,2.74009e+00
1.07300e+02,-1.10996e+01,-6.38251e+01,1.97665e+00,1.17601e+00,2.83834e+00
1.07300e+02,-1.05029e+01,-6.04659e+01,2.08527e+00,1.18879e+00,2.93053e+00
1.07300e+02,-9.86382e+00,-5.71066e+01,2.18688e+00,1.20168e+00,3.01903e+00
1.07300e+02,-9.18363e+00,-5.37474e+01,2.28166e+00,1.21466e+00,3.10358e+00
1.07300e+02,-8.46243e+00,-5.03882e+01,2.36965e+00,1.22769e+00,3.18385e+00
1.07300e+02,-7.71552e+00,-4.70290e+01,2.45337e+00,1.24076e+00,3.26151e+00
1.07300e+02,-6.93567e+00,-4.36698e+01,2.53163e+00,1.25384e+00,3.33549e+00
1.07300e+02,-6.13474e+00,-4.03106e+01,2.60639e+00,1.26691e+00,3.40712e+00
1.07300e+02,-5.31490e+00,-3.69514e+01,2.67802e+00,1.27997e+00,3.47660e+00
1.07300e+02,-4.47818e+00,-3.35921e+01,2.74685e+00,1.29299e+00,3.54410e+00
1.07300e+02,-3.63431e+00,-3.02329e+01,2.81449e+00,1.30597e+00,3.61083e+00
1.07300e+02,-2.77936e+00,-2.68737e+01,2.88030e+00,1.31890e+00,3.67622e+00
1.07300e+02,-1.92257e+00,-2.35145e+01,2.94580e+00,1.33177e+00,3.74147e+00
1.07300e+02,-1.05916e+00,-2.01553e+01,3.01021e+00,1.34459e+00,3.80593e+00
1.07300e+02,-1.95842e-01,-1.67961e+01,3.07462e+00,1.35733e+00,3.87045e+00
1.07300e+02,6.64213e-01,-1.34369e+01,3.13958e+00,1.37002e+00,3.93546e+00
1.07300e+02,1.52427e+00,-1.00776e+01,3.20454e+00,1.38264e+00,4.00052e+00
1.07300e+02,2.36396e+00,-6.71843e+00,3.27288e+00,1.39519e+00,4.06835e+00
1.07300e+02,3.19985e+00,-3.35921e+00,3.34185e+00,1.40770e+00,4.13676e+00
2.14300e+02,4.22575e+01,0.00000e+00,-2.66427e+00,1.33653e+00,3.52949e+00
2.14300e+02,4.20447e+01,-3.21112e+00,-2.81159e+00,1.32536e+00,3.62971e+00
2.14300e+02,4.17615e+01,-6.42224e+00,-2.94844e+00,1.31391e+00,3.72457e+00
2.14300e+02,4.14756e+01,-9.63337e+00,-3.08488e+00,1.30221e+00,3.82148e+00
2.14300e+02,4.11276e+01,-1.28445e+01,-3.21207e+00,1.29027e+00,3.91302e+00
2.14300e+02,4.07652e+01,-1.60556e+01,-3.33711e+00,1.27810e+00,4.00461e+00
2.14300e+02,4.03551e+01,-1.92667e+01,-3.45506e+00,1.26573e+00,4.09190e+00
2.14300e+02,3.99219e+01,-2.24779e+01,-3.56957e+00,1.25318e+00,4.17770e+00
2.14300e+02,3.94505e+01,-2.56890e+01,-3.67837e+00,1.24046e+00,4.25989e+00
2.14300e+02,3.89476e+01,-2.89001e+01,-3.78250e+00,1.22758e+00,4.33914e+00
2.14300e+02,3.84101e+01,-3.21112e+01,-3.88147e+00,1.21457e+00,4.41490e+00
2.14300e+02,3.78307e+01,-3.53223e+01,-3.97421e+00,1.20145e+00,4.48606e+00
2.14300e+02,3.72085e+01,-3.85335e+01,-4.06056e+00,1.18822e+00,4.55234e+00
2.14300e+02,3.65256e+01,-4.17446e+01,-4.13788e+00,1.17491e+00,4.61121e+00
2.14300e+02,3.57835e+01,-4.49557e+01,-4.20639e+00,1.16155e+00,4.66276e+00
2.14300e+02,3.49707e+01,-4.81668e+01,-4.26437e+00,1.14816e+00,4.70528e+00
2.14300e+02,3.40622e+01,-5.13780e+01,-4.30809e+00,1.13478e+00,4.73527e+00
2.14300e+02,3.30871e+01,-5.45891e+01,-4.34190e+00,1.12142e+00,4.75656e+00
2.14300e+02,3.19621e+01,-5.78002e+01,-4.35339e+00,1.10817e+00,4.75774e+00
2.14300e+02,3.07750e+01,-6.10113e+01,-4.35562e+00,1.09503e+00,4.75065e+00
2.14300e+02,2.94148e+01,-6.42224e+01,-4.33208e+00,1.08206e+00,4.72012e+00
2.14300e+02,2.79159e+01,-6.74336e+01,-4.28789e+00,1.06936e+00,4.67082e+00
2.14300e+02,2.62758e+01,-7.06447e+01,-4.22267e+00,1.05694e+00,4.60243e+00
2.14300e+02,2.43988e+01,-7.38558e+01,-4.12218e+00,1.04486e+00,4.50195e+00
2.14300e+02,2.22473e+01,-7.70669e+01,-3.98081e+00,1.03327e+00,4.36460e+00
2.14300e+02,1.97856e+01,-8.02781e+01,-3.79325e+00,1.02229e+00,4.18616e+00
2.14300e+02,1.68740e+01,-8.34892e+01,-3.53869e+00,1.01203e+00,3.94904e+00
2.14300e+02,1.31367e+01,-8.67003e+01,-3.16117e+00,1.00298e+00,3.60707e+00
2.14300e+02,8.08220e+00,-8.99114e+01,-2.58750e+00,9.97459e-01,3.11126e+00
2.14300e+02,-3.27484e+00,-9.31226e+01,-1.07532e+00,9.99651e-01,2.03819e+00
2.14300e+02,-4.09449e+00,-9.31300e+01,-9.53680e-01,1.00645e+00,1.98705e+00
2.14300e+02,-1.15620e+01,-8.98039e+01,3.43741e-01,1.01936e+00,1.79873e+00
2.14300e+02,-1.24661e+01,-8.64779e+01,6.63798e-01,1.02889e+00,1.90170e+00
2.14300e+02,-1.27781e+01,-8.31518e+01,8.95678e-01,1.03892e+00,2.01005e+00
2.14300e+02,-1.28255e+01,-7.98257e+01,1.08815e+00,1.04941e+00,2.11846e+00
2.14300e+02,-1.26734e+01,-7.64996e+01,1.25093e+00,1.06029e+00,2.22204e+00
2.14300e+02,-1.23963e+01,-7.31736e+01,1.39507e+00,1.07148e+00,2.32173e+00
2.14300e+02,-1.19935e+01,-6.98475e+01,1.52051e+00,1.08293e+00,2.41457e+00
2.14300e+02,-1.15140e+01,-6.65214e+01,1.63453e+00,1.09458e+00,2.50320e+00
2.14300e+02,-1.09901e+01,-6.31954e+01,1.74194e+00,1.10639e+00,2.58972e+00
2.14300e+02,-1.03992e+01,-5.98693e+01,1.83937e+00,1.11834e+00,2.67120e+00
2.14300e+02,-9.76651e+00,-5.65432e+01,1.93057e+00,1.13039e+00,2.74963e+00
2.14300e+02,-9.09302e+00,-5.32171e+01,2.01570e+00,1.14252e+00,2.82473e+00
2.14300e+02,-8.37893e+00,-4.98911e+01,2.09478e+00,1.15470e+00,2.89623e+00
2.14300e+02,-7.63939e+00,-4.65650e+01,2.17008e+00,1.16692e+00,2.96552e+00
2.14300e+02,-6.86724e+00,-4.32389e+01,2.24051e+00,1.17915e+00,3.03168e+00
2.14300e+02,-6.07421e+00,-3.99129e+01,2.30784e+00,1.19137e+00,3.09584e+00
2.14300e+02,-5.26246e+00,-3.65868e+01,2.37238e+00,1.20358e+00,3.15816e+00
2.14300e+02,-4.43399e+00,-3.32607e+01,2.43443e+00,1.21575e+00,3.21879e+00
2.14300e+02,-3.59845e+00,-2.99346e+01,2.49543e+00,1.22788e+00,3.27876e+00
2.14300e+02,-2.75194e+00,-2.66086e+01,2.55480e+00,1.23997e+00,3.33760e+00
2.14300e+02,-1.90360e+00,-2.32825e+01,2.61389e+00,1.25200e+00,3.39631e+00
2.14300e+02,-1.04871e+00,-1.99564e+01,2.67201e+00,1.26398e+00,3.45435e+00
2.14300e+02,-1.93910e-01,-1.66304e+01,2.73014e+00,1.27590e+00,3.51246e+00
2.14300e+02,6.57660e-01,-1.33043e+01,2.78875e+00,1.28776e+00,3.57100e+00
2.14300e+02,1.50923e+00,-9.97821e+00,2.84736e+00,1.29955e+00,3.62959e+00
2.14300e+02,2.34063e+00,-6.65214e+00,2.90897e+00,1.31129e+00,3.69060e+00
2.14300e+02,3.16828e+00,-3.32607e+00,2.97115e+00,1.32298e+00,3.75213e+00
3.20700e+02,4.18388e+01,0.00000e+00,-2.35112e+00,1.25027e+00,3.19645e+00
3.20700e+02,4.16280e+01,-3.17930e+00,-2.48193e+00,1.23988e+00,3.28205e+00
3.20700e+02,4.13477e+01,-6.35861e+00,-2.60349e+00,1.22924e+00,3.36322e+00
3.20700e+02,4.10646e+01,-9.53791e+00,-2.72469e+00,1.21835e+00,3.44631e+00
3.20700e+02,4.07201e+01,-1.27172e+01,-2.83772e+00,1.20725e+00,3.52491e+00
3.20700e+02,4.03613e+01,-1.58965e+01,-2.94887e+00,1.19594e+00,3.60369e+00
3.20700e+02,3.99553e+01,-1.90758e+01,-3.05375e+00,1.18443e+00,3.67886e+00
3.20700e+02,3.95264e+01,-2.22551e+01,-3.15559e+00,1.17276e+00,3.75285e+00
3.20700e+02,3.90596e+01,-2.54344e+01,-3.25240e+00,1.16093e+00,3.82379e+00
3.20700e+02,3.85617e+01,-2.86137e+01,-3.34508e+00,1.14896e+00,3.89228e+00
3.20700e+02,3.80295e+01,-3.17930e+01,-3.43321e+00,1.13686e+00,3.95781e+00
3.20700e+02,3.74559e+01,-3.49724e+01,-3.51584e+00,1.12465e+00,4.01941e+00
3.20700e+02,3.68398e+01,-3.81517e+01,-3.59283e+00,1.11235e+00,4.07681e+00
3.20700e+02,3.61637e+01,-4.13310e+01,-3.66185e+00,1.09997e+00,4.12782e+00
3.20700e+02,3.54289e+01,-4.45103e+01,-3.72309e+00,1.08755e+00,4.17249e+00
3.20700e+02,3.46242e+01,-4.76896e+01,-3.77504e+00,1.07509e+00,4.20932e+00
3.20700e+02,3.37247e+01,-5.08689e+01,-3.81440e+00,1.06265e+00,4.23525e+00
3.20700e+02,3.27593e+01,-5.40482e+01,-3.84501e+00,1.05023e+00,4.25360e+00
3.20700e+02,3.16454e+01,-5.72275e+01,-3.85592e+00,1.03790e+00,4.25439e+00
3.20700e+02,3.04701e+01,-6.04068e+01,-3.85866e+00,1.02569e+00,4.24799e+00
3.20700e+02,2.91233e+01,-6.35861e+01,-3.83866e+00,1.01363e+00,4.22109e+00
3.20700e+02,2.76393e+01,-6.67654e+01,-3.80042e+00,1.00181e+00,4.17781e+00
3.20700e+02,2.60154e+01,-6.99447e+01,-3.74363e+00,9.90269e-01,4.11784e+00
3.20700e+02,2.41570e+01,-7.31240e+01,-3.65569e+00,9.79037e-01,4.02984e+00
3.20700e+02,2.20269e+01,-7.63033e+01,-3.53168e+00,9.68254e-01,3.90964e+00
3.20700e+02,1.95896e+01,-7.94826e+01,-3.36690e+00,9.58048e-01,3.75361e+00
3.20700e+02,1.67068e+01,-8.26619e+01,-3.14297e+00,9.48506e-01,3.54644e+00
3.20700e+02,1.30066e+01,-8.58412e+01,-2.81052e+00,9.40093e-01,3.24813e+00
3.20700e+02,8.00212e+00,-8.90205e+01,-2.30493e+00,9.34955e-01,2.81694e+00
3.20700e+02,-3.24239e+00,-9.21998e+01,-9.70939e-01,9.36994e-01,1.89119e+00
3.20700e+02,-4.05392e+00,-9.22072e+01,-8.63574e-01,9.43321e-01,1.84806e+00
3.20700e+02,-1.14474e+01,-8.89141e+01,2.82422e-01,9.55319e-01,1.67859e+00
3.20700e+02,-1.23426e+01,-8.56210e+01,5.65725e-01,9.64182e-01,1.76323e+00
3.20700e+02,-1.26515e+01,-8.23279e+01,7.71197e-01,9.73510e-01,1.85416e+00
3.20700e+02,-1.26984e+01,-7.90348e+01,9.41883e-01,9.83269e-01,1.94617e+00
3.20700e+02,-1.25479e+01,-7.57416e+01,1.08636e+00,9.93383e-01,2.03485e+00
3.20700e+02,-1.22734e+01,-7.24485e+01,1.21439e+00,1.00379e+00,2.12074e+00
3.20700e+02,-1.18746e+01,-6.91554e+01,1.32591e+00,1.01444e+00,2.20121e+00
3.20700e+02,-1.13999e+01,-6.58623e+01,1.42735e+00,1.02527e+00,2.27835e+00
3.20700e+02,-1.08812e+01,-6.25692e+01,1.52295e+00,1.03626e+00,2.35391e+00
3.20700e+02,-1.02962e+01,-5.92761e+01,1.60975e+00,1.04737e+00,2.42533e+00
3.20700e+02,-9.66973e+00,-5.59829e+01,1.69105e+00,1.05858e+00,2.49427e+00
3.20700e+02,-9.00292e+00,-5.26898e+01,1.76699e+00,1.06986e+00,2.56047e+00
3.20700e+02,-8.29591e+00,-4.93967e+01,1.83759e+00,1.08118e+00,2.62367e+00
3.20700e+02,-7.56370e+00,-4.61036e+01,1.90485e+00,1.09254e+00,2.68503e+00
3.20700e+02,-6.79920e+00,-4.28105e+01,1.96782e+00,1.10391e+00,2.74376e+00
3.20700e+02,-6.01403e+00,-3.95174e+01,2.02805e+00,1.11528e+00,2.80081e+00
3.20700e+02,-5.21032e+00,-3.62243e+01,2.08582e+00,1.12663e+00,2.85631e+00
3.20700e+02,-4.39006e+00,-3.29311e+01,2.14139e+00,1.13795e+00,2.91039e+00
3.20700e+02,-3.56279e+00,-2.96380e+01,2.19602e+00,1.14924e+00,2.96391e+00
3.20700e+02,-2.72467e+00,-2.63449e+01,2.24922e+00,1.16047e+00,3.01647e+00
3.20700e+02,-1.88474e+00,-2.30518e+01,2.30218e+00,1.17167e+00,3.06895e+00
3.20700e+02,-1.03832e+00,-1.97587e+01,2.35428e+00,1.18280e+00,3.12085e+00
3.20700e+02,-1.91989e-01,-1.64656e+01,2.40638e+00,1.19389e+00,3.17282e+00
3.20700e+02,6.51143e-01,-1.31725e+01,2.45892e+00,1.20491e+00,3.22517e+00
3.20700e+02,1.49428e+00,-9.87934e+00,2.51145e+00,1.21588e+00,3.27757e+00
3.20700e+02,2.31744e+00,-6.58623e+00,2.56663e+00,1.22680e+00,3.33207e+00
3.20700e+02,3.13689e+00,-3.29311e+00,2.62231e+00,1.23766e+00,3.38702e+00
4.26200e+02,4.14236e+01,0.00000e+00,-2.05866e+00,1.16405e+00,2.88151e+00
4.26200e+02,4.12150e+01,-3.14776e+00,-2.17394e+00,1.15443e+00,2.95366e+00
4.26200e+02,4.09374e+01,-6.29551e+00,-2.28112e+00,1.14457e+00,3.02220e+00
4.26200e+02,4.06571e+01,-9.44327e+00,-2.38799e+00,1.13450e+00,3.09253e+00
4.26200e+02,4.03160e+01,-1.25910e+01,-2.48770e+00,1.12421e+00,3.15915e+00
4.26200e+02,3.99607e+01,-1.57388e+01,-2.58576e+00,1.11374e+00,3.22605e+00
4.26200e+02,3.95588e+01,-1.88865e+01,-2.67833e+00,1.10310e+00,3.28997e+00
4.26200e+02,3.91341e+01,-2.20343e+01,-2.76824e+00,1.09229e+00,3.35298e+00
4.26200e+02,3.86720e+01,-2.51820e+01,-2.85375e+00,1.08134e+00,3.41346e+00
4.26200e+02,3.81790e+01,-2.83298e+01,-2.93563e+00,1.07025e+00,3.47193e+00
4.26200e+02,3.76521e+01,-3.14776e+01,-3.01353e+00,1.05905e+00,3.52791e+00
4.26200e+02,3.70842e+01,-3.46253e+01,-3.08662e+00,1.04775e+00,3.58058e+00
4.26200e+02,3.64743e+01,-3.77731e+01,-3.15477e+00,1.03636e+00,3.62969e+00
4.26200e+02,3.58048e+01,-4.09208e+01,-3.21592e+00,1.02491e+00,3.67334e+00
4.26200e+02,3.50774e+01,-4.40686e+01,-3.27028e+00,1.01340e+00,3.71156e+00
4.26200e+02,3.42806e+01,-4.72163e+01,-3.31649e+00,1.00187e+00,3.74304e+00
4.26200e+02,3.33901e+01,-5.03641e+01,-3.35168e+00,9.90357e-01,3.76512e+00
4.26200e+02,3.24342e+01,-5.35118e+01,-3.37920e+00,9.78860e-01,3.78068e+00
4.26200e+02,3.13314e+01,-5.66596e+01,-3.38947e+00,9.67446e-01,3.78105e+00
4.26200e+02,3.01677e+01,-5.98074e+01,-3.39258e+00,9.56141e-01,3.77521e+00
4.26200e+02,2.88343e+01,-6.29551e+01,-3.37578e+00,9.44973e-01,3.75164e+00
4.26200e+02,2.73650e+01,-6.61029e+01,-3.34300e+00,9.34037e-01,3.71388e+00
4.26200e+02,2.57573e+01,-6.92506e+01,-3.29397e+00,9.23349e-01,3.66169e+00
4.26200e+02,2.39173e+01,-7.23984e+01,-3.21766e+00,9.12952e-01,3.58522e+00
4.26200e+02,2.18083e+01,-7.55461e+01,-3.10976e+00,9.02969e-01,3.48090e+00
4.26200e+02,1.93952e+01,-7.86939e+01,-2.96615e+00,8.93521e-01,3.34562e+00
4.26200e+02,1.65410e+01,-8.18417e+01,-2.77074e+00,8.84688e-01,3.16623e+00
4.26200e+02,1.28775e+01,-8.49894e+01,-2.48028e+00,8.76901e-01,2.90837e+00
4.26200e+02,7.92271e+00,-8.81372e+01,-2.03817e+00,8.72144e-01,2.53694e+00
4.26200e+02,-3.21022e+00,-9.12849e+01,-8.70509e-01,8.74032e-01,1.74631e+00
4.26200e+02,-4.01369e+00,-9.12922e+01,-7.76475e-01,8.79889e-01,1.71042e+00
4.26200e+02,-1.13339e+01,-8.80318e+01,2.27980e-01,8.90996e-01,1.56000e+00
4.26200e+02,-1.22201e+01,-8.47713e+01,4.76849e-01,8.99202e-01,1.62883e+00
4.26200e+02,-1.25260e+01,-8.15109e+01,6.57549e-01,9.07836e-01,1.70437e+00
4.26200e+02,-1.25724e+01,-7.82505e+01,8.07782e-01,9.16871e-01,1.78170e+00
4.26200e+02,-1.24233e+01,-7.49900e+01,9.35061e-01,9.26234e-01,1.85690e+00
4.26200e+02,-1.21516e+01,-7.17296e+01,1.04794e+00,9.35872e-01,1.93022e+00
4.26200e+02,-1.17568e+01,-6.84692e+01,1.14635e+00,9.45728e-01,1.99933e+00
4.26200e+02,-1.12868e+01,-6.52087e+01,1.23593e+00,9.55754e-01,2.06590e+00
4.26200e+02,-1.07732e+01,-6.19483e+01,1.32040e+00,9.65924e-01,2.13131e+00
4.26200e+02,-1.01940e+01,-5.86879e+01,1.39717e+00,9.76210e-01,2.19341e+00
4.26200e+02,-9.57378e+00,-5.54274e+01,1.46911e+00,9.86584e-01,2.25351e+00
4.26200e+02,-8.91358e+00,-5.21670e+01,1.53636e+00,9.97027e-01,2.31140e+00
4.26200e+02,-8.21359e+00,-4.89065e+01,1.59893e+00,1.00751e+00,2.36682e+00
4.26200e+02,-7.48864e+00,-4.56461e+01,1.65858e+00,1.01803e+00,2.42075e+00
4.26200e+02,-6.73173e+00,-4.23857e+01,1.71447e+00,1.02856e+00,2.47249e+00
4.26200e+02,-5.95435e+00,-3.91252e+01,1.76796e+00,1.03908e+00,2.52284e+00
4.26200e+02,-5.15861e+00,-3.58648e+01,1.81929e+00,1.04959e+00,2.57191e+00
4.26200e+02,-4.34650e+00,-3.26044e+01,1.86870e+00,1.06007e+00,2.61978e+00
4.26200e+02,-3.52744e+00,-2.93439e+01,1.91730e+00,1.07051e+00,2.66721e+00
4.26200e+02,-2.69763e+00,-2.60835e+01,1.96463e+00,1.08092e+00,2.71383e+00
4.26200e+02,-1.86603e+00,-2.28231e+01,2.01175e+00,1.09127e+00,2.76039e+00
4.26200e+02,-1.02802e+00,-1.95626e+01,2.05812e+00,1.10159e+00,2.80648e+00
4.26200e+02,-1.90083e-01,-1.63022e+01,2.10449e+00,1.11184e+00,2.85263e+00
4.26200e+02,6.44682e-01,-1.30417e+01,2.15124e+00,1.12205e+00,2.89911e+00
4.26200e+02,1.47945e+00,-9.78131e+00,2.19799e+00,1.13220e+00,2.94564e+00
4.26200e+02,2.29445e+00,-6.52087e+00,2.24706e+00,1.14231e+00,2.99398e+00
4.26200e+02,3.10576e+00,-3.26044e+00,2.29656e+00,1.15237e+00,3.04271e+00
5.30600e+02,4.10127e+01,0.00000e+00,-1.78734e+00,1.07812e+00,2.58488e+00
5.30600e+02,4.08062e+01,-3.11654e+00,-1.88811e+00,1.06925e+00,2.64479e+00
5.30600e+02,4.05314e+01,-6.23307e+00,-1.98186e+00,1.06018e+00,2.70179e+00
5.30600e+02,4.02539e+01,-9.34961e+00,-2.07532e+00,1.05089e+00,2.76045e+00
5.30600e+02,3.99161e+01,-1.24661e+01,-2.16257e+00,1.04142e+00,2.81610e+00
5.30600e+02,3.95644e+01,-1.55827e+01,-2.24839e+00,1.03177e+00,2.87209e+00
5.30600e+02,3.91664e+01,-1.86992e+01,-2.32944e+00,1.02196e+00,2.92567e+00
5.30600e+02,3.87460e+01,-2.18158e+01,-2.40818e+00,1.01201e+00,2.97856e+00
5.30600e+02,3.82884e+01,-2.49323e+01,-2.48309e+00,1.00192e+00,3.02940e+00
5.30600e+02,3.78003e+01,-2.80488e+01,-2.55486e+00,9.91708e-01,3.07860e+00
5.30600e+02,3.72787e+01,-3.11654e+01,-2.62317e+00,9.81389e-01,3.12576e+00
5.30600e+02,3.67164e+01,-3.42819e+01,-2.68730e+00,9.70978e-01,3.17017e+00
5.30600e+02,3.61125e+01,-3.73984e+01,-2.74713e+00,9.60485e-01,3.21159e+00
5.30600e+02,3.54497e+01,-4.05150e+01,-2.80090e+00,9.49931e-01,3.24841e+00
5.30600e+02,3.47295e+01,-4.36315e+01,-2.84876e+00,9.39335e-01,3.28062e+00
5.30600e+02,3.39406e+01,-4.67480e+01,-2.88955e+00,9.28713e-01,3.30712e+00
5.30600e+02,3.30589e+01,-4.98646e+01,-2.92076e+00,9.18103e-01,3.32560e+00
5.30600e+02,3.21125e+01,-5.29811e+01,-2.94532e+00,9.07512e-01,3.33851e+00
5.30600e+02,3.10206e+01,-5.60976e+01,-2.95489e+00,8.96996e-01,3.33844e+00
5.30600e+02,2.98685e+01,-5.92142e+01,-2.95825e+00,8.86581e-01,3.33307e+00
5.30600e+02,2.85484e+01,-6.23307e+01,-2.94431e+00,8.76293e-01,3.31249e+00
5.30600e+02,2.70936e+01,-6.54473e+01,-2.91649e+00,8.66218e-01,3.27978e+00
5.30600e+02,2.55018e+01,-6.85638e+01,-2.87457e+00,8.56372e-01,3.23470e+00
5.30600e+02,2.36801e+01,-7.16803e+01,-2.80895e+00,8.46794e-01,3.16882e+00
5.30600e+02,2.15920e+01,-7.47969e+01,-2.71590e+00,8.37597e-01,3.07909e+00
5.30600e+02,1.92028e+01,-7.79134e+01,-2.59183e+00,8.28894e-01,2.96290e+00
5.30600e+02,1.63770e+01,-8.10299e+01,-2.42277e+00,8.20756e-01,2.80905e+00
5.30600e+02,1.27498e+01,-8.41465e+01,-2.17117e+00,8.13582e-01,2.58838e+00
5.30600e+02,7.84413e+00,-8.72630e+01,-1.78786e+00,8.09201e-01,2.27175e+00
5.30600e+02,-3.17838e+00,-9.03795e+01,-7.74427e-01,8.10940e-01,1.60393e+00
5.30600e+02,-3.97388e+00,-9.03868e+01,-6.92762e-01,8.16336e-01,1.57453e+00
5.30600e+02,-1.12214e+01,-8.71587e+01,1.80262e-01,8.26569e-01,1.44296e+00
5.30600e+02,-1.20989e+01,-8.39306e+01,3.97076e-01,8.34128e-01,1.49832e+00
5.30600e+02,-1.24018e+01,-8.07025e+01,5.54687e-01,8.42083e-01,1.56044e+00
5.30600e+02,-1.24477e+01,-7.74744e+01,6.85839e-01,8.50405e-01,1.62479e+00
5.30600e+02,-1.23001e+01,-7.42463e+01,7.97055e-01,8.59032e-01,1.68793e+00
5.30600e+02,-1.20311e+01,-7.10182e+01,8.95761e-01,8.67910e-01,1.74991e+00
5.30600e+02,-1.16402e+01,-6.77901e+01,9.81906e-01,8.76990e-01,1.80872e+00
5.30600e+02,-1.11748e+01,-6.45620e+01,1.06039e+00,8.86227e-01,1.86564e+00
5.30600e+02,-1.06664e+01,-6.13339e+01,1.13443e+00,8.95596e-01,1.92177e+00
5.30600e+02,-1.00929e+01,-5.81058e+01,1.20177e+00,9.05072e-01,1.97528e+00
5.30600e+02,-9.47882e+00,-5.48777e+01,1.26493e+00,9.14629e-01,2.02723e+00
5.30600e+02,-8.82518e+00,-5.16496e+01,1.32401e+00,9.24249e-01,2.07743e+00
5.30600e+02,-8.13212e+00,-4.84215e+01,1.37903e+00,9.33911e-01,2.12563e+00
5.30600e+02,-7.41437e+00,-4.51934e+01,1.43151e+00,9.43598e-01,2.17264e+00
5.30600e+02,-6.66496e+00,-4.19653e+01,1.48073e+00,9.53296e-01,2.21785e+00
5.30600e+02,-5.89529e+00,-3.87372e+01,1.52786e+00,9.62990e-01,2.26195e+00
5.30600e+02,-5.10745e+00,-3.55091e+01,1.57312e+00,9.72669e-01,2.30499e+00
5.30600e+02,-4.30339e+00,-3.22810e+01,1.61671e+00,9.82323e-01,2.34704e+00
5.30600e+02,-3.49245e+00,-2.90529e+01,1.65959e+00,9.91946e-01,2.38874e+00
5.30600e+02,-2.67088e+00,-2.58248e+01,1.70137e+00,1.00153e+00,2.42978e+00
5.30600e+02,-1.84753e+00,-2.25967e+01,1.74297e+00,1.01107e+00,2.47078e+00
5.30600e+02,-1.01782e+00,-1.93686e+01,1.78392e+00,1.02057e+00,2.51139e+00
5.30600e+02,-1.88198e-01,-1.61405e+01,1.82487e+00,1.03002e+00,2.55206e+00
5.30600e+02,6.38288e-01,-1.29124e+01,1.86615e+00,1.03943e+00,2.59302e+00
5.30600e+02,1.46477e+00,-9.68430e+00,1.90743e+00,1.04878e+00,2.63403e+00
5.30600e+02,2.27169e+00,-6.45620e+00,1.95072e+00,1.05809e+00,2.67656e+00
5.30600e+02,3.07496e+00,-3.22810e+00,1.99439e+00,1.06736e+00,2.71944e+00
6.33500e+02,4.06078e+01,0.00000e+00,-1.53790e+00,9.92790e-01,2.30695e+00
6.33500e+02,4.04033e+01,-3.08576e+00,-1.62523e+00,9.84667e-01,2.35586e+00
6.33500e+02,4.01312e+01,-6.17153e+00,-1.70651e+00,9.76347e-01,2.40249e+00
6.33500e+02,3.98564e+01,-9.25729e+00,-1.78755e+00,9.67837e-01,2.45060e+00
6.33500e+02,3.95220e+01,-1.23431e+01,-1.86325e+00,9.59155e-01,2.49632e+00
6.33500e+02,3.91738e+01,-1.54288e+01,-1.93770e+00,9.50312e-01,2.54244e+00
6.33500e+02,3.87797e+01,-1.85146e+01,-2.00806e+00,9.41321e-01,2.58661e+00
6.33500e+02,3.83634e+01,-2.16004e+01,-2.07643e+00,9.32196e-01,2.63031e+00
6.33500e+02,3.79104e+01,-2.46861e+01,-2.14150e+00,9.22947e-01,2.67236e+00
6.33500e+02,3.74271e+01,-2.77719e+01,-2.20387e+00,9.13588e-01,2.71311e+00
6.33500e+02,3.69106e+01,-3.08576e+01,-2.26326e+00,9.04131e-01,2.75222e+00
6.33500e+02,3.63539e+01,-3.39434e+01,-2.31905e+00,8.94587e-01,2.78906e+00
6.33500e+02,3.57559e+01,-3.70292e+01,-2.37114e+00,8.84970e-01,2.82345e+00
6.33500e+02,3.50997e+01,-4.01149e+01,-2.41802e+00,8.75296e-01,2.85399e+00
6.33500e+02,3.43866e+01,-4.32007e+01,-2.45980e+00,8.65584e-01,2.88068e+00
6.33500e+02,3.36055e+01,-4.62865e+01,-2.49550e+00,8.55848e-01,2.90258e+00
6.33500e+02,3.27325e+01,-4.93722e+01,-2.52297e+00,8.46123e-01,2.91773e+00
6.33500e+02,3.17954e+01,-5.24580e+01,-2.54470e+00,8.36415e-01,2.92818e+00
6.33500e+02,3.07144e+01,-5.55438e+01,-2.55353e+00,8.26777e-01,2.92766e+00
6.33500e+02,2.95736e+01,-5.86295e+01,-2.55701e+00,8.17231e-01,2.92265e+00
6.33500e+02,2.82665e+01,-6.17153e+01,-2.54560e+00,8.07801e-01,2.90478e+00
6.33500e+02,2.68261e+01,-6.48011e+01,-2.52226e+00,7.98566e-01,2.87661e+00
6.33500e+02,2.52500e+01,-6.78868e+01,-2.48676e+00,7.89542e-01,2.83798e+00
6.33500e+02,2.34463e+01,-7.09726e+01,-2.43088e+00,7.80762e-01,2.78171e+00
6.33500e+02,2.13788e+01,-7.40584e+01,-2.35137e+00,7.72333e-01,2.70526e+00
6.33500e+02,1.90132e+01,-7.71441e+01,-2.24517e+00,7.64356e-01,2.60644e+00
6.33500e+02,1.62153e+01,-8.02299e+01,-2.10025e+00,7.56897e-01,2.47583e+00
6.33500e+02,1.26239e+01,-8.33156e+01,-1.88428e+00,7.50322e-01,2.28899e+00
6.33500e+02,7.76668e+00,-8.64014e+01,-1.55494e+00,7.46306e-01,2.02207e+00
6.33500e+02,-3.14700e+00,-8.94872e+01,-6.83235e-01,7.47901e-01,1.46454e+00
6.33500e+02,-3.93464e+00,-8.94943e+01,-6.12944e-01,7.52847e-01,1.44085e+00
6.33500e+02,-1.11106e+01,-8.62981e+01,1.39116e-01,7.62226e-01,1.32752e+00
6.33500e+02,-1.19795e+01,-8.31019e+01,3.26351e-01,7.69155e-01,1.37161e+00
6.33500e+02,-1.22793e+01,-7.99057e+01,4.62628e-01,7.76446e-01,1.42219e+00
6.33500e+02,-1.23248e+01,-7.67094e+01,5.76129e-01,7.84075e-01,1.47521e+00
6.33500e+02,-1.21787e+01,-7.35132e+01,6.72471e-01,7.91981e-01,1.52772e+00
6.33500e+02,-1.19123e+01,-7.03170e+01,7.58046e-01,8.00119e-01,1.57962e+00
6.33500e+02,-1.15252e+01,-6.71208e+01,8.32808e-01,8.08442e-01,1.62920e+00
6.33500e+02,-1.10645e+01,-6.39245e+01,9.00975e-01,8.16908e-01,1.67743e+00
6.33500e+02,-1.05611e+01,-6.07283e+01,9.65316e-01,8.25495e-01,1.72516e+00
6.33500e+02,-9.99326e+00,-5.75321e+01,1.02389e+00,8.34181e-01,1.77086e+00
6.33500e+02,-9.38524e+00,-5.43358e+01,1.07887e+00,8.42941e-01,1.81538e+00
6.33500e+02,-8.73804e+00,-5.11396e+01,1.13034e+00,8.51758e-01,1.85853e+00
6.33500e+02,-8.05183e+00,-4.79434e+01,1.17832e+00,8.60614e-01,1.90010e+00
6.33500e+02,-7.34116e+00,-4.47472e+01,1.22410e+00,8.69493e-01,1.94074e+00
6.33500e+02,-6.59916e+00,-4.15509e+01,1.26708e+00,8.78381e-01,1.97994e+00
6.33500e+02,-5.83709e+00,-3.83547e+01,1.30826e+00,8.87267e-01,2.01823e+00
6.33500e+02,-5.05702e+00,-3.51585e+01,1.34783e+00,8.96139e-01,2.05568e+00
6.33500e+02,-4.26090e+00,-3.19623e+01,1.38596e+00,9.04987e-01,2.09234e+00
6.33500e+02,-3.45797e+00,-2.87660e+01,1.42348e+00,9.13807e-01,2.12872e+00
6.33500e+02,-2.64450e+00,-2.55698e+01,1.46006e+00,9.22592e-01,2.16456e+00
6.33500e+02,-1.82928e+00,-2.23736e+01,1.49648e+00,9.31338e-01,2.20037e+00
6.33500e+02,-1.00777e+00,-1.91774e+01,1.53234e+00,9.40045e-01,2.23587e+00
6.33500e+02,-1.86340e-01,-1.59811e+01,1.56821e+00,9.48707e-01,2.27143e+00
6.33500e+02,6.31986e-01,-1.27849e+01,1.60435e+00,9.57326e-01,2.30724e+00
6.33500e+02,1.45031e+00,-9.58868e+00,1.64049e+00,9.65899e-01,2.34310e+00
6.33500e+02,2.24926e+00,-6.39245e+00,1.67837e+00,9.74430e-01,2.38023e+00
6.33500e+02,3.04460e+00,-3.19623e+00,1.71658e+00,9.82925e-01,2.41765e+00
7.34700e+02,4.02095e+01,0.00000e+00,-1.31030e+00,9.08296e-01,2.04741e+00
7.34700e+02,4.00070e+01,-3.05550e+00,-1.38527e+00,9.00892e-01,2.08657e+00
7.34700e+02,3.97376e+01,-6.11100e+00,-1.45508e+00,8.93308e-01,2.12397e+00
7.34700e+02,3.94656e+01,-9.16651e+00,-1.52468e+00,8.85551e-01,2.16269e+00
7.34700e+02,3.91344e+01,-1.22220e+01,-1.58973e+00,8.77637e-01,2.19954e+00
7.34700e+02,3.87896e+01,-1.52775e+01,-1.65372e+00,8.69576e-01,2.23680e+00
7.34700e+02,3.83994e+01,-1.83330e+01,-1.71422e+00,8.61381e-01,2.27255e+00
7.34700e+02,3.79872e+01,-2.13885e+01,-1.77303e+00,8.53063e-01,2.30798e+00
7.34700e+02,3.75386e+01,-2.44440e+01,-1.82902e+00,8.44632e-01,2.34212e+00
7.34700e+02,3.70601e+01,-2.74995e+01,-1.88271e+00,8.36101e-01,2.37525e+00
7.34700e+02,3.65486e+01,-3.05550e+01,-1.93386e+00,8.27481e-01,2.40707e+00
7.34700e+02,3.59973e+01,-3.36105e+01,-1.98194e+00,8.18782e-01,2.43707e+00
7.34700e+02,3.54053e+01,-3.66660e+01,-2.02688e+00,8.10016e-01,2.46508e+00
7.34700e+02,3.47554e+01,-3.97215e+01,-2.06736e+00,8.01197e-01,2.48993e+00
7.34700e+02,3.40493e+01,-4.27770e+01,-2.10351e+00,7.92345e-01,2.51161e+00
7.34700e+02,3.32760e+01,-4.58325e+01,-2.13447e+00,7.83470e-01,2.52932e+00
7.34700e+02,3.24115e+01,-4.88880e+01,-2.15841e+00,7.74606e-01,2.54141e+00
7.34700e+02,3.14836e+01,-5.19435e+01,-2.17746e+00,7.65757e-01,2.54961e+00
7.34700e+02,3.04131e+01,-5.49990e+01,-2.18552e+00,7.56972e-01,2.54863e+00
7.34700e+02,2.92835e+01,-5.80545e+01,-2.18902e+00,7.48270e-01,2.54392e+00
7.34700e+02,2.79893e+01,-6.11100e+01,-2.17983e+00,7.39675e-01,2.52844e+00
7.34700e+02,2.65630e+01,-6.41655e+01,-2.16046e+00,7.31257e-01,2.50436e+00
7.34700e+02,2.50024e+01,-6.72210e+01,-2.13074e+00,7.23032e-01,2.47151e+00
7.34700e+02,2.32164e+01,-7.02765e+01,-2.08364e+00,7.15029e-01,2.42391e+00
7.34700e+02,2.11691e+01,-7.33320e+01,-2.01640e+00,7.07346e-01,2.35943e+00
7.34700e+02,1.88268e+01,-7.63875e+01,-1.92641e+00,7.00074e-01,2.27627e+00
7.34700e+02,1.60563e+01,-7.94430e+01,-1.80343e+00,6.93276e-01,2.16662e+00
7.34700e+02,1.25001e+01,-8.24985e+01,-1.61987e+00,6.87283e-01,2.01024e+00
7.34700e+02,7.69051e+00,-8.55540e+01,-1.33970e+00,6.83623e-01,1.78797e+00
7.34700e+02,-3.11614e+00,-8.86096e+01,-5.97242e-01,6.85076e-01,1.32841e+00
7.34700e+02,-3.89606e+00,-8.86166e+01,-5.37331e-01,6.89585e-01,1.30970e+00
7.34700e+02,-1.10017e+01,-8.54518e+01,1.04229e-01,6.98134e-01,1.21369e+00
7.34700e+02,-1.18620e+01,-8.22869e+01,2.64366e-01,7.04450e-01,1.24845e+00
7.34700e+02,-1.21589e+01,-7.91220e+01,3.81070e-01,7.11096e-01,1.28926e+00
7.34700e+02,-1.22039e+01,-7.59571e+01,4.78362e-01,7.18050e-01,1.33252e+00
7.34700e+02,-1.20592e+01,-7.27922e+01,5.61029e-01,7.25257e-01,1.37577e+00
7.34700e+02,-1.17955e+01,-6.96274e+01,6.34517e-01,7.32674e-01,1.41882e+00
7.34700e+02,-1.14122e+01,-6.64625e+01,6.98790e-01,7.40261e-01,1.46023e+00
7.34700e+02,-1.09560e+01,-6.32976e+01,7.57442e-01,7.47977e-01,1.50071e+00
7.34700e+02,-1.04575e+01,-6.01327e+01,8.12833e-01,7.55805e-01,1.54092e+00
7.34700e+02,-9.89525e+00,-5.69678e+01,8.63312e-01,7.63722e-01,1.57960e+00
7.34700e+02,-9.29319e+00,-5.38030e+01,9.10721e-01,7.71707e-01,1.61741e+00
7.34700e+02,-8.65235e+00,-5.06381e+01,9.55140e-01,7.79744e-01,1.65417e+00
7.34700e+02,-7.97287e+00,-4.74732e+01,9.96581e-01,7.87816e-01,1.68971e+00
7.34700e+02,-7.26917e+00,-4.43083e+01,1.03615e+00,7.95909e-01,1.72454e+00
7.34700e+02,-6.53444e+00,-4.11434e+01,1.07334e+00,8.04011e-01,1.75822e+00
7.34700e+02,-5.77984e+00,-3.79786e+01,1.10899e+00,8.12110e-01,1.79121e+00
7.34700e+02,-5.00742e+00,-3.48137e+01,1.14326e+00,8.20197e-01,1.82352e+00
7.34700e+02,-4.21911e+00,-3.16488e+01,1.17632e+00,8.28262e-01,1.85520e+00
7.34700e+02,-3.42406e+00,-2.84839e+01,1.20885e+00,8.36301e-01,1.88667e+00
7.34700e+02,-2.61857e+00,-2.53190e+01,1.24058e+00,8.44308e-01,1.91771e+00
7.34700e+02,-1.81134e+00,-2.21542e+01,1.27217e+00,8.52281e-01,1.94873e+00
7.34700e+02,-9.97887e-01,-1.89893e+01,1.30328e+00,8.60216e-01,1.97951e+00
7.34700e+02,-1.84513e-01,-1.58244e+01,1.33440e+00,8.68112e-01,2.01034e+00
7.34700e+02,6.25788e-01,-1.26595e+01,1.36576e+00,8.75968e-01,2.04139e+00
7.34700e+02,1.43609e+00,-9.49464e+00,1.39712e+00,8.83782e-01,2.07247e+00
7.34700e+02,2.22720e+00,-6.32976e+00,1.42995e+00,8.91558e-01,2.10461e+00
7.34700e+02,3.01474e+00,-3.16488e+00,1.46306e+00,8.99301e-01,2.13700e+00
8.33800e+02,3.98196e+01,0.00000e+00,-1.10473e+00,8.25093e-01,1.80631e+00
8.33800e+02,3.96190e+01,-3.02587e+00,-1.16843e+00,8.18383e-01,1.83697e+00
8.33800e+02,3.93522e+01,-6.05173e+00,-1.22778e+00,8.11510e-01,1.86630e+00
8.33800e+02,3.90828e+01,-9.07760e+00,-1.28696e+00,8.04481e-01,1.89679e+00
8.33800e+02,3.87549e+01,-1.21035e+01,-1.34229e+00,7.97309e-01,1.92584e+00
8.33800e+02,3.84134e+01,-1.51293e+01,-1.39674e+00,7.90004e-01,1.95530e+00
8.33800e+02,3.80270e+01,-1.81552e+01,-1.44824e+00,7.82578e-01,1.98360e+00
8.33800e+02,3.76188e+01,-2.11811e+01,-1.49830e+00,7.75040e-01,2.01171e+00
8.33800e+02,3.71745e+01,-2.42069e+01,-1.54600e+00,7.67400e-01,2.03883e+00
8.33800e+02,3.67006e+01,-2.72328e+01,-1.59176e+00,7.59669e-01,2.06518e+00
8.33800e+02,3.61941e+01,-3.02587e+01,-1.63537e+00,7.51857e-01,2.09053e+00
8.33800e+02,3.56482e+01,-3.32845e+01,-1.67640e+00,7.43974e-01,2.11443e+00
8.33800e+02,3.50619e+01,-3.63104e+01,-1.71477e+00,7.36030e-01,2.13674e+00
8.33800e+02,3.44183e+01,-3.93363e+01,-1.74938e+00,7.28039e-01,2.15649e+00
8.33800e+02,3.37191e+01,-4.23621e+01,-1.78034e+00,7.20017e-01,2.17368e+00
8.33800e+02,3.29532e+01,-4.53880e+01,-1.80692e+00,7.11975e-01,2.18762e+00
8.33800e+02,3.20971e+01,-4.84139e+01,-1.82758e+00,7.03942e-01,2.19697e+00
8.33800e+02,3.11783e+01,-5.14397e+01,-1.84412e+00,6.95923e-01,2.20311e+00
8.33800e+02,3.01182e+01,-5.44656e+01,-1.85139e+00,6.87962e-01,2.20171e+00
8.33800e+02,2.89995e+01,-5.74915e+01,-1.85481e+00,6.80077e-01,2.19723e+00
8.33800e+02,2.77178e+01,-6.05173e+01,-1.84752e+00,6.72287e-01,2.18386e+00
8.33800e+02,2.63054e+01,-6.35432e+01,-1.83166e+00,6.64659e-01,2.16340e+00
8.33800e+02,2.47599e+01,-6.65691e+01,-1.80706e+00,6.57205e-01,2.13570e+00
8.33800e+02,2.29912e+01,-6.95949e+01,-1.76780e+00,6.49953e-01,2.09581e+00
8.33800e+02,2.09638e+01,-7.26208e+01,-1.71155e+00,6.42991e-01,2.04199e+00
8.33800e+02,1.86442e+01,-7.56467e+01,-1.63612e+00,6.36402e-01,1.97279e+00
8.33800e+02,1.59005e+01,-7.86725e+01,-1.53285e+00,6.30241e-01,1.88182e+00
8.33800e+02,1.23789e+01,-8.16984e+01,-1.37850e+00,6.24810e-01,1.75255e+00
8.33800e+02,7.61592e+00,-8.47243e+01,-1.14265e+00,6.21494e-01,1.56985e+00
8.33800e+02,-3.08591e+00,-8.77501e+01,-5.16878e-01,6.22811e-01,1.19618e+00
8.33800e+02,-3.85827e+00,-8.77572e+01,-4.66346e-01,6.26897e-01,1.18173e+00
8.33800e+02,-1.08950e+01,-8.46230e+01,7.52767e-02,6.34644e-01,1.10181e+00
8.33800e+02,-1.17470e+01,-8.14888e+01,2.10834e-01,6.40368e-01,1.12901e+00
8.33800e+02,-1.20409e+01,-7.83546e+01,3.09756e-01,6.46390e-01,1.16164e+00
8.33800e+02,-1.20856e+01,-7.52204e+01,3.92304e-01,6.52692e-01,1.19663e+00
8.33800e+02,-1.19423e+01,-7.20862e+01,4.62516e-01,6.59223e-01,1.23193e+00
8.33800e+02,-1.16811e+01,-6.89521e+01,5.24988e-01,6.65945e-01,1.26730e+00
8.33800e+02,-1.13015e+01,-6.58179e+01,5.79686e-01,6.72819e-01,1.30157e+00
8.33800e+02,-1.08497e+01,-6.26837e+01,6.29642e-01,6.79812e-01,1.33525e+00
8.33800e+02,-1.03561e+01,-5.95495e+01,6.76849e-01,6.86906e-01,1.36881e+00
8.33800e+02,-9.79928e+00,-5.64153e+01,7.19912e-01,6.94080e-01,1.40125e+00
8.33800e+02,-9.20306e+00,-5.32811e+01,7.60385e-01,7.01316e-01,1.43308e+00
8.33800e+02,-8.56843e+00,-5.01469e+01,7.98337e-01,7.08599e-01,1.46413e+00
8.33800e+02,-7.89554e+00,-4.70128e+01,8.33777e-01,7.15914e-01,1.49425e+00
8.33800e+02,-7.19866e+00,-4.38786e+01,8.67642e-01,7.23247e-01,1.52383e+00
8.33800e+02,-6.47106e+00,-4.07444e+01,8.99490e-01,7.30590e-01,1.55254e+00
8.33800e+02,-5.72378e+00,-3.76102e+01,9.30046e-01,7.37929e-01,1.58070e+00
8.33800e+02,-4.95886e+00,-3.44760e+01,9.59443e-01,7.45257e-01,1.60834e+00
8.33800e+02,-4.17819e+00,-3.13418e+01,9.87807e-01,7.52566e-01,1.63549e+00
8.33800e+02,-3.39085e+00,-2.82077e+01,1.01573e+00,7.59851e-01,1.66248e+00
8.33800e+02,-2.59317e+00,-2.50735e+01,1.04298e+00,7.67107e-01,1.68913e+00
8.33800e+02,-1.79378e+00,-2.19393e+01,1.07011e+00,7.74331e-01,1.71578e+00
8.33800e+02,-9.88209e-01,-1.88051e+01,1.09684e+00,7.81522e-01,1.74224e+00
8.33800e+02,-1.82723e-01,-1.56709e+01,1.12358e+00,7.88677e-01,1.76874e+00
8.33800e+02,6.19718e-01,-1.25367e+01,1.15051e+00,7.95796e-01,1.79542e+00
8.33800e+02,1.42216e+00,-9.40255e+00,1.17744e+00,8.02877e-01,1.82214e+00
8.33800e+02,2.20560e+00,-6.26837e+00,1.20563e+00,8.09923e-01,1.84972e+00
8.33800e+02,2.98550e+00,-3.13418e+00,1.23404e+00,8.16940e-01,1.87751e+00
9.30700e+02,3.94382e+01,0.00000e+00,-9.20515e-01,7.43224e-01,1.58256e+00
9.30700e+02,3.92396e+01,-2.99689e+00,-9.74027e-01,7.37185e-01,1.60594e+00
9.30700e+02,3.89754e+01,-5.99378e+00,-1.02391e+00,7.30998e-01,1.62833e+00
9.30700e+02,3.87085e+01,-8.99067e+00,-1.07366e+00,7.24671e-01,1.65172e+00
9.30700e+02,3.83837e+01,-1.19876e+01,-1.12020e+00,7.18215e-01,1.67402e+00
9.30700e+02,3.80455e+01,-1.49844e+01,-1.16599e+00,7.11640e-01,1.69671e+00
9.30700e+02,3.76628e+01,-1.79813e+01,-1.20933e+00,7.04955e-01,1.71854e+00
9.30700e+02,3.72585e+01,-2.09782e+01,-1.25148e+00,6.98170e-01,1.74027e+00
9.30700e+02,3.68185e+01,-2.39751e+01,-1.29165e+00,6.91293e-01,1.76126e+00
9.30700e+02,3.63492e+01,-2.69720e+01,-1.33020e+00,6.84335e-01,1.78168e+00
9.30700e+02,3.58475e+01,-2.99689e+01,-1.36697e+00,6.77303e-01,1.80134e+00
9.30700e+02,3.53068e+01,-3.29658e+01,-1.40158e+00,6.70207e-01,1.81988e+00
9.30700e+02,3.47261e+01,-3.59627e+01,-1.43397e+00,6.63057e-01,1.83718e+00
9.30700e+02,3.40887e+01,-3.89596e+01,-1.46324e+00,6.55864e-01,1.85244e+00
9.30700e+02,3.33962e+01,-4.19565e+01,-1.48946e+00,6.48643e-01,1.86566e+00
9.30700e+02,3.26376e+01,-4.49533e+01,-1.51203e+00,6.41404e-01,1.87628e+00
9.30700e+02,3.17897e+01,-4.79502e+01,-1.52966e+00,6.34174e-01,1.88318e+00
9.30700e+02,3.08797e+01,-5.09471e+01,-1.54385e+00,6.26956e-01,1.88751e+00
9.30700e+02,2.98297e+01,-5.39440e+01,-1.55032e+00,6.19790e-01,1.88571e+00
9.30700e+02,2.87218e+01,-5.69409e+01,-1.55358e+00,6.12692e-01,1.88143e+00
9.30700e+02,2.74524e+01,-5.99378e+01,-1.54791e+00,6.05681e-01,1.86992e+00
9.30700e+02,2.60534e+01,-6.29347e+01,-1.53510e+00,5.98815e-01,1.85263e+00
9.30700e+02,2.45228e+01,-6.59316e+01,-1.51500e+00,5.92106e-01,1.82947e+00
9.30700e+02,2.27710e+01,-6.89285e+01,-1.48268e+00,5.85578e-01,1.79639e+00
9.30700e+02,2.07631e+01,-7.19254e+01,-1.43620e+00,5.79311e-01,1.75199e+00
9.30700e+02,1.84656e+01,-7.49222e+01,-1.37372e+00,5.73381e-01,1.69511e+00
9.30700e+02,1.57483e+01,-7.79191e+01,-1.28804e+00,5.67835e-01,1.62061e+00
9.30700e+02,1.22603e+01,-8.09160e+01,-1.15978e+00,5.62947e-01,1.51519e+00
9.30700e+02,7.54299e+00,-8.39129e+01,-9.63572e-01,5.59962e-01,1.36717e+00
9.30700e+02,-3.05636e+00,-8.69098e+01,-4.42308e-01,5.61148e-01,1.06785e+00
9.30700e+02,-3.82132e+00,-8.69168e+01,-4.00183e-01,5.64826e-01,1.05699e+00
9.30700e+02,-1.07906e+01,-8.38126e+01,5.17605e-02,5.71800e-01,9.91738e-01
9.30700e+02,-1.16345e+01,-8.07084e+01,1.65190e-01,5.76951e-01,1.01287e+00
9.30700e+02,-1.19256e+01,-7.76042e+01,2.48079e-01,5.82372e-01,1.03876e+00
9.30700e+02,-1.19698e+01,-7.45001e+01,3.17318e-01,5.88044e-01,1.06681e+00
9.30700e+02,-1.18279e+01,-7.13959e+01,3.76273e-01,5.93923e-01,1.09536e+00
9.30700e+02,-1.15692e+01,-6.82917e+01,4.28775e-01,5.99974e-01,1.12417e+00
9.30700e+02,-1.11933e+01,-6.51876e+01,4.74797e-01,6.06161e-01,1.15227e+00
9.30700e+02,-1.07458e+01,-6.20834e+01,5.16866e-01,6.12456e-01,1.18002e+00
9.30700e+02,-1.02569e+01,-5.89792e+01,5.56642e-01,6.18841e-01,1.20778e+00
9.30700e+02,-9.70544e+00,-5.58751e+01,5.92965e-01,6.25298e-01,1.23475e+00
9.30700e+02,-9.11493e+00,-5.27709e+01,6.27129e-01,6.31811e-01,1.26129e+00
9.30700e+02,-8.48637e+00,-4.96667e+01,6.59190e-01,6.38367e-01,1.28727e+00
9.30700e+02,-7.81993e+00,-4.65625e+01,6.89158e-01,6.44951e-01,1.31256e+00
9.30700e+02,-7.12973e+00,-4.34584e+01,7.17812e-01,6.51552e-01,1.33747e+00
9.30700e+02,-6.40909e+00,-4.03542e+01,7.44785e-01,6.58161e-01,1.36170e+00
9.30700e+02,-5.66897e+00,-3.72500e+01,7.70681e-01,6.64766e-01,1.38553e+00
9.30700e+02,-4.91137e+00,-3.41459e+01,7.95611e-01,6.71363e-01,1.40896e+00
9.30700e+02,-4.13818e+00,-3.10417e+01,8.19679e-01,6.77941e-01,1.43202e+00
9.30700e+02,-3.35837e+00,-2.79375e+01,8.43382e-01,6.84498e-01,1.45496e+00
9.30700e+02,-2.56834e+00,-2.48334e+01,8.66520e-01,6.91029e-01,1.47764e+00
9.30700e+02,-1.77660e+00,-2.17292e+01,8.89563e-01,6.97532e-01,1.50033e+00
9.30700e+02,-9.78745e-01,-1.86250e+01,9.12269e-01,7.04005e-01,1.52286e+00
9.30700e+02,-1.80973e-01,-1.55208e+01,9.34979e-01,7.10445e-01,1.54544e+00
9.30700e+02,6.13784e-01,-1.24167e+01,9.57855e-01,7.16852e-01,1.56816e+00
9.30700e+02,1.40854e+00,-9.31251e+00,9.80732e-01,7.23226e-01,1.59091e+00
9.30700e+02,2.18448e+00,-6.20834e+00,1.00465e+00,7.29568e-01,1.61435e+00
9.30700e+02,2.95691e+00,-3.10417e+00,1.02876e+00,7.35883e-01,1.63796e+00
1.02500e+03,3.90671e+01,0.00000e+00,-7.57316e-01,6.63251e-01,1.37595e+00
1.02500e+03,3.88704e+01,-2.96869e+00,-8.01717e-01,6.57847e-01,1.39321e+00
1.02500e+03,3.86086e+01,-5.93738e+00,-8.43133e-01,6.52312e-01,1.40975e+00
1.02500e+03,3.83443e+01,-8.90607e+00,-8.84430e-01,6.46652e-01,1.42713e+00
1.02500e+03,3.80226e+01,-1.18748e+01,-9.23091e-01,6.40877e-01,1.44370e+00
1.02500e+03,3.76875e+01,-1.48435e+01,-9.61141e-01,6.34994e-01,1.46063e+00
1.02500e+03,3.73084e+01,-1.78121e+01,-9.97168e-01,6.29014e-01,1.47693e+00
1.02500e+03,3.69079e+01,-2.07808e+01,-1.03221e+00,6.22944e-01,1.49320e+00
1.02500e+03,3.64721e+01,-2.37495e+01,-1.06563e+00,6.16792e-01,1.50893e+00
1.02500e+03,3.60071e+01,-2.67182e+01,-1.09772e+00,6.10566e-01,1.52426e+00
1.02500e+03,3.55102e+01,-2.96869e+01,-1.12834e+00,6.04275e-01,1.53902e+00
1.02500e+03,3.49746e+01,-3.26556e+01,-1.15718e+00,5.97927e-01,1.55294e+00
1.02500e+03,3.43994e+01,-3.56243e+01,-1.18420e+00,5.91531e-01,1.56590e+00
1.02500e+03,3.37680e+01,-3.85930e+01,-1.20864e+00,5.85096e-01,1.57728e+00
1.02500e+03,3.30819e+01,-4.15617e+01,-1.23057e+00,5.78636e-01,1.58706e+00
1.02500e+03,3.23305e+01,-4.45304e+01,-1.24950e+00,5.72160e-01,1.59479e+00
1.02500e+03,3.14906e+01,-4.74990e+01,-1.26437e+00,5.65691e-01,1.59957e+00
1.02500e+03,3.05891e+01,-5.04677e+01,-1.27640e+00,5.59234e-01,1.60232e+00
1.02500e+03,2.95491e+01,-5.34364e+01,-1.28208e+00,5.52823e-01,1.60018e+00
1.02500e+03,2.84516e+01,-5.64051e+01,-1.28512e+00,5.46474e-01,1.59606e+00
1.02500e+03,2.71940e+01,-5.93738e+01,-1.28081e+00,5.40202e-01,1.58616e+00
1.02500e+03,2.58083e+01,-6.23425e+01,-1.27061e+00,5.34059e-01,1.57165e+00
1.02500e+03,2.42920e+01,-6.53112e+01,-1.25441e+00,5.28057e-01,1.55244e+00
1.02500e+03,2.25567e+01,-6.82799e+01,-1.22816e+00,5.22218e-01,1.52529e+00
1.02500e+03,2.05677e+01,-7.12486e+01,-1.19026e+00,5.16611e-01,1.48909e+00
1.02500e+03,1.82919e+01,-7.42173e+01,-1.13919e+00,5.11305e-01,1.44293e+00
1.02500e+03,1.56001e+01,-7.71859e+01,-1.06901e+00,5.06345e-01,1.38273e+00
1.02500e+03,1.21450e+01,-8.01546e+01,-9.63783e-01,5.01972e-01,1.29800e+00
1.02500e+03,7.47201e+00,-8.31233e+01,-8.02632e-01,4.99301e-01,1.17988e+00
1.02500e+03,-3.02760e+00,-8.60920e+01,-3.73914e-01,5.00362e-01,9.43875e-01
1.02500e+03,-3.78536e+00,-8.60989e+01,-3.39241e-01,5.03653e-01,9.35993e-01
1.02500e+03,-1.06891e+01,-8.30239e+01,3.31358e-02,5.09892e-01,8.83780e-01
1.02500e+03,-1.15250e+01,-7.99490e+01,1.26869e-01,5.14501e-01,9.00127e-01
1.02500e+03,-1.18134e+01,-7.68740e+01,1.95463e-01,5.19350e-01,9.20533e-01
1.02500e+03,-1.18572e+01,-7.37991e+01,2.52821e-01,5.24425e-01,9.42859e-01
1.02500e+03,-1.17166e+01,-7.07241e+01,3.01715e-01,5.29684e-01,9.65778e-01
1.02500e+03,-1.14604e+01,-6.76491e+01,3.45296e-01,5.35097e-01,9.89048e-01
1.02500e+03,-1.10880e+01,-6.45742e+01,3.83544e-01,5.40632e-01,1.01191e+00
1.02500e+03,-1.06447e+01,-6.14992e+01,4.18538e-01,5.46263e-01,1.03459e+00
1.02500e+03,-1.01604e+01,-5.84243e+01,4.51644e-01,5.51975e-01,1.05736e+00
1.02500e+03,-9.61411e+00,-5.53493e+01,4.81908e-01,5.57753e-01,1.07958e+00
1.02500e+03,-9.02916e+00,-5.22743e+01,5.10395e-01,5.63579e-01,1.10153e+00
1.02500e+03,-8.40652e+00,-4.91994e+01,5.37151e-01,5.69444e-01,1.12309e+00
1.02500e+03,-7.74634e+00,-4.61244e+01,5.62184e-01,5.75334e-01,1.14415e+00
1.02500e+03,-7.06264e+00,-4.30495e+01,5.86136e-01,5.81239e-01,1.16493e+00
1.02500e+03,-6.34878e+00,-3.99745e+01,6.08703e-01,5.87151e-01,1.18523e+00
1.02500e+03,-5.61563e+00,-3.68995e+01,6.30384e-01,5.93061e-01,1.20522e+00
1.02500e+03,-4.86516e+00,-3.38246e+01,6.51270e-01,5.98962e-01,1.22492e+00
1.02500e+03,-4.09924e+00,-3.07496e+01,6.71447e-01,6.04847e-01,1.24433e+00
1.02500e+03,-3.32677e+00,-2.76746e+01,6.91323e-01,6.10713e-01,1.26366e+00
1.02500e+03,-2.54417e+00,-2.45997e+01,7.10734e-01,6.16555e-01,1.28280e+00
1.02500e+03,-1.75988e+00,-2.15247e+01,7.30067e-01,6.22373e-01,1.30194e+00
1.02500e+03,-9.69535e-01,-1.84498e+01,7.49122e-01,6.28163e-01,1.32097e+00
1.02500e+03,-1.79270e-01,-1.53748e+01,7.68181e-01,6.33924e-01,1.34003e+00
1.02500e+03,6.08008e-01,-1.22998e+01,7.87376e-01,6.39656e-01,1.35921e+00
1.02500e+03,1.39529e+00,-9.22488e+00,8.06572e-01,6.45358e-01,1.37841e+00
1.02500e+03,2.16392e+00,-6.14992e+00,8.26624e-01,6.51032e-01,1.39815e+00
1.02500e+03,2.92908e+00,-3.07496e+00,8.46836e-01,6.56681e-01,1.41803e+00
1.11650e+03,3.87070e+01,0.00000e+00,-6.14303e-01,5.85128e-01,1.18511e+00
1.11650e+03,3.85121e+01,-2.94133e+00,-6.50641e-01,5.80340e-01,1.19738e+00
1.11650e+03,3.82528e+01,-5.88266e+00,-6.84557e-01,5.75435e-01,1.20913e+00
1.11650e+03,3.79909e+01,-8.82398e+00,-7.18376e-01,5.70418e-01,1.22155e+00
1.11650e+03,3.76721e+01,-1.17653e+01,-7.50056e-01,5.65300e-01,1.23340e+00
1.11650e+03,3.73401e+01,-1.47066e+01,-7.81240e-01,5.60087e-01,1.24556e+00
1.11650e+03,3.69645e+01,-1.76480e+01,-8.10782e-01,5.54787e-01,1.25727e+00
1.11650e+03,3.65678e+01,-2.05893e+01,-8.39527e-01,5.49407e-01,1.26900e+00
1.11650e+03,3.61359e+01,-2.35306e+01,-8.66954e-01,5.43955e-01,1.28034e+00
1.11650e+03,3.56753e+01,-2.64720e+01,-8.93297e-01,5.38438e-01,1.29140e+00
1.11650e+03,3.51829e+01,-2.94133e+01,-9.18448e-01,5.32863e-01,1.30207e+00
1.11650e+03,3.46522e+01,-3.23546e+01,-9.42156e-01,5.27238e-01,1.31210e+00
1.11650e+03,3.40823e+01,-3.52959e+01,-9.64387e-01,5.21568e-01,1.32142e+00
1.11650e+03,3.34567e+01,-3.82373e+01,-9.84527e-01,5.15866e-01,1.32953e+00
1.11650e+03,3.27770e+01,-4.11786e+01,-1.00263e+00,5.10141e-01,1.33641e+00
1.11650e+03,3.20325e+01,-4.41199e+01,-1.01829e+00,5.04402e-01,1.34171e+00
1.11650e+03,3.12004e+01,-4.70612e+01,-1.03066e+00,4.98669e-01,1.34472e+00
1.11650e+03,3.03072e+01,-5.00026e+01,-1.04073e+00,4.92947e-01,1.34615e+00
1.11650e+03,2.92767e+01,-5.29439e+01,-1.04564e+00,4.87266e-01,1.34374e+00
1.11650e+03,2.81893e+01,-5.58852e+01,-1.04841e+00,4.81639e-01,1.33981e+00
1.11650e+03,2.69434e+01,-5.88266e+01,-1.04521e+00,4.76080e-01,1.33132e+00
1.11650e+03,2.55704e+01,-6.17679e+01,-1.03723e+00,4.70637e-01,1.31922e+00
1.11650e+03,2.40681e+01,-6.47092e+01,-1.02439e+00,4.65318e-01,1.30344e+00
1.11650e+03,2.23488e+01,-6.76505e+01,-1.00339e+00,4.60143e-01,1.28140e+00
1.11650e+03,2.03781e+01,-7.05919e+01,-9.72927e-01,4.55174e-01,1.25225e+00
1.11650e+03,1.81233e+01,-7.35332e+01,-9.31777e-01,4.50472e-01,1.21531e+00
1.11650e+03,1.54563e+01,-7.64745e+01,-8.75123e-01,4.46076e-01,1.16739e+00
1.11650e+03,1.20330e+01,-7.94159e+01,-7.90020e-01,4.42201e-01,1.10034e+00
1.11650e+03,7.40314e+00,-8.23572e+01,-6.59527e-01,4.39835e-01,1.00764e+00
1.11650e+03,-2.99970e+00,-8.52985e+01,-3.11870e-01,4.40775e-01,8.24689e-01
1.11650e+03,-3.75047e+00,-8.53053e+01,-2.83729e-01,4.43691e-01,8.19199e-01
1.11650e+03,-1.05906e+01,-8.22587e+01,1.88128e-02,4.49220e-01,7.78300e-01
1.11650e+03,-1.14188e+01,-7.92121e+01,9.52012e-02,4.53305e-01,7.90897e-01
1.11650e+03,-1.17045e+01,-7.61655e+01,1.51186e-01,4.57603e-01,8.06882e-01
1.11650e+03,-1.17479e+01,-7.31189e+01,1.98052e-01,4.62100e-01,8.24520e-01
1.11650e+03,-1.16086e+01,-7.00722e+01,2.38048e-01,4.66760e-01,8.42770e-01
1.11650e+03,-1.13547e+01,-6.70256e+01,2.73732e-01,4.71557e-01,8.61410e-01
1.11650e+03,-1.09858e+01,-6.39790e+01,3.05087e-01,4.76463e-01,8.79846e-01
1.11650e+03,-1.05466e+01,-6.09324e+01,3.33801e-01,4.81453e-01,8.98229e-01
1.11650e+03,-1.00667e+01,-5.78858e+01,3.60984e-01,4.86515e-01,9.16734e-01
1.11650e+03,-9.52550e+00,-5.48391e+01,3.85859e-01,4.91635e-01,9.34881e-01
1.11650e+03,-8.94594e+00,-5.17925e+01,4.09292e-01,4.96798e-01,9.52862e-01
1.11650e+03,-8.32904e+00,-4.87459e+01,4.31320e-01,5.01996e-01,9.70586e-01
1.11650e+03,-7.67495e+00,-4.56993e+01,4.51949e-01,5.07215e-01,9.87958e-01
1.11650e+03,-6.99754e+00,-4.26527e+01,4.71702e-01,5.12449e-01,1.00514e+00
1.11650e+03,-6.29027e+00,-3.96060e+01,4.90331e-01,5.17688e-01,1.02197e+00
1.11650e+03,-5.56387e+00,-3.65594e+01,5.08240e-01,5.22925e-01,1.03859e+00
1.11650e+03,-4.82031e+00,-3.35128e+01,5.25504e-01,5.28154e-01,1.05499e+00
1.11650e+03,-4.06146e+00,-3.04662e+01,5.42192e-01,5.33370e-01,1.07118e+00
1.11650e+03,-3.29611e+00,-2.74196e+01,5.58637e-01,5.38568e-01,1.08731e+00
1.11650e+03,-2.52072e+00,-2.43730e+01,5.74703e-01,5.43746e-01,1.10330e+00
1.11650e+03,-1.74366e+00,-2.13263e+01,5.90707e-01,5.48901e-01,1.11929e+00
1.11650e+03,-9.60599e-01,-1.82797e+01,6.06485e-01,5.54033e-01,1.13520e+00
1.11650e+03,-1.77618e-01,-1.52331e+01,6.22265e-01,5.59138e-01,1.15114e+00
1.11650e+03,6.02404e-01,-1.21865e+01,6.38158e-01,5.64218e-01,1.16716e+00
1.11650e+03,1.38243e+00,-9.13986e+00,6.54050e-01,5.69270e-01,1.18321e+00
1.11650e+03,2.14398e+00,-6.09324e+00,6.70637e-01,5.74299e-01,1.19967e+00
1.11650e+03,2.90209e+00,-3.04662e+00,6.87353e-01,5.79305e-01,1.21624e+00
1.20500e+03,3.76912e+01,0.00000e+00,-6.97923e-01,5.61981e-01,1.19773e+00
1.20500e+03,3.75014e+01,-2.86413e+00,-7.34692e-01,5.56076e-01,1.21138e+00
1.20500e+03,3.72488e+01,-5.72827e+00,-7.68694e-01,5.50027e-01,1.22412e+00
1.20500e+03,3.69938e+01,-8.59240e+00,-8.02585e-01,5.43839e-01,1.23751e+00
1.20500e+03,3.66834e+01,-1.14565e+01,-8.34033e-01,5.37526e-01,1.24997e+00
1.20500e+03,3.63602e+01,-1.43207e+01,-8.64914e-01,5.31095e-01,1.26264e+00
1.20500e+03,3.59944e+01,-1.71848e+01,-8.93920e-01,5.24557e-01,1.27459e+00
1.20500e+03,3.56080e+01,-2.00489e+01,-9.22016e-01,5.17920e-01,1.28640e+00
1.20500e+03,3.51875e+01,-2.29131e+01,-9.48605e-01,5.11193e-01,1.29762e+00
1.20500e+03,3.47390e+01,-2.57772e+01,-9.73957e-01,5.04386e-01,1.30836e+00
1.20500e+03,3.42596e+01,-2.86413e+01,-9.97948e-01,4.97506e-01,1.31850e+00
1.20500e+03,3.37428e+01,-3.15055e+01,-1.02029e+00,4.90564e-01,1.32776e+00
1.20500e+03,3.31878e+01,-3.43696e+01,-1.04095e+00,4.83568e-01,1.33607e+00
1.20500e+03,3.25787e+01,-3.72337e+01,-1.05921e+00,4.76530e-01,1.34282e+00
1.20500e+03,3.19168e+01,-4.00979e+01,-1.07515e+00,4.69464e-01,1.34801e+00
1.20500e+03,3.11919e+01,-4.29620e+01,-1.08831e+00,4.62380e-01,1.35122e+00
1.20500e+03,3.03815e+01,-4.58261e+01,-1.09770e+00,4.55304e-01,1.35161e+00
1.20500e+03,2.95118e+01,-4.86903e+01,-1.10446e+00,4.48240e-01,1.35004e+00
1.20500e+03,2.85084e+01,-5.15544e+01,-1.10533e+00,4.41226e-01,1.34380e+00
1.20500e+03,2.74495e+01,-5.44186e+01,-1.10375e+00,4.34279e-01,1.33569e+00
1.20500e+03,2.62363e+01,-5.72827e+01,-1.09537e+00,4.27417e-01,1.32207e+00
1.20500e+03,2.48993e+01,-6.01468e+01,-1.08152e+00,4.20696e-01,1.30408e+00
1.20500e+03,2.34365e+01,-6.30110e+01,-1.06211e+00,4.14127e-01,1.28164e+00
1.20500e+03,2.17623e+01,-6.58751e+01,-1.03339e+00,4.07737e-01,1.25165e+00
1.20500e+03,1.98433e+01,-6.87392e+01,-9.93855e-01,4.01601e-01,1.21309e+00
1.20500e+03,1.76476e+01,-7.16034e+01,-9.42116e-01,3.95793e-01,1.16513e+00
1.20500e+03,1.50506e+01,-7.44675e+01,-8.72668e-01,3.90362e-01,1.10395e+00
1.20500e+03,1.17172e+01,-7.73316e+01,-7.70725e-01,3.85573e-01,1.01981e+00
1.20500e+03,7.20885e+00,-8.01958e+01,-6.16939e-01,3.82644e-01,9.05463e-01
1.20500e+03,-2.92097e+00,-8.30599e+01,-2.15106e-01,3.83800e-01,6.98696e-01
1.20500e+03,-3.65204e+00,-8.30665e+01,-1.82952e-01,3.87396e-01,6.95484e-01
1.20500e+03,-1.03126e+01,-8.00999e+01,1.57707e-01,3.94218e-01,7.00781e-01
1.20500e+03,-1.11191e+01,-7.71332e+01,2.40051e-01,3.99259e-01,7.32016e-01
1.20500e+03,-1.13974e+01,-7.41666e+01,2.99091e-01,4.04563e-01,7.61886e-01
1.20500e+03,-1.14396e+01,-7.11999e+01,3.47715e-01,4.10114e-01,7.90877e-01
1.20500e+03,-1.13040e+01,-6.82332e+01,3.88491e-01,4.15868e-01,8.18391e-01
1.20500e+03,-1.10567e+01,-6.52666e+01,4.24343e-01,4.21790e-01,8.44860e-01
1.20500e+03,-1.06975e+01,-6.22999e+01,4.55250e-01,4.27847e-01,8.69720e-01
1.20500e+03,-1.02698e+01,-5.93332e+01,4.83141e-01,4.34008e-01,8.93597e-01
1.20500e+03,-9.80253e+00,-5.63666e+01,5.09283e-01,4.40259e-01,9.16981e-01
1.20500e+03,-9.27551e+00,-5.33999e+01,5.32788e-01,4.46582e-01,9.39238e-01
1.20500e+03,-8.71115e+00,-5.04333e+01,5.54647e-01,4.52958e-01,9.60805e-01
1.20500e+03,-8.11045e+00,-4.74666e+01,5.74901e-01,4.59377e-01,9.81628e-01
1.20500e+03,-7.47352e+00,-4.44999e+01,5.93558e-01,4.65824e-01,1.00164e+00
1.20500e+03,-6.81389e+00,-4.15333e+01,6.11212e-01,4.72288e-01,1.02115e+00
1.20500e+03,-6.12518e+00,-3.85666e+01,6.27583e-01,4.78760e-01,1.03995e+00
1.20500e+03,-5.41785e+00,-3.55999e+01,6.43133e-01,4.85230e-01,1.05828e+00
1.20500e+03,-4.69381e+00,-3.26333e+01,6.57945e-01,4.91691e-01,1.07618e+00
1.20500e+03,-3.95486e+00,-2.96666e+01,6.72100e-01,4.98135e-01,1.09368e+00
1.20500e+03,-3.20961e+00,-2.67000e+01,6.85976e-01,5.04558e-01,1.11099e+00
1.20500e+03,-2.45457e+00,-2.37333e+01,6.99421e-01,5.10956e-01,1.12801e+00
1.20500e+03,-1.69790e+00,-2.07666e+01,7.12793e-01,5.17327e-01,1.14497e+00
1.20500e+03,-9.35389e-01,-1.78000e+01,7.25908e-01,5.23668e-01,1.16173e+00
1.20500e+03,-1.72956e-01,-1.48333e+01,7.39027e-01,5.29978e-01,1.17847e+00
1.20500e+03,5.86594e-01,-1.18666e+01,7.52272e-01,5.36257e-01,1.19525e+00
1.20500e+03,1.34615e+00,-8.89999e+00,7.65517e-01,5.42503e-01,1.21200e+00
1.20500e+03,2.08771e+00,-5.93332e+00,7.79557e-01,5.48719e-01,1.22922e+00
1.20500e+03,2.82592e+00,-2.96666e+00,7.93744e-01,5.54908e-01,1.24651e+00
1.29010e+03,3.63234e+01,0.00000e+00,-5.66954e-01,5.07437e-01,1.04590e+00
1.29010e+03,3.61405e+01,-2.76019e+00,-5.97312e-01,5.02263e-01,1.05527e+00
1.29010e+03,3.58971e+01,-5.52039e+00,-6.25421e-01,4.96962e-01,1.06398e+00
1.29010e+03,3.56513e+01,-8.28058e+00,-6.53440e-01,4.91540e-01,1.07323e+00
1.29010e+03,3.53522e+01,-1.10408e+01,-6.79475e-01,4.86008e-01,1.08180e+00
1.29010e+03,3.50407e+01,-1.38010e+01,-7.05048e-01,4.80373e-01,1.09058e+00
1.29010e+03,3.46882e+01,-1.65612e+01,-7.29098e-01,4.74643e-01,1.09884e+00
1.29010e+03,3.43158e+01,-1.93214e+01,-7.52408e-01,4.68828e-01,1.10703e+00
1.29010e+03,3.39106e+01,-2.20816e+01,-7.74495e-01,4.62933e-01,1.11479e+00
1.29010e+03,3.34783e+01,-2.48418e+01,-7.95575e-01,4.56969e-01,1.12223e+00
1.29010e+03,3.30163e+01,-2.76019e+01,-8.15549e-01,4.50940e-01,1.12923e+00
1.29010e+03,3.25183e+01,-3.03621e+01,-8.34184e-01,4.44857e-01,1.13559e+00
1.29010e+03,3.19834e+01,-3.31223e+01,-8.51449e-01,4.38727e-01,1.14123e+00
1.29010e+03,3.13964e+01,-3.58825e+01,-8.66771e-01,4.32560e-01,1.14570e+00
1.29010e+03,3.07585e+01,-3.86427e+01,-8.80203e-01,4.26369e-01,1.14897e+00
1.29010e+03,3.00599e+01,-4.14029e+01,-8.91374e-01,4.20162e-01,1.15072e+00
1.29010e+03,2.92790e+01,-4.41631e+01,-8.99482e-01,4.13962e-01,1.15029e+00
1.29010e+03,2.84408e+01,-4.69233e+01,-9.05461e-01,4.07772e-01,1.14834e+00
1.29010e+03,2.74738e+01,-4.96835e+01,-9.06646e-01,4.01627e-01,1.14277e+00
1.29010e+03,2.64534e+01,-5.24437e+01,-9.05843e-01,3.95540e-01,1.13574e+00
1.29010e+03,2.52842e+01,-5.52039e+01,-8.99506e-01,3.89527e-01,1.12441e+00
1.29010e+03,2.39957e+01,-5.79641e+01,-8.88733e-01,3.83639e-01,1.10968e+00
1.29010e+03,2.25860e+01,-6.07243e+01,-8.73444e-01,3.77884e-01,1.09146e+00
1.29010e+03,2.09725e+01,-6.34845e+01,-8.50579e-01,3.72285e-01,1.06737e+00
1.29010e+03,1.91232e+01,-6.62447e+01,-8.18936e-01,3.66908e-01,1.03659e+00
1.29010e+03,1.70072e+01,-6.90049e+01,-7.77372e-01,3.61820e-01,9.98523e-01
1.29010e+03,1.45045e+01,-7.17651e+01,-7.21418e-01,3.57062e-01,9.50223e-01
1.29010e+03,1.12920e+01,-7.45253e+01,-6.39058e-01,3.52867e-01,8.84274e-01
1.29010e+03,6.94724e+00,-7.72855e+01,-5.14570e-01,3.50301e-01,7.95560e-01
1.29010e+03,-2.81497e+00,-8.00457e+01,-1.88520e-01,3.51314e-01,6.37028e-01
1.29010e+03,-3.51951e+00,-8.00521e+01,-1.62392e-01,3.54466e-01,6.35066e-01
1.29010e+03,-9.93839e+00,-7.71931e+01,1.14924e-01,3.60444e-01,6.34796e-01
1.29010e+03,-1.07156e+01,-7.43341e+01,1.82334e-01,3.64861e-01,6.57735e-01
1.29010e+03,-1.09838e+01,-7.14751e+01,2.30807e-01,3.69509e-01,6.80354e-01
1.29010e+03,-1.10244e+01,-6.86160e+01,2.70815e-01,3.74372e-01,7.02713e-01
1.29010e+03,-1.08937e+01,-6.57570e+01,3.04447e-01,3.79414e-01,7.24260e-01
1.29010e+03,-1.06555e+01,-6.28980e+01,3.34077e-01,3.84603e-01,7.45229e-01
1.29010e+03,-1.03093e+01,-6.00390e+01,3.59689e-01,3.89910e-01,7.65157e-01
1.29010e+03,-9.89713e+00,-5.71800e+01,3.82850e-01,3.95309e-01,7.84462e-01
1.29010e+03,-9.44680e+00,-5.43210e+01,4.04589e-01,4.00785e-01,8.03479e-01
1.29010e+03,-8.93890e+00,-5.14620e+01,4.24186e-01,4.06325e-01,8.21726e-01
1.29010e+03,-8.39503e+00,-4.86030e+01,4.42445e-01,4.11912e-01,8.39507e-01
1.29010e+03,-7.81612e+00,-4.57440e+01,4.59401e-01,4.17536e-01,8.56771e-01
1.29010e+03,-7.20231e+00,-4.28850e+01,4.75057e-01,4.23184e-01,8.73461e-01
1.29010e+03,-6.56662e+00,-4.00260e+01,4.89900e-01,4.28848e-01,8.89794e-01
1.29010e+03,-5.90290e+00,-3.71670e+01,5.03700e-01,4.34518e-01,9.05611e-01
1.29010e+03,-5.22123e+00,-3.43080e+01,5.16832e-01,4.40186e-01,9.21091e-01
1.29010e+03,-4.52347e+00,-3.14490e+01,5.29365e-01,4.45847e-01,9.36251e-01
1.29010e+03,-3.81134e+00,-2.85900e+01,5.41364e-01,4.51492e-01,9.51111e-01
1.29010e+03,-3.09313e+00,-2.57310e+01,5.53137e-01,4.57120e-01,9.65834e-01
1.29010e+03,-2.36549e+00,-2.28720e+01,5.64558e-01,4.62725e-01,9.80342e-01
1.29010e+03,-1.63628e+00,-2.00130e+01,5.75921e-01,4.68307e-01,9.94796e-01
1.29010e+03,-9.01444e-01,-1.71540e+01,5.87075e-01,4.73862e-01,1.00911e+00
1.29010e+03,-1.66680e-01,-1.42950e+01,5.98232e-01,4.79390e-01,1.02339e+00
1.29010e+03,5.65307e-01,-1.14360e+01,6.09492e-01,4.84891e-01,1.03771e+00
1.29010e+03,1.29729e+00,-8.57701e+00,6.20752e-01,4.90363e-01,1.05200e+00
1.29010e+03,2.01195e+00,-5.71800e+00,6.32657e-01,4.95808e-01,1.06665e+00
1.29010e+03,2.72337e+00,-2.85900e+00,6.44682e-01,5.01231e-01,1.08135e+00
1.37170e+03,3.50118e+01,0.00000e+00,-4.51418e-01,4.52966e-01,9.05160e-01
1.37170e+03,3.48355e+01,-2.66053e+00,-4.76007e-01,4.48486e-01,9.11044e-01
1.37170e+03,3.46009e+01,-5.32106e+00,-4.98805e-01,4.43896e-01,9.16481e-01
1.37170e+03,3.43640e+01,-7.98159e+00,-5.21531e-01,4.39202e-01,9.22328e-01
1.37170e+03,3.40757e+01,-1.06421e+01,-5.42676e-01,4.34412e-01,9.27706e-01
1.37170e+03,3.37754e+01,-1.33027e+01,-5.63455e-01,4.29533e-01,9.33261e-01
1.37170e+03,3.34357e+01,-1.59632e+01,-5.83019e-01,4.24572e-01,9.38454e-01
1.37170e+03,3.30768e+01,-1.86237e+01,-6.01994e-01,4.19537e-01,9.43626e-01
1.37170e+03,3.26861e+01,-2.12842e+01,-6.19995e-01,4.14433e-01,9.48503e-01
1.37170e+03,3.22695e+01,-2.39448e+01,-6.37194e-01,4.09269e-01,9.53163e-01
1.37170e+03,3.18241e+01,-2.66053e+01,-6.53512e-01,4.04050e-01,9.57521e-01
1.37170e+03,3.13441e+01,-2.92658e+01,-6.68763e-01,3.98783e-01,9.61420e-01
1.37170e+03,3.08286e+01,-3.19264e+01,-6.82923e-01,3.93476e-01,9.64807e-01
1.37170e+03,3.02627e+01,-3.45869e+01,-6.95536e-01,3.88137e-01,9.67326e-01
1.37170e+03,2.96479e+01,-3.72474e+01,-7.06642e-01,3.82777e-01,9.68967e-01
1.37170e+03,2.89745e+01,-3.99080e+01,-7.15948e-01,3.77403e-01,9.69474e-01
1.37170e+03,2.82218e+01,-4.25685e+01,-7.22815e-01,3.72035e-01,9.68344e-01
1.37170e+03,2.74139e+01,-4.52290e+01,-7.27985e-01,3.66677e-01,9.66083e-01
1.37170e+03,2.64818e+01,-4.78895e+01,-7.29336e-01,3.61356e-01,9.61076e-01
1.37170e+03,2.54982e+01,-5.05501e+01,-7.29105e-01,3.56087e-01,9.54980e-01
1.37170e+03,2.43712e+01,-5.32106e+01,-7.24465e-01,3.50881e-01,9.45623e-01
1.37170e+03,2.31293e+01,-5.58711e+01,-7.16291e-01,3.45783e-01,9.33687e-01
1.37170e+03,2.17704e+01,-5.85317e+01,-7.04522e-01,3.40801e-01,9.19123e-01
1.37170e+03,2.02153e+01,-6.11922e+01,-6.86717e-01,3.35953e-01,9.00097e-01
1.37170e+03,1.84327e+01,-6.38527e+01,-6.61919e-01,3.31299e-01,8.76022e-01
1.37170e+03,1.63931e+01,-6.65133e+01,-6.29220e-01,3.26895e-01,8.46462e-01
1.37170e+03,1.39807e+01,-6.91738e+01,-5.85059e-01,3.22776e-01,8.09226e-01
1.37170e+03,1.08843e+01,-7.18343e+01,-5.19864e-01,3.19144e-01,7.58826e-01
1.37170e+03,6.69639e+00,-7.44949e+01,-4.21113e-01,3.16924e-01,6.91851e-01
1.37170e+03,-2.71333e+00,-7.71554e+01,-1.61810e-01,3.17801e-01,5.73738e-01
1.37170e+03,-3.39243e+00,-7.71616e+01,-1.41000e-01,3.20530e-01,5.72799e-01
1.37170e+03,-9.57954e+00,-7.44058e+01,8.03154e-02,3.25706e-01,5.69827e-01
1.37170e+03,-1.03287e+01,-7.16500e+01,1.34432e-01,3.29530e-01,5.86380e-01
1.37170e+03,-1.05872e+01,-6.88942e+01,1.73465e-01,3.33554e-01,6.03212e-01
1.37170e+03,-1.06264e+01,-6.61385e+01,2.05755e-01,3.37765e-01,6.20154e-01
1.37170e+03,-1.05004e+01,-6.33827e+01,2.32967e-01,3.42130e-01,6.36735e-01
1.37170e+03,-1.02708e+01,-6.06269e+01,2.56991e-01,3.46622e-01,6.53058e-01
1.37170e+03,-9.93701e+00,-5.78712e+01,2.77814e-01,3.51217e-01,6.68760e-01
1.37170e+03,-9.53977e+00,-5.51154e+01,2.96685e-01,3.55891e-01,6.84102e-01
1.37170e+03,-9.10569e+00,-5.23596e+01,3.14423e-01,3.60632e-01,6.99306e-01
1.37170e+03,-8.61613e+00,-4.96039e+01,3.30456e-01,3.65428e-01,7.14012e-01
1.37170e+03,-8.09190e+00,-4.68481e+01,3.45422e-01,3.70265e-01,7.28426e-01
1.37170e+03,-7.53389e+00,-4.40923e+01,3.59350e-01,3.75133e-01,7.42501e-01
1.37170e+03,-6.94225e+00,-4.13365e+01,3.72244e-01,3.80023e-01,7.56187e-01
1.37170e+03,-6.32951e+00,-3.85808e+01,3.84489e-01,3.84926e-01,7.69634e-01
1.37170e+03,-5.68976e+00,-3.58250e+01,3.95903e-01,3.89835e-01,7.82722e-01
1.37170e+03,-5.03271e+00,-3.30692e+01,4.06786e-01,3.94742e-01,7.95575e-01
1.37170e+03,-4.36014e+00,-3.03135e+01,4.17192e-01,3.99642e-01,8.08202e-01
1.37170e+03,-3.67372e+00,-2.75577e+01,4.27172e-01,4.04530e-01,8.20615e-01
1.37170e+03,-2.98144e+00,-2.48019e+01,4.36971e-01,4.09401e-01,8.32929e-01
1.37170e+03,-2.28008e+00,-2.20462e+01,4.46492e-01,4.14253e-01,8.45087e-01
1.37170e+03,-1.57720e+00,-1.92904e+01,4.55965e-01,4.19085e-01,8.57205e-01
1.37170e+03,-8.68894e-01,-1.65346e+01,4.65272e-01,4.23894e-01,8.69217e-01
1.37170e+03,-1.60661e-01,-1.37788e+01,4.74581e-01,4.28680e-01,8.81207e-01
1.37170e+03,5.44895e-01,-1.10231e+01,4.83973e-01,4.33442e-01,8.93221e-01
1.37170e+03,1.25045e+00,-8.26731e+00,4.93364e-01,4.38178e-01,9.05211e-01
1.37170e+03,1.93930e+00,-5.51154e+00,5.03269e-01,4.42892e-01,9.17463e-01
1.37170e+03,2.62503e+00,-2.75577e+00,5.13270e-01,4.47585e-01,9.29755e-01
1.44960e+03,3.37597e+01,0.00000e+00,-3.51234e-01,3.97923e-01,7.73560e-01
1.44960e+03,3.35897e+01,-2.56538e+00,-3.70716e-01,3.94094e-01,7.76762e-01
1.44960e+03,3.33635e+01,-5.13077e+00,-3.88803e-01,3.90170e-01,7.79658e-01
1.44960e+03,3.31351e+01,-7.69615e+00,-4.06835e-01,3.86158e-01,7.82859e-01
1.44960e+03,3.28571e+01,-1.02615e+01,-4.23636e-01,3.82064e-01,7.85739e-01
1.44960e+03,3.25675e+01,-1.28269e+01,-4.40151e-01,3.77893e-01,7.88761e-01
1.44960e+03,3.22399e+01,-1.53923e+01,-4.55722e-01,3.73653e-01,7.91538e-01
1.44960e+03,3.18939e+01,-1.79577e+01,-4.70833e-01,3.69350e-01,7.94318e-01
1.44960e+03,3.15172e+01,-2.05231e+01,-4.85186e-01,3.64988e-01,7.96902e-01
1.44960e+03,3.11155e+01,-2.30885e+01,-4.98915e-01,3.60573e-01,7.99347e-01
1.44960e+03,3.06860e+01,-2.56538e+01,-5.11959e-01,3.56113e-01,8.01592e-01
1.44960e+03,3.02232e+01,-2.82192e+01,-5.24172e-01,3.51611e-01,8.03522e-01
1.44960e+03,2.97261e+01,-3.07846e+01,-5.35535e-01,3.47075e-01,8.05096e-01
1.44960e+03,2.91805e+01,-3.33500e+01,-5.45694e-01,3.42511e-01,8.06054e-01
1.44960e+03,2.85877e+01,-3.59154e+01,-5.54680e-01,3.37930e-01,8.06387e-01
1.44960e+03,2.79383e+01,-3.84808e+01,-5.62264e-01,3.33337e-01,8.05905e-01
1.44960e+03,2.72125e+01,-4.10462e+01,-5.67950e-01,3.28749e-01,8.04236e-01
1.44960e+03,2.64335e+01,-4.36115e+01,-5.72315e-01,3.24170e-01,8.01750e-01
1.44960e+03,2.55347e+01,-4.61769e+01,-5.73707e-01,3.19623e-01,7.97255e-01
1.44960e+03,2.45863e+01,-4.87423e+01,-5.73868e-01,3.15119e-01,7.91975e-01
1.44960e+03,2.34997e+01,-5.13077e+01,-5.70596e-01,3.10670e-01,7.84300e-01
1.44960e+03,2.23022e+01,-5.38731e+01,-5.64573e-01,3.06313e-01,7.74742e-01
1.44960e+03,2.09919e+01,-5.64385e+01,-5.55752e-01,3.02055e-01,7.63263e-01
1.44960e+03,1.94923e+01,-5.90039e+01,-5.42231e-01,2.97912e-01,7.48511e-01
1.44960e+03,1.77735e+01,-6.15692e+01,-5.23268e-01,2.93934e-01,7.30070e-01
1.44960e+03,1.58069e+01,-6.41346e+01,-4.98153e-01,2.90170e-01,7.07638e-01
1.44960e+03,1.34808e+01,-6.67000e+01,-4.64116e-01,2.86650e-01,6.79638e-01
1.44960e+03,1.04950e+01,-6.92654e+01,-4.13704e-01,2.83546e-01,6.42143e-01
1.44960e+03,6.45692e+00,-7.18308e+01,-3.37171e-01,2.81649e-01,5.93012e-01
1.44960e+03,-2.61629e+00,-7.43962e+01,-1.35654e-01,2.82400e-01,5.07593e-01
1.44960e+03,-3.27111e+00,-7.44021e+01,-1.19455e-01,2.84732e-01,5.07432e-01
1.44960e+03,-9.23696e+00,-7.17449e+01,5.31828e-02,2.89157e-01,5.03650e-01
1.44960e+03,-9.95928e+00,-6.90877e+01,9.56632e-02,2.92425e-01,5.15450e-01
1.44960e+03,-1.02085e+01,-6.64305e+01,1.26401e-01,2.95865e-01,5.27811e-01
1.44960e+03,-1.02464e+01,-6.37732e+01,1.51890e-01,2.99464e-01,5.40469e-01
1.44960e+03,-1.01249e+01,-6.11160e+01,1.73426e-01,3.03194e-01,5.53043e-01
1.44960e+03,-9.90345e+00,-5.84588e+01,1.92480e-01,3.07034e-01,5.65560e-01
1.44960e+03,-9.58164e+00,-5.58016e+01,2.09042e-01,3.10961e-01,5.77744e-01
1.44960e+03,-9.19861e+00,-5.31444e+01,2.24085e-01,3.14955e-01,5.89750e-01
1.44960e+03,-8.78006e+00,-5.04872e+01,2.38246e-01,3.19008e-01,6.01713e-01
1.44960e+03,-8.30801e+00,-4.78299e+01,2.51079e-01,3.23106e-01,6.13379e-01
1.44960e+03,-7.80252e+00,-4.51727e+01,2.63083e-01,3.27240e-01,6.24877e-01
1.44960e+03,-7.26447e+00,-4.25155e+01,2.74278e-01,3.31401e-01,6.36167e-01
1.44960e+03,-6.69398e+00,-3.98583e+01,2.84667e-01,3.35580e-01,6.47208e-01
1.44960e+03,-6.10316e+00,-3.72011e+01,2.94552e-01,3.39771e-01,6.58098e-01
1.44960e+03,-5.48628e+00,-3.45438e+01,3.03790e-01,3.43966e-01,6.68750e-01
1.44960e+03,-4.85273e+00,-3.18866e+01,3.12615e-01,3.48160e-01,6.79245e-01
1.44960e+03,-4.20421e+00,-2.92294e+01,3.21068e-01,3.52347e-01,6.89587e-01
1.44960e+03,-3.54234e+00,-2.65722e+01,3.29189e-01,3.56524e-01,6.99781e-01
1.44960e+03,-2.87482e+00,-2.39150e+01,3.37170e-01,3.60687e-01,7.09908e-01
1.44960e+03,-2.19854e+00,-2.12577e+01,3.44934e-01,3.64834e-01,7.19924e-01
1.44960e+03,-1.52080e+00,-1.86005e+01,3.52661e-01,3.68963e-01,7.29912e-01
1.44960e+03,-8.37821e-01,-1.59433e+01,3.60259e-01,3.73073e-01,7.39822e-01
1.44960e+03,-1.54916e-01,-1.32861e+01,3.67858e-01,3.77162e-01,7.49716e-01
1.44960e+03,5.25408e-01,-1.06289e+01,3.75521e-01,3.81232e-01,7.59624e-01
1.44960e+03,1.20573e+00,-7.97166e+00,3.83184e-01,3.85279e-01,7.69513e-01
1.44960e+03,1.86995e+00,-5.31444e+00,3.91248e-01,3.89307e-01,7.79587e-01
1.44960e+03,2.53116e+00,-2.65722e+00,3.99385e-01,3.93318e-01,7.89688e-01
1.52340e+03,3.25736e+01,0.00000e+00,-2.66358e-01,3.44162e-01,6.52909e-01
1.52340e+03,3.24095e+01,-2.47525e+00,-2.81417e-01,3.40944e-01,6.54159e-01
1.52340e+03,3.21913e+01,-4.95049e+00,-2.95419e-01,3.37647e-01,6.55201e-01
1.52340e+03,3.19709e+01,-7.42574e+00,-3.09378e-01,3.34275e-01,6.56455e-01
1.52340e+03,3.17026e+01,-9.90099e+00,-3.22402e-01,3.30834e-01,6.57493e-01
1.52340e+03,3.14232e+01,-1.23762e+01,-3.35211e-01,3.27330e-01,6.58635e-01
1.52340e+03,3.11072e+01,-1.48515e+01,-3.47302e-01,3.23766e-01,6.59615e-01
1.52340e+03,3.07733e+01,-1.73267e+01,-3.59045e-01,3.20150e-01,6.60606e-01
1.52340e+03,3.04098e+01,-1.98020e+01,-3.70212e-01,3.16484e-01,6.61471e-01
1.52340e+03,3.00222e+01,-2.22772e+01,-3.80906e-01,3.12775e-01,6.62249e-01
1.52340e+03,2.96079e+01,-2.47525e+01,-3.91080e-01,3.09026e-01,6.62899e-01
1.52340e+03,2.91613e+01,-2.72277e+01,-4.00623e-01,3.05243e-01,6.63340e-01
1.52340e+03,2.86816e+01,-2.97030e+01,-4.09522e-01,3.01431e-01,6.63544e-01
1.52340e+03,2.81552e+01,-3.21782e+01,-4.17506e-01,2.97597e-01,6.63327e-01
1.52340e+03,2.75832e+01,-3.46535e+01,-4.24602e-01,2.93747e-01,6.62683e-01
1.52340e+03,2.69567e+01,-3.71287e+01,-4.30633e-01,2.89888e-01,6.61475e-01
1.52340e+03,2.62564e+01,-3.96040e+01,-4.35223e-01,2.86032e-01,6.59441e-01
1.52340e+03,2.55047e+01,-4.20792e+01,-4.38811e-01,2.82184e-01,6.56840e-01
1.52340e+03,2.46375e+01,-4.45544e+01,-4.40144e-01,2.78363e-01,6.52828e-01
1.52340e+03,2.37225e+01,-4.70297e+01,-4.40542e-01,2.74579e-01,6.48272e-01
1.52340e+03,2.26740e+01,-4.95049e+01,-4.38335e-01,2.70840e-01,6.42029e-01
1.52340e+03,2.15185e+01,-5.19802e+01,-4.34041e-01,2.67179e-01,6.34464e-01
1.52340e+03,2.02543e+01,-5.44554e+01,-4.27622e-01,2.63601e-01,6.25554e-01
1.52340e+03,1.88075e+01,-5.69307e+01,-4.17639e-01,2.60120e-01,6.14337e-01
1.52340e+03,1.71490e+01,-5.94059e+01,-4.03525e-01,2.56778e-01,6.00531e-01
1.52340e+03,1.52515e+01,-6.18812e+01,-3.84743e-01,2.53615e-01,5.83943e-01
1.52340e+03,1.30071e+01,-6.43564e+01,-3.59191e-01,2.50657e-01,5.63476e-01
1.52340e+03,1.01263e+01,-6.68317e+01,-3.21214e-01,2.48050e-01,5.36437e-01
1.52340e+03,6.23005e+00,-6.93069e+01,-2.63414e-01,2.46456e-01,5.01607e-01
1.52340e+03,-2.52437e+00,-7.17822e+01,-1.10774e-01,2.47087e-01,4.42072e-01
1.52340e+03,-3.15618e+00,-7.17879e+01,-9.84827e-02,2.49048e-01,4.42462e-01
1.52340e+03,-8.91241e+00,-6.92241e+01,3.28046e-02,2.52765e-01,4.39030e-01
1.52340e+03,-9.60935e+00,-6.66602e+01,6.53255e-02,2.55512e-01,4.47355e-01
1.52340e+03,-9.84985e+00,-6.40963e+01,8.89359e-02,2.58403e-01,4.56317e-01
1.52340e+03,-9.88634e+00,-6.15325e+01,1.08564e-01,2.61427e-01,4.65637e-01
1.52340e+03,-9.76914e+00,-5.89686e+01,1.25191e-01,2.64562e-01,4.75028e-01
1.52340e+03,-9.55548e+00,-5.64048e+01,1.39936e-01,2.67788e-01,4.84472e-01
1.52340e+03,-9.24498e+00,-5.38409e+01,1.52790e-01,2.71088e-01,4.93772e-01
1.52340e+03,-8.87540e+00,-5.12771e+01,1.64490e-01,2.74444e-01,5.03007e-01
1.52340e+03,-8.47156e+00,-4.87132e+01,1.75522e-01,2.77850e-01,5.12259e-01
1.52340e+03,-8.01609e+00,-4.61494e+01,1.85546e-01,2.81294e-01,5.21350e-01
1.52340e+03,-7.52837e+00,-4.35855e+01,1.94940e-01,2.84767e-01,5.30357e-01
1.52340e+03,-7.00922e+00,-4.10217e+01,2.03721e-01,2.88264e-01,5.39249e-01
1.52340e+03,-6.45878e+00,-3.84578e+01,2.11891e-01,2.91775e-01,5.47993e-01
1.52340e+03,-5.88872e+00,-3.58940e+01,2.19677e-01,2.95296e-01,5.56649e-01
1.52340e+03,-5.29352e+00,-3.33301e+01,2.26973e-01,2.98821e-01,5.65154e-01
1.52340e+03,-4.68222e+00,-3.07662e+01,2.33955e-01,3.02345e-01,5.73561e-01
1.52340e+03,-4.05649e+00,-2.82024e+01,2.40655e-01,3.05864e-01,5.81870e-01
1.52340e+03,-3.41788e+00,-2.56385e+01,2.47104e-01,3.09373e-01,5.90081e-01
1.52340e+03,-2.77381e+00,-2.30747e+01,2.53446e-01,3.12871e-01,5.98247e-01
1.52340e+03,-2.12129e+00,-2.05108e+01,2.59623e-01,3.16355e-01,6.06338e-01
1.52340e+03,-1.46736e+00,-1.79470e+01,2.65773e-01,3.19825e-01,6.14409e-01
1.52340e+03,-8.08383e-01,-1.53831e+01,2.71824e-01,3.23278e-01,6.22426e-01
1.52340e+03,-1.49473e-01,-1.28193e+01,2.77876e-01,3.26714e-01,6.30429e-01
1.52340e+03,5.06948e-01,-1.02554e+01,2.83977e-01,3.30133e-01,6.38440e-01
1.52340e+03,1.16337e+00,-7.69156e+00,2.90078e-01,3.33534e-01,6.46436e-01
1.52340e+03,1.80424e+00,-5.12771e+00,2.96482e-01,3.36918e-01,6.54556e-01
1.52340e+03,2.44222e+00,-2.56385e+00,3.02943e-01,3.40288e-01,6.62693e-01
1.59310e+03,3.14533e+01,0.00000e+00,-1.96060e-01,2.92002e-01,5.42434e-01
1.59310e+03,3.12949e+01,-2.39012e+00,-2.07371e-01,2.89350e-01,5.42376e-01
1.59310e+03,3.10841e+01,-4.78023e+00,-2.17902e-01,2.86633e-01,5.42178e-01
1.59310e+03,3.08713e+01,-7.17035e+00,-2.28403e-01,2.83854e-01,5.42114e-01
1.59310e+03,3.06123e+01,-9.56047e+00,-2.38215e-01,2.81019e-01,5.41906e-01
1.59310e+03,3.03425e+01,-1.19506e+01,-2.47868e-01,2.78131e-01,5.41766e-01
1.59310e+03,3.00373e+01,-1.43407e+01,-2.56993e-01,2.75195e-01,5.41519e-01
1.59310e+03,2.97149e+01,-1.67308e+01,-2.65861e-01,2.72215e-01,5.41282e-01
1.59310e+03,2.93640e+01,-1.91209e+01,-2.74305e-01,2.69195e-01,5.40963e-01
1.59310e+03,2.89896e+01,-2.15111e+01,-2.82400e-01,2.66139e-01,5.40592e-01
1.59310e+03,2.85896e+01,-2.39012e+01,-2.90112e-01,2.63050e-01,5.40140e-01
1.59310e+03,2.81583e+01,-2.62913e+01,-2.97360e-01,2.59933e-01,5.39554e-01
1.59310e+03,2.76952e+01,-2.86814e+01,-3.04133e-01,2.56792e-01,5.38817e-01
1.59310e+03,2.71869e+01,-3.10715e+01,-3.10233e-01,2.53633e-01,5.37804e-01
1.59310e+03,2.66345e+01,-3.34616e+01,-3.15677e-01,2.50461e-01,5.36511e-01
1.59310e+03,2.60296e+01,-3.58518e+01,-3.20338e-01,2.47281e-01,5.34845e-01
1.59310e+03,2.53533e+01,-3.82419e+01,-3.23937e-01,2.44104e-01,5.32631e-01
1.59310e+03,2.46276e+01,-4.06320e+01,-3.26798e-01,2.40934e-01,5.30041e-01
1.59310e+03,2.37902e+01,-4.30221e+01,-3.27997e-01,2.37786e-01,5.26506e-01
1.59310e+03,2.29066e+01,-4.54122e+01,-3.28508e-01,2.34667e-01,5.22613e-01
1.59310e+03,2.18941e+01,-4.78023e+01,-3.27100e-01,2.31587e-01,5.17583e-01
1.59310e+03,2.07785e+01,-5.01925e+01,-3.24155e-01,2.28571e-01,5.11674e-01
1.59310e+03,1.95577e+01,-5.25826e+01,-3.19645e-01,2.25623e-01,5.04866e-01
1.59310e+03,1.81606e+01,-5.49727e+01,-3.12508e-01,2.22755e-01,4.96509e-01
1.59310e+03,1.65592e+01,-5.73628e+01,-3.02329e-01,2.20001e-01,4.86420e-01
1.59310e+03,1.47269e+01,-5.97529e+01,-2.88712e-01,2.17395e-01,4.74486e-01
1.59310e+03,1.25597e+01,-6.21430e+01,-2.70107e-01,2.14959e-01,4.59978e-01
1.59310e+03,9.77800e+00,-6.45332e+01,-2.42349e-01,2.12810e-01,4.41133e-01
1.59310e+03,6.01578e+00,-6.69233e+01,-1.99990e-01,2.11498e-01,4.17361e-01
1.59310e+03,-2.43755e+00,-6.93134e+01,-8.77674e-02,2.12018e-01,3.77569e-01
1.59310e+03,-3.04763e+00,-6.93189e+01,-7.87134e-02,2.13634e-01,3.78304e-01
1.59310e+03,-8.60589e+00,-6.68433e+01,1.82233e-02,2.16697e-01,3.75773e-01
1.59310e+03,-9.27886e+00,-6.43676e+01,4.24050e-02,2.18960e-01,3.81614e-01
1.59310e+03,-9.51109e+00,-6.18919e+01,6.00229e-02,2.21342e-01,3.88046e-01
1.59310e+03,-9.54632e+00,-5.94162e+01,7.47071e-02,2.23834e-01,3.94824e-01
1.59310e+03,-9.43315e+00,-5.69406e+01,8.71811e-02,2.26417e-01,4.01739e-01
1.59310e+03,-9.22684e+00,-5.44649e+01,9.82680e-02,2.29075e-01,4.08758e-01
1.59310e+03,-8.92702e+00,-5.19892e+01,1.07962e-01,2.31794e-01,4.15741e-01
1.59310e+03,-8.57016e+00,-4.95135e+01,1.16807e-01,2.34559e-01,4.22727e-01
1.59310e+03,-8.18020e+00,-4.70379e+01,1.25159e-01,2.37365e-01,4.29757e-01
1.59310e+03,-7.74040e+00,-4.45622e+01,1.32769e-01,2.40203e-01,4.36714e-01
1.59310e+03,-7.26945e+00,-4.20865e+01,1.39914e-01,2.43064e-01,4.43641e-01
1.59310e+03,-6.76816e+00,-3.96108e+01,1.46608e-01,2.45945e-01,4.50512e-01
1.59310e+03,-6.23665e+00,-3.71351e+01,1.52852e-01,2.48838e-01,4.57302e-01
1.59310e+03,-5.68619e+00,-3.46595e+01,1.58814e-01,2.51739e-01,4.64047e-01
1.59310e+03,-5.11146e+00,-3.21838e+01,1.64414e-01,2.54644e-01,4.70704e-01
1.59310e+03,-4.52119e+00,-2.97081e+01,1.69782e-01,2.57547e-01,4.77302e-01
1.59310e+03,-3.91698e+00,-2.72324e+01,1.74944e-01,2.60446e-01,4.83840e-01
1.59310e+03,-3.30033e+00,-2.47568e+01,1.79919e-01,2.63337e-01,4.90316e-01
1.59310e+03,-2.67841e+00,-2.22811e+01,1.84817e-01,2.66219e-01,4.96764e-01
1.59310e+03,-2.04833e+00,-1.98054e+01,1.89593e-01,2.69089e-01,5.03163e-01
1.59310e+03,-1.41689e+00,-1.73297e+01,1.94348e-01,2.71948e-01,5.09546e-01
1.59310e+03,-7.80581e-01,-1.48541e+01,1.99031e-01,2.74793e-01,5.15894e-01
1.59310e+03,-1.44332e-01,-1.23784e+01,2.03715e-01,2.77623e-01,5.22230e-01
1.59310e+03,4.89512e-01,-9.90271e+00,2.08435e-01,2.80440e-01,5.28569e-01
1.59310e+03,1.12336e+00,-7.42703e+00,2.13155e-01,2.83241e-01,5.34895e-01
1.59310e+03,1.74219e+00,-4.95135e+00,2.18098e-01,2.86030e-01,5.41300e-01
1.59310e+03,2.35823e+00,-2.47568e+00,2.23083e-01,2.88806e-01,5.47716e-01
1.65850e+03,3.04021e+01,0.00000e+00,-1.39461e-01,2.42431e-01,4.42457e-01
1.65850e+03,3.02490e+01,-2.31024e+00,-1.47679e-01,2.40291e-01,4.41621e-01
1.65850e+03,3.00453e+01,-4.62048e+00,-1.55343e-01,2.38100e-01,4.40688e-01
1.65850e+03,2.98396e+01,-6.93072e+00,-1.62983e-01,2.35858e-01,4.39830e-01
1.65850e+03,2.95892e+01,-9.24096e+00,-1.70135e-01,2.33571e-01,4.38875e-01
1.65850e+03,2.93285e+01,-1.15512e+01,-1.77172e-01,2.31241e-01,4.37958e-01
1.65850e+03,2.90335e+01,-1.38614e+01,-1.83833e-01,2.28873e-01,4.36970e-01
1.65850e+03,2.87218e+01,-1.61717e+01,-1.90312e-01,2.26468e-01,4.35985e-01
1.65850e+03,2.83826e+01,-1.84819e+01,-1.96489e-01,2.24032e-01,4.34947e-01
1.65850e+03,2.80208e+01,-2.07921e+01,-2.02418e-01,2.21566e-01,4.33875e-01
1.65850e+03,2.76341e+01,-2.31024e+01,-2.08073e-01,2.19074e-01,4.32753e-01
1.65850e+03,2.72173e+01,-2.54126e+01,-2.13399e-01,2.16560e-01,4.31548e-01
1.65850e+03,2.67696e+01,-2.77229e+01,-2.18386e-01,2.14026e-01,4.30249e-01
1.65850e+03,2.62783e+01,-3.00331e+01,-2.22893e-01,2.11478e-01,4.28777e-01
1.65850e+03,2.57444e+01,-3.23433e+01,-2.26934e-01,2.08919e-01,4.27130e-01
1.65850e+03,2.51597e+01,-3.46536e+01,-2.30418e-01,2.06353e-01,4.25250e-01
1.65850e+03,2.45060e+01,-3.69638e+01,-2.33145e-01,2.03791e-01,4.23024e-01
1.65850e+03,2.38045e+01,-3.92741e+01,-2.35347e-01,2.01233e-01,4.20562e-01
1.65850e+03,2.29951e+01,-4.15843e+01,-2.36366e-01,1.98694e-01,4.17500e-01
1.65850e+03,2.21410e+01,-4.38945e+01,-2.36895e-01,1.96178e-01,4.14219e-01
1.65850e+03,2.11624e+01,-4.62048e+01,-2.36058e-01,1.93694e-01,4.10213e-01
1.65850e+03,2.00840e+01,-4.85150e+01,-2.34126e-01,1.91260e-01,4.05656e-01
1.65850e+03,1.89041e+01,-5.08253e+01,-2.31080e-01,1.88883e-01,4.00534e-01
1.65850e+03,1.75537e+01,-5.31355e+01,-2.26164e-01,1.86569e-01,3.94429e-01
1.65850e+03,1.60058e+01,-5.54457e+01,-2.19082e-01,1.84348e-01,3.87233e-01
1.65850e+03,1.42348e+01,-5.77560e+01,-2.09552e-01,1.82246e-01,3.78883e-01
1.65850e+03,1.21400e+01,-6.00662e+01,-1.96471e-01,1.80280e-01,3.68922e-01
1.65850e+03,9.45122e+00,-6.23764e+01,-1.76873e-01,1.78548e-01,3.56261e-01
1.65850e+03,5.81473e+00,-6.46867e+01,-1.46880e-01,1.77489e-01,3.40707e-01
1.65850e+03,-2.35608e+00,-6.69969e+01,-6.71472e-02,1.77909e-01,3.15379e-01
1.65850e+03,-2.94577e+00,-6.70023e+01,-6.07015e-02,1.79212e-01,3.16285e-01
1.65850e+03,-8.31828e+00,-6.46093e+01,8.48452e-03,1.81684e-01,3.14800e-01
1.65850e+03,-8.96876e+00,-6.22164e+01,2.58719e-02,1.83510e-01,3.18899e-01
1.65850e+03,-9.19322e+00,-5.98235e+01,3.85861e-02,1.85431e-01,3.23485e-01
1.65850e+03,-9.22728e+00,-5.74305e+01,4.92116e-02,1.87441e-01,3.28366e-01
1.65850e+03,-9.11789e+00,-5.50376e+01,5.82635e-02,1.89525e-01,3.33397e-01
1.65850e+03,-8.91848e+00,-5.26447e+01,6.63279e-02,1.91669e-01,3.38542e-01
1.65850e+03,-8.62868e+00,-5.02517e+01,7.34008e-02,1.93862e-01,3.43709e-01
1.65850e+03,-8.28374e+00,-4.78588e+01,7.98688e-02,1.96093e-01,3.48908e-01
1.65850e+03,-7.90682e+00,-4.54658e+01,8.59860e-02,1.98357e-01,3.54160e-01
1.65850e+03,-7.48171e+00,-4.30729e+01,9.15747e-02,2.00646e-01,3.59391e-01
1.65850e+03,-7.02650e+00,-4.06800e+01,9.68331e-02,2.02954e-01,3.64620e-01
1.65850e+03,-6.54196e+00,-3.82870e+01,1.01770e-01,2.05278e-01,3.69830e-01
1.65850e+03,-6.02822e+00,-3.58941e+01,1.06386e-01,2.07612e-01,3.75001e-01
1.65850e+03,-5.49615e+00,-3.35011e+01,1.10801e-01,2.09952e-01,3.80153e-01
1.65850e+03,-4.94063e+00,-3.11082e+01,1.14959e-01,2.12295e-01,3.85257e-01
1.65850e+03,-4.37009e+00,-2.87153e+01,1.18953e-01,2.14636e-01,3.90328e-01
1.65850e+03,-3.78607e+00,-2.63223e+01,1.22798e-01,2.16975e-01,3.95365e-01
1.65850e+03,-3.19003e+00,-2.39294e+01,1.26512e-01,2.19307e-01,4.00365e-01
1.65850e+03,-2.58890e+00,-2.15364e+01,1.30169e-01,2.21632e-01,4.05346e-01
1.65850e+03,-1.97988e+00,-1.91435e+01,1.33741e-01,2.23947e-01,4.10297e-01
1.65850e+03,-1.36954e+00,-1.67506e+01,1.37297e-01,2.26252e-01,4.15236e-01
1.65850e+03,-7.54494e-01,-1.43576e+01,1.40802e-01,2.28547e-01,4.20151e-01
1.65850e+03,-1.39508e-01,-1.19647e+01,1.44308e-01,2.30830e-01,4.25056e-01
1.65850e+03,4.73153e-01,-9.57176e+00,1.47839e-01,2.33102e-01,4.29961e-01
1.65850e+03,1.08581e+00,-7.17882e+00,1.51371e-01,2.35362e-01,4.34855e-01
1.65850e+03,1.68397e+00,-4.78588e+00,1.55061e-01,2.37611e-01,4.39797e-01
1.65850e+03,2.27942e+00,-2.39294e+00,1.58781e-01,2.39850e-01,4.44743e-01
1.71930e+03,2.94249e+01,0.00000e+00,-9.54683e-02,1.94411e-01,3.50002e-01
1.71930e+03,2.92767e+01,-2.23598e+00,-1.01218e-01,1.92732e-01,3.48830e-01
1.71930e+03,2.90795e+01,-4.47196e+00,-1.06588e-01,1.91012e-01,3.47588e-01
1.71930e+03,2.88804e+01,-6.70794e+00,-1.11942e-01,1.89253e-01,3.46383e-01
1.71930e+03,2.86381e+01,-8.94392e+00,-1.16961e-01,1.87458e-01,3.45110e-01
1.71930e+03,2.83857e+01,-1.11799e+01,-1.21902e-01,1.85630e-01,3.43853e-01
1.71930e+03,2.81002e+01,-1.34159e+01,-1.26585e-01,1.83771e-01,3.42548e-01
1.71930e+03,2.77986e+01,-1.56519e+01,-1.31143e-01,1.81884e-01,3.41239e-01
1.71930e+03,2.74703e+01,-1.78878e+01,-1.35494e-01,1.79972e-01,3.39895e-01
1.71930e+03,2.71201e+01,-2.01238e+01,-1.39675e-01,1.78037e-01,3.38528e-01
1.71930e+03,2.67458e+01,-2.23598e+01,-1.43669e-01,1.76082e-01,3.37128e-01
1.71930e+03,2.63424e+01,-2.45958e+01,-1.47436e-01,1.74109e-01,3.35677e-01
1.71930e+03,2.59091e+01,-2.68317e+01,-1.50972e-01,1.72120e-01,3.34169e-01
1.71930e+03,2.54336e+01,-2.90677e+01,-1.54179e-01,1.70120e-01,3.32557e-01
1.71930e+03,2.49169e+01,-3.13037e+01,-1.57067e-01,1.68112e-01,3.30840e-01
1.71930e+03,2.43509e+01,-3.35397e+01,-1.59572e-01,1.66099e-01,3.28984e-01
1.71930e+03,2.37183e+01,-3.57757e+01,-1.61560e-01,1.64089e-01,3.26920e-01
1.71930e+03,2.30393e+01,-3.80116e+01,-1.63187e-01,1.62081e-01,3.24717e-01
1.71930e+03,2.22560e+01,-4.02476e+01,-1.64004e-01,1.60089e-01,3.22153e-01
1.71930e+03,2.14293e+01,-4.24836e+01,-1.64485e-01,1.58115e-01,3.19462e-01
1.71930e+03,2.04822e+01,-4.47196e+01,-1.64029e-01,1.56165e-01,3.16336e-01
1.71930e+03,1.94385e+01,-4.69556e+01,-1.62824e-01,1.54256e-01,3.12884e-01
1.71930e+03,1.82964e+01,-4.91915e+01,-1.60855e-01,1.52390e-01,3.09099e-01
1.71930e+03,1.69894e+01,-5.14275e+01,-1.57605e-01,1.50575e-01,3.04725e-01
1.71930e+03,1.54913e+01,-5.36635e+01,-1.52871e-01,1.48832e-01,2.99703e-01
1.71930e+03,1.37772e+01,-5.58995e+01,-1.46459e-01,1.47182e-01,2.94003e-01
1.71930e+03,1.17498e+01,-5.81355e+01,-1.37613e-01,1.45640e-01,2.87351e-01
1.71930e+03,9.14742e+00,-6.03714e+01,-1.24303e-01,1.44280e-01,2.79109e-01
1.71930e+03,5.62782e+00,-6.26074e+01,-1.03869e-01,1.43450e-01,2.69300e-01
1.71930e+03,-2.28035e+00,-6.48434e+01,-4.93507e-02,1.43780e-01,2.53877e-01
1.71930e+03,-2.85109e+00,-6.48486e+01,-4.49341e-02,1.44803e-01,2.54799e-01
1.71930e+03,-8.05090e+00,-6.25326e+01,2.59788e-03,1.46742e-01,2.54178e-01
1.71930e+03,-8.68047e+00,-6.02165e+01,1.46352e-02,1.48175e-01,2.57063e-01
1.71930e+03,-8.89772e+00,-5.79005e+01,2.34702e-02,1.49683e-01,2.60318e-01
1.71930e+03,-8.93068e+00,-5.55845e+01,3.08739e-02,1.51260e-01,2.63803e-01
1.71930e+03,-8.82481e+00,-5.32685e+01,3.71994e-02,1.52895e-01,2.67422e-01
1.71930e+03,-8.63181e+00,-5.09525e+01,4.28482e-02,1.54578e-01,2.71144e-01
1.71930e+03,-8.35132e+00,-4.86364e+01,4.78175e-02,1.56299e-01,2.74909e-01
1.71930e+03,-8.01747e+00,-4.63204e+01,5.23724e-02,1.58050e-01,2.78715e-01
1.71930e+03,-7.65266e+00,-4.40044e+01,5.66869e-02,1.59826e-01,2.82571e-01
1.71930e+03,-7.24122e+00,-4.16884e+01,6.06392e-02,1.61622e-01,2.86430e-01
1.71930e+03,-6.80064e+00,-3.93724e+01,6.43651e-02,1.63433e-01,2.90300e-01
1.71930e+03,-6.33168e+00,-3.70563e+01,6.78707e-02,1.65257e-01,2.94170e-01
1.71930e+03,-5.83445e+00,-3.47403e+01,7.11566e-02,1.67088e-01,2.98025e-01
1.71930e+03,-5.31949e+00,-3.24243e+01,7.43050e-02,1.68924e-01,3.01873e-01
1.71930e+03,-4.78182e+00,-3.01083e+01,7.72769e-02,1.70763e-01,3.05698e-01
1.71930e+03,-4.22962e+00,-2.77922e+01,8.01359e-02,1.72600e-01,3.09507e-01
1.71930e+03,-3.66437e+00,-2.54762e+01,8.28937e-02,1.74435e-01,3.13296e-01
1.71930e+03,-3.08749e+00,-2.31602e+01,8.55611e-02,1.76265e-01,3.17063e-01
1.71930e+03,-2.50568e+00,-2.08442e+01,8.81902e-02,1.78089e-01,3.20819e-01
1.71930e+03,-1.91624e+00,-1.85282e+01,9.07600e-02,1.79906e-01,3.24555e-01
1.71930e+03,-1.32552e+00,-1.62121e+01,9.33200e-02,1.81715e-01,3.28283e-01
1.71930e+03,-7.30242e-01,-1.38961e+01,9.58445e-02,1.83516e-01,3.31994e-01
1.71930e+03,-1.35024e-01,-1.15801e+01,9.83695e-02,1.85307e-01,3.35697e-01
1.71930e+03,4.57944e-01,-9.26408e+00,1.00912e-01,1.87090e-01,3.39398e-01
1.71930e+03,1.05091e+00,-6.94806e+00,1.03454e-01,1.88863e-01,3.43089e-01
1.71930e+03,1.62984e+00,-4.63204e+00,1.06106e-01,1.90627e-01,3.46807e-01
1.71930e+03,2.20615e+00,-2.31602e+00,1.08778e-01,1.92384e-01,3.50525e-01
1.77540e+03,2.77303e+01,0.00000e+00,-1.10952e-01,1.77767e-01,3.27282e-01
1.77540e+03,2.75906e+01,-2.10721e+00,-1.16636e-01,1.75543e-01,3.25654e-01
1.77540e+03,2.74048e+01,-4.21442e+00,-1.21873e-01,1.73265e-01,3.23906e-01
1.77540e+03,2.72172e+01,-6.32163e+00,-1.27092e-01,1.70934e-01,3.22192e-01
1.77540e+03,2.69888e+01,-8.42884e+00,-1.31916e-01,1.68556e-01,3.20366e-01
1.77540e+03,2.67510e+01,-1.05361e+01,-1.36647e-01,1.66132e-01,3.18548e-01
1.77540e+03,2.64819e+01,-1.26433e+01,-1.41076e-01,1.63669e-01,3.16646e-01
1.77540e+03,2.61977e+01,-1.47505e+01,-1.45357e-01,1.61167e-01,3.14728e-01
1.77540e+03,2.58883e+01,-1.68577e+01,-1.49395e-01,1.58632e-01,3.12748e-01
1.77540e+03,2.55583e+01,-1.89649e+01,-1.53232e-01,1.56066e-01,3.10725e-01
1.77540e+03,2.52056e+01,-2.10721e+01,-1.56849e-01,1.53472e-01,3.08647e-01
1.77540e+03,2.48254e+01,-2.31793e+01,-1.60200e-01,1.50855e-01,3.06489e-01
1.77540e+03,2.44171e+01,-2.52865e+01,-1.63278e-01,1.48217e-01,3.04244e-01
1.77540e+03,2.39689e+01,-2.73937e+01,-1.65969e-01,1.45563e-01,3.01847e-01
1.77540e+03,2.34819e+01,-2.95009e+01,-1.68283e-01,1.42898e-01,2.99298e-01
1.77540e+03,2.29486e+01,-3.16082e+01,-1.70147e-01,1.40227e-01,2.96548e-01
1.77540e+03,2.23524e+01,-3.37154e+01,-1.71402e-01,1.37558e-01,2.93505e-01
1.77540e+03,2.17125e+01,-3.58226e+01,-1.72233e-01,1.34893e-01,2.90263e-01
1.77540e+03,2.09743e+01,-3.79298e+01,-1.72109e-01,1.32248e-01,2.86513e-01
1.77540e+03,2.01952e+01,-4.00370e+01,-1.71590e-01,1.29627e-01,2.82581e-01
1.77540e+03,1.93026e+01,-4.21442e+01,-1.69968e-01,1.27037e-01,2.78037e-01
1.77540e+03,1.83190e+01,-4.42514e+01,-1.67463e-01,1.24501e-01,2.73031e-01
1.77540e+03,1.72428e+01,-4.63586e+01,-1.64060e-01,1.22023e-01,2.67552e-01
1.77540e+03,1.60110e+01,-4.84658e+01,-1.59148e-01,1.19611e-01,2.61243e-01
1.77540e+03,1.45992e+01,-5.05731e+01,-1.52488e-01,1.17294e-01,2.54021e-01
1.77540e+03,1.29838e+01,-5.26803e+01,-1.43853e-01,1.15102e-01,2.45843e-01
1.77540e+03,1.10731e+01,-5.47875e+01,-1.32353e-01,1.13051e-01,2.36345e-01
1.77540e+03,8.62063e+00,-5.68947e+01,-1.15596e-01,1.11242e-01,2.24692e-01
1.77540e+03,5.30372e+00,-5.90019e+01,-9.04507e-02,1.10132e-01,2.11112e-01
1.77540e+03,-2.14903e+00,-6.11091e+01,-2.51749e-02,1.10564e-01,1.93150e-01
1.77540e+03,-2.68689e+00,-6.11140e+01,-1.99722e-02,1.11918e-01,1.94874e-01
1.77540e+03,-7.58725e+00,-5.89314e+01,3.48684e-02,1.14489e-01,2.01343e-01
1.77540e+03,-8.18057e+00,-5.67487e+01,4.79171e-02,1.16390e-01,2.07209e-01
1.77540e+03,-8.38530e+00,-5.45661e+01,5.71953e-02,1.18390e-01,2.12884e-01
1.77540e+03,-8.41637e+00,-5.23834e+01,6.47883e-02,1.20483e-01,2.18509e-01
1.77540e+03,-8.31659e+00,-5.02008e+01,7.11117e-02,1.22653e-01,2.24027e-01
1.77540e+03,-8.13471e+00,-4.80181e+01,7.66384e-02,1.24887e-01,2.29486e-01
1.77540e+03,-7.87037e+00,-4.58355e+01,8.13651e-02,1.27172e-01,2.34816e-01
1.77540e+03,-7.55575e+00,-4.36529e+01,8.56038e-02,1.29497e-01,2.40075e-01
1.77540e+03,-7.21195e+00,-4.14702e+01,8.95594e-02,1.31855e-01,2.45313e-01
1.77540e+03,-6.82421e+00,-3.92876e+01,9.30887e-02,1.34241e-01,2.50455e-01
1.77540e+03,-6.40900e+00,-3.71049e+01,9.63514e-02,1.36648e-01,2.55541e-01
1.77540e+03,-5.96704e+00,-3.49223e+01,9.93546e-02,1.39070e-01,2.60563e-01
1.77540e+03,-5.49844e+00,-3.27396e+01,1.02099e-01,1.41504e-01,2.65508e-01
1.77540e+03,-5.01314e+00,-3.05570e+01,1.04682e-01,1.43944e-01,2.70404e-01
1.77540e+03,-4.50644e+00,-2.83744e+01,1.07057e-01,1.46388e-01,2.75226e-01
1.77540e+03,-3.98604e+00,-2.61917e+01,1.09299e-01,1.48830e-01,2.79996e-01
1.77540e+03,-3.45334e+00,-2.40091e+01,1.11422e-01,1.51270e-01,2.84715e-01
1.77540e+03,-2.90969e+00,-2.18264e+01,1.13438e-01,1.53704e-01,2.89383e-01
1.77540e+03,-2.36138e+00,-1.96438e+01,1.15409e-01,1.56130e-01,2.94022e-01
1.77540e+03,-1.80588e+00,-1.74611e+01,1.17311e-01,1.58546e-01,2.98618e-01
1.77540e+03,-1.24918e+00,-1.52785e+01,1.19201e-01,1.60953e-01,3.03194e-01
1.77540e+03,-6.88187e-01,-1.30959e+01,1.21049e-01,1.63349e-01,3.07736e-01
1.77540e+03,-1.27248e-01,-1.09132e+01,1.22897e-01,1.65733e-01,3.12260e-01
1.77540e+03,4.31571e-01,-8.73057e+00,1.24767e-01,1.68106e-01,3.16774e-01
1.77540e+03,9.90390e-01,-6.54793e+00,1.26636e-01,1.70467e-01,3.21268e-01
1.77540e+03,1.53598e+00,-4.36529e+00,1.28633e-01,1.72816e-01,3.25795e-01
1.77540e+03,2.07910e+00,-2.18264e+00,1.30655e-01,1.75156e-01,3.30317e-01
1.82660e+03,2.53092e+01,0.00000e+00,-7.50709e-02,1.45697e-01,2.63284e-01
1.82660e+03,2.51817e+01,-1.92323e+00,-7.90599e-02,1.44022e-01,2.61682e-01
1.82660e+03,2.50121e+01,-3.84646e+00,-8.27456e-02,1.42306e-01,2.59999e-01
1.82660e+03,2.48409e+01,-5.76969e+00,-8.64192e-02,1.40550e-01,2.58323e-01
1.82660e+03,2.46324e+01,-7.69292e+00,-8.98251e-02,1.38758e-01,2.56574e-01
1.82660e+03,2.44154e+01,-9.61614e+00,-9.31689e-02,1.36933e-01,2.54818e-01
1.82660e+03,2.41698e+01,-1.15394e+01,-9.63072e-02,1.35077e-01,2.53007e-01
1.82660e+03,2.39103e+01,-1.34626e+01,-9.93458e-02,1.33193e-01,2.51179e-01
1.82660e+03,2.36280e+01,-1.53858e+01,-1.02219e-01,1.31284e-01,2.49309e-01
1.82660e+03,2.33268e+01,-1.73091e+01,-1.04957e-01,1.29351e-01,2.47409e-01
1.82660e+03,2.30049e+01,-1.92323e+01,-1.07546e-01,1.27398e-01,2.45472e-01
1.82660e+03,2.26579e+01,-2.11555e+01,-1.09954e-01,1.25427e-01,2.43486e-01
1.82660e+03,2.22852e+01,-2.30787e+01,-1.12177e-01,1.23440e-01,2.41446e-01
1.82660e+03,2.18762e+01,-2.50020e+01,-1.14139e-01,1.21441e-01,2.39315e-01
1.82660e+03,2.14317e+01,-2.69252e+01,-1.15845e-01,1.19435e-01,2.37095e-01
1.82660e+03,2.09449e+01,-2.88484e+01,-1.17247e-01,1.17423e-01,2.34758e-01
1.82660e+03,2.04008e+01,-3.07717e+01,-1.18235e-01,1.15413e-01,2.32250e-01
1.82660e+03,1.98168e+01,-3.26949e+01,-1.18937e-01,1.13407e-01,2.29628e-01
1.82660e+03,1.91430e+01,-3.46181e+01,-1.18992e-01,1.11414e-01,2.26712e-01
1.82660e+03,1.84320e+01,-3.65413e+01,-1.18779e-01,1.09441e-01,2.23697e-01
1.82660e+03,1.76173e+01,-3.84646e+01,-1.17819e-01,1.07491e-01,2.20328e-01
1.82660e+03,1.67196e+01,-4.03878e+01,-1.16262e-01,1.05581e-01,2.16701e-01
1.82660e+03,1.57373e+01,-4.23110e+01,-1.14095e-01,1.03715e-01,2.12810e-01
1.82660e+03,1.46131e+01,-4.42343e+01,-1.10907e-01,1.01899e-01,2.08448e-01
1.82660e+03,1.33245e+01,-4.61575e+01,-1.06535e-01,1.00155e-01,2.03576e-01
1.82660e+03,1.18502e+01,-4.80807e+01,-1.00825e-01,9.85047e-02,1.98180e-01
1.82660e+03,1.01063e+01,-5.00040e+01,-9.31753e-02,9.69608e-02,1.92057e-01
1.82660e+03,7.86795e+00,-5.19272e+01,-8.19643e-02,9.55989e-02,1.84758e-01
1.82660e+03,4.84065e+00,-5.38504e+01,-6.50723e-02,9.47641e-02,1.76565e-01
1.82660e+03,-1.96139e+00,-5.57736e+01,-2.09994e-02,9.50903e-02,1.66035e-01
1.82660e+03,-2.45230e+00,-5.57781e+01,-1.74760e-02,9.61105e-02,1.67383e-01
1.82660e+03,-6.92480e+00,-5.37860e+01,1.98117e-02,9.80469e-02,1.70974e-01
1.82660e+03,-7.46632e+00,-5.17940e+01,2.87933e-02,9.94781e-02,1.74690e-01
1.82660e+03,-7.65318e+00,-4.98019e+01,3.52213e-02,1.00984e-01,1.78421e-01
1.82660e+03,-7.68153e+00,-4.78098e+01,4.05079e-02,1.02561e-01,1.82201e-01
1.82660e+03,-7.59047e+00,-4.58177e+01,4.49345e-02,1.04195e-01,1.85981e-01
1.82660e+03,-7.42446e+00,-4.38257e+01,4.88216e-02,1.05877e-01,1.89772e-01
1.82660e+03,-7.18321e+00,-4.18336e+01,5.21668e-02,1.07598e-01,1.93528e-01
1.82660e+03,-6.89605e+00,-3.98415e+01,5.51815e-02,1.09348e-01,1.97271e-01
1.82660e+03,-6.58227e+00,-3.78494e+01,5.80044e-02,1.11124e-01,2.01023e-01
1.82660e+03,-6.22838e+00,-3.58574e+01,6.05386e-02,1.12920e-01,2.04738e-01
1.82660e+03,-5.84943e+00,-3.38653e+01,6.28922e-02,1.14732e-01,2.08437e-01
1.82660e+03,-5.44606e+00,-3.18732e+01,6.50701e-02,1.16556e-01,2.12109e-01
1.82660e+03,-5.01837e+00,-2.98811e+01,6.70728e-02,1.18388e-01,2.15745e-01
1.82660e+03,-4.57544e+00,-2.78891e+01,6.89658e-02,1.20226e-01,2.19360e-01
1.82660e+03,-4.11298e+00,-2.58970e+01,7.07182e-02,1.22065e-01,2.22936e-01
1.82660e+03,-3.63801e+00,-2.39049e+01,7.23805e-02,1.23904e-01,2.26485e-01
1.82660e+03,-3.15183e+00,-2.19128e+01,7.39620e-02,1.25741e-01,2.30005e-01
1.82660e+03,-2.65564e+00,-1.99208e+01,7.54715e-02,1.27572e-01,2.33496e-01
1.82660e+03,-2.15521e+00,-1.79287e+01,7.69504e-02,1.29399e-01,2.36967e-01
1.82660e+03,-1.64821e+00,-1.59366e+01,7.83821e-02,1.31218e-01,2.40412e-01
1.82660e+03,-1.14012e+00,-1.39445e+01,7.98058e-02,1.33029e-01,2.43843e-01
1.82660e+03,-6.28101e-01,-1.19525e+01,8.12014e-02,1.34833e-01,2.47252e-01
1.82660e+03,-1.16138e-01,-9.96038e+00,8.25973e-02,1.36627e-01,2.50646e-01
1.82660e+03,3.93890e-01,-7.96830e+00,8.40071e-02,1.38413e-01,2.54031e-01
1.82660e+03,9.03919e-01,-5.97623e+00,8.54169e-02,1.40190e-01,2.57402e-01
1.82660e+03,1.40187e+00,-3.98415e+00,8.69137e-02,1.41958e-01,2.60788e-01
1.82660e+03,1.89757e+00,-1.99208e+00,8.84267e-02,1.43719e-01,2.64168e-01
1.87280e+03,2.31244e+01,0.00000e+00,-4.77653e-02,1.16594e-01,2.07519e-01
1.87280e+03,2.30080e+01,-1.75721e+00,-5.04270e-02,1.15377e-01,2.06103e-01
1.87280e+03,2.28531e+01,-3.51443e+00,-5.28952e-02,1.14130e-01,2.04633e-01
1.87280e+03,2.26966e+01,-5.27164e+00,-5.53557e-02,1.12854e-01,2.03156e-01
1.87280e+03,2.25061e+01,-7.02886e+00,-5.76454e-02,1.11552e-01,2.01630e-01
1.87280e+03,2.23078e+01,-8.78607e+00,-5.98955e-02,1.10226e-01,2.00092e-01
1.87280e+03,2.20834e+01,-1.05433e+01,-6.20145e-02,1.08878e-01,1.98517e-01
1.87280e+03,2.18464e+01,-1.23005e+01,-6.40699e-02,1.07509e-01,1.96925e-01
1.87280e+03,2.15884e+01,-1.40577e+01,-6.60199e-02,1.06122e-01,1.95305e-01
1.87280e+03,2.13132e+01,-1.58149e+01,-6.78835e-02,1.04718e-01,1.93664e-01
1.87280e+03,2.10191e+01,-1.75721e+01,-6.96519e-02,1.03299e-01,1.91998e-01
1.87280e+03,2.07020e+01,-1.93294e+01,-7.13051e-02,1.01867e-01,1.90303e-01
1.87280e+03,2.03615e+01,-2.10866e+01,-7.28404e-02,1.00424e-01,1.88575e-01
1.87280e+03,1.99878e+01,-2.28438e+01,-7.42086e-02,9.89721e-02,1.86798e-01
1.87280e+03,1.95817e+01,-2.46010e+01,-7.54142e-02,9.75145e-02,1.84972e-01
1.87280e+03,1.91369e+01,-2.63582e+01,-7.64252e-02,9.60531e-02,1.83083e-01
1.87280e+03,1.86398e+01,-2.81154e+01,-7.71728e-02,9.45932e-02,1.81106e-01
1.87280e+03,1.81062e+01,-2.98726e+01,-7.77372e-02,9.31359e-02,1.79070e-01
1.87280e+03,1.74905e+01,-3.16299e+01,-7.78892e-02,9.16888e-02,1.76882e-01
1.87280e+03,1.68409e+01,-3.33871e+01,-7.78703e-02,9.02554e-02,1.74648e-01
1.87280e+03,1.60966e+01,-3.51443e+01,-7.73752e-02,8.88394e-02,1.72233e-01
1.87280e+03,1.52763e+01,-3.69015e+01,-7.64985e-02,8.74525e-02,1.69693e-01
1.87280e+03,1.43788e+01,-3.86587e+01,-7.52334e-02,8.60970e-02,1.67027e-01
1.87280e+03,1.33517e+01,-4.04159e+01,-7.33164e-02,8.47782e-02,1.64126e-01
1.87280e+03,1.21743e+01,-4.21731e+01,-7.06444e-02,8.35118e-02,1.60976e-01
1.87280e+03,1.08272e+01,-4.39304e+01,-6.71188e-02,8.23130e-02,1.57579e-01
1.87280e+03,9.23393e+00,-4.56876e+01,-6.23554e-02,8.11919e-02,1.53833e-01
1.87280e+03,7.18879e+00,-4.74448e+01,-5.53204e-02,8.02031e-02,1.49526e-01
1.87280e+03,4.42280e+00,-4.92020e+01,-4.46612e-02,7.95974e-02,1.44920e-01
1.87280e+03,-1.79208e+00,-5.09592e+01,-1.66622e-02,7.98347e-02,1.39278e-01
1.87280e+03,-2.24062e+00,-5.09633e+01,-1.44147e-02,8.05761e-02,1.40304e-01
1.87280e+03,-6.32705e+00,-4.91432e+01,9.49376e-03,8.19829e-02,1.42316e-01
1.87280e+03,-6.82182e+00,-4.73231e+01,1.53447e-02,8.30225e-02,1.44616e-01
1.87280e+03,-6.99255e+00,-4.55029e+01,1.95665e-02,8.41167e-02,1.47002e-01
1.87280e+03,-7.01846e+00,-4.36828e+01,2.30601e-02,8.52618e-02,1.49467e-01
1.87280e+03,-6.93525e+00,-4.18627e+01,2.60052e-02,8.64487e-02,1.51975e-01
1.87280e+03,-6.78358e+00,-4.00426e+01,2.86061e-02,8.76706e-02,1.54521e-01
1.87280e+03,-6.56315e+00,-3.82225e+01,3.08612e-02,8.89202e-02,1.57076e-01
1.87280e+03,-6.30078e+00,-3.64024e+01,3.29056e-02,9.01916e-02,1.59644e-01
1.87280e+03,-6.01408e+00,-3.45822e+01,3.48276e-02,9.14813e-02,1.62233e-01
1.87280e+03,-5.69074e+00,-3.27621e+01,3.65653e-02,9.27860e-02,1.64817e-01
1.87280e+03,-5.34450e+00,-3.09420e+01,3.81880e-02,9.41019e-02,1.67403e-01
1.87280e+03,-4.97595e+00,-2.91219e+01,3.96985e-02,9.54265e-02,1.69984e-01
1.87280e+03,-4.58518e+00,-2.73018e+01,4.10972e-02,9.67571e-02,1.72554e-01
1.87280e+03,-4.18049e+00,-2.54816e+01,4.24260e-02,9.80913e-02,1.75116e-01
1.87280e+03,-3.75794e+00,-2.36615e+01,4.36650e-02,9.94271e-02,1.77662e-01
1.87280e+03,-3.32398e+00,-2.18414e+01,4.48466e-02,1.00763e-01,1.80196e-01
1.87280e+03,-2.87976e+00,-2.00213e+01,4.59767e-02,1.02096e-01,1.82715e-01
1.87280e+03,-2.42640e+00,-1.82012e+01,4.70607e-02,1.03426e-01,1.85218e-01
1.87280e+03,-1.96917e+00,-1.63811e+01,4.81254e-02,1.04752e-01,1.87710e-01
1.87280e+03,-1.50594e+00,-1.45609e+01,4.91598e-02,1.06073e-01,1.90188e-01
1.87280e+03,-1.04170e+00,-1.27408e+01,5.01892e-02,1.07389e-01,1.92655e-01
1.87280e+03,-5.73883e-01,-1.09207e+01,5.12006e-02,1.08698e-01,1.95108e-01
1.87280e+03,-1.06113e-01,-9.10059e+00,5.22122e-02,1.10001e-01,1.97552e-01
1.87280e+03,3.59890e-01,-7.28047e+00,5.32328e-02,1.11298e-01,1.99988e-01
1.87280e+03,8.25892e-01,-5.46035e+00,5.42533e-02,1.12587e-01,2.02413e-01
1.87280e+03,1.28086e+00,-3.64024e+00,5.53293e-02,1.13871e-01,2.04844e-01
1.87280e+03,1.73377e+00,-1.82012e+00,5.64156e-02,1.15149e-01,2.07270e-01
1.91380e+03,2.11856e+01,0.00000e+00,-2.81420e-02,8.99455e-02,1.58312e-01
1.91380e+03,2.10789e+01,-1.60989e+00,-2.98077e-02,8.90973e-02,1.57173e-01
1.91380e+03,2.09370e+01,-3.21977e+00,-3.13590e-02,8.82283e-02,1.56000e-01
1.91380e+03,2.07936e+01,-4.82966e+00,-3.29057e-02,8.73395e-02,1.54814e-01
1.91380e+03,2.06192e+01,-6.43954e+00,-3.43513e-02,8.64326e-02,1.53596e-01
1.91380e+03,2.04375e+01,-8.04943e+00,-3.57734e-02,8.55088e-02,1.52365e-01
1.91380e+03,2.02319e+01,-9.65931e+00,-3.71180e-02,8.45694e-02,1.51108e-01
1.91380e+03,2.00147e+01,-1.12692e+01,-3.84249e-02,8.36159e-02,1.49838e-01
1.91380e+03,1.97784e+01,-1.28791e+01,-3.96695e-02,8.26494e-02,1.48548e-01
1.91380e+03,1.95262e+01,-1.44890e+01,-4.08628e-02,8.16714e-02,1.47243e-01
1.91380e+03,1.92568e+01,-1.60989e+01,-4.19999e-02,8.06829e-02,1.45922e-01
1.91380e+03,1.89663e+01,-1.77087e+01,-4.30688e-02,7.96854e-02,1.44583e-01
1.91380e+03,1.86544e+01,-1.93186e+01,-4.40678e-02,7.86801e-02,1.43226e-01
1.91380e+03,1.83120e+01,-2.09285e+01,-4.49681e-02,7.76688e-02,1.41843e-01
1.91380e+03,1.79399e+01,-2.25384e+01,-4.57720e-02,7.66535e-02,1.40436e-01
1.91380e+03,1.75325e+01,-2.41483e+01,-4.64608e-02,7.56356e-02,1.38999e-01
1.91380e+03,1.70770e+01,-2.57582e+01,-4.69937e-02,7.46187e-02,1.37522e-01
1.91380e+03,1.65881e+01,-2.73680e+01,-4.74181e-02,7.36036e-02,1.36018e-01
1.91380e+03,1.60241e+01,-2.89779e+01,-4.75985e-02,7.25957e-02,1.34447e-01
1.91380e+03,1.54289e+01,-3.05878e+01,-4.76777e-02,7.15973e-02,1.32860e-01
1.91380e+03,1.47470e+01,-3.21977e+01,-4.74751e-02,7.06110e-02,1.31193e-01
1.91380e+03,1.39955e+01,-3.38076e+01,-4.70466e-02,6.96450e-02,1.29478e-01
1.91380e+03,1.31733e+01,-3.54175e+01,-4.63882e-02,6.87010e-02,1.27716e-01
1.91380e+03,1.22322e+01,-3.70274e+01,-4.53441e-02,6.77825e-02,1.25855e-01
1.91380e+03,1.11536e+01,-3.86372e+01,-4.38530e-02,6.69006e-02,1.23896e-01
1.91380e+03,9.91946e+00,-4.02471e+01,-4.18567e-02,6.60658e-02,1.21844e-01
1.91380e+03,8.45973e+00,-4.18570e+01,-3.91278e-02,6.52851e-02,1.19655e-01
1.91380e+03,6.58606e+00,-4.34669e+01,-3.50545e-02,6.45965e-02,1.17247e-01
1.91380e+03,4.05198e+00,-4.50768e+01,-2.88361e-02,6.41750e-02,1.14834e-01
1.91380e+03,-1.64183e+00,-4.66867e+01,-1.23550e-02,6.43407e-02,1.12124e-01
1.91380e+03,-2.05276e+00,-4.66904e+01,-1.10250e-02,6.48572e-02,1.12876e-01
1.91380e+03,-5.79657e+00,-4.50229e+01,3.21915e-03,6.58373e-02,1.14079e-01
1.91380e+03,-6.24986e+00,-4.33554e+01,6.77573e-03,6.65615e-02,1.15487e-01
1.91380e+03,-6.40628e+00,-4.16879e+01,9.36809e-03,6.73237e-02,1.16984e-01
1.91380e+03,-6.43001e+00,-4.00204e+01,1.15295e-02,6.81214e-02,1.18552e-01
1.91380e+03,-6.35378e+00,-3.83528e+01,1.33662e-02,6.89481e-02,1.20167e-01
1.91380e+03,-6.21483e+00,-3.66853e+01,1.49992e-02,6.97992e-02,1.21823e-01
1.91380e+03,-6.01288e+00,-3.50178e+01,1.64276e-02,7.06696e-02,1.23501e-01
1.91380e+03,-5.77251e+00,-3.33503e+01,1.77312e-02,7.15550e-02,1.25199e-01
1.91380e+03,-5.50985e+00,-3.16828e+01,1.89624e-02,7.24533e-02,1.26917e-01
1.91380e+03,-5.21362e+00,-3.00153e+01,2.00846e-02,7.33620e-02,1.28644e-01
1.91380e+03,-4.89640e+00,-2.83477e+01,2.11386e-02,7.42785e-02,1.30379e-01
1.91380e+03,-4.55876e+00,-2.66802e+01,2.21262e-02,7.52010e-02,1.32118e-01
1.91380e+03,-4.20075e+00,-2.50127e+01,2.30477e-02,7.61276e-02,1.33856e-01
1.91380e+03,-3.82998e+00,-2.33452e+01,2.39278e-02,7.70568e-02,1.35594e-01
1.91380e+03,-3.44287e+00,-2.16777e+01,2.47548e-02,7.79870e-02,1.37327e-01
1.91380e+03,-3.04529e+00,-2.00102e+01,2.55478e-02,7.89170e-02,1.39055e-01
1.91380e+03,-2.63832e+00,-1.83427e+01,2.63102e-02,7.98457e-02,1.40777e-01
1.91380e+03,-2.22297e+00,-1.66751e+01,2.70455e-02,8.07720e-02,1.42491e-01
1.91380e+03,-1.80407e+00,-1.50076e+01,2.77693e-02,8.16953e-02,1.44200e-01
1.91380e+03,-1.37967e+00,-1.33401e+01,2.84752e-02,8.26151e-02,1.45899e-01
1.91380e+03,-9.54362e-01,-1.16726e+01,2.91781e-02,8.35310e-02,1.47593e-01
1.91380e+03,-5.25768e-01,-1.00051e+01,2.98703e-02,8.44427e-02,1.49278e-01
1.91380e+03,-9.72161e-02,-8.33757e+00,3.05627e-02,8.53499e-02,1.50957e-01
1.91380e+03,3.29716e-01,-6.67006e+00,3.12604e-02,8.62527e-02,1.52630e-01
1.91380e+03,7.56647e-01,-5.00254e+00,3.19580e-02,8.71507e-02,1.54295e-01
1.91380e+03,1.17347e+00,-3.33503e+00,3.26885e-02,8.80444e-02,1.55962e-01
1.91380e+03,1.58841e+00,-1.66751e+00,3.34251e-02,8.89344e-02,1.57624e-01
1.94970e+03,1.94880e+01,0.00000e+00,-1.49277e-02,6.63797e-02,1.15938e-01
1.94970e+03,1.93899e+01,-1.48088e+00,-1.58815e-02,6.58212e-02,1.15107e-01
1.94970e+03,1.92593e+01,-2.96177e+00,-1.67742e-02,6.52491e-02,1.14253e-01
1.94970e+03,1.91274e+01,-4.44265e+00,-1.76643e-02,6.46638e-02,1.13385e-01
1.94970e+03,1.89669e+01,-5.92353e+00,-1.85005e-02,6.40667e-02,1.12498e-01
1.94970e+03,1.87998e+01,-7.40441e+00,-1.93242e-02,6.34584e-02,1.11599e-01
1.94970e+03,1.86107e+01,-8.88530e+00,-2.01064e-02,6.28399e-02,1.10684e-01
1.94970e+03,1.84109e+01,-1.03662e+01,-2.08685e-02,6.22122e-02,1.09757e-01
1.94970e+03,1.81935e+01,-1.18471e+01,-2.15972e-02,6.15758e-02,1.08817e-01
1.94970e+03,1.79616e+01,-1.33279e+01,-2.22987e-02,6.09319e-02,1.07867e-01
1.94970e+03,1.77137e+01,-1.48088e+01,-2.29700e-02,6.02812e-02,1.06907e-01
1.94970e+03,1.74465e+01,-1.62897e+01,-2.36049e-02,5.96245e-02,1.05936e-01
1.94970e+03,1.71596e+01,-1.77706e+01,-2.42025e-02,5.89627e-02,1.04955e-01
1.94970e+03,1.68446e+01,-1.92515e+01,-2.47473e-02,5.82969e-02,1.03962e-01
1.94970e+03,1.65024e+01,-2.07324e+01,-2.52407e-02,5.76285e-02,1.02957e-01
1.94970e+03,1.61276e+01,-2.22132e+01,-2.56726e-02,5.69584e-02,1.01940e-01
1.94970e+03,1.57086e+01,-2.36941e+01,-2.60211e-02,5.62890e-02,1.00908e-01
1.94970e+03,1.52589e+01,-2.51750e+01,-2.63117e-02,5.56208e-02,9.98665e-02
1.94970e+03,1.47401e+01,-2.66559e+01,-2.64720e-02,5.49573e-02,9.88012e-02
1.94970e+03,1.41926e+01,-2.81368e+01,-2.65781e-02,5.43001e-02,9.77338e-02
1.94970e+03,1.35653e+01,-2.96177e+01,-2.65337e-02,5.36509e-02,9.66400e-02
1.94970e+03,1.28740e+01,-3.10985e+01,-2.63687e-02,5.30151e-02,9.55358e-02
1.94970e+03,1.21177e+01,-3.25794e+01,-2.60808e-02,5.23937e-02,9.44220e-02
1.94970e+03,1.12521e+01,-3.40603e+01,-2.55868e-02,5.17891e-02,9.32793e-02
1.94970e+03,1.02599e+01,-3.55412e+01,-2.48540e-02,5.12086e-02,9.21124e-02
1.94970e+03,9.12460e+00,-3.70221e+01,-2.38514e-02,5.06592e-02,9.09283e-02
1.94970e+03,7.78184e+00,-3.85029e+01,-2.24573e-02,5.01454e-02,8.97107e-02
1.94970e+03,6.05831e+00,-3.99838e+01,-2.03450e-02,4.96923e-02,8.84414e-02
1.94970e+03,3.72729e+00,-4.14647e+01,-1.70866e-02,4.94151e-02,8.72783e-02
1.94970e+03,-1.51027e+00,-4.29456e+01,-8.34534e-03,4.95243e-02,8.61835e-02
1.94970e+03,-1.88827e+00,-4.29490e+01,-7.63492e-03,4.98644e-02,8.67045e-02
1.94970e+03,-5.33209e+00,-4.14151e+01,4.12568e-05,5.05097e-02,8.74854e-02
1.94970e+03,-5.74905e+00,-3.98812e+01,2.00753e-03,5.09865e-02,8.83340e-02
1.94970e+03,-5.89293e+00,-3.83473e+01,3.45866e-03,5.14883e-02,8.92474e-02
1.94970e+03,-5.91477e+00,-3.68135e+01,4.67955e-03,5.20134e-02,9.02112e-02
1.94970e+03,-5.84465e+00,-3.52796e+01,5.72698e-03,5.25576e-02,9.12124e-02
1.94970e+03,-5.71682e+00,-3.37457e+01,6.66555e-03,5.31178e-02,9.22439e-02
1.94970e+03,-5.53106e+00,-3.22118e+01,7.49482e-03,5.36908e-02,9.32967e-02
1.94970e+03,-5.30995e+00,-3.06779e+01,8.25742e-03,5.42737e-02,9.43667e-02
1.94970e+03,-5.06834e+00,-2.91440e+01,8.98135e-03,5.48650e-02,9.54524e-02
1.94970e+03,-4.79584e+00,-2.76101e+01,9.64702e-03,5.54630e-02,9.65480e-02
1.94970e+03,-4.50405e+00,-2.60762e+01,1.02763e-02,5.60663e-02,9.76519e-02
1.94970e+03,-4.19345e+00,-2.45423e+01,1.08701e-02,5.66735e-02,9.87614e-02
1.94970e+03,-3.86414e+00,-2.30084e+01,1.14285e-02,5.72834e-02,9.98738e-02
1.94970e+03,-3.52308e+00,-2.14745e+01,1.19649e-02,5.78949e-02,1.00988e-01
1.94970e+03,-3.16699e+00,-1.99406e+01,1.24728e-02,5.85072e-02,1.02102e-01
1.94970e+03,-2.80126e+00,-1.84067e+01,1.29626e-02,5.91193e-02,1.03215e-01
1.94970e+03,-2.42690e+00,-1.68728e+01,1.34361e-02,5.97305e-02,1.04325e-01
1.94970e+03,-2.04484e+00,-1.53389e+01,1.38951e-02,6.03401e-02,1.05432e-01
1.94970e+03,-1.65951e+00,-1.38050e+01,1.43479e-02,6.09478e-02,1.06535e-01
1.94970e+03,-1.26912e+00,-1.22712e+01,1.47912e-02,6.15531e-02,1.07634e-01
1.94970e+03,-8.77888e-01,-1.07373e+01,1.52329e-02,6.21558e-02,1.08729e-01
1.94970e+03,-4.83637e-01,-9.20336e+00,1.56689e-02,6.27558e-02,1.09820e-01
1.94970e+03,-8.94260e-02,-7.66947e+00,1.61049e-02,6.33528e-02,1.10906e-01
1.94970e+03,3.03295e-01,-6.13558e+00,1.65438e-02,6.39469e-02,1.11988e-01
1.94970e+03,6.96016e-01,-4.60168e+00,1.69826e-02,6.45378e-02,1.13065e-01
1.94970e+03,1.07944e+00,-3.06779e+00,1.74391e-02,6.51259e-02,1.14141e-01
1.94970e+03,1.46113e+00,-1.53389e+00,1.78987e-02,6.57115e-02,1.15214e-01
1.98010e+03,1.80504e+01,0.00000e+00,-6.90347e-03,4.58170e-02,7.96571e-02
1.98010e+03,1.79595e+01,-1.37164e+00,-7.38926e-03,4.54754e-02,7.91116e-02
1.98010e+03,1.78386e+01,-2.74329e+00,-7.84645e-03,4.51256e-02,7.85526e-02
1.98010e+03,1.77165e+01,-4.11493e+00,-8.30250e-03,4.47677e-02,7.79831e-02
1.98010e+03,1.75678e+01,-5.48657e+00,-8.73331e-03,4.44025e-02,7.74017e-02
1.98010e+03,1.74130e+01,-6.85822e+00,-9.15826e-03,4.40306e-02,7.68112e-02
1.98010e+03,1.72378e+01,-8.22986e+00,-9.56382e-03,4.36524e-02,7.62107e-02
1.98010e+03,1.70528e+01,-9.60150e+00,-9.95998e-03,4.32686e-02,7.56023e-02
1.98010e+03,1.68514e+01,-1.09731e+01,-1.03406e-02,4.28795e-02,7.49859e-02
1.98010e+03,1.66366e+01,-1.23448e+01,-1.07084e-02,4.24858e-02,7.43626e-02
1.98010e+03,1.64070e+01,-1.37164e+01,-1.10621e-02,4.20879e-02,7.37330e-02
1.98010e+03,1.61595e+01,-1.50881e+01,-1.13988e-02,4.16864e-02,7.30972e-02
1.98010e+03,1.58938e+01,-1.64597e+01,-1.17181e-02,4.12818e-02,7.24560e-02
1.98010e+03,1.56020e+01,-1.78314e+01,-1.20127e-02,4.08747e-02,7.18090e-02
1.98010e+03,1.52851e+01,-1.92030e+01,-1.22832e-02,4.04661e-02,7.11575e-02
1.98010e+03,1.49379e+01,-2.05747e+01,-1.25250e-02,4.00564e-02,7.05012e-02
1.98010e+03,1.45498e+01,-2.19463e+01,-1.27278e-02,3.96471e-02,6.98404e-02
1.98010e+03,1.41333e+01,-2.33179e+01,-1.29036e-02,3.92386e-02,6.91774e-02
1.98010e+03,1.36527e+01,-2.46896e+01,-1.30184e-02,3.88330e-02,6.85090e-02
1.98010e+03,1.31457e+01,-2.60612e+01,-1.31079e-02,3.84312e-02,6.78432e-02
1.98010e+03,1.25646e+01,-2.74329e+01,-1.31270e-02,3.80343e-02,6.71726e-02
1.98010e+03,1.19244e+01,-2.88045e+01,-1.30897e-02,3.76457e-02,6.65051e-02
1.98010e+03,1.12238e+01,-3.01762e+01,-1.29950e-02,3.72658e-02,6.58414e-02
1.98010e+03,1.04220e+01,-3.15478e+01,-1.28039e-02,3.68962e-02,6.51762e-02
1.98010e+03,9.50303e+00,-3.29194e+01,-1.25012e-02,3.65414e-02,6.45143e-02
1.98010e+03,8.45151e+00,-3.42911e+01,-1.20724e-02,3.62055e-02,6.38613e-02
1.98010e+03,7.20780e+00,-3.56627e+01,-1.14605e-02,3.58915e-02,6.32134e-02
1.98010e+03,5.61141e+00,-3.70344e+01,-1.05128e-02,3.56145e-02,6.25756e-02
1.98010e+03,3.45234e+00,-3.84060e+01,-9.02938e-03,3.54452e-02,6.20533e-02
1.98010e+03,-1.39886e+00,-3.97777e+01,-4.98259e-03,3.55120e-02,6.17101e-02
1.98010e+03,-1.74898e+00,-3.97808e+01,-4.65056e-03,3.57200e-02,6.20435e-02
1.98010e+03,-4.93876e+00,-3.83601e+01,-1.02054e-03,3.61146e-02,6.25606e-02
1.98010e+03,-5.32496e+00,-3.69394e+01,-5.99718e-05,3.64061e-02,6.30573e-02
1.98010e+03,-5.45823e+00,-3.55186e+01,6.59757e-04,3.67129e-02,6.35921e-02
1.98010e+03,-5.47846e+00,-3.40979e+01,1.27184e-03,3.70339e-02,6.41573e-02
1.98010e+03,-5.41351e+00,-3.26771e+01,1.80284e-03,3.73667e-02,6.47461e-02
1.98010e+03,-5.29511e+00,-3.12564e+01,2.28294e-03,3.77092e-02,6.53541e-02
1.98010e+03,-5.12305e+00,-2.98356e+01,2.71194e-03,3.80595e-02,6.59767e-02
1.98010e+03,-4.91825e+00,-2.84149e+01,3.10977e-03,3.84158e-02,6.66107e-02
1.98010e+03,-4.69446e+00,-2.69941e+01,3.48952e-03,3.87773e-02,6.72548e-02
1.98010e+03,-4.44207e+00,-2.55734e+01,3.84204e-03,3.91429e-02,6.79063e-02
1.98010e+03,-4.17180e+00,-2.41527e+01,4.17753e-03,3.95117e-02,6.85636e-02
1.98010e+03,-3.88412e+00,-2.27319e+01,4.49644e-03,3.98829e-02,6.92254e-02
1.98010e+03,-3.57909e+00,-2.13112e+01,4.79884e-03,4.02557e-02,6.98898e-02
1.98010e+03,-3.26320e+00,-1.98904e+01,5.09089e-03,4.06295e-02,7.05563e-02
1.98010e+03,-2.93337e+00,-1.84697e+01,5.36968e-03,4.10038e-02,7.12233e-02
1.98010e+03,-2.59462e+00,-1.70489e+01,5.63997e-03,4.13779e-02,7.18902e-02
1.98010e+03,-2.24788e+00,-1.56282e+01,5.90264e-03,4.17515e-02,7.25562e-02
1.98010e+03,-1.89400e+00,-1.42074e+01,6.15852e-03,4.21241e-02,7.32206e-02
1.98010e+03,-1.53709e+00,-1.27867e+01,6.41153e-03,4.24956e-02,7.38832e-02
1.98010e+03,-1.17550e+00,-1.13660e+01,6.66007e-03,4.28655e-02,7.45434e-02
1.98010e+03,-8.13129e-01,-9.94521e+00,6.90786e-03,4.32339e-02,7.52013e-02
1.98010e+03,-4.47961e-01,-8.52447e+00,7.15300e-03,4.36007e-02,7.58565e-02
1.98010e+03,-8.28294e-02,-7.10372e+00,7.39817e-03,4.39655e-02,7.65090e-02
1.98010e+03,2.80922e-01,-5.68298e+00,7.64465e-03,4.43286e-02,7.71590e-02
1.98010e+03,6.44673e-01,-4.26223e+00,7.89113e-03,4.46898e-02,7.78061e-02
1.98010e+03,9.99811e-01,-2.84149e+00,8.14582e-03,4.50492e-02,7.84515e-02
1.98010e+03,1.35334e+00,-1.42074e+00,8.40203e-03,4.54071e-02,7.90949e-02
2.00520e+03,1.68635e+01,0.00000e+00,-2.59783e-03,2.86361e-02,4.96672e-02
2.00520e+03,1.67786e+01,-1.28145e+00,-2.80527e-03,2.84497e-02,4.93561e-02
2.00520e+03,1.66656e+01,-2.56290e+00,-3.00176e-03,2.82587e-02,4.90375e-02
2.00520e+03,1.65515e+01,-3.84435e+00,-3.19782e-03,2.80634e-02,4.87122e-02
2.00520e+03,1.64126e+01,-5.12580e+00,-3.38421e-03,2.78640e-02,4.83804e-02
2.00520e+03,1.62680e+01,-6.40725e+00,-3.56836e-03,2.76610e-02,4.80430e-02
2.00520e+03,1.61044e+01,-7.68870e+00,-3.74509e-03,2.74546e-02,4.77000e-02
2.00520e+03,1.59315e+01,-8.97015e+00,-3.91822e-03,2.72451e-02,4.73523e-02
2.00520e+03,1.57433e+01,-1.02516e+01,-4.08539e-03,2.70327e-02,4.70000e-02
2.00520e+03,1.55427e+01,-1.15330e+01,-4.24767e-03,2.68178e-02,4.66437e-02
2.00520e+03,1.53282e+01,-1.28145e+01,-4.40456e-03,2.66007e-02,4.62838e-02
2.00520e+03,1.50970e+01,-1.40959e+01,-4.55493e-03,2.63815e-02,4.59206e-02
2.00520e+03,1.48486e+01,-1.53774e+01,-4.69863e-03,2.61607e-02,4.55546e-02
2.00520e+03,1.45761e+01,-1.66588e+01,-4.83288e-03,2.59385e-02,4.51860e-02
2.00520e+03,1.42800e+01,-1.79403e+01,-4.95792e-03,2.57155e-02,4.48156e-02
2.00520e+03,1.39556e+01,-1.92217e+01,-5.07196e-03,2.54919e-02,4.44436e-02
2.00520e+03,1.35931e+01,-2.05032e+01,-5.17108e-03,2.52686e-02,4.40708e-02
2.00520e+03,1.32039e+01,-2.17846e+01,-5.25984e-03,2.50456e-02,4.36980e-02
2.00520e+03,1.27550e+01,-2.30661e+01,-5.32527e-03,2.48242e-02,4.33253e-02
2.00520e+03,1.22812e+01,-2.43475e+01,-5.38102e-03,2.46050e-02,4.29554e-02
2.00520e+03,1.17384e+01,-2.56290e+01,-5.40982e-03,2.43884e-02,4.25869e-02
2.00520e+03,1.11403e+01,-2.69104e+01,-5.41703e-03,2.41762e-02,4.22234e-02
2.00520e+03,1.04858e+01,-2.81919e+01,-5.40226e-03,2.39690e-02,4.18655e-02
2.00520e+03,9.73672e+00,-2.94733e+01,-5.35061e-03,2.37673e-02,4.15124e-02
2.00520e+03,8.87814e+00,-3.07548e+01,-5.25622e-03,2.35736e-02,4.11677e-02
2.00520e+03,7.89577e+00,-3.20362e+01,-5.11354e-03,2.33904e-02,4.08347e-02
2.00520e+03,6.73385e+00,-3.33177e+01,-4.90081e-03,2.32190e-02,4.05140e-02
2.00520e+03,5.24243e+00,-3.45991e+01,-4.55953e-03,2.30679e-02,4.02141e-02
2.00520e+03,3.22533e+00,-3.58806e+01,-4.01317e-03,2.29755e-02,3.99966e-02
2.00520e+03,-1.30688e+00,-3.71620e+01,-2.48559e-03,2.30121e-02,3.99355e-02
2.00520e+03,-1.63397e+00,-3.71650e+01,-2.35854e-03,2.31256e-02,4.01241e-02
2.00520e+03,-4.61400e+00,-3.58377e+01,-9.46750e-04,2.33410e-02,4.04388e-02
2.00520e+03,-4.97481e+00,-3.45104e+01,-5.56803e-04,2.35001e-02,4.07071e-02
2.00520e+03,-5.09932e+00,-3.31830e+01,-2.59044e-04,2.36675e-02,4.09942e-02
2.00520e+03,-5.11821e+00,-3.18557e+01,-2.48947e-06,2.38427e-02,4.12968e-02
2.00520e+03,-5.05754e+00,-3.05284e+01,2.23022e-04,2.40243e-02,4.16120e-02
2.00520e+03,-4.94693e+00,-2.92011e+01,4.29054e-04,2.42113e-02,4.19373e-02
2.00520e+03,-4.78618e+00,-2.78738e+01,6.15526e-04,2.44024e-02,4.22707e-02
2.00520e+03,-4.59485e+00,-2.65464e+01,7.90065e-04,2.45969e-02,4.26104e-02
2.00520e+03,-4.38577e+00,-2.52191e+01,9.57684e-04,2.47942e-02,4.29554e-02
2.00520e+03,-4.14998e+00,-2.38918e+01,1.11488e-03,2.49937e-02,4.33047e-02
2.00520e+03,-3.89748e+00,-2.25645e+01,1.26555e-03,2.51949e-02,4.36573e-02
2.00520e+03,-3.62871e+00,-2.12371e+01,1.40988e-03,2.53975e-02,4.40124e-02
2.00520e+03,-3.34375e+00,-1.99098e+01,1.54789e-03,2.56010e-02,4.43692e-02
2.00520e+03,-3.04862e+00,-1.85825e+01,1.68194e-03,2.58050e-02,4.47271e-02
2.00520e+03,-2.74048e+00,-1.72552e+01,1.81091e-03,2.60092e-02,4.50856e-02
2.00520e+03,-2.42401e+00,-1.59279e+01,1.93663e-03,2.62134e-02,4.54441e-02
2.00520e+03,-2.10007e+00,-1.46005e+01,2.05943e-03,2.64172e-02,4.58023e-02
2.00520e+03,-1.76946e+00,-1.32732e+01,2.17963e-03,2.66206e-02,4.61596e-02
2.00520e+03,-1.43602e+00,-1.19459e+01,2.29873e-03,2.68232e-02,4.65160e-02
2.00520e+03,-1.09820e+00,-1.06186e+01,2.41613e-03,2.70251e-02,4.68712e-02
2.00520e+03,-7.59661e-01,-9.29125e+00,2.53323e-03,2.72261e-02,4.72250e-02
2.00520e+03,-4.18505e-01,-7.96393e+00,2.64932e-03,2.74262e-02,4.75774e-02
2.00520e+03,-7.73829e-02,-6.63661e+00,2.76542e-03,2.76253e-02,4.79283e-02
2.00520e+03,2.62450e-01,-5.30929e+00,2.88203e-03,2.78234e-02,4.82776e-02
2.00520e+03,6.02282e-01,-3.98196e+00,2.99863e-03,2.80204e-02,4.86254e-02
2.00520e+03,9.34067e-01,-2.65464e+00,3.11838e-03,2.82166e-02,4.89719e-02
2.00520e+03,1.26435e+00,-1.32732e+00,3.23871e-03,2.84118e-02,4.93172e-02
2.02480e+03,1.59367e+01,0.00000e+00,-7.13524e-04,1.52451e-02,2.64149e-02
2.02480e+03,1.58564e+01,-1.21102e+00,-7.81334e-04,1.51601e-02,2.62696e-02
2.02480e+03,1.57496e+01,-2.42204e+00,-8.46050e-04,1.50730e-02,2.61209e-02
2.02480e+03,1.56418e+01,-3.63306e+00,-9.10642e-04,1.49839e-02,2.59689e-02
2.02480e+03,1.55106e+01,-4.84408e+00,-9.72503e-04,1.48931e-02,2.58139e-02
2.02480e+03,1.53739e+01,-6.05509e+00,-1.03373e-03,1.48005e-02,2.56561e-02
2.02480e+03,1.52192e+01,-7.26611e+00,-1.09286e-03,1.47064e-02,2.54957e-02
2.02480e+03,1.50559e+01,-8.47713e+00,-1.15097e-03,1.46109e-02,2.53330e-02
2.02480e+03,1.48781e+01,-9.68815e+00,-1.20740e-03,1.45141e-02,2.51681e-02
2.02480e+03,1.46884e+01,-1.08992e+01,-1.26245e-03,1.44161e-02,2.50014e-02
2.02480e+03,1.44857e+01,-1.21102e+01,-1.31597e-03,1.43171e-02,2.48329e-02
2.02480e+03,1.42672e+01,-1.33212e+01,-1.36765e-03,1.42172e-02,2.46629e-02
2.02480e+03,1.40325e+01,-1.45322e+01,-1.41745e-03,1.41166e-02,2.44917e-02
2.02480e+03,1.37750e+01,-1.57432e+01,-1.46457e-03,1.40153e-02,2.43193e-02
2.02480e+03,1.34951e+01,-1.69543e+01,-1.50909e-03,1.39136e-02,2.41463e-02
2.02480e+03,1.31886e+01,-1.81653e+01,-1.55050e-03,1.38117e-02,2.39728e-02
2.02480e+03,1.28460e+01,-1.93763e+01,-1.58770e-03,1.37099e-02,2.37992e-02
2.02480e+03,1.24782e+01,-2.05873e+01,-1.62196e-03,1.36083e-02,2.36259e-02
2.02480e+03,1.20540e+01,-2.17983e+01,-1.64963e-03,1.35074e-02,2.34535e-02
2.02480e+03,1.16063e+01,-2.30094e+01,-1.67457e-03,1.34074e-02,2.32826e-02
2.02480e+03,1.10933e+01,-2.42204e+01,-1.69189e-03,1.33087e-02,2.31133e-02
2.02480e+03,1.05280e+01,-2.54314e+01,-1.70310e-03,1.32120e-02,2.29471e-02
2.02480e+03,9.90946e+00,-2.66424e+01,-1.70811e-03,1.31175e-02,2.27843e-02
2.02480e+03,9.20158e+00,-2.78534e+01,-1.70269e-03,1.30256e-02,2.26251e-02
2.02480e+03,8.39019e+00,-2.90645e+01,-1.68519e-03,1.29373e-02,2.24714e-02
2.02480e+03,7.46181e+00,-3.02755e+01,-1.65404e-03,1.28538e-02,2.23248e-02
2.02480e+03,6.36374e+00,-3.14865e+01,-1.60309e-03,1.27757e-02,2.21861e-02
2.02480e+03,4.95429e+00,-3.26975e+01,-1.51581e-03,1.27068e-02,2.20610e-02
2.02480e+03,3.04806e+00,-3.39085e+01,-1.37056e-03,1.26647e-02,2.19788e-02
2.02480e+03,-1.23505e+00,-3.51195e+01,-9.47983e-04,1.26814e-02,2.19853e-02
2.02480e+03,-1.54416e+00,-3.51224e+01,-9.12095e-04,1.27332e-02,2.20734e-02
2.02480e+03,-4.36041e+00,-3.38680e+01,-5.03556e-04,1.28314e-02,2.22303e-02
2.02480e+03,-4.70139e+00,-3.26136e+01,-3.83833e-04,1.29039e-02,2.23535e-02
2.02480e+03,-4.81905e+00,-3.13592e+01,-2.90166e-04,1.29802e-02,2.24843e-02
2.02480e+03,-4.83691e+00,-3.01049e+01,-2.08145e-04,1.30601e-02,2.26217e-02
2.02480e+03,-4.77957e+00,-2.88505e+01,-1.34899e-04,1.31429e-02,2.27645e-02
2.02480e+03,-4.67504e+00,-2.75961e+01,-6.71582e-05,1.32281e-02,2.29118e-02
2.02480e+03,-4.52312e+00,-2.63418e+01,-4.94616e-06,1.33152e-02,2.30626e-02
2.02480e+03,-4.34231e+00,-2.50874e+01,5.38935e-05,1.34039e-02,2.32162e-02
2.02480e+03,-4.14473e+00,-2.38330e+01,1.10777e-04,1.34938e-02,2.33722e-02
2.02480e+03,-3.92189e+00,-2.25787e+01,1.64713e-04,1.35847e-02,2.35300e-02
2.02480e+03,-3.68327e+00,-2.13243e+01,2.16808e-04,1.36765e-02,2.36893e-02
2.02480e+03,-3.42927e+00,-2.00699e+01,2.67110e-04,1.37688e-02,2.38497e-02
2.02480e+03,-3.15997e+00,-1.88155e+01,3.15624e-04,1.38615e-02,2.40109e-02
2.02480e+03,-2.88106e+00,-1.75612e+01,3.63019e-04,1.39545e-02,2.41726e-02
2.02480e+03,-2.58986e+00,-1.63068e+01,4.08979e-04,1.40476e-02,2.43346e-02
2.02480e+03,-2.29078e+00,-1.50524e+01,4.54019e-04,1.41406e-02,2.44965e-02
2.02480e+03,-1.98465e+00,-1.37981e+01,4.98236e-04,1.42336e-02,2.46583e-02
2.02480e+03,-1.67220e+00,-1.25437e+01,5.41718e-04,1.43262e-02,2.48197e-02
2.02480e+03,-1.35709e+00,-1.12893e+01,5.84888e-04,1.44186e-02,2.49806e-02
2.02480e+03,-1.03784e+00,-1.00350e+01,6.27575e-04,1.45106e-02,2.51410e-02
2.02480e+03,-7.17909e-01,-8.78059e+00,6.70182e-04,1.46022e-02,2.53007e-02
2.02480e+03,-3.95503e-01,-7.52622e+00,7.12501e-04,1.46934e-02,2.54597e-02
2.02480e+03,-7.31298e-02,-6.27185e+00,7.54823e-04,1.47842e-02,2.56180e-02
2.02480e+03,2.48025e-01,-5.01748e+00,7.97288e-04,1.48744e-02,2.57756e-02
2.02480e+03,5.69180e-01,-3.76311e+00,8.39753e-04,1.49642e-02,2.59324e-02
2.02480e+03,8.82730e-01,-2.50874e+00,8.83105e-04,1.50536e-02,2.60886e-02
2.02480e+03,1.19486e+00,-1.25437e+00,9.26623e-04,1.51426e-02,2.62441e-02
2.03880e+03,1.52746e+01,0.00000e+00,-1.16950e-04,6.17568e-03,1.06972e-02
2.03880e+03,1.51977e+01,-1.16071e+00,-1.31517e-04,6.14780e-03,1.06491e-02
2.03880e+03,1.50954e+01,-2.32142e+00,-1.45547e-04,6.11924e-03,1.05998e-02
2.03880e+03,1.49920e+01,-3.48213e+00,-1.59555e-04,6.09003e-03,1.05495e-02
2.03880e+03,1.48662e+01,-4.64285e+00,-1.73090e-04,6.06023e-03,1.04981e-02
2.03880e+03,1.47352e+01,-5.80356e+00,-1.86515e-04,6.02988e-03,1.04457e-02
2.03880e+03,1.45870e+01,-6.96427e+00,-1.99576e-04,5.99901e-03,1.03925e-02
2.03880e+03,1.44304e+01,-8.12498e+00,-2.12461e-04,5.96769e-03,1.03385e-02
2.03880e+03,1.42600e+01,-9.28569e+00,-2.25054e-04,5.93594e-03,1.02838e-02
2.03880e+03,1.40782e+01,-1.04464e+01,-2.37406e-04,5.90381e-03,1.02285e-02
2.03880e+03,1.38839e+01,-1.16071e+01,-2.49495e-04,5.87134e-03,1.01725e-02
2.03880e+03,1.36745e+01,-1.27678e+01,-2.61264e-04,5.83858e-03,1.01161e-02
2.03880e+03,1.34496e+01,-1.39285e+01,-2.72707e-04,5.80557e-03,1.00592e-02
2.03880e+03,1.32028e+01,-1.50892e+01,-2.83685e-04,5.77235e-03,1.00020e-02
2.03880e+03,1.29345e+01,-1.62500e+01,-2.94213e-04,5.73901e-03,9.94461e-03
2.03880e+03,1.26407e+01,-1.74107e+01,-3.04201e-04,5.70558e-03,9.88704e-03
2.03880e+03,1.23123e+01,-1.85714e+01,-3.13458e-04,5.67220e-03,9.82953e-03
2.03880e+03,1.19599e+01,-1.97321e+01,-3.22208e-04,5.63887e-03,9.77212e-03
2.03880e+03,1.15532e+01,-2.08928e+01,-3.29813e-04,5.60578e-03,9.71509e-03
2.03880e+03,1.11241e+01,-2.20535e+01,-3.36944e-04,5.57300e-03,9.65860e-03
2.03880e+03,1.06324e+01,-2.32142e+01,-3.42754e-04,5.54062e-03,9.60276e-03
2.03880e+03,1.00906e+01,-2.43749e+01,-3.47506e-04,5.50891e-03,9.54805e-03
2.03880e+03,9.49781e+00,-2.55357e+01,-3.51181e-04,5.47793e-03,9.49455e-03
2.03880e+03,8.81933e+00,-2.66964e+01,-3.53047e-04,5.44778e-03,9.44244e-03
2.03880e+03,8.04165e+00,-2.78571e+01,-3.52819e-04,5.41884e-03,9.39234e-03
2.03880e+03,7.15183e+00,-2.90178e+01,-3.50223e-04,5.39145e-03,9.34483e-03
2.03880e+03,6.09938e+00,-3.01785e+01,-3.44194e-04,5.36584e-03,9.30027e-03
2.03880e+03,4.74849e+00,-3.13392e+01,-3.31864e-04,5.34326e-03,9.26074e-03
2.03880e+03,2.92144e+00,-3.24999e+01,-3.09481e-04,5.32946e-03,9.23609e-03
2.03880e+03,-1.18374e+00,-3.36606e+01,-2.39002e-04,5.33493e-03,9.24346e-03
2.03880e+03,-1.48002e+00,-3.36633e+01,-2.32784e-04,5.35191e-03,9.27270e-03
2.03880e+03,-4.17927e+00,-3.24611e+01,-1.59027e-04,5.38411e-03,9.32691e-03
2.03880e+03,-4.50609e+00,-3.12588e+01,-1.35357e-04,5.40790e-03,9.36774e-03
2.03880e+03,-4.61886e+00,-3.00565e+01,-1.16205e-04,5.43294e-03,9.41084e-03
2.03880e+03,-4.63598e+00,-2.88543e+01,-9.90739e-05,5.45913e-03,9.45601e-03
2.03880e+03,-4.58102e+00,-2.76520e+01,-8.34641e-05,5.48628e-03,9.50288e-03
2.03880e+03,-4.48083e+00,-2.64498e+01,-6.88092e-05,5.51422e-03,9.55116e-03
2.03880e+03,-4.33523e+00,-2.52475e+01,-5.51130e-05,5.54280e-03,9.60057e-03
2.03880e+03,-4.16192e+00,-2.40452e+01,-4.20017e-05,5.57187e-03,9.65085e-03
2.03880e+03,-3.97255e+00,-2.28430e+01,-2.92297e-05,5.60136e-03,9.70188e-03
2.03880e+03,-3.75897e+00,-2.16407e+01,-1.69687e-05,5.63118e-03,9.75351e-03
2.03880e+03,-3.53026e+00,-2.04384e+01,-5.02709e-06,5.66126e-03,9.80560e-03
2.03880e+03,-3.28682e+00,-1.92362e+01,6.60345e-06,5.69154e-03,9.85804e-03
2.03880e+03,-3.02870e+00,-1.80339e+01,1.79241e-05,5.72195e-03,9.91073e-03
2.03880e+03,-2.76138e+00,-1.68317e+01,2.90506e-05,5.75244e-03,9.96357e-03
2.03880e+03,-2.48228e+00,-1.56294e+01,3.99282e-05,5.78297e-03,1.00165e-02
2.03880e+03,-2.19562e+00,-1.44271e+01,5.06464e-05,5.81348e-03,1.00694e-02
2.03880e+03,-1.90220e+00,-1.32249e+01,6.12217e-05,5.84395e-03,1.01222e-02
2.03880e+03,-1.60274e+00,-1.20226e+01,7.16695e-05,5.87434e-03,1.01749e-02
2.03880e+03,-1.30072e+00,-1.08204e+01,8.20633e-05,5.90463e-03,1.02275e-02
2.03880e+03,-9.94731e-01,-9.61809e+00,9.23734e-05,5.93481e-03,1.02798e-02
2.03880e+03,-6.88086e-01,-8.41583e+00,1.02670e-04,5.96485e-03,1.03319e-02
2.03880e+03,-3.79073e-01,-7.21357e+00,1.12916e-04,5.99475e-03,1.03838e-02
2.03880e+03,-7.00919e-02,-6.01131e+00,1.23163e-04,6.02450e-03,1.04355e-02
2.03880e+03,2.37722e-01,-4.80905e+00,1.33434e-04,6.05411e-03,1.04869e-02
2.03880e+03,5.45535e-01,-3.60678e+00,1.43706e-04,6.08355e-03,1.05380e-02
2.03880e+03,8.46060e-01,-2.40452e+00,1.54131e-04,6.11286e-03,1.05889e-02
2.03880e+03,1.14523e+00,-1.20226e+00,1.64585e-04,6.14204e-03,1.06396e-02
2.04720e+03,1.48774e+01,0.00000e+00,-1.27658e-05,1.30211e-03,2.25536e-03
2.04720e+03,1.48025e+01,-1.13053e+00,-1.51265e-05,1.29816e-03,2.24853e-03
2.04720e+03,1.47028e+01,-2.26105e+00,-1.74218e-05,1.29411e-03,2.24153e-03
2.04720e+03,1.46021e+01,-3.39158e+00,-1.97146e-05,1.28997e-03,2.23438e-03
2.04720e+03,1.44796e+01,-4.52211e+00,-2.19496e-05,1.28575e-03,2.22708e-03
2.04720e+03,1.43520e+01,-5.65264e+00,-2.41713e-05,1.28144e-03,2.21965e-03
2.04720e+03,1.42077e+01,-6.78316e+00,-2.63488e-05,1.27707e-03,2.21210e-03
2.04720e+03,1.40552e+01,-7.91369e+00,-2.85047e-05,1.27263e-03,2.20444e-03
2.04720e+03,1.38892e+01,-9.04422e+00,-3.06251e-05,1.26813e-03,2.19667e-03
2.04720e+03,1.37121e+01,-1.01747e+01,-3.27163e-05,1.26357e-03,2.18882e-03
2.04720e+03,1.35229e+01,-1.13053e+01,-3.47753e-05,1.25897e-03,2.18088e-03
2.04720e+03,1.33189e+01,-1.24358e+01,-3.67955e-05,1.25433e-03,2.17287e-03
2.04720e+03,1.30998e+01,-1.35663e+01,-3.87758e-05,1.24965e-03,2.16480e-03
2.04720e+03,1.28594e+01,-1.46969e+01,-4.06997e-05,1.24494e-03,2.15668e-03
2.04720e+03,1.25982e+01,-1.58274e+01,-4.25687e-05,1.24021e-03,2.14853e-03
2.04720e+03,1.23120e+01,-1.69579e+01,-4.43720e-05,1.23547e-03,2.14036e-03
2.04720e+03,1.19922e+01,-1.80884e+01,-4.60863e-05,1.23074e-03,2.13220e-03
2.04720e+03,1.16489e+01,-1.92190e+01,-4.77388e-05,1.22602e-03,2.12406e-03
2.04720e+03,1.12528e+01,-2.03495e+01,-4.92521e-05,1.22133e-03,2.11597e-03
2.04720e+03,1.08348e+01,-2.14800e+01,-5.07076e-05,1.21668e-03,2.10796e-03
2.04720e+03,1.03559e+01,-2.26105e+01,-5.20023e-05,1.21209e-03,2.10005e-03
2.04720e+03,9.82823e+00,-2.37411e+01,-5.31682e-05,1.20760e-03,2.09230e-03
2.04720e+03,9.25081e+00,-2.48716e+01,-5.42029e-05,1.20321e-03,2.08472e-03
2.04720e+03,8.58998e+00,-2.60021e+01,-5.50175e-05,1.19893e-03,2.07734e-03
2.04720e+03,7.83252e+00,-2.71326e+01,-5.55771e-05,1.19483e-03,2.07025e-03
2.04720e+03,6.96585e+00,-2.82632e+01,-5.58485e-05,1.19095e-03,2.06354e-03
2.04720e+03,5.94077e+00,-2.93937e+01,-5.57019e-05,1.18732e-03,2.05725e-03
2.04720e+03,4.62500e+00,-3.05242e+01,-5.47883e-05,1.18412e-03,2.05168e-03
2.04720e+03,2.84547e+00,-3.16548e+01,-5.26509e-05,1.18216e-03,2.04824e-03
2.04720e+03,-1.15296e+00,-3.27853e+01,-4.46584e-05,1.18294e-03,2.04940e-03
2.04720e+03,-1.44153e+00,-3.27879e+01,-4.39028e-05,1.18535e-03,2.05355e-03
2.04720e+03,-4.07059e+00,-3.16169e+01,-3.43154e-05,1.18991e-03,2.06127e-03
2.04720e+03,-4.38891e+00,-3.04459e+01,-3.08254e-05,1.19328e-03,2.06705e-03
2.04720e+03,-4.49875e+00,-2.92749e+01,-2.78856e-05,1.19683e-03,2.07316e-03
2.04720e+03,-4.51542e+00,-2.81039e+01,-2.51917e-05,1.20054e-03,2.07955e-03
2.04720e+03,-4.46189e+00,-2.69329e+01,-2.26830e-05,1.20439e-03,2.08619e-03
2.04720e+03,-4.36430e+00,-2.57619e+01,-2.02905e-05,1.20835e-03,2.09303e-03
2.04720e+03,-4.22249e+00,-2.45909e+01,-1.80147e-05,1.21240e-03,2.10002e-03
2.04720e+03,-4.05369e+00,-2.34199e+01,-1.58102e-05,1.21652e-03,2.10714e-03
2.04720e+03,-3.86924e+00,-2.22489e+01,-1.36470e-05,1.22070e-03,2.11436e-03
2.04720e+03,-3.66121e+00,-2.10779e+01,-1.15459e-05,1.22493e-03,2.12167e-03
2.04720e+03,-3.43845e+00,-1.99069e+01,-9.48377e-06,1.22919e-03,2.12905e-03
2.04720e+03,-3.20134e+00,-1.87359e+01,-7.45949e-06,1.23349e-03,2.13647e-03
2.04720e+03,-2.94994e+00,-1.75649e+01,-5.47293e-06,1.23780e-03,2.14393e-03
2.04720e+03,-2.68957e+00,-1.63940e+01,-3.51001e-06,1.24212e-03,2.15142e-03
2.04720e+03,-2.41772e+00,-1.52230e+01,-1.57739e-06,1.24645e-03,2.15891e-03
2.04720e+03,-2.13852e+00,-1.40520e+01,3.35832e-07,1.25077e-03,2.16640e-03
2.04720e+03,-1.85273e+00,-1.28810e+01,2.23166e-06,1.25509e-03,2.17388e-03
2.04720e+03,-1.56106e+00,-1.17100e+01,4.11196e-06,1.25940e-03,2.18134e-03
2.04720e+03,-1.26689e+00,-1.05390e+01,5.98569e-06,1.26369e-03,2.18878e-03
2.04720e+03,-9.68863e-01,-9.36797e+00,7.84922e-06,1.26797e-03,2.19620e-03
2.04720e+03,-6.70192e-01,-8.19698e+00,9.71106e-06,1.27222e-03,2.20358e-03
2.04720e+03,-3.69215e-01,-7.02598e+00,1.15668e-05,1.27646e-03,2.21093e-03
2.04720e+03,-6.82691e-02,-5.85498e+00,1.34227e-05,1.28068e-03,2.21824e-03
2.04720e+03,2.31540e-01,-4.68399e+00,1.52815e-05,1.28488e-03,2.22552e-03
2.04720e+03,5.31348e-01,-3.51299e+00,1.71403e-05,1.28905e-03,2.23276e-03
2.04720e+03,8.24058e-01,-2.34199e+00,1.90179e-05,1.29320e-03,2.23997e-03
2.04720e+03,1.11544e+00,-1.17100e+00,2.08990e-05,1.29734e-03,2.24715e-03
2.05000e+03,1.47450e+01,0.00000e+00,0.00000e+00,0.00000e+00,0.00000e+00
2.05000e+03,1.46708e+01,-1.12047e+00,0.00000e+00,0.00000e+00,0.00000e+00
2.05000e+03,1.45720e+01,-2.24093e+00,0.00000e+00,0.00000e+00,0.00000e+00
2.05000e+03,1.44722e+01,-3.36140e+00,0.00000e+00,0.00000e+00,0.00000e+00
2.05000e+03,1.43508e+01,-4.48186e+00,0.00000e+00,0.00000e+00,0.00000e+00
2.05000e+03,1.42243e+01,-5.60233e+00,0.00000e+00,0.00000e+00,0.00000e+00
2.05000e+03,1.40812e+01,-6.72279e+00,0.00000e+00,0.00000e+00,0.00000e+00
2.05000e+03,1.39301e+01,-7.84326e+00,0.00000e+00,0.00000e+00,0.00000e+00
2.05000e+03,1.37656e+01,-8.96372e+00,0.00000e+00,0.00000e+00,0.00000e+00
2.05000e+03,1.35901e+01,-1.00842e+01,0.00000e+00,0.00000e+00,0.00000e+00
2.05000e+03,1.34025e+01,-1.12047e+01,0.00000e+00,0.00000e+00,0.00000e+00
2.05000e+03,1.32004e+01,-1.23251e+01,0.00000e+00,0.00000e+00,0.00000e+00
2.05000e+03,1.29833e+01,-1.34456e+01,0.00000e+00,0.00000e+00,0.00000e+00
2.05000e+03,1.27450e+01,-1.45661e+01,0.00000e+00,0.00000e+00,0.00000e+00
2.05000e+03,1.24860e+01,-1.56865e+01,0.00000e+00,0.00000e+00,0.00000e+00
2.05000e+03,1.22024e+01,-1.68070e+01,0.00000e+00,0.00000e+00,0.00000e+00
2.05000e+03,1.18854e+01,-1.79274e+01,0.00000e+00,0.00000e+00,0.00000e+00
2.05000e+03,1.15452e+01,-1.90479e+01,0.00000e+00,0.00000e+00,0.00000e+00
2.05000e+03,1.11526e+01,-2.01684e+01,0.00000e+00,0.00000e+00,0.00000e+00
2.05000e+03,1.07384e+01,-2.12888e+01,0.00000e+00,0.00000e+00,0.00000e+00
2.05000e+03,1.02638e+01,-2.24093e+01,0.00000e+00,0.00000e+00,0.00000e+00
2.05000e+03,9.74076e+00,-2.35298e+01,0.00000e+00,0.00000e+00,0.00000e+00
2.05000e+03,9.16848e+00,-2.46502e+01,0.00000e+00,0.00000e+00,0.00000e+00
2.05000e+03,8.51353e+00,-2.57707e+01,0.00000e+00,0.00000e+00,0.00000e+00
2.05000e+03,7.76281e+00,-2.68912e+01,0.00000e+00,0.00000e+00,0.00000e+00
2.05000e+03,6.90385e+00,-2.80116e+01,0.00000e+00,0.00000e+00,0.00000e+00
2.05000e+03,5.88790e+00,-2.91321e+01,0.00000e+00,0.00000e+00,0.00000e+00
2.05000e+03,4.58384e+00,-3.02526e+01,0.00000e+00,0.00000e+00,0.00000e+00
2.05000e+03,2.82014e+00,-3.13730e+01,0.00000e+00,0.00000e+00,0.00000e+00
2.05000e+03,-1.14270e+00,-3.24935e+01,0.00000e+00,0.00000e+00,0.00000e+00
2.05000e+03,-1.42870e+00,-3.24961e+01,0.00000e+00,0.00000e+00,0.00000e+00
2.05000e+03,-4.03436e+00,-3.13355e+01,0.00000e+00,0.00000e+00,0.00000e+00
2.05000e+03,-4.34985e+00,-3.01749e+01,0.00000e+00,0.00000e+00,0.00000e+00
2.05000e+03,-4.45871e+00,-2.90144e+01,0.00000e+00,0.00000e+00,0.00000e+00
2.05000e+03,-4.47523e+00,-2.78538e+01,0.00000e+00,0.00000e+00,0.00000e+00
2.05000e+03,-4.42218e+00,-2.66932e+01,0.00000e+00,0.00000e+00,0.00000e+00
2.05000e+03,-4.32546e+00,-2.55327e+01,0.00000e+00,0.00000e+00,0.00000e+00
2.05000e+03,-4.18491e+00,-2.43721e+01,0.00000e+00,0.00000e+00,0.00000e+00
2.05000e+03,-4.01761e+00,-2.32115e+01,0.00000e+00,0.00000e+00,0.00000e+00
2.05000e+03,-3.83480e+00,-2.20509e+01,0.00000e+00,0.00000e+00,0.00000e+00
2.05000e+03,-3.62863e+00,-2.08903e+01,0.00000e+00,0.00000e+00,0.00000e+00
2.05000e+03,-3.40785e+00,-1.97298e+01,0.00000e+00,0.00000e+00,0.00000e+00
2.05000e+03,-3.17285e+00,-1.85692e+01,0.00000e+00,0.00000e+00,0.00000e+00
2.05000e+03,-2.92368e+00,-1.74086e+01,0.00000e+00,0.00000e+00,0.00000e+00
2.05000e+03,-2.66563e+00,-1.62480e+01,0.00000e+00,0.00000e+00,0.00000e+00
2.05000e+03,-2.39621e+00,-1.50875e+01,0.00000e+00,0.00000e+00,0.00000e+00
2.05000e+03,-2.11949e+00,-1.39269e+01,0.00000e+00,0.00000e+00,0.00000e+00
2.05000e+03,-1.83624e+00,-1.27663e+01,0.00000e+00,0.00000e+00,0.00000e+00
2.05000e+03,-1.54717e+00,-1.16057e+01,0.00000e+00,0.00000e+00,0.00000e+00
2.05000e+03,-1.25562e+00,-1.04452e+01,0.00000e+00,0.00000e+00,0.00000e+00
2.05000e+03,-9.60241e-01,-9.28460e+00,0.00000e+00,0.00000e+00,0.00000e+00
2.05000e+03,-6.64227e-01,-8.12402e+00,0.00000e+00,0.00000e+00,0.00000e+00
2.05000e+03,-3.65929e-01,-6.96345e+00,0.00000e+00,0.00000e+00,0.00000e+00
2.05000e+03,-6.76615e-02,-5.80287e+00,0.00000e+00,0.00000e+00,0.00000e+00
2.05000e+03,2.29479e-01,-4.64230e+00,0.00000e+00,0.00000e+00,0.00000e+00
2.05000e+03,5.26620e-01,-3.48173e+00,0.00000e+00,0.00000e+00,0.00000e+00
2.05000e+03,8.16724e-01,-2.32115e+00,0.00000e+00,0.00000e+00,0.00000e+00
2.05000e+03,1.10552e+00,-1.16058e+00,0.00000e+00,0.00000e+00,0.00000e+00
--------------------------------------------------------------------------------------------------------------------------------------------------------------------------------------------------------------------------------------------------------------------------------------------------------------------------------------------------------------------------------

LAMINADO 
--------------------------------------------------------------------------------------------------------------------------------------------------------------------------------------------------------------------------------------------------------------------------------------------------------------------------------------------------------------------------------
X,Y,Z,Sigma,Tau,Von Mises
0.00000e+00,4.31008e+01,0.00000e+00,0.00000e+00,0.00000e+00,0.00000e+00
0.00000e+00,4.28837e+01,-3.27521e+00,0.00000e+00,0.00000e+00,0.00000e+00
0.00000e+00,4.25950e+01,-6.55041e+00,0.00000e+00,0.00000e+00,0.00000e+00
0.00000e+00,4.23033e+01,-9.82562e+00,0.00000e+00,0.00000e+00,0.00000e+00
0.00000e+00,4.19484e+01,-1.31008e+01,0.00000e+00,0.00000e+00,0.00000e+00
0.00000e+00,4.15787e+01,-1.63760e+01,0.00000e+00,0.00000e+00,0.00000e+00
0.00000e+00,4.11605e+01,-1.96512e+01,0.00000e+00,0.00000e+00,0.00000e+00
0.00000e+00,4.07187e+01,-2.29264e+01,0.00000e+00,0.00000e+00,0.00000e+00
0.00000e+00,4.02378e+01,-2.62017e+01,0.00000e+00,0.00000e+00,0.00000e+00
0.00000e+00,3.97249e+01,-2.94769e+01,0.00000e+00,0.00000e+00,0.00000e+00
0.00000e+00,3.91766e+01,-3.27521e+01,0.00000e+00,0.00000e+00,0.00000e+00
0.00000e+00,3.85857e+01,-3.60273e+01,0.00000e+00,0.00000e+00,0.00000e+00
0.00000e+00,3.79511e+01,-3.93025e+01,0.00000e+00,0.00000e+00,0.00000e+00
0.00000e+00,3.72545e+01,-4.25777e+01,0.00000e+00,0.00000e+00,0.00000e+00
0.00000e+00,3.64976e+01,-4.58529e+01,0.00000e+00,0.00000e+00,0.00000e+00
0.00000e+00,3.56687e+01,-4.91281e+01,0.00000e+00,0.00000e+00,0.00000e+00
0.00000e+00,3.47420e+01,-5.24033e+01,0.00000e+00,0.00000e+00,0.00000e+00
0.00000e+00,3.37474e+01,-5.56785e+01,0.00000e+00,0.00000e+00,0.00000e+00
0.00000e+00,3.26000e+01,-5.89537e+01,0.00000e+00,0.00000e+00,0.00000e+00
0.00000e+00,3.13892e+01,-6.22289e+01,0.00000e+00,0.00000e+00,0.00000e+00
0.00000e+00,3.00018e+01,-6.55041e+01,0.00000e+00,0.00000e+00,0.00000e+00
0.00000e+00,2.84730e+01,-6.87793e+01,0.00000e+00,0.00000e+00,0.00000e+00
0.00000e+00,2.68002e+01,-7.20546e+01,0.00000e+00,0.00000e+00,0.00000e+00
0.00000e+00,2.48857e+01,-7.53298e+01,0.00000e+00,0.00000e+00,0.00000e+00
0.00000e+00,2.26913e+01,-7.86050e+01,0.00000e+00,0.00000e+00,0.00000e+00
0.00000e+00,2.01805e+01,-8.18802e+01,0.00000e+00,0.00000e+00,0.00000e+00
0.00000e+00,1.72108e+01,-8.51554e+01,0.00000e+00,0.00000e+00,0.00000e+00
0.00000e+00,1.33989e+01,-8.84306e+01,0.00000e+00,0.00000e+00,0.00000e+00
0.00000e+00,8.24350e+00,-9.17058e+01,0.00000e+00,0.00000e+00,0.00000e+00
0.00000e+00,-3.34020e+00,-9.49810e+01,0.00000e+00,0.00000e+00,0.00000e+00
0.00000e+00,-4.17620e+00,-9.49886e+01,0.00000e+00,0.00000e+00,0.00000e+00
0.00000e+00,-1.17928e+01,-9.15961e+01,0.00000e+00,0.00000e+00,0.00000e+00
0.00000e+00,-1.27149e+01,-8.82037e+01,0.00000e+00,0.00000e+00,0.00000e+00
0.00000e+00,-1.30332e+01,-8.48113e+01,0.00000e+00,0.00000e+00,0.00000e+00
0.00000e+00,-1.30814e+01,-8.14188e+01,0.00000e+00,0.00000e+00,0.00000e+00
0.00000e+00,-1.29264e+01,-7.80264e+01,0.00000e+00,0.00000e+00,0.00000e+00
0.00000e+00,-1.26437e+01,-7.46339e+01,0.00000e+00,0.00000e+00,0.00000e+00
0.00000e+00,-1.22328e+01,-7.12415e+01,0.00000e+00,0.00000e+00,0.00000e+00
0.00000e+00,-1.17438e+01,-6.78490e+01,0.00000e+00,0.00000e+00,0.00000e+00
0.00000e+00,-1.12094e+01,-6.44565e+01,0.00000e+00,0.00000e+00,0.00000e+00
0.00000e+00,-1.06068e+01,-6.10641e+01,0.00000e+00,0.00000e+00,0.00000e+00
0.00000e+00,-9.96142e+00,-5.76716e+01,0.00000e+00,0.00000e+00,0.00000e+00
0.00000e+00,-9.27449e+00,-5.42792e+01,0.00000e+00,0.00000e+00,0.00000e+00
0.00000e+00,-8.54615e+00,-5.08867e+01,0.00000e+00,0.00000e+00,0.00000e+00
0.00000e+00,-7.79185e+00,-4.74943e+01,0.00000e+00,0.00000e+00,0.00000e+00
0.00000e+00,-7.00429e+00,-4.41018e+01,0.00000e+00,0.00000e+00,0.00000e+00
0.00000e+00,-6.19544e+00,-4.07094e+01,0.00000e+00,0.00000e+00,0.00000e+00
0.00000e+00,-5.36748e+00,-3.73169e+01,0.00000e+00,0.00000e+00,0.00000e+00
0.00000e+00,-4.52248e+00,-3.39245e+01,0.00000e+00,0.00000e+00,0.00000e+00
0.00000e+00,-3.67026e+00,-3.05320e+01,0.00000e+00,0.00000e+00,0.00000e+00
0.00000e+00,-2.80686e+00,-2.71396e+01,0.00000e+00,0.00000e+00,0.00000e+00
0.00000e+00,-1.94159e+00,-2.37472e+01,0.00000e+00,0.00000e+00,0.00000e+00
0.00000e+00,-1.06964e+00,-2.03547e+01,0.00000e+00,0.00000e+00,0.00000e+00
0.00000e+00,-1.97780e-01,-1.69622e+01,0.00000e+00,0.00000e+00,0.00000e+00
0.00000e+00,6.70785e-01,-1.35698e+01,0.00000e+00,0.00000e+00,0.00000e+00
0.00000e+00,1.53935e+00,-1.01774e+01,0.00000e+00,0.00000e+00,0.00000e+00
0.00000e+00,2.38735e+00,-6.78490e+00,0.00000e+00,0.00000e+00,0.00000e+00
0.00000e+00,3.23151e+00,-3.39245e+00,0.00000e+00,0.00000e+00,0.00000e+00
1.07300e+02,4.26785e+01,0.00000e+00,0.00000e+00,0.00000e+00,0.00000e+00
1.07300e+02,4.24636e+01,-3.24312e+00,0.00000e+00,0.00000e+00,0.00000e+00
1.07300e+02,4.21777e+01,-6.48624e+00,0.00000e+00,0.00000e+00,0.00000e+00
1.07300e+02,4.18889e+01,-9.72936e+00,0.00000e+00,0.00000e+00,0.00000e+00
1.07300e+02,4.15374e+01,-1.29725e+01,0.00000e+00,0.00000e+00,0.00000e+00
1.07300e+02,4.11714e+01,-1.62156e+01,0.00000e+00,0.00000e+00,0.00000e+00
1.07300e+02,4.07572e+01,-1.94587e+01,0.00000e+00,0.00000e+00,0.00000e+00
1.07300e+02,4.03197e+01,-2.27018e+01,0.00000e+00,0.00000e+00,0.00000e+00
1.07300e+02,3.98436e+01,-2.59450e+01,0.00000e+00,0.00000e+00,0.00000e+00
1.07300e+02,3.93357e+01,-2.91881e+01,0.00000e+00,0.00000e+00,0.00000e+00
1.07300e+02,3.87928e+01,-3.24312e+01,0.00000e+00,0.00000e+00,0.00000e+00
1.07300e+02,3.82077e+01,-3.56743e+01,0.00000e+00,0.00000e+00,0.00000e+00
1.07300e+02,3.75793e+01,-3.89174e+01,0.00000e+00,0.00000e+00,0.00000e+00
1.07300e+02,3.68895e+01,-4.21606e+01,0.00000e+00,0.00000e+00,0.00000e+00
1.07300e+02,3.61401e+01,-4.54037e+01,0.00000e+00,0.00000e+00,0.00000e+00
1.07300e+02,3.53192e+01,-4.86468e+01,0.00000e+00,0.00000e+00,0.00000e+00
1.07300e+02,3.44016e+01,-5.18899e+01,0.00000e+00,0.00000e+00,0.00000e+00
1.07300e+02,3.34168e+01,-5.51330e+01,0.00000e+00,0.00000e+00,0.00000e+00
1.07300e+02,3.22806e+01,-5.83762e+01,0.00000e+00,0.00000e+00,0.00000e+00
1.07300e+02,3.10816e+01,-6.16193e+01,0.00000e+00,0.00000e+00,0.00000e+00
1.07300e+02,2.97079e+01,-6.48624e+01,0.00000e+00,0.00000e+00,0.00000e+00
1.07300e+02,2.81940e+01,-6.81055e+01,0.00000e+00,0.00000e+00,0.00000e+00
1.07300e+02,2.65376e+01,-7.13486e+01,0.00000e+00,0.00000e+00,0.00000e+00
1.07300e+02,2.46419e+01,-7.45918e+01,0.00000e+00,0.00000e+00,0.00000e+00
1.07300e+02,2.24690e+01,-7.78349e+01,0.00000e+00,0.00000e+00,0.00000e+00
1.07300e+02,1.99828e+01,-8.10780e+01,0.00000e+00,0.00000e+00,0.00000e+00
1.07300e+02,1.70422e+01,-8.43211e+01,0.00000e+00,0.00000e+00,0.00000e+00
1.07300e+02,1.32676e+01,-8.75642e+01,0.00000e+00,0.00000e+00,0.00000e+00
1.07300e+02,8.16273e+00,-9.08074e+01,0.00000e+00,0.00000e+00,0.00000e+00
1.07300e+02,-3.30748e+00,-9.40505e+01,0.00000e+00,0.00000e+00,0.00000e+00
1.07300e+02,-4.13529e+00,-9.40580e+01,0.00000e+00,0.00000e+00,0.00000e+00
1.07300e+02,-1.16772e+01,-9.06988e+01,0.00000e+00,0.00000e+00,0.00000e+00
1.07300e+02,-1.25904e+01,-8.73396e+01,0.00000e+00,0.00000e+00,0.00000e+00
1.07300e+02,-1.29055e+01,-8.39804e+01,0.00000e+00,0.00000e+00,0.00000e+00
1.07300e+02,-1.29533e+01,-8.06211e+01,0.00000e+00,0.00000e+00,0.00000e+00
1.07300e+02,-1.27997e+01,-7.72619e+01,0.00000e+00,0.00000e+00,0.00000e+00
1.07300e+02,-1.25198e+01,-7.39027e+01,0.00000e+00,0.00000e+00,0.00000e+00
1.07300e+02,-1.21130e+01,-7.05435e+01,0.00000e+00,0.00000e+00,0.00000e+00
1.07300e+02,-1.16287e+01,-6.71843e+01,0.00000e+00,0.00000e+00,0.00000e+00
1.07300e+02,-1.10996e+01,-6.38251e+01,0.00000e+00,0.00000e+00,0.00000e+00
1.07300e+02,-1.05029e+01,-6.04659e+01,0.00000e+00,0.00000e+00,0.00000e+00
1.07300e+02,-9.86382e+00,-5.71066e+01,0.00000e+00,0.00000e+00,0.00000e+00
1.07300e+02,-9.18363e+00,-5.37474e+01,0.00000e+00,0.00000e+00,0.00000e+00
1.07300e+02,-8.46243e+00,-5.03882e+01,0.00000e+00,0.00000e+00,0.00000e+00
1.07300e+02,-7.71552e+00,-4.70290e+01,0.00000e+00,0.00000e+00,0.00000e+00
1.07300e+02,-6.93567e+00,-4.36698e+01,0.00000e+00,0.00000e+00,0.00000e+00
1.07300e+02,-6.13474e+00,-4.03106e+01,0.00000e+00,0.00000e+00,0.00000e+00
1.07300e+02,-5.31490e+00,-3.69514e+01,0.00000e+00,0.00000e+00,0.00000e+00
1.07300e+02,-4.47818e+00,-3.35921e+01,0.00000e+00,0.00000e+00,0.00000e+00
1.07300e+02,-3.63431e+00,-3.02329e+01,0.00000e+00,0.00000e+00,0.00000e+00
1.07300e+02,-2.77936e+00,-2.68737e+01,0.00000e+00,0.00000e+00,0.00000e+00
1.07300e+02,-1.92257e+00,-2.35145e+01,0.00000e+00,0.00000e+00,0.00000e+00
1.07300e+02,-1.05916e+00,-2.01553e+01,0.00000e+00,0.00000e+00,0.00000e+00
1.07300e+02,-1.95842e-01,-1.67961e+01,0.00000e+00,0.00000e+00,0.00000e+00
1.07300e+02,6.64213e-01,-1.34369e+01,0.00000e+00,0.00000e+00,0.00000e+00
1.07300e+02,1.52427e+00,-1.00776e+01,0.00000e+00,0.00000e+00,0.00000e+00
1.07300e+02,2.36396e+00,-6.71843e+00,0.00000e+00,0.00000e+00,0.00000e+00
1.07300e+02,3.19985e+00,-3.35921e+00,0.00000e+00,0.00000e+00,0.00000e+00
2.14300e+02,4.22575e+01,0.00000e+00,0.00000e+00,0.00000e+00,0.00000e+00
2.14300e+02,4.20447e+01,-3.21112e+00,0.00000e+00,0.00000e+00,0.00000e+00
2.14300e+02,4.17615e+01,-6.42224e+00,0.00000e+00,0.00000e+00,0.00000e+00
2.14300e+02,4.14756e+01,-9.63337e+00,0.00000e+00,0.00000e+00,0.00000e+00
2.14300e+02,4.11276e+01,-1.28445e+01,0.00000e+00,0.00000e+00,0.00000e+00
2.14300e+02,4.07652e+01,-1.60556e+01,0.00000e+00,0.00000e+00,0.00000e+00
2.14300e+02,4.03551e+01,-1.92667e+01,0.00000e+00,0.00000e+00,0.00000e+00
2.14300e+02,3.99219e+01,-2.24779e+01,0.00000e+00,0.00000e+00,0.00000e+00
2.14300e+02,3.94505e+01,-2.56890e+01,0.00000e+00,0.00000e+00,0.00000e+00
2.14300e+02,3.89476e+01,-2.89001e+01,0.00000e+00,0.00000e+00,0.00000e+00
2.14300e+02,3.84101e+01,-3.21112e+01,0.00000e+00,0.00000e+00,0.00000e+00
2.14300e+02,3.78307e+01,-3.53223e+01,0.00000e+00,0.00000e+00,0.00000e+00
2.14300e+02,3.72085e+01,-3.85335e+01,0.00000e+00,0.00000e+00,0.00000e+00
2.14300e+02,3.65256e+01,-4.17446e+01,0.00000e+00,0.00000e+00,0.00000e+00
2.14300e+02,3.57835e+01,-4.49557e+01,0.00000e+00,0.00000e+00,0.00000e+00
2.14300e+02,3.49707e+01,-4.81668e+01,0.00000e+00,0.00000e+00,0.00000e+00
2.14300e+02,3.40622e+01,-5.13780e+01,0.00000e+00,0.00000e+00,0.00000e+00
2.14300e+02,3.30871e+01,-5.45891e+01,0.00000e+00,0.00000e+00,0.00000e+00
2.14300e+02,3.19621e+01,-5.78002e+01,0.00000e+00,0.00000e+00,0.00000e+00
2.14300e+02,3.07750e+01,-6.10113e+01,0.00000e+00,0.00000e+00,0.00000e+00
2.14300e+02,2.94148e+01,-6.42224e+01,0.00000e+00,0.00000e+00,0.00000e+00
2.14300e+02,2.79159e+01,-6.74336e+01,0.00000e+00,0.00000e+00,0.00000e+00
2.14300e+02,2.62758e+01,-7.06447e+01,0.00000e+00,0.00000e+00,0.00000e+00
2.14300e+02,2.43988e+01,-7.38558e+01,0.00000e+00,0.00000e+00,0.00000e+00
2.14300e+02,2.22473e+01,-7.70669e+01,0.00000e+00,0.00000e+00,0.00000e+00
2.14300e+02,1.97856e+01,-8.02781e+01,0.00000e+00,0.00000e+00,0.00000e+00
2.14300e+02,1.68740e+01,-8.34892e+01,0.00000e+00,0.00000e+00,0.00000e+00
2.14300e+02,1.31367e+01,-8.67003e+01,0.00000e+00,0.00000e+00,0.00000e+00
2.14300e+02,8.08220e+00,-8.99114e+01,0.00000e+00,0.00000e+00,0.00000e+00
2.14300e+02,-3.27484e+00,-9.31226e+01,0.00000e+00,0.00000e+00,0.00000e+00
2.14300e+02,-4.09449e+00,-9.31300e+01,0.00000e+00,0.00000e+00,0.00000e+00
2.14300e+02,-1.15620e+01,-8.98039e+01,0.00000e+00,0.00000e+00,0.00000e+00
2.14300e+02,-1.24661e+01,-8.64779e+01,0.00000e+00,0.00000e+00,0.00000e+00
2.14300e+02,-1.27781e+01,-8.31518e+01,0.00000e+00,0.00000e+00,0.00000e+00
2.14300e+02,-1.28255e+01,-7.98257e+01,0.00000e+00,0.00000e+00,0.00000e+00
2.14300e+02,-1.26734e+01,-7.64996e+01,0.00000e+00,0.00000e+00,0.00000e+00
2.14300e+02,-1.23963e+01,-7.31736e+01,0.00000e+00,0.00000e+00,0.00000e+00
2.14300e+02,-1.19935e+01,-6.98475e+01,0.00000e+00,0.00000e+00,0.00000e+00
2.14300e+02,-1.15140e+01,-6.65214e+01,0.00000e+00,0.00000e+00,0.00000e+00
2.14300e+02,-1.09901e+01,-6.31954e+01,0.00000e+00,0.00000e+00,0.00000e+00
2.14300e+02,-1.03992e+01,-5.98693e+01,0.00000e+00,0.00000e+00,0.00000e+00
2.14300e+02,-9.76651e+00,-5.65432e+01,0.00000e+00,0.00000e+00,0.00000e+00
2.14300e+02,-9.09302e+00,-5.32171e+01,0.00000e+00,0.00000e+00,0.00000e+00
2.14300e+02,-8.37893e+00,-4.98911e+01,0.00000e+00,0.00000e+00,0.00000e+00
2.14300e+02,-7.63939e+00,-4.65650e+01,0.00000e+00,0.00000e+00,0.00000e+00
2.14300e+02,-6.86724e+00,-4.32389e+01,0.00000e+00,0.00000e+00,0.00000e+00
2.14300e+02,-6.07421e+00,-3.99129e+01,0.00000e+00,0.00000e+00,0.00000e+00
2.14300e+02,-5.26246e+00,-3.65868e+01,0.00000e+00,0.00000e+00,0.00000e+00
2.14300e+02,-4.43399e+00,-3.32607e+01,0.00000e+00,0.00000e+00,0.00000e+00
2.14300e+02,-3.59845e+00,-2.99346e+01,0.00000e+00,0.00000e+00,0.00000e+00
2.14300e+02,-2.75194e+00,-2.66086e+01,0.00000e+00,0.00000e+00,0.00000e+00
2.14300e+02,-1.90360e+00,-2.32825e+01,0.00000e+00,0.00000e+00,0.00000e+00
2.14300e+02,-1.04871e+00,-1.99564e+01,0.00000e+00,0.00000e+00,0.00000e+00
2.14300e+02,-1.93910e-01,-1.66304e+01,0.00000e+00,0.00000e+00,0.00000e+00
2.14300e+02,6.57660e-01,-1.33043e+01,0.00000e+00,0.00000e+00,0.00000e+00
2.14300e+02,1.50923e+00,-9.97821e+00,0.00000e+00,0.00000e+00,0.00000e+00
2.14300e+02,2.34063e+00,-6.65214e+00,0.00000e+00,0.00000e+00,0.00000e+00
2.14300e+02,3.16828e+00,-3.32607e+00,0.00000e+00,0.00000e+00,0.00000e+00
3.20700e+02,4.18388e+01,0.00000e+00,0.00000e+00,0.00000e+00,0.00000e+00
3.20700e+02,4.16280e+01,-3.17930e+00,0.00000e+00,0.00000e+00,0.00000e+00
3.20700e+02,4.13477e+01,-6.35861e+00,0.00000e+00,0.00000e+00,0.00000e+00
3.20700e+02,4.10646e+01,-9.53791e+00,0.00000e+00,0.00000e+00,0.00000e+00
3.20700e+02,4.07201e+01,-1.27172e+01,0.00000e+00,0.00000e+00,0.00000e+00
3.20700e+02,4.03613e+01,-1.58965e+01,0.00000e+00,0.00000e+00,0.00000e+00
3.20700e+02,3.99553e+01,-1.90758e+01,0.00000e+00,0.00000e+00,0.00000e+00
3.20700e+02,3.95264e+01,-2.22551e+01,0.00000e+00,0.00000e+00,0.00000e+00
3.20700e+02,3.90596e+01,-2.54344e+01,0.00000e+00,0.00000e+00,0.00000e+00
3.20700e+02,3.85617e+01,-2.86137e+01,0.00000e+00,0.00000e+00,0.00000e+00
3.20700e+02,3.80295e+01,-3.17930e+01,0.00000e+00,0.00000e+00,0.00000e+00
3.20700e+02,3.74559e+01,-3.49724e+01,0.00000e+00,0.00000e+00,0.00000e+00
3.20700e+02,3.68398e+01,-3.81517e+01,0.00000e+00,0.00000e+00,0.00000e+00
3.20700e+02,3.61637e+01,-4.13310e+01,0.00000e+00,0.00000e+00,0.00000e+00
3.20700e+02,3.54289e+01,-4.45103e+01,0.00000e+00,0.00000e+00,0.00000e+00
3.20700e+02,3.46242e+01,-4.76896e+01,0.00000e+00,0.00000e+00,0.00000e+00
3.20700e+02,3.37247e+01,-5.08689e+01,0.00000e+00,0.00000e+00,0.00000e+00
3.20700e+02,3.27593e+01,-5.40482e+01,0.00000e+00,0.00000e+00,0.00000e+00
3.20700e+02,3.16454e+01,-5.72275e+01,0.00000e+00,0.00000e+00,0.00000e+00
3.20700e+02,3.04701e+01,-6.04068e+01,0.00000e+00,0.00000e+00,0.00000e+00
3.20700e+02,2.91233e+01,-6.35861e+01,0.00000e+00,0.00000e+00,0.00000e+00
3.20700e+02,2.76393e+01,-6.67654e+01,0.00000e+00,0.00000e+00,0.00000e+00
3.20700e+02,2.60154e+01,-6.99447e+01,0.00000e+00,0.00000e+00,0.00000e+00
3.20700e+02,2.41570e+01,-7.31240e+01,0.00000e+00,0.00000e+00,0.00000e+00
3.20700e+02,2.20269e+01,-7.63033e+01,0.00000e+00,0.00000e+00,0.00000e+00
3.20700e+02,1.95896e+01,-7.94826e+01,0.00000e+00,0.00000e+00,0.00000e+00
3.20700e+02,1.67068e+01,-8.26619e+01,0.00000e+00,0.00000e+00,0.00000e+00
3.20700e+02,1.30066e+01,-8.58412e+01,0.00000e+00,0.00000e+00,0.00000e+00
3.20700e+02,8.00212e+00,-8.90205e+01,0.00000e+00,0.00000e+00,0.00000e+00
3.20700e+02,-3.24239e+00,-9.21998e+01,0.00000e+00,0.00000e+00,0.00000e+00
3.20700e+02,-4.05392e+00,-9.22072e+01,0.00000e+00,0.00000e+00,0.00000e+00
3.20700e+02,-1.14474e+01,-8.89141e+01,0.00000e+00,0.00000e+00,0.00000e+00
3.20700e+02,-1.23426e+01,-8.56210e+01,0.00000e+00,0.00000e+00,0.00000e+00
3.20700e+02,-1.26515e+01,-8.23279e+01,0.00000e+00,0.00000e+00,0.00000e+00
3.20700e+02,-1.26984e+01,-7.90348e+01,0.00000e+00,0.00000e+00,0.00000e+00
3.20700e+02,-1.25479e+01,-7.57416e+01,0.00000e+00,0.00000e+00,0.00000e+00
3.20700e+02,-1.22734e+01,-7.24485e+01,0.00000e+00,0.00000e+00,0.00000e+00
3.20700e+02,-1.18746e+01,-6.91554e+01,0.00000e+00,0.00000e+00,0.00000e+00
3.20700e+02,-1.13999e+01,-6.58623e+01,0.00000e+00,0.00000e+00,0.00000e+00
3.20700e+02,-1.08812e+01,-6.25692e+01,0.00000e+00,0.00000e+00,0.00000e+00
3.20700e+02,-1.02962e+01,-5.92761e+01,0.00000e+00,0.00000e+00,0.00000e+00
3.20700e+02,-9.66973e+00,-5.59829e+01,0.00000e+00,0.00000e+00,0.00000e+00
3.20700e+02,-9.00292e+00,-5.26898e+01,0.00000e+00,0.00000e+00,0.00000e+00
3.20700e+02,-8.29591e+00,-4.93967e+01,0.00000e+00,0.00000e+00,0.00000e+00
3.20700e+02,-7.56370e+00,-4.61036e+01,0.00000e+00,0.00000e+00,0.00000e+00
3.20700e+02,-6.79920e+00,-4.28105e+01,0.00000e+00,0.00000e+00,0.00000e+00
3.20700e+02,-6.01403e+00,-3.95174e+01,0.00000e+00,0.00000e+00,0.00000e+00
3.20700e+02,-5.21032e+00,-3.62243e+01,0.00000e+00,0.00000e+00,0.00000e+00
3.20700e+02,-4.39006e+00,-3.29311e+01,0.00000e+00,0.00000e+00,0.00000e+00
3.20700e+02,-3.56279e+00,-2.96380e+01,0.00000e+00,0.00000e+00,0.00000e+00
3.20700e+02,-2.72467e+00,-2.63449e+01,0.00000e+00,0.00000e+00,0.00000e+00
3.20700e+02,-1.88474e+00,-2.30518e+01,0.00000e+00,0.00000e+00,0.00000e+00
3.20700e+02,-1.03832e+00,-1.97587e+01,0.00000e+00,0.00000e+00,0.00000e+00
3.20700e+02,-1.91989e-01,-1.64656e+01,0.00000e+00,0.00000e+00,0.00000e+00
3.20700e+02,6.51143e-01,-1.31725e+01,0.00000e+00,0.00000e+00,0.00000e+00
3.20700e+02,1.49428e+00,-9.87934e+00,0.00000e+00,0.00000e+00,0.00000e+00
3.20700e+02,2.31744e+00,-6.58623e+00,0.00000e+00,0.00000e+00,0.00000e+00
3.20700e+02,3.13689e+00,-3.29311e+00,0.00000e+00,0.00000e+00,0.00000e+00
4.26200e+02,4.14236e+01,0.00000e+00,0.00000e+00,0.00000e+00,0.00000e+00
4.26200e+02,4.12150e+01,-3.14776e+00,0.00000e+00,0.00000e+00,0.00000e+00
4.26200e+02,4.09374e+01,-6.29551e+00,0.00000e+00,0.00000e+00,0.00000e+00
4.26200e+02,4.06571e+01,-9.44327e+00,0.00000e+00,0.00000e+00,0.00000e+00
4.26200e+02,4.03160e+01,-1.25910e+01,0.00000e+00,0.00000e+00,0.00000e+00
4.26200e+02,3.99607e+01,-1.57388e+01,0.00000e+00,0.00000e+00,0.00000e+00
4.26200e+02,3.95588e+01,-1.88865e+01,0.00000e+00,0.00000e+00,0.00000e+00
4.26200e+02,3.91341e+01,-2.20343e+01,0.00000e+00,0.00000e+00,0.00000e+00
4.26200e+02,3.86720e+01,-2.51820e+01,0.00000e+00,0.00000e+00,0.00000e+00
4.26200e+02,3.81790e+01,-2.83298e+01,0.00000e+00,0.00000e+00,0.00000e+00
4.26200e+02,3.76521e+01,-3.14776e+01,0.00000e+00,0.00000e+00,0.00000e+00
4.26200e+02,3.70842e+01,-3.46253e+01,0.00000e+00,0.00000e+00,0.00000e+00
4.26200e+02,3.64743e+01,-3.77731e+01,0.00000e+00,0.00000e+00,0.00000e+00
4.26200e+02,3.58048e+01,-4.09208e+01,0.00000e+00,0.00000e+00,0.00000e+00
4.26200e+02,3.50774e+01,-4.40686e+01,0.00000e+00,0.00000e+00,0.00000e+00
4.26200e+02,3.42806e+01,-4.72163e+01,0.00000e+00,0.00000e+00,0.00000e+00
4.26200e+02,3.33901e+01,-5.03641e+01,0.00000e+00,0.00000e+00,0.00000e+00
4.26200e+02,3.24342e+01,-5.35118e+01,0.00000e+00,0.00000e+00,0.00000e+00
4.26200e+02,3.13314e+01,-5.66596e+01,0.00000e+00,0.00000e+00,0.00000e+00
4.26200e+02,3.01677e+01,-5.98074e+01,0.00000e+00,0.00000e+00,0.00000e+00
4.26200e+02,2.88343e+01,-6.29551e+01,0.00000e+00,0.00000e+00,0.00000e+00
4.26200e+02,2.73650e+01,-6.61029e+01,0.00000e+00,0.00000e+00,0.00000e+00
4.26200e+02,2.57573e+01,-6.92506e+01,0.00000e+00,0.00000e+00,0.00000e+00
4.26200e+02,2.39173e+01,-7.23984e+01,0.00000e+00,0.00000e+00,0.00000e+00
4.26200e+02,2.18083e+01,-7.55461e+01,0.00000e+00,0.00000e+00,0.00000e+00
4.26200e+02,1.93952e+01,-7.86939e+01,0.00000e+00,0.00000e+00,0.00000e+00
4.26200e+02,1.65410e+01,-8.18417e+01,0.00000e+00,0.00000e+00,0.00000e+00
4.26200e+02,1.28775e+01,-8.49894e+01,0.00000e+00,0.00000e+00,0.00000e+00
4.26200e+02,7.92271e+00,-8.81372e+01,0.00000e+00,0.00000e+00,0.00000e+00
4.26200e+02,-3.21022e+00,-9.12849e+01,0.00000e+00,0.00000e+00,0.00000e+00
4.26200e+02,-4.01369e+00,-9.12922e+01,0.00000e+00,0.00000e+00,0.00000e+00
4.26200e+02,-1.13339e+01,-8.80318e+01,0.00000e+00,0.00000e+00,0.00000e+00
4.26200e+02,-1.22201e+01,-8.47713e+01,0.00000e+00,0.00000e+00,0.00000e+00
4.26200e+02,-1.25260e+01,-8.15109e+01,0.00000e+00,0.00000e+00,0.00000e+00
4.26200e+02,-1.25724e+01,-7.82505e+01,0.00000e+00,0.00000e+00,0.00000e+00
4.26200e+02,-1.24233e+01,-7.49900e+01,0.00000e+00,0.00000e+00,0.00000e+00
4.26200e+02,-1.21516e+01,-7.17296e+01,0.00000e+00,0.00000e+00,0.00000e+00
4.26200e+02,-1.17568e+01,-6.84692e+01,0.00000e+00,0.00000e+00,0.00000e+00
4.26200e+02,-1.12868e+01,-6.52087e+01,0.00000e+00,0.00000e+00,0.00000e+00
4.26200e+02,-1.07732e+01,-6.19483e+01,0.00000e+00,0.00000e+00,0.00000e+00
4.26200e+02,-1.01940e+01,-5.86879e+01,0.00000e+00,0.00000e+00,0.00000e+00
4.26200e+02,-9.57378e+00,-5.54274e+01,0.00000e+00,0.00000e+00,0.00000e+00
4.26200e+02,-8.91358e+00,-5.21670e+01,0.00000e+00,0.00000e+00,0.00000e+00
4.26200e+02,-8.21359e+00,-4.89065e+01,0.00000e+00,0.00000e+00,0.00000e+00
4.26200e+02,-7.48864e+00,-4.56461e+01,0.00000e+00,0.00000e+00,0.00000e+00
4.26200e+02,-6.73173e+00,-4.23857e+01,0.00000e+00,0.00000e+00,0.00000e+00
4.26200e+02,-5.95435e+00,-3.91252e+01,0.00000e+00,0.00000e+00,0.00000e+00
4.26200e+02,-5.15861e+00,-3.58648e+01,0.00000e+00,0.00000e+00,0.00000e+00
4.26200e+02,-4.34650e+00,-3.26044e+01,0.00000e+00,0.00000e+00,0.00000e+00
4.26200e+02,-3.52744e+00,-2.93439e+01,0.00000e+00,0.00000e+00,0.00000e+00
4.26200e+02,-2.69763e+00,-2.60835e+01,0.00000e+00,0.00000e+00,0.00000e+00
4.26200e+02,-1.86603e+00,-2.28231e+01,0.00000e+00,0.00000e+00,0.00000e+00
4.26200e+02,-1.02802e+00,-1.95626e+01,0.00000e+00,0.00000e+00,0.00000e+00
4.26200e+02,-1.90083e-01,-1.63022e+01,0.00000e+00,0.00000e+00,0.00000e+00
4.26200e+02,6.44682e-01,-1.30417e+01,0.00000e+00,0.00000e+00,0.00000e+00
4.26200e+02,1.47945e+00,-9.78131e+00,0.00000e+00,0.00000e+00,0.00000e+00
4.26200e+02,2.29445e+00,-6.52087e+00,0.00000e+00,0.00000e+00,0.00000e+00
4.26200e+02,3.10576e+00,-3.26044e+00,0.00000e+00,0.00000e+00,0.00000e+00
5.30600e+02,4.10127e+01,0.00000e+00,0.00000e+00,0.00000e+00,0.00000e+00
5.30600e+02,4.08062e+01,-3.11654e+00,0.00000e+00,0.00000e+00,0.00000e+00
5.30600e+02,4.05314e+01,-6.23307e+00,0.00000e+00,0.00000e+00,0.00000e+00
5.30600e+02,4.02539e+01,-9.34961e+00,0.00000e+00,0.00000e+00,0.00000e+00
5.30600e+02,3.99161e+01,-1.24661e+01,0.00000e+00,0.00000e+00,0.00000e+00
5.30600e+02,3.95644e+01,-1.55827e+01,0.00000e+00,0.00000e+00,0.00000e+00
5.30600e+02,3.91664e+01,-1.86992e+01,0.00000e+00,0.00000e+00,0.00000e+00
5.30600e+02,3.87460e+01,-2.18158e+01,0.00000e+00,0.00000e+00,0.00000e+00
5.30600e+02,3.82884e+01,-2.49323e+01,0.00000e+00,0.00000e+00,0.00000e+00
5.30600e+02,3.78003e+01,-2.80488e+01,0.00000e+00,0.00000e+00,0.00000e+00
5.30600e+02,3.72787e+01,-3.11654e+01,0.00000e+00,0.00000e+00,0.00000e+00
5.30600e+02,3.67164e+01,-3.42819e+01,0.00000e+00,0.00000e+00,0.00000e+00
5.30600e+02,3.61125e+01,-3.73984e+01,0.00000e+00,0.00000e+00,0.00000e+00
5.30600e+02,3.54497e+01,-4.05150e+01,0.00000e+00,0.00000e+00,0.00000e+00
5.30600e+02,3.47295e+01,-4.36315e+01,0.00000e+00,0.00000e+00,0.00000e+00
5.30600e+02,3.39406e+01,-4.67480e+01,0.00000e+00,0.00000e+00,0.00000e+00
5.30600e+02,3.30589e+01,-4.98646e+01,0.00000e+00,0.00000e+00,0.00000e+00
5.30600e+02,3.21125e+01,-5.29811e+01,0.00000e+00,0.00000e+00,0.00000e+00
5.30600e+02,3.10206e+01,-5.60976e+01,0.00000e+00,0.00000e+00,0.00000e+00
5.30600e+02,2.98685e+01,-5.92142e+01,0.00000e+00,0.00000e+00,0.00000e+00
5.30600e+02,2.85484e+01,-6.23307e+01,0.00000e+00,0.00000e+00,0.00000e+00
5.30600e+02,2.70936e+01,-6.54473e+01,0.00000e+00,0.00000e+00,0.00000e+00
5.30600e+02,2.55018e+01,-6.85638e+01,0.00000e+00,0.00000e+00,0.00000e+00
5.30600e+02,2.36801e+01,-7.16803e+01,0.00000e+00,0.00000e+00,0.00000e+00
5.30600e+02,2.15920e+01,-7.47969e+01,0.00000e+00,0.00000e+00,0.00000e+00
5.30600e+02,1.92028e+01,-7.79134e+01,0.00000e+00,0.00000e+00,0.00000e+00
5.30600e+02,1.63770e+01,-8.10299e+01,0.00000e+00,0.00000e+00,0.00000e+00
5.30600e+02,1.27498e+01,-8.41465e+01,0.00000e+00,0.00000e+00,0.00000e+00
5.30600e+02,7.84413e+00,-8.72630e+01,0.00000e+00,0.00000e+00,0.00000e+00
5.30600e+02,-3.17838e+00,-9.03795e+01,0.00000e+00,0.00000e+00,0.00000e+00
5.30600e+02,-3.97388e+00,-9.03868e+01,0.00000e+00,0.00000e+00,0.00000e+00
5.30600e+02,-1.12214e+01,-8.71587e+01,0.00000e+00,0.00000e+00,0.00000e+00
5.30600e+02,-1.20989e+01,-8.39306e+01,0.00000e+00,0.00000e+00,0.00000e+00
5.30600e+02,-1.24018e+01,-8.07025e+01,0.00000e+00,0.00000e+00,0.00000e+00
5.30600e+02,-1.24477e+01,-7.74744e+01,0.00000e+00,0.00000e+00,0.00000e+00
5.30600e+02,-1.23001e+01,-7.42463e+01,0.00000e+00,0.00000e+00,0.00000e+00
5.30600e+02,-1.20311e+01,-7.10182e+01,0.00000e+00,0.00000e+00,0.00000e+00
5.30600e+02,-1.16402e+01,-6.77901e+01,0.00000e+00,0.00000e+00,0.00000e+00
5.30600e+02,-1.11748e+01,-6.45620e+01,0.00000e+00,0.00000e+00,0.00000e+00
5.30600e+02,-1.06664e+01,-6.13339e+01,0.00000e+00,0.00000e+00,0.00000e+00
5.30600e+02,-1.00929e+01,-5.81058e+01,0.00000e+00,0.00000e+00,0.00000e+00
5.30600e+02,-9.47882e+00,-5.48777e+01,0.00000e+00,0.00000e+00,0.00000e+00
5.30600e+02,-8.82518e+00,-5.16496e+01,0.00000e+00,0.00000e+00,0.00000e+00
5.30600e+02,-8.13212e+00,-4.84215e+01,0.00000e+00,0.00000e+00,0.00000e+00
5.30600e+02,-7.41437e+00,-4.51934e+01,0.00000e+00,0.00000e+00,0.00000e+00
5.30600e+02,-6.66496e+00,-4.19653e+01,0.00000e+00,0.00000e+00,0.00000e+00
5.30600e+02,-5.89529e+00,-3.87372e+01,0.00000e+00,0.00000e+00,0.00000e+00
5.30600e+02,-5.10745e+00,-3.55091e+01,0.00000e+00,0.00000e+00,0.00000e+00
5.30600e+02,-4.30339e+00,-3.22810e+01,0.00000e+00,0.00000e+00,0.00000e+00
5.30600e+02,-3.49245e+00,-2.90529e+01,0.00000e+00,0.00000e+00,0.00000e+00
5.30600e+02,-2.67088e+00,-2.58248e+01,0.00000e+00,0.00000e+00,0.00000e+00
5.30600e+02,-1.84753e+00,-2.25967e+01,0.00000e+00,0.00000e+00,0.00000e+00
5.30600e+02,-1.01782e+00,-1.93686e+01,0.00000e+00,0.00000e+00,0.00000e+00
5.30600e+02,-1.88198e-01,-1.61405e+01,0.00000e+00,0.00000e+00,0.00000e+00
5.30600e+02,6.38288e-01,-1.29124e+01,0.00000e+00,0.00000e+00,0.00000e+00
5.30600e+02,1.46477e+00,-9.68430e+00,0.00000e+00,0.00000e+00,0.00000e+00
5.30600e+02,2.27169e+00,-6.45620e+00,0.00000e+00,0.00000e+00,0.00000e+00
5.30600e+02,3.07496e+00,-3.22810e+00,0.00000e+00,0.00000e+00,0.00000e+00
6.33500e+02,4.06078e+01,0.00000e+00,0.00000e+00,0.00000e+00,0.00000e+00
6.33500e+02,4.04033e+01,-3.08576e+00,0.00000e+00,0.00000e+00,0.00000e+00
6.33500e+02,4.01312e+01,-6.17153e+00,0.00000e+00,0.00000e+00,0.00000e+00
6.33500e+02,3.98564e+01,-9.25729e+00,0.00000e+00,0.00000e+00,0.00000e+00
6.33500e+02,3.95220e+01,-1.23431e+01,0.00000e+00,0.00000e+00,0.00000e+00
6.33500e+02,3.91738e+01,-1.54288e+01,0.00000e+00,0.00000e+00,0.00000e+00
6.33500e+02,3.87797e+01,-1.85146e+01,0.00000e+00,0.00000e+00,0.00000e+00
6.33500e+02,3.83634e+01,-2.16004e+01,0.00000e+00,0.00000e+00,0.00000e+00
6.33500e+02,3.79104e+01,-2.46861e+01,0.00000e+00,0.00000e+00,0.00000e+00
6.33500e+02,3.74271e+01,-2.77719e+01,0.00000e+00,0.00000e+00,0.00000e+00
6.33500e+02,3.69106e+01,-3.08576e+01,0.00000e+00,0.00000e+00,0.00000e+00
6.33500e+02,3.63539e+01,-3.39434e+01,0.00000e+00,0.00000e+00,0.00000e+00
6.33500e+02,3.57559e+01,-3.70292e+01,0.00000e+00,0.00000e+00,0.00000e+00
6.33500e+02,3.50997e+01,-4.01149e+01,0.00000e+00,0.00000e+00,0.00000e+00
6.33500e+02,3.43866e+01,-4.32007e+01,0.00000e+00,0.00000e+00,0.00000e+00
6.33500e+02,3.36055e+01,-4.62865e+01,0.00000e+00,0.00000e+00,0.00000e+00
6.33500e+02,3.27325e+01,-4.93722e+01,0.00000e+00,0.00000e+00,0.00000e+00
6.33500e+02,3.17954e+01,-5.24580e+01,0.00000e+00,0.00000e+00,0.00000e+00
6.33500e+02,3.07144e+01,-5.55438e+01,0.00000e+00,0.00000e+00,0.00000e+00
6.33500e+02,2.95736e+01,-5.86295e+01,0.00000e+00,0.00000e+00,0.00000e+00
6.33500e+02,2.82665e+01,-6.17153e+01,0.00000e+00,0.00000e+00,0.00000e+00
6.33500e+02,2.68261e+01,-6.48011e+01,0.00000e+00,0.00000e+00,0.00000e+00
6.33500e+02,2.52500e+01,-6.78868e+01,0.00000e+00,0.00000e+00,0.00000e+00
6.33500e+02,2.34463e+01,-7.09726e+01,0.00000e+00,0.00000e+00,0.00000e+00
6.33500e+02,2.13788e+01,-7.40584e+01,0.00000e+00,0.00000e+00,0.00000e+00
6.33500e+02,1.90132e+01,-7.71441e+01,0.00000e+00,0.00000e+00,0.00000e+00
6.33500e+02,1.62153e+01,-8.02299e+01,0.00000e+00,0.00000e+00,0.00000e+00
6.33500e+02,1.26239e+01,-8.33156e+01,0.00000e+00,0.00000e+00,0.00000e+00
6.33500e+02,7.76668e+00,-8.64014e+01,0.00000e+00,0.00000e+00,0.00000e+00
6.33500e+02,-3.14700e+00,-8.94872e+01,0.00000e+00,0.00000e+00,0.00000e+00
6.33500e+02,-3.93464e+00,-8.94943e+01,0.00000e+00,0.00000e+00,0.00000e+00
6.33500e+02,-1.11106e+01,-8.62981e+01,0.00000e+00,0.00000e+00,0.00000e+00
6.33500e+02,-1.19795e+01,-8.31019e+01,0.00000e+00,0.00000e+00,0.00000e+00
6.33500e+02,-1.22793e+01,-7.99057e+01,0.00000e+00,0.00000e+00,0.00000e+00
6.33500e+02,-1.23248e+01,-7.67094e+01,0.00000e+00,0.00000e+00,0.00000e+00
6.33500e+02,-1.21787e+01,-7.35132e+01,0.00000e+00,0.00000e+00,0.00000e+00
6.33500e+02,-1.19123e+01,-7.03170e+01,0.00000e+00,0.00000e+00,0.00000e+00
6.33500e+02,-1.15252e+01,-6.71208e+01,0.00000e+00,0.00000e+00,0.00000e+00
6.33500e+02,-1.10645e+01,-6.39245e+01,0.00000e+00,0.00000e+00,0.00000e+00
6.33500e+02,-1.05611e+01,-6.07283e+01,0.00000e+00,0.00000e+00,0.00000e+00
6.33500e+02,-9.99326e+00,-5.75321e+01,0.00000e+00,0.00000e+00,0.00000e+00
6.33500e+02,-9.38524e+00,-5.43358e+01,0.00000e+00,0.00000e+00,0.00000e+00
6.33500e+02,-8.73804e+00,-5.11396e+01,0.00000e+00,0.00000e+00,0.00000e+00
6.33500e+02,-8.05183e+00,-4.79434e+01,0.00000e+00,0.00000e+00,0.00000e+00
6.33500e+02,-7.34116e+00,-4.47472e+01,0.00000e+00,0.00000e+00,0.00000e+00
6.33500e+02,-6.59916e+00,-4.15509e+01,0.00000e+00,0.00000e+00,0.00000e+00
6.33500e+02,-5.83709e+00,-3.83547e+01,0.00000e+00,0.00000e+00,0.00000e+00
6.33500e+02,-5.05702e+00,-3.51585e+01,0.00000e+00,0.00000e+00,0.00000e+00
6.33500e+02,-4.26090e+00,-3.19623e+01,0.00000e+00,0.00000e+00,0.00000e+00
6.33500e+02,-3.45797e+00,-2.87660e+01,0.00000e+00,0.00000e+00,0.00000e+00
6.33500e+02,-2.64450e+00,-2.55698e+01,0.00000e+00,0.00000e+00,0.00000e+00
6.33500e+02,-1.82928e+00,-2.23736e+01,0.00000e+00,0.00000e+00,0.00000e+00
6.33500e+02,-1.00777e+00,-1.91774e+01,0.00000e+00,0.00000e+00,0.00000e+00
6.33500e+02,-1.86340e-01,-1.59811e+01,0.00000e+00,0.00000e+00,0.00000e+00
6.33500e+02,6.31986e-01,-1.27849e+01,0.00000e+00,0.00000e+00,0.00000e+00
6.33500e+02,1.45031e+00,-9.58868e+00,0.00000e+00,0.00000e+00,0.00000e+00
6.33500e+02,2.24926e+00,-6.39245e+00,0.00000e+00,0.00000e+00,0.00000e+00
6.33500e+02,3.04460e+00,-3.19623e+00,0.00000e+00,0.00000e+00,0.00000e+00
7.34700e+02,4.02095e+01,0.00000e+00,0.00000e+00,0.00000e+00,0.00000e+00
7.34700e+02,4.00070e+01,-3.05550e+00,0.00000e+00,0.00000e+00,0.00000e+00
7.34700e+02,3.97376e+01,-6.11100e+00,0.00000e+00,0.00000e+00,0.00000e+00
7.34700e+02,3.94656e+01,-9.16651e+00,0.00000e+00,0.00000e+00,0.00000e+00
7.34700e+02,3.91344e+01,-1.22220e+01,0.00000e+00,0.00000e+00,0.00000e+00
7.34700e+02,3.87896e+01,-1.52775e+01,0.00000e+00,0.00000e+00,0.00000e+00
7.34700e+02,3.83994e+01,-1.83330e+01,0.00000e+00,0.00000e+00,0.00000e+00
7.34700e+02,3.79872e+01,-2.13885e+01,0.00000e+00,0.00000e+00,0.00000e+00
7.34700e+02,3.75386e+01,-2.44440e+01,0.00000e+00,0.00000e+00,0.00000e+00
7.34700e+02,3.70601e+01,-2.74995e+01,0.00000e+00,0.00000e+00,0.00000e+00
7.34700e+02,3.65486e+01,-3.05550e+01,0.00000e+00,0.00000e+00,0.00000e+00
7.34700e+02,3.59973e+01,-3.36105e+01,0.00000e+00,0.00000e+00,0.00000e+00
7.34700e+02,3.54053e+01,-3.66660e+01,0.00000e+00,0.00000e+00,0.00000e+00
7.34700e+02,3.47554e+01,-3.97215e+01,0.00000e+00,0.00000e+00,0.00000e+00
7.34700e+02,3.40493e+01,-4.27770e+01,0.00000e+00,0.00000e+00,0.00000e+00
7.34700e+02,3.32760e+01,-4.58325e+01,0.00000e+00,0.00000e+00,0.00000e+00
7.34700e+02,3.24115e+01,-4.88880e+01,0.00000e+00,0.00000e+00,0.00000e+00
7.34700e+02,3.14836e+01,-5.19435e+01,0.00000e+00,0.00000e+00,0.00000e+00
7.34700e+02,3.04131e+01,-5.49990e+01,0.00000e+00,0.00000e+00,0.00000e+00
7.34700e+02,2.92835e+01,-5.80545e+01,0.00000e+00,0.00000e+00,0.00000e+00
7.34700e+02,2.79893e+01,-6.11100e+01,0.00000e+00,0.00000e+00,0.00000e+00
7.34700e+02,2.65630e+01,-6.41655e+01,0.00000e+00,0.00000e+00,0.00000e+00
7.34700e+02,2.50024e+01,-6.72210e+01,0.00000e+00,0.00000e+00,0.00000e+00
7.34700e+02,2.32164e+01,-7.02765e+01,0.00000e+00,0.00000e+00,0.00000e+00
7.34700e+02,2.11691e+01,-7.33320e+01,0.00000e+00,0.00000e+00,0.00000e+00
7.34700e+02,1.88268e+01,-7.63875e+01,0.00000e+00,0.00000e+00,0.00000e+00
7.34700e+02,1.60563e+01,-7.94430e+01,0.00000e+00,0.00000e+00,0.00000e+00
7.34700e+02,1.25001e+01,-8.24985e+01,0.00000e+00,0.00000e+00,0.00000e+00
7.34700e+02,7.69051e+00,-8.55540e+01,0.00000e+00,0.00000e+00,0.00000e+00
7.34700e+02,-3.11614e+00,-8.86096e+01,0.00000e+00,0.00000e+00,0.00000e+00
7.34700e+02,-3.89606e+00,-8.86166e+01,0.00000e+00,0.00000e+00,0.00000e+00
7.34700e+02,-1.10017e+01,-8.54518e+01,0.00000e+00,0.00000e+00,0.00000e+00
7.34700e+02,-1.18620e+01,-8.22869e+01,0.00000e+00,0.00000e+00,0.00000e+00
7.34700e+02,-1.21589e+01,-7.91220e+01,0.00000e+00,0.00000e+00,0.00000e+00
7.34700e+02,-1.22039e+01,-7.59571e+01,0.00000e+00,0.00000e+00,0.00000e+00
7.34700e+02,-1.20592e+01,-7.27922e+01,0.00000e+00,0.00000e+00,0.00000e+00
7.34700e+02,-1.17955e+01,-6.96274e+01,0.00000e+00,0.00000e+00,0.00000e+00
7.34700e+02,-1.14122e+01,-6.64625e+01,0.00000e+00,0.00000e+00,0.00000e+00
7.34700e+02,-1.09560e+01,-6.32976e+01,0.00000e+00,0.00000e+00,0.00000e+00
7.34700e+02,-1.04575e+01,-6.01327e+01,0.00000e+00,0.00000e+00,0.00000e+00
7.34700e+02,-9.89525e+00,-5.69678e+01,0.00000e+00,0.00000e+00,0.00000e+00
7.34700e+02,-9.29319e+00,-5.38030e+01,0.00000e+00,0.00000e+00,0.00000e+00
7.34700e+02,-8.65235e+00,-5.06381e+01,0.00000e+00,0.00000e+00,0.00000e+00
7.34700e+02,-7.97287e+00,-4.74732e+01,0.00000e+00,0.00000e+00,0.00000e+00
7.34700e+02,-7.26917e+00,-4.43083e+01,0.00000e+00,0.00000e+00,0.00000e+00
7.34700e+02,-6.53444e+00,-4.11434e+01,0.00000e+00,0.00000e+00,0.00000e+00
7.34700e+02,-5.77984e+00,-3.79786e+01,0.00000e+00,0.00000e+00,0.00000e+00
7.34700e+02,-5.00742e+00,-3.48137e+01,0.00000e+00,0.00000e+00,0.00000e+00
7.34700e+02,-4.21911e+00,-3.16488e+01,0.00000e+00,0.00000e+00,0.00000e+00
7.34700e+02,-3.42406e+00,-2.84839e+01,0.00000e+00,0.00000e+00,0.00000e+00
7.34700e+02,-2.61857e+00,-2.53190e+01,0.00000e+00,0.00000e+00,0.00000e+00
7.34700e+02,-1.81134e+00,-2.21542e+01,0.00000e+00,0.00000e+00,0.00000e+00
7.34700e+02,-9.97887e-01,-1.89893e+01,0.00000e+00,0.00000e+00,0.00000e+00
7.34700e+02,-1.84513e-01,-1.58244e+01,0.00000e+00,0.00000e+00,0.00000e+00
7.34700e+02,6.25788e-01,-1.26595e+01,0.00000e+00,0.00000e+00,0.00000e+00
7.34700e+02,1.43609e+00,-9.49464e+00,0.00000e+00,0.00000e+00,0.00000e+00
7.34700e+02,2.22720e+00,-6.32976e+00,0.00000e+00,0.00000e+00,0.00000e+00
7.34700e+02,3.01474e+00,-3.16488e+00,0.00000e+00,0.00000e+00,0.00000e+00
8.33800e+02,3.98196e+01,0.00000e+00,0.00000e+00,0.00000e+00,0.00000e+00
8.33800e+02,3.96190e+01,-3.02587e+00,0.00000e+00,0.00000e+00,0.00000e+00
8.33800e+02,3.93522e+01,-6.05173e+00,0.00000e+00,0.00000e+00,0.00000e+00
8.33800e+02,3.90828e+01,-9.07760e+00,0.00000e+00,0.00000e+00,0.00000e+00
8.33800e+02,3.87549e+01,-1.21035e+01,0.00000e+00,0.00000e+00,0.00000e+00
8.33800e+02,3.84134e+01,-1.51293e+01,0.00000e+00,0.00000e+00,0.00000e+00
8.33800e+02,3.80270e+01,-1.81552e+01,0.00000e+00,0.00000e+00,0.00000e+00
8.33800e+02,3.76188e+01,-2.11811e+01,0.00000e+00,0.00000e+00,0.00000e+00
8.33800e+02,3.71745e+01,-2.42069e+01,0.00000e+00,0.00000e+00,0.00000e+00
8.33800e+02,3.67006e+01,-2.72328e+01,0.00000e+00,0.00000e+00,0.00000e+00
8.33800e+02,3.61941e+01,-3.02587e+01,0.00000e+00,0.00000e+00,0.00000e+00
8.33800e+02,3.56482e+01,-3.32845e+01,0.00000e+00,0.00000e+00,0.00000e+00
8.33800e+02,3.50619e+01,-3.63104e+01,0.00000e+00,0.00000e+00,0.00000e+00
8.33800e+02,3.44183e+01,-3.93363e+01,0.00000e+00,0.00000e+00,0.00000e+00
8.33800e+02,3.37191e+01,-4.23621e+01,0.00000e+00,0.00000e+00,0.00000e+00
8.33800e+02,3.29532e+01,-4.53880e+01,0.00000e+00,0.00000e+00,0.00000e+00
8.33800e+02,3.20971e+01,-4.84139e+01,0.00000e+00,0.00000e+00,0.00000e+00
8.33800e+02,3.11783e+01,-5.14397e+01,0.00000e+00,0.00000e+00,0.00000e+00
8.33800e+02,3.01182e+01,-5.44656e+01,0.00000e+00,0.00000e+00,0.00000e+00
8.33800e+02,2.89995e+01,-5.74915e+01,0.00000e+00,0.00000e+00,0.00000e+00
8.33800e+02,2.77178e+01,-6.05173e+01,0.00000e+00,0.00000e+00,0.00000e+00
8.33800e+02,2.63054e+01,-6.35432e+01,0.00000e+00,0.00000e+00,0.00000e+00
8.33800e+02,2.47599e+01,-6.65691e+01,0.00000e+00,0.00000e+00,0.00000e+00
8.33800e+02,2.29912e+01,-6.95949e+01,0.00000e+00,0.00000e+00,0.00000e+00
8.33800e+02,2.09638e+01,-7.26208e+01,0.00000e+00,0.00000e+00,0.00000e+00
8.33800e+02,1.86442e+01,-7.56467e+01,0.00000e+00,0.00000e+00,0.00000e+00
8.33800e+02,1.59005e+01,-7.86725e+01,0.00000e+00,0.00000e+00,0.00000e+00
8.33800e+02,1.23789e+01,-8.16984e+01,0.00000e+00,0.00000e+00,0.00000e+00
8.33800e+02,7.61592e+00,-8.47243e+01,0.00000e+00,0.00000e+00,0.00000e+00
8.33800e+02,-3.08591e+00,-8.77501e+01,0.00000e+00,0.00000e+00,0.00000e+00
8.33800e+02,-3.85827e+00,-8.77572e+01,0.00000e+00,0.00000e+00,0.00000e+00
8.33800e+02,-1.08950e+01,-8.46230e+01,0.00000e+00,0.00000e+00,0.00000e+00
8.33800e+02,-1.17470e+01,-8.14888e+01,0.00000e+00,0.00000e+00,0.00000e+00
8.33800e+02,-1.20409e+01,-7.83546e+01,0.00000e+00,0.00000e+00,0.00000e+00
8.33800e+02,-1.20856e+01,-7.52204e+01,0.00000e+00,0.00000e+00,0.00000e+00
8.33800e+02,-1.19423e+01,-7.20862e+01,0.00000e+00,0.00000e+00,0.00000e+00
8.33800e+02,-1.16811e+01,-6.89521e+01,0.00000e+00,0.00000e+00,0.00000e+00
8.33800e+02,-1.13015e+01,-6.58179e+01,0.00000e+00,0.00000e+00,0.00000e+00
8.33800e+02,-1.08497e+01,-6.26837e+01,0.00000e+00,0.00000e+00,0.00000e+00
8.33800e+02,-1.03561e+01,-5.95495e+01,0.00000e+00,0.00000e+00,0.00000e+00
8.33800e+02,-9.79928e+00,-5.64153e+01,0.00000e+00,0.00000e+00,0.00000e+00
8.33800e+02,-9.20306e+00,-5.32811e+01,0.00000e+00,0.00000e+00,0.00000e+00
8.33800e+02,-8.56843e+00,-5.01469e+01,0.00000e+00,0.00000e+00,0.00000e+00
8.33800e+02,-7.89554e+00,-4.70128e+01,0.00000e+00,0.00000e+00,0.00000e+00
8.33800e+02,-7.19866e+00,-4.38786e+01,0.00000e+00,0.00000e+00,0.00000e+00
8.33800e+02,-6.47106e+00,-4.07444e+01,0.00000e+00,0.00000e+00,0.00000e+00
8.33800e+02,-5.72378e+00,-3.76102e+01,0.00000e+00,0.00000e+00,0.00000e+00
8.33800e+02,-4.95886e+00,-3.44760e+01,0.00000e+00,0.00000e+00,0.00000e+00
8.33800e+02,-4.17819e+00,-3.13418e+01,0.00000e+00,0.00000e+00,0.00000e+00
8.33800e+02,-3.39085e+00,-2.82077e+01,0.00000e+00,0.00000e+00,0.00000e+00
8.33800e+02,-2.59317e+00,-2.50735e+01,0.00000e+00,0.00000e+00,0.00000e+00
8.33800e+02,-1.79378e+00,-2.19393e+01,0.00000e+00,0.00000e+00,0.00000e+00
8.33800e+02,-9.88209e-01,-1.88051e+01,0.00000e+00,0.00000e+00,0.00000e+00
8.33800e+02,-1.82723e-01,-1.56709e+01,0.00000e+00,0.00000e+00,0.00000e+00
8.33800e+02,6.19718e-01,-1.25367e+01,0.00000e+00,0.00000e+00,0.00000e+00
8.33800e+02,1.42216e+00,-9.40255e+00,0.00000e+00,0.00000e+00,0.00000e+00
8.33800e+02,2.20560e+00,-6.26837e+00,0.00000e+00,0.00000e+00,0.00000e+00
8.33800e+02,2.98550e+00,-3.13418e+00,0.00000e+00,0.00000e+00,0.00000e+00
9.30700e+02,3.94382e+01,0.00000e+00,0.00000e+00,0.00000e+00,0.00000e+00
9.30700e+02,3.92396e+01,-2.99689e+00,0.00000e+00,0.00000e+00,0.00000e+00
9.30700e+02,3.89754e+01,-5.99378e+00,0.00000e+00,0.00000e+00,0.00000e+00
9.30700e+02,3.87085e+01,-8.99067e+00,0.00000e+00,0.00000e+00,0.00000e+00
9.30700e+02,3.83837e+01,-1.19876e+01,0.00000e+00,0.00000e+00,0.00000e+00
9.30700e+02,3.80455e+01,-1.49844e+01,0.00000e+00,0.00000e+00,0.00000e+00
9.30700e+02,3.76628e+01,-1.79813e+01,0.00000e+00,0.00000e+00,0.00000e+00
9.30700e+02,3.72585e+01,-2.09782e+01,0.00000e+00,0.00000e+00,0.00000e+00
9.30700e+02,3.68185e+01,-2.39751e+01,0.00000e+00,0.00000e+00,0.00000e+00
9.30700e+02,3.63492e+01,-2.69720e+01,0.00000e+00,0.00000e+00,0.00000e+00
9.30700e+02,3.58475e+01,-2.99689e+01,0.00000e+00,0.00000e+00,0.00000e+00
9.30700e+02,3.53068e+01,-3.29658e+01,0.00000e+00,0.00000e+00,0.00000e+00
9.30700e+02,3.47261e+01,-3.59627e+01,0.00000e+00,0.00000e+00,0.00000e+00
9.30700e+02,3.40887e+01,-3.89596e+01,0.00000e+00,0.00000e+00,0.00000e+00
9.30700e+02,3.33962e+01,-4.19565e+01,0.00000e+00,0.00000e+00,0.00000e+00
9.30700e+02,3.26376e+01,-4.49533e+01,0.00000e+00,0.00000e+00,0.00000e+00
9.30700e+02,3.17897e+01,-4.79502e+01,0.00000e+00,0.00000e+00,0.00000e+00
9.30700e+02,3.08797e+01,-5.09471e+01,0.00000e+00,0.00000e+00,0.00000e+00
9.30700e+02,2.98297e+01,-5.39440e+01,0.00000e+00,0.00000e+00,0.00000e+00
9.30700e+02,2.87218e+01,-5.69409e+01,0.00000e+00,0.00000e+00,0.00000e+00
9.30700e+02,2.74524e+01,-5.99378e+01,0.00000e+00,0.00000e+00,0.00000e+00
9.30700e+02,2.60534e+01,-6.29347e+01,0.00000e+00,0.00000e+00,0.00000e+00
9.30700e+02,2.45228e+01,-6.59316e+01,0.00000e+00,0.00000e+00,0.00000e+00
9.30700e+02,2.27710e+01,-6.89285e+01,0.00000e+00,0.00000e+00,0.00000e+00
9.30700e+02,2.07631e+01,-7.19254e+01,0.00000e+00,0.00000e+00,0.00000e+00
9.30700e+02,1.84656e+01,-7.49222e+01,0.00000e+00,0.00000e+00,0.00000e+00
9.30700e+02,1.57483e+01,-7.79191e+01,0.00000e+00,0.00000e+00,0.00000e+00
9.30700e+02,1.22603e+01,-8.09160e+01,0.00000e+00,0.00000e+00,0.00000e+00
9.30700e+02,7.54299e+00,-8.39129e+01,0.00000e+00,0.00000e+00,0.00000e+00
9.30700e+02,-3.05636e+00,-8.69098e+01,0.00000e+00,0.00000e+00,0.00000e+00
9.30700e+02,-3.82132e+00,-8.69168e+01,0.00000e+00,0.00000e+00,0.00000e+00
9.30700e+02,-1.07906e+01,-8.38126e+01,0.00000e+00,0.00000e+00,0.00000e+00
9.30700e+02,-1.16345e+01,-8.07084e+01,0.00000e+00,0.00000e+00,0.00000e+00
9.30700e+02,-1.19256e+01,-7.76042e+01,0.00000e+00,0.00000e+00,0.00000e+00
9.30700e+02,-1.19698e+01,-7.45001e+01,0.00000e+00,0.00000e+00,0.00000e+00
9.30700e+02,-1.18279e+01,-7.13959e+01,0.00000e+00,0.00000e+00,0.00000e+00
9.30700e+02,-1.15692e+01,-6.82917e+01,0.00000e+00,0.00000e+00,0.00000e+00
9.30700e+02,-1.11933e+01,-6.51876e+01,0.00000e+00,0.00000e+00,0.00000e+00
9.30700e+02,-1.07458e+01,-6.20834e+01,0.00000e+00,0.00000e+00,0.00000e+00
9.30700e+02,-1.02569e+01,-5.89792e+01,0.00000e+00,0.00000e+00,0.00000e+00
9.30700e+02,-9.70544e+00,-5.58751e+01,0.00000e+00,0.00000e+00,0.00000e+00
9.30700e+02,-9.11493e+00,-5.27709e+01,0.00000e+00,0.00000e+00,0.00000e+00
9.30700e+02,-8.48637e+00,-4.96667e+01,0.00000e+00,0.00000e+00,0.00000e+00
9.30700e+02,-7.81993e+00,-4.65625e+01,0.00000e+00,0.00000e+00,0.00000e+00
9.30700e+02,-7.12973e+00,-4.34584e+01,0.00000e+00,0.00000e+00,0.00000e+00
9.30700e+02,-6.40909e+00,-4.03542e+01,0.00000e+00,0.00000e+00,0.00000e+00
9.30700e+02,-5.66897e+00,-3.72500e+01,0.00000e+00,0.00000e+00,0.00000e+00
9.30700e+02,-4.91137e+00,-3.41459e+01,0.00000e+00,0.00000e+00,0.00000e+00
9.30700e+02,-4.13818e+00,-3.10417e+01,0.00000e+00,0.00000e+00,0.00000e+00
9.30700e+02,-3.35837e+00,-2.79375e+01,0.00000e+00,0.00000e+00,0.00000e+00
9.30700e+02,-2.56834e+00,-2.48334e+01,0.00000e+00,0.00000e+00,0.00000e+00
9.30700e+02,-1.77660e+00,-2.17292e+01,0.00000e+00,0.00000e+00,0.00000e+00
9.30700e+02,-9.78745e-01,-1.86250e+01,0.00000e+00,0.00000e+00,0.00000e+00
9.30700e+02,-1.80973e-01,-1.55208e+01,0.00000e+00,0.00000e+00,0.00000e+00
9.30700e+02,6.13784e-01,-1.24167e+01,0.00000e+00,0.00000e+00,0.00000e+00
9.30700e+02,1.40854e+00,-9.31251e+00,0.00000e+00,0.00000e+00,0.00000e+00
9.30700e+02,2.18448e+00,-6.20834e+00,0.00000e+00,0.00000e+00,0.00000e+00
9.30700e+02,2.95691e+00,-3.10417e+00,0.00000e+00,0.00000e+00,0.00000e+00
1.02500e+03,3.90671e+01,0.00000e+00,0.00000e+00,0.00000e+00,0.00000e+00
1.02500e+03,3.88704e+01,-2.96869e+00,0.00000e+00,0.00000e+00,0.00000e+00
1.02500e+03,3.86086e+01,-5.93738e+00,0.00000e+00,0.00000e+00,0.00000e+00
1.02500e+03,3.83443e+01,-8.90607e+00,0.00000e+00,0.00000e+00,0.00000e+00
1.02500e+03,3.80226e+01,-1.18748e+01,0.00000e+00,0.00000e+00,0.00000e+00
1.02500e+03,3.76875e+01,-1.48435e+01,0.00000e+00,0.00000e+00,0.00000e+00
1.02500e+03,3.73084e+01,-1.78121e+01,0.00000e+00,0.00000e+00,0.00000e+00
1.02500e+03,3.69079e+01,-2.07808e+01,0.00000e+00,0.00000e+00,0.00000e+00
1.02500e+03,3.64721e+01,-2.37495e+01,0.00000e+00,0.00000e+00,0.00000e+00
1.02500e+03,3.60071e+01,-2.67182e+01,0.00000e+00,0.00000e+00,0.00000e+00
1.02500e+03,3.55102e+01,-2.96869e+01,0.00000e+00,0.00000e+00,0.00000e+00
1.02500e+03,3.49746e+01,-3.26556e+01,0.00000e+00,0.00000e+00,0.00000e+00
1.02500e+03,3.43994e+01,-3.56243e+01,0.00000e+00,0.00000e+00,0.00000e+00
1.02500e+03,3.37680e+01,-3.85930e+01,0.00000e+00,0.00000e+00,0.00000e+00
1.02500e+03,3.30819e+01,-4.15617e+01,0.00000e+00,0.00000e+00,0.00000e+00
1.02500e+03,3.23305e+01,-4.45304e+01,0.00000e+00,0.00000e+00,0.00000e+00
1.02500e+03,3.14906e+01,-4.74990e+01,0.00000e+00,0.00000e+00,0.00000e+00
1.02500e+03,3.05891e+01,-5.04677e+01,0.00000e+00,0.00000e+00,0.00000e+00
1.02500e+03,2.95491e+01,-5.34364e+01,0.00000e+00,0.00000e+00,0.00000e+00
1.02500e+03,2.84516e+01,-5.64051e+01,0.00000e+00,0.00000e+00,0.00000e+00
1.02500e+03,2.71940e+01,-5.93738e+01,0.00000e+00,0.00000e+00,0.00000e+00
1.02500e+03,2.58083e+01,-6.23425e+01,0.00000e+00,0.00000e+00,0.00000e+00
1.02500e+03,2.42920e+01,-6.53112e+01,0.00000e+00,0.00000e+00,0.00000e+00
1.02500e+03,2.25567e+01,-6.82799e+01,0.00000e+00,0.00000e+00,0.00000e+00
1.02500e+03,2.05677e+01,-7.12486e+01,0.00000e+00,0.00000e+00,0.00000e+00
1.02500e+03,1.82919e+01,-7.42173e+01,0.00000e+00,0.00000e+00,0.00000e+00
1.02500e+03,1.56001e+01,-7.71859e+01,0.00000e+00,0.00000e+00,0.00000e+00
1.02500e+03,1.21450e+01,-8.01546e+01,0.00000e+00,0.00000e+00,0.00000e+00
1.02500e+03,7.47201e+00,-8.31233e+01,0.00000e+00,0.00000e+00,0.00000e+00
1.02500e+03,-3.02760e+00,-8.60920e+01,0.00000e+00,0.00000e+00,0.00000e+00
1.02500e+03,-3.78536e+00,-8.60989e+01,0.00000e+00,0.00000e+00,0.00000e+00
1.02500e+03,-1.06891e+01,-8.30239e+01,0.00000e+00,0.00000e+00,0.00000e+00
1.02500e+03,-1.15250e+01,-7.99490e+01,0.00000e+00,0.00000e+00,0.00000e+00
1.02500e+03,-1.18134e+01,-7.68740e+01,0.00000e+00,0.00000e+00,0.00000e+00
1.02500e+03,-1.18572e+01,-7.37991e+01,0.00000e+00,0.00000e+00,0.00000e+00
1.02500e+03,-1.17166e+01,-7.07241e+01,0.00000e+00,0.00000e+00,0.00000e+00
1.02500e+03,-1.14604e+01,-6.76491e+01,0.00000e+00,0.00000e+00,0.00000e+00
1.02500e+03,-1.10880e+01,-6.45742e+01,0.00000e+00,0.00000e+00,0.00000e+00
1.02500e+03,-1.06447e+01,-6.14992e+01,0.00000e+00,0.00000e+00,0.00000e+00
1.02500e+03,-1.01604e+01,-5.84243e+01,0.00000e+00,0.00000e+00,0.00000e+00
1.02500e+03,-9.61411e+00,-5.53493e+01,0.00000e+00,0.00000e+00,0.00000e+00
1.02500e+03,-9.02916e+00,-5.22743e+01,0.00000e+00,0.00000e+00,0.00000e+00
1.02500e+03,-8.40652e+00,-4.91994e+01,0.00000e+00,0.00000e+00,0.00000e+00
1.02500e+03,-7.74634e+00,-4.61244e+01,0.00000e+00,0.00000e+00,0.00000e+00
1.02500e+03,-7.06264e+00,-4.30495e+01,0.00000e+00,0.00000e+00,0.00000e+00
1.02500e+03,-6.34878e+00,-3.99745e+01,0.00000e+00,0.00000e+00,0.00000e+00
1.02500e+03,-5.61563e+00,-3.68995e+01,0.00000e+00,0.00000e+00,0.00000e+00
1.02500e+03,-4.86516e+00,-3.38246e+01,0.00000e+00,0.00000e+00,0.00000e+00
1.02500e+03,-4.09924e+00,-3.07496e+01,0.00000e+00,0.00000e+00,0.00000e+00
1.02500e+03,-3.32677e+00,-2.76746e+01,0.00000e+00,0.00000e+00,0.00000e+00
1.02500e+03,-2.54417e+00,-2.45997e+01,0.00000e+00,0.00000e+00,0.00000e+00
1.02500e+03,-1.75988e+00,-2.15247e+01,0.00000e+00,0.00000e+00,0.00000e+00
1.02500e+03,-9.69535e-01,-1.84498e+01,0.00000e+00,0.00000e+00,0.00000e+00
1.02500e+03,-1.79270e-01,-1.53748e+01,0.00000e+00,0.00000e+00,0.00000e+00
1.02500e+03,6.08008e-01,-1.22998e+01,0.00000e+00,0.00000e+00,0.00000e+00
1.02500e+03,1.39529e+00,-9.22488e+00,0.00000e+00,0.00000e+00,0.00000e+00
1.02500e+03,2.16392e+00,-6.14992e+00,0.00000e+00,0.00000e+00,0.00000e+00
1.02500e+03,2.92908e+00,-3.07496e+00,0.00000e+00,0.00000e+00,0.00000e+00
1.11650e+03,3.87070e+01,0.00000e+00,0.00000e+00,0.00000e+00,0.00000e+00
1.11650e+03,3.85121e+01,-2.94133e+00,0.00000e+00,0.00000e+00,0.00000e+00
1.11650e+03,3.82528e+01,-5.88266e+00,0.00000e+00,0.00000e+00,0.00000e+00
1.11650e+03,3.79909e+01,-8.82398e+00,0.00000e+00,0.00000e+00,0.00000e+00
1.11650e+03,3.76721e+01,-1.17653e+01,0.00000e+00,0.00000e+00,0.00000e+00
1.11650e+03,3.73401e+01,-1.47066e+01,0.00000e+00,0.00000e+00,0.00000e+00
1.11650e+03,3.69645e+01,-1.76480e+01,0.00000e+00,0.00000e+00,0.00000e+00
1.11650e+03,3.65678e+01,-2.05893e+01,0.00000e+00,0.00000e+00,0.00000e+00
1.11650e+03,3.61359e+01,-2.35306e+01,0.00000e+00,0.00000e+00,0.00000e+00
1.11650e+03,3.56753e+01,-2.64720e+01,0.00000e+00,0.00000e+00,0.00000e+00
1.11650e+03,3.51829e+01,-2.94133e+01,0.00000e+00,0.00000e+00,0.00000e+00
1.11650e+03,3.46522e+01,-3.23546e+01,0.00000e+00,0.00000e+00,0.00000e+00
1.11650e+03,3.40823e+01,-3.52959e+01,0.00000e+00,0.00000e+00,0.00000e+00
1.11650e+03,3.34567e+01,-3.82373e+01,0.00000e+00,0.00000e+00,0.00000e+00
1.11650e+03,3.27770e+01,-4.11786e+01,0.00000e+00,0.00000e+00,0.00000e+00
1.11650e+03,3.20325e+01,-4.41199e+01,0.00000e+00,0.00000e+00,0.00000e+00
1.11650e+03,3.12004e+01,-4.70612e+01,0.00000e+00,0.00000e+00,0.00000e+00
1.11650e+03,3.03072e+01,-5.00026e+01,0.00000e+00,0.00000e+00,0.00000e+00
1.11650e+03,2.92767e+01,-5.29439e+01,0.00000e+00,0.00000e+00,0.00000e+00
1.11650e+03,2.81893e+01,-5.58852e+01,0.00000e+00,0.00000e+00,0.00000e+00
1.11650e+03,2.69434e+01,-5.88266e+01,0.00000e+00,0.00000e+00,0.00000e+00
1.11650e+03,2.55704e+01,-6.17679e+01,0.00000e+00,0.00000e+00,0.00000e+00
1.11650e+03,2.40681e+01,-6.47092e+01,0.00000e+00,0.00000e+00,0.00000e+00
1.11650e+03,2.23488e+01,-6.76505e+01,0.00000e+00,0.00000e+00,0.00000e+00
1.11650e+03,2.03781e+01,-7.05919e+01,0.00000e+00,0.00000e+00,0.00000e+00
1.11650e+03,1.81233e+01,-7.35332e+01,0.00000e+00,0.00000e+00,0.00000e+00
1.11650e+03,1.54563e+01,-7.64745e+01,0.00000e+00,0.00000e+00,0.00000e+00
1.11650e+03,1.20330e+01,-7.94159e+01,0.00000e+00,0.00000e+00,0.00000e+00
1.11650e+03,7.40314e+00,-8.23572e+01,0.00000e+00,0.00000e+00,0.00000e+00
1.11650e+03,-2.99970e+00,-8.52985e+01,0.00000e+00,0.00000e+00,0.00000e+00
1.11650e+03,-3.75047e+00,-8.53053e+01,0.00000e+00,0.00000e+00,0.00000e+00
1.11650e+03,-1.05906e+01,-8.22587e+01,0.00000e+00,0.00000e+00,0.00000e+00
1.11650e+03,-1.14188e+01,-7.92121e+01,0.00000e+00,0.00000e+00,0.00000e+00
1.11650e+03,-1.17045e+01,-7.61655e+01,0.00000e+00,0.00000e+00,0.00000e+00
1.11650e+03,-1.17479e+01,-7.31189e+01,0.00000e+00,0.00000e+00,0.00000e+00
1.11650e+03,-1.16086e+01,-7.00722e+01,0.00000e+00,0.00000e+00,0.00000e+00
1.11650e+03,-1.13547e+01,-6.70256e+01,0.00000e+00,0.00000e+00,0.00000e+00
1.11650e+03,-1.09858e+01,-6.39790e+01,0.00000e+00,0.00000e+00,0.00000e+00
1.11650e+03,-1.05466e+01,-6.09324e+01,0.00000e+00,0.00000e+00,0.00000e+00
1.11650e+03,-1.00667e+01,-5.78858e+01,0.00000e+00,0.00000e+00,0.00000e+00
1.11650e+03,-9.52550e+00,-5.48391e+01,0.00000e+00,0.00000e+00,0.00000e+00
1.11650e+03,-8.94594e+00,-5.17925e+01,0.00000e+00,0.00000e+00,0.00000e+00
1.11650e+03,-8.32904e+00,-4.87459e+01,0.00000e+00,0.00000e+00,0.00000e+00
1.11650e+03,-7.67495e+00,-4.56993e+01,0.00000e+00,0.00000e+00,0.00000e+00
1.11650e+03,-6.99754e+00,-4.26527e+01,0.00000e+00,0.00000e+00,0.00000e+00
1.11650e+03,-6.29027e+00,-3.96060e+01,0.00000e+00,0.00000e+00,0.00000e+00
1.11650e+03,-5.56387e+00,-3.65594e+01,0.00000e+00,0.00000e+00,0.00000e+00
1.11650e+03,-4.82031e+00,-3.35128e+01,0.00000e+00,0.00000e+00,0.00000e+00
1.11650e+03,-4.06146e+00,-3.04662e+01,0.00000e+00,0.00000e+00,0.00000e+00
1.11650e+03,-3.29611e+00,-2.74196e+01,0.00000e+00,0.00000e+00,0.00000e+00
1.11650e+03,-2.52072e+00,-2.43730e+01,0.00000e+00,0.00000e+00,0.00000e+00
1.11650e+03,-1.74366e+00,-2.13263e+01,0.00000e+00,0.00000e+00,0.00000e+00
1.11650e+03,-9.60599e-01,-1.82797e+01,0.00000e+00,0.00000e+00,0.00000e+00
1.11650e+03,-1.77618e-01,-1.52331e+01,0.00000e+00,0.00000e+00,0.00000e+00
1.11650e+03,6.02404e-01,-1.21865e+01,0.00000e+00,0.00000e+00,0.00000e+00
1.11650e+03,1.38243e+00,-9.13986e+00,0.00000e+00,0.00000e+00,0.00000e+00
1.11650e+03,2.14398e+00,-6.09324e+00,0.00000e+00,0.00000e+00,0.00000e+00
1.11650e+03,2.90209e+00,-3.04662e+00,0.00000e+00,0.00000e+00,0.00000e+00
1.20500e+03,3.76912e+01,0.00000e+00,0.00000e+00,0.00000e+00,0.00000e+00
1.20500e+03,3.75014e+01,-2.86413e+00,0.00000e+00,0.00000e+00,0.00000e+00
1.20500e+03,3.72488e+01,-5.72827e+00,0.00000e+00,0.00000e+00,0.00000e+00
1.20500e+03,3.69938e+01,-8.59240e+00,0.00000e+00,0.00000e+00,0.00000e+00
1.20500e+03,3.66834e+01,-1.14565e+01,0.00000e+00,0.00000e+00,0.00000e+00
1.20500e+03,3.63602e+01,-1.43207e+01,0.00000e+00,0.00000e+00,0.00000e+00
1.20500e+03,3.59944e+01,-1.71848e+01,0.00000e+00,0.00000e+00,0.00000e+00
1.20500e+03,3.56080e+01,-2.00489e+01,0.00000e+00,0.00000e+00,0.00000e+00
1.20500e+03,3.51875e+01,-2.29131e+01,0.00000e+00,0.00000e+00,0.00000e+00
1.20500e+03,3.47390e+01,-2.57772e+01,0.00000e+00,0.00000e+00,0.00000e+00
1.20500e+03,3.42596e+01,-2.86413e+01,0.00000e+00,0.00000e+00,0.00000e+00
1.20500e+03,3.37428e+01,-3.15055e+01,0.00000e+00,0.00000e+00,0.00000e+00
1.20500e+03,3.31878e+01,-3.43696e+01,0.00000e+00,0.00000e+00,0.00000e+00
1.20500e+03,3.25787e+01,-3.72337e+01,0.00000e+00,0.00000e+00,0.00000e+00
1.20500e+03,3.19168e+01,-4.00979e+01,0.00000e+00,0.00000e+00,0.00000e+00
1.20500e+03,3.11919e+01,-4.29620e+01,0.00000e+00,0.00000e+00,0.00000e+00
1.20500e+03,3.03815e+01,-4.58261e+01,0.00000e+00,0.00000e+00,0.00000e+00
1.20500e+03,2.95118e+01,-4.86903e+01,0.00000e+00,0.00000e+00,0.00000e+00
1.20500e+03,2.85084e+01,-5.15544e+01,0.00000e+00,0.00000e+00,0.00000e+00
1.20500e+03,2.74495e+01,-5.44186e+01,0.00000e+00,0.00000e+00,0.00000e+00
1.20500e+03,2.62363e+01,-5.72827e+01,0.00000e+00,0.00000e+00,0.00000e+00
1.20500e+03,2.48993e+01,-6.01468e+01,0.00000e+00,0.00000e+00,0.00000e+00
1.20500e+03,2.34365e+01,-6.30110e+01,0.00000e+00,0.00000e+00,0.00000e+00
1.20500e+03,2.17623e+01,-6.58751e+01,0.00000e+00,0.00000e+00,0.00000e+00
1.20500e+03,1.98433e+01,-6.87392e+01,0.00000e+00,0.00000e+00,0.00000e+00
1.20500e+03,1.76476e+01,-7.16034e+01,0.00000e+00,0.00000e+00,0.00000e+00
1.20500e+03,1.50506e+01,-7.44675e+01,0.00000e+00,0.00000e+00,0.00000e+00
1.20500e+03,1.17172e+01,-7.73316e+01,0.00000e+00,0.00000e+00,0.00000e+00
1.20500e+03,7.20885e+00,-8.01958e+01,0.00000e+00,0.00000e+00,0.00000e+00
1.20500e+03,-2.92097e+00,-8.30599e+01,0.00000e+00,0.00000e+00,0.00000e+00
1.20500e+03,-3.65204e+00,-8.30665e+01,0.00000e+00,0.00000e+00,0.00000e+00
1.20500e+03,-1.03126e+01,-8.00999e+01,0.00000e+00,0.00000e+00,0.00000e+00
1.20500e+03,-1.11191e+01,-7.71332e+01,0.00000e+00,0.00000e+00,0.00000e+00
1.20500e+03,-1.13974e+01,-7.41666e+01,0.00000e+00,0.00000e+00,0.00000e+00
1.20500e+03,-1.14396e+01,-7.11999e+01,0.00000e+00,0.00000e+00,0.00000e+00
1.20500e+03,-1.13040e+01,-6.82332e+01,0.00000e+00,0.00000e+00,0.00000e+00
1.20500e+03,-1.10567e+01,-6.52666e+01,0.00000e+00,0.00000e+00,0.00000e+00
1.20500e+03,-1.06975e+01,-6.22999e+01,0.00000e+00,0.00000e+00,0.00000e+00
1.20500e+03,-1.02698e+01,-5.93332e+01,0.00000e+00,0.00000e+00,0.00000e+00
1.20500e+03,-9.80253e+00,-5.63666e+01,0.00000e+00,0.00000e+00,0.00000e+00
1.20500e+03,-9.27551e+00,-5.33999e+01,0.00000e+00,0.00000e+00,0.00000e+00
1.20500e+03,-8.71115e+00,-5.04333e+01,0.00000e+00,0.00000e+00,0.00000e+00
1.20500e+03,-8.11045e+00,-4.74666e+01,0.00000e+00,0.00000e+00,0.00000e+00
1.20500e+03,-7.47352e+00,-4.44999e+01,0.00000e+00,0.00000e+00,0.00000e+00
1.20500e+03,-6.81389e+00,-4.15333e+01,0.00000e+00,0.00000e+00,0.00000e+00
1.20500e+03,-6.12518e+00,-3.85666e+01,0.00000e+00,0.00000e+00,0.00000e+00
1.20500e+03,-5.41785e+00,-3.55999e+01,0.00000e+00,0.00000e+00,0.00000e+00
1.20500e+03,-4.69381e+00,-3.26333e+01,0.00000e+00,0.00000e+00,0.00000e+00
1.20500e+03,-3.95486e+00,-2.96666e+01,0.00000e+00,0.00000e+00,0.00000e+00
1.20500e+03,-3.20961e+00,-2.67000e+01,0.00000e+00,0.00000e+00,0.00000e+00
1.20500e+03,-2.45457e+00,-2.37333e+01,0.00000e+00,0.00000e+00,0.00000e+00
1.20500e+03,-1.69790e+00,-2.07666e+01,0.00000e+00,0.00000e+00,0.00000e+00
1.20500e+03,-9.35389e-01,-1.78000e+01,0.00000e+00,0.00000e+00,0.00000e+00
1.20500e+03,-1.72956e-01,-1.48333e+01,0.00000e+00,0.00000e+00,0.00000e+00
1.20500e+03,5.86594e-01,-1.18666e+01,0.00000e+00,0.00000e+00,0.00000e+00
1.20500e+03,1.34615e+00,-8.89999e+00,0.00000e+00,0.00000e+00,0.00000e+00
1.20500e+03,2.08771e+00,-5.93332e+00,0.00000e+00,0.00000e+00,0.00000e+00
1.20500e+03,2.82592e+00,-2.96666e+00,0.00000e+00,0.00000e+00,0.00000e+00
1.29010e+03,3.63234e+01,0.00000e+00,0.00000e+00,0.00000e+00,0.00000e+00
1.29010e+03,3.61405e+01,-2.76019e+00,0.00000e+00,0.00000e+00,0.00000e+00
1.29010e+03,3.58971e+01,-5.52039e+00,0.00000e+00,0.00000e+00,0.00000e+00
1.29010e+03,3.56513e+01,-8.28058e+00,0.00000e+00,0.00000e+00,0.00000e+00
1.29010e+03,3.53522e+01,-1.10408e+01,0.00000e+00,0.00000e+00,0.00000e+00
1.29010e+03,3.50407e+01,-1.38010e+01,0.00000e+00,0.00000e+00,0.00000e+00
1.29010e+03,3.46882e+01,-1.65612e+01,0.00000e+00,0.00000e+00,0.00000e+00
1.29010e+03,3.43158e+01,-1.93214e+01,0.00000e+00,0.00000e+00,0.00000e+00
1.29010e+03,3.39106e+01,-2.20816e+01,0.00000e+00,0.00000e+00,0.00000e+00
1.29010e+03,3.34783e+01,-2.48418e+01,0.00000e+00,0.00000e+00,0.00000e+00
1.29010e+03,3.30163e+01,-2.76019e+01,0.00000e+00,0.00000e+00,0.00000e+00
1.29010e+03,3.25183e+01,-3.03621e+01,0.00000e+00,0.00000e+00,0.00000e+00
1.29010e+03,3.19834e+01,-3.31223e+01,0.00000e+00,0.00000e+00,0.00000e+00
1.29010e+03,3.13964e+01,-3.58825e+01,0.00000e+00,0.00000e+00,0.00000e+00
1.29010e+03,3.07585e+01,-3.86427e+01,0.00000e+00,0.00000e+00,0.00000e+00
1.29010e+03,3.00599e+01,-4.14029e+01,0.00000e+00,0.00000e+00,0.00000e+00
1.29010e+03,2.92790e+01,-4.41631e+01,0.00000e+00,0.00000e+00,0.00000e+00
1.29010e+03,2.84408e+01,-4.69233e+01,0.00000e+00,0.00000e+00,0.00000e+00
1.29010e+03,2.74738e+01,-4.96835e+01,0.00000e+00,0.00000e+00,0.00000e+00
1.29010e+03,2.64534e+01,-5.24437e+01,0.00000e+00,0.00000e+00,0.00000e+00
1.29010e+03,2.52842e+01,-5.52039e+01,0.00000e+00,0.00000e+00,0.00000e+00
1.29010e+03,2.39957e+01,-5.79641e+01,0.00000e+00,0.00000e+00,0.00000e+00
1.29010e+03,2.25860e+01,-6.07243e+01,0.00000e+00,0.00000e+00,0.00000e+00
1.29010e+03,2.09725e+01,-6.34845e+01,0.00000e+00,0.00000e+00,0.00000e+00
1.29010e+03,1.91232e+01,-6.62447e+01,0.00000e+00,0.00000e+00,0.00000e+00
1.29010e+03,1.70072e+01,-6.90049e+01,0.00000e+00,0.00000e+00,0.00000e+00
1.29010e+03,1.45045e+01,-7.17651e+01,0.00000e+00,0.00000e+00,0.00000e+00
1.29010e+03,1.12920e+01,-7.45253e+01,0.00000e+00,0.00000e+00,0.00000e+00
1.29010e+03,6.94724e+00,-7.72855e+01,0.00000e+00,0.00000e+00,0.00000e+00
1.29010e+03,-2.81497e+00,-8.00457e+01,0.00000e+00,0.00000e+00,0.00000e+00
1.29010e+03,-3.51951e+00,-8.00521e+01,0.00000e+00,0.00000e+00,0.00000e+00
1.29010e+03,-9.93839e+00,-7.71931e+01,0.00000e+00,0.00000e+00,0.00000e+00
1.29010e+03,-1.07156e+01,-7.43341e+01,0.00000e+00,0.00000e+00,0.00000e+00
1.29010e+03,-1.09838e+01,-7.14751e+01,0.00000e+00,0.00000e+00,0.00000e+00
1.29010e+03,-1.10244e+01,-6.86160e+01,0.00000e+00,0.00000e+00,0.00000e+00
1.29010e+03,-1.08937e+01,-6.57570e+01,0.00000e+00,0.00000e+00,0.00000e+00
1.29010e+03,-1.06555e+01,-6.28980e+01,0.00000e+00,0.00000e+00,0.00000e+00
1.29010e+03,-1.03093e+01,-6.00390e+01,0.00000e+00,0.00000e+00,0.00000e+00
1.29010e+03,-9.89713e+00,-5.71800e+01,0.00000e+00,0.00000e+00,0.00000e+00
1.29010e+03,-9.44680e+00,-5.43210e+01,0.00000e+00,0.00000e+00,0.00000e+00
1.29010e+03,-8.93890e+00,-5.14620e+01,0.00000e+00,0.00000e+00,0.00000e+00
1.29010e+03,-8.39503e+00,-4.86030e+01,0.00000e+00,0.00000e+00,0.00000e+00
1.29010e+03,-7.81612e+00,-4.57440e+01,0.00000e+00,0.00000e+00,0.00000e+00
1.29010e+03,-7.20231e+00,-4.28850e+01,0.00000e+00,0.00000e+00,0.00000e+00
1.29010e+03,-6.56662e+00,-4.00260e+01,0.00000e+00,0.00000e+00,0.00000e+00
1.29010e+03,-5.90290e+00,-3.71670e+01,0.00000e+00,0.00000e+00,0.00000e+00
1.29010e+03,-5.22123e+00,-3.43080e+01,0.00000e+00,0.00000e+00,0.00000e+00
1.29010e+03,-4.52347e+00,-3.14490e+01,0.00000e+00,0.00000e+00,0.00000e+00
1.29010e+03,-3.81134e+00,-2.85900e+01,0.00000e+00,0.00000e+00,0.00000e+00
1.29010e+03,-3.09313e+00,-2.57310e+01,0.00000e+00,0.00000e+00,0.00000e+00
1.29010e+03,-2.36549e+00,-2.28720e+01,0.00000e+00,0.00000e+00,0.00000e+00
1.29010e+03,-1.63628e+00,-2.00130e+01,0.00000e+00,0.00000e+00,0.00000e+00
1.29010e+03,-9.01444e-01,-1.71540e+01,0.00000e+00,0.00000e+00,0.00000e+00
1.29010e+03,-1.66680e-01,-1.42950e+01,0.00000e+00,0.00000e+00,0.00000e+00
1.29010e+03,5.65307e-01,-1.14360e+01,0.00000e+00,0.00000e+00,0.00000e+00
1.29010e+03,1.29729e+00,-8.57701e+00,0.00000e+00,0.00000e+00,0.00000e+00
1.29010e+03,2.01195e+00,-5.71800e+00,0.00000e+00,0.00000e+00,0.00000e+00
1.29010e+03,2.72337e+00,-2.85900e+00,0.00000e+00,0.00000e+00,0.00000e+00
1.37170e+03,3.50118e+01,0.00000e+00,0.00000e+00,0.00000e+00,0.00000e+00
1.37170e+03,3.48355e+01,-2.66053e+00,0.00000e+00,0.00000e+00,0.00000e+00
1.37170e+03,3.46009e+01,-5.32106e+00,0.00000e+00,0.00000e+00,0.00000e+00
1.37170e+03,3.43640e+01,-7.98159e+00,0.00000e+00,0.00000e+00,0.00000e+00
1.37170e+03,3.40757e+01,-1.06421e+01,0.00000e+00,0.00000e+00,0.00000e+00
1.37170e+03,3.37754e+01,-1.33027e+01,0.00000e+00,0.00000e+00,0.00000e+00
1.37170e+03,3.34357e+01,-1.59632e+01,0.00000e+00,0.00000e+00,0.00000e+00
1.37170e+03,3.30768e+01,-1.86237e+01,0.00000e+00,0.00000e+00,0.00000e+00
1.37170e+03,3.26861e+01,-2.12842e+01,0.00000e+00,0.00000e+00,0.00000e+00
1.37170e+03,3.22695e+01,-2.39448e+01,0.00000e+00,0.00000e+00,0.00000e+00
1.37170e+03,3.18241e+01,-2.66053e+01,0.00000e+00,0.00000e+00,0.00000e+00
1.37170e+03,3.13441e+01,-2.92658e+01,0.00000e+00,0.00000e+00,0.00000e+00
1.37170e+03,3.08286e+01,-3.19264e+01,0.00000e+00,0.00000e+00,0.00000e+00
1.37170e+03,3.02627e+01,-3.45869e+01,0.00000e+00,0.00000e+00,0.00000e+00
1.37170e+03,2.96479e+01,-3.72474e+01,0.00000e+00,0.00000e+00,0.00000e+00
1.37170e+03,2.89745e+01,-3.99080e+01,0.00000e+00,0.00000e+00,0.00000e+00
1.37170e+03,2.82218e+01,-4.25685e+01,0.00000e+00,0.00000e+00,0.00000e+00
1.37170e+03,2.74139e+01,-4.52290e+01,0.00000e+00,0.00000e+00,0.00000e+00
1.37170e+03,2.64818e+01,-4.78895e+01,0.00000e+00,0.00000e+00,0.00000e+00
1.37170e+03,2.54982e+01,-5.05501e+01,0.00000e+00,0.00000e+00,0.00000e+00
1.37170e+03,2.43712e+01,-5.32106e+01,0.00000e+00,0.00000e+00,0.00000e+00
1.37170e+03,2.31293e+01,-5.58711e+01,0.00000e+00,0.00000e+00,0.00000e+00
1.37170e+03,2.17704e+01,-5.85317e+01,0.00000e+00,0.00000e+00,0.00000e+00
1.37170e+03,2.02153e+01,-6.11922e+01,0.00000e+00,0.00000e+00,0.00000e+00
1.37170e+03,1.84327e+01,-6.38527e+01,0.00000e+00,0.00000e+00,0.00000e+00
1.37170e+03,1.63931e+01,-6.65133e+01,0.00000e+00,0.00000e+00,0.00000e+00
1.37170e+03,1.39807e+01,-6.91738e+01,0.00000e+00,0.00000e+00,0.00000e+00
1.37170e+03,1.08843e+01,-7.18343e+01,0.00000e+00,0.00000e+00,0.00000e+00
1.37170e+03,6.69639e+00,-7.44949e+01,0.00000e+00,0.00000e+00,0.00000e+00
1.37170e+03,-2.71333e+00,-7.71554e+01,0.00000e+00,0.00000e+00,0.00000e+00
1.37170e+03,-3.39243e+00,-7.71616e+01,0.00000e+00,0.00000e+00,0.00000e+00
1.37170e+03,-9.57954e+00,-7.44058e+01,0.00000e+00,0.00000e+00,0.00000e+00
1.37170e+03,-1.03287e+01,-7.16500e+01,0.00000e+00,0.00000e+00,0.00000e+00
1.37170e+03,-1.05872e+01,-6.88942e+01,0.00000e+00,0.00000e+00,0.00000e+00
1.37170e+03,-1.06264e+01,-6.61385e+01,0.00000e+00,0.00000e+00,0.00000e+00
1.37170e+03,-1.05004e+01,-6.33827e+01,0.00000e+00,0.00000e+00,0.00000e+00
1.37170e+03,-1.02708e+01,-6.06269e+01,0.00000e+00,0.00000e+00,0.00000e+00
1.37170e+03,-9.93701e+00,-5.78712e+01,0.00000e+00,0.00000e+00,0.00000e+00
1.37170e+03,-9.53977e+00,-5.51154e+01,0.00000e+00,0.00000e+00,0.00000e+00
1.37170e+03,-9.10569e+00,-5.23596e+01,0.00000e+00,0.00000e+00,0.00000e+00
1.37170e+03,-8.61613e+00,-4.96039e+01,0.00000e+00,0.00000e+00,0.00000e+00
1.37170e+03,-8.09190e+00,-4.68481e+01,0.00000e+00,0.00000e+00,0.00000e+00
1.37170e+03,-7.53389e+00,-4.40923e+01,0.00000e+00,0.00000e+00,0.00000e+00
1.37170e+03,-6.94225e+00,-4.13365e+01,0.00000e+00,0.00000e+00,0.00000e+00
1.37170e+03,-6.32951e+00,-3.85808e+01,0.00000e+00,0.00000e+00,0.00000e+00
1.37170e+03,-5.68976e+00,-3.58250e+01,0.00000e+00,0.00000e+00,0.00000e+00
1.37170e+03,-5.03271e+00,-3.30692e+01,0.00000e+00,0.00000e+00,0.00000e+00
1.37170e+03,-4.36014e+00,-3.03135e+01,0.00000e+00,0.00000e+00,0.00000e+00
1.37170e+03,-3.67372e+00,-2.75577e+01,0.00000e+00,0.00000e+00,0.00000e+00
1.37170e+03,-2.98144e+00,-2.48019e+01,0.00000e+00,0.00000e+00,0.00000e+00
1.37170e+03,-2.28008e+00,-2.20462e+01,0.00000e+00,0.00000e+00,0.00000e+00
1.37170e+03,-1.57720e+00,-1.92904e+01,0.00000e+00,0.00000e+00,0.00000e+00
1.37170e+03,-8.68894e-01,-1.65346e+01,0.00000e+00,0.00000e+00,0.00000e+00
1.37170e+03,-1.60661e-01,-1.37788e+01,0.00000e+00,0.00000e+00,0.00000e+00
1.37170e+03,5.44895e-01,-1.10231e+01,0.00000e+00,0.00000e+00,0.00000e+00
1.37170e+03,1.25045e+00,-8.26731e+00,0.00000e+00,0.00000e+00,0.00000e+00
1.37170e+03,1.93930e+00,-5.51154e+00,0.00000e+00,0.00000e+00,0.00000e+00
1.37170e+03,2.62503e+00,-2.75577e+00,0.00000e+00,0.00000e+00,0.00000e+00
1.44960e+03,3.37597e+01,0.00000e+00,0.00000e+00,0.00000e+00,0.00000e+00
1.44960e+03,3.35897e+01,-2.56538e+00,0.00000e+00,0.00000e+00,0.00000e+00
1.44960e+03,3.33635e+01,-5.13077e+00,0.00000e+00,0.00000e+00,0.00000e+00
1.44960e+03,3.31351e+01,-7.69615e+00,0.00000e+00,0.00000e+00,0.00000e+00
1.44960e+03,3.28571e+01,-1.02615e+01,0.00000e+00,0.00000e+00,0.00000e+00
1.44960e+03,3.25675e+01,-1.28269e+01,0.00000e+00,0.00000e+00,0.00000e+00
1.44960e+03,3.22399e+01,-1.53923e+01,0.00000e+00,0.00000e+00,0.00000e+00
1.44960e+03,3.18939e+01,-1.79577e+01,0.00000e+00,0.00000e+00,0.00000e+00
1.44960e+03,3.15172e+01,-2.05231e+01,0.00000e+00,0.00000e+00,0.00000e+00
1.44960e+03,3.11155e+01,-2.30885e+01,0.00000e+00,0.00000e+00,0.00000e+00
1.44960e+03,3.06860e+01,-2.56538e+01,0.00000e+00,0.00000e+00,0.00000e+00
1.44960e+03,3.02232e+01,-2.82192e+01,0.00000e+00,0.00000e+00,0.00000e+00
1.44960e+03,2.97261e+01,-3.07846e+01,0.00000e+00,0.00000e+00,0.00000e+00
1.44960e+03,2.91805e+01,-3.33500e+01,0.00000e+00,0.00000e+00,0.00000e+00
1.44960e+03,2.85877e+01,-3.59154e+01,0.00000e+00,0.00000e+00,0.00000e+00
1.44960e+03,2.79383e+01,-3.84808e+01,0.00000e+00,0.00000e+00,0.00000e+00
1.44960e+03,2.72125e+01,-4.10462e+01,0.00000e+00,0.00000e+00,0.00000e+00
1.44960e+03,2.64335e+01,-4.36115e+01,0.00000e+00,0.00000e+00,0.00000e+00
1.44960e+03,2.55347e+01,-4.61769e+01,0.00000e+00,0.00000e+00,0.00000e+00
1.44960e+03,2.45863e+01,-4.87423e+01,0.00000e+00,0.00000e+00,0.00000e+00
1.44960e+03,2.34997e+01,-5.13077e+01,0.00000e+00,0.00000e+00,0.00000e+00
1.44960e+03,2.23022e+01,-5.38731e+01,0.00000e+00,0.00000e+00,0.00000e+00
1.44960e+03,2.09919e+01,-5.64385e+01,0.00000e+00,0.00000e+00,0.00000e+00
1.44960e+03,1.94923e+01,-5.90039e+01,0.00000e+00,0.00000e+00,0.00000e+00
1.44960e+03,1.77735e+01,-6.15692e+01,0.00000e+00,0.00000e+00,0.00000e+00
1.44960e+03,1.58069e+01,-6.41346e+01,0.00000e+00,0.00000e+00,0.00000e+00
1.44960e+03,1.34808e+01,-6.67000e+01,0.00000e+00,0.00000e+00,0.00000e+00
1.44960e+03,1.04950e+01,-6.92654e+01,0.00000e+00,0.00000e+00,0.00000e+00
1.44960e+03,6.45692e+00,-7.18308e+01,0.00000e+00,0.00000e+00,0.00000e+00
1.44960e+03,-2.61629e+00,-7.43962e+01,0.00000e+00,0.00000e+00,0.00000e+00
1.44960e+03,-3.27111e+00,-7.44021e+01,0.00000e+00,0.00000e+00,0.00000e+00
1.44960e+03,-9.23696e+00,-7.17449e+01,0.00000e+00,0.00000e+00,0.00000e+00
1.44960e+03,-9.95928e+00,-6.90877e+01,0.00000e+00,0.00000e+00,0.00000e+00
1.44960e+03,-1.02085e+01,-6.64305e+01,0.00000e+00,0.00000e+00,0.00000e+00
1.44960e+03,-1.02464e+01,-6.37732e+01,0.00000e+00,0.00000e+00,0.00000e+00
1.44960e+03,-1.01249e+01,-6.11160e+01,0.00000e+00,0.00000e+00,0.00000e+00
1.44960e+03,-9.90345e+00,-5.84588e+01,0.00000e+00,0.00000e+00,0.00000e+00
1.44960e+03,-9.58164e+00,-5.58016e+01,0.00000e+00,0.00000e+00,0.00000e+00
1.44960e+03,-9.19861e+00,-5.31444e+01,0.00000e+00,0.00000e+00,0.00000e+00
1.44960e+03,-8.78006e+00,-5.04872e+01,0.00000e+00,0.00000e+00,0.00000e+00
1.44960e+03,-8.30801e+00,-4.78299e+01,0.00000e+00,0.00000e+00,0.00000e+00
1.44960e+03,-7.80252e+00,-4.51727e+01,0.00000e+00,0.00000e+00,0.00000e+00
1.44960e+03,-7.26447e+00,-4.25155e+01,0.00000e+00,0.00000e+00,0.00000e+00
1.44960e+03,-6.69398e+00,-3.98583e+01,0.00000e+00,0.00000e+00,0.00000e+00
1.44960e+03,-6.10316e+00,-3.72011e+01,0.00000e+00,0.00000e+00,0.00000e+00
1.44960e+03,-5.48628e+00,-3.45438e+01,0.00000e+00,0.00000e+00,0.00000e+00
1.44960e+03,-4.85273e+00,-3.18866e+01,0.00000e+00,0.00000e+00,0.00000e+00
1.44960e+03,-4.20421e+00,-2.92294e+01,0.00000e+00,0.00000e+00,0.00000e+00
1.44960e+03,-3.54234e+00,-2.65722e+01,0.00000e+00,0.00000e+00,0.00000e+00
1.44960e+03,-2.87482e+00,-2.39150e+01,0.00000e+00,0.00000e+00,0.00000e+00
1.44960e+03,-2.19854e+00,-2.12577e+01,0.00000e+00,0.00000e+00,0.00000e+00
1.44960e+03,-1.52080e+00,-1.86005e+01,0.00000e+00,0.00000e+00,0.00000e+00
1.44960e+03,-8.37821e-01,-1.59433e+01,0.00000e+00,0.00000e+00,0.00000e+00
1.44960e+03,-1.54916e-01,-1.32861e+01,0.00000e+00,0.00000e+00,0.00000e+00
1.44960e+03,5.25408e-01,-1.06289e+01,0.00000e+00,0.00000e+00,0.00000e+00
1.44960e+03,1.20573e+00,-7.97166e+00,0.00000e+00,0.00000e+00,0.00000e+00
1.44960e+03,1.86995e+00,-5.31444e+00,0.00000e+00,0.00000e+00,0.00000e+00
1.44960e+03,2.53116e+00,-2.65722e+00,0.00000e+00,0.00000e+00,0.00000e+00
1.52340e+03,3.25736e+01,0.00000e+00,0.00000e+00,0.00000e+00,0.00000e+00
1.52340e+03,3.24095e+01,-2.47525e+00,0.00000e+00,0.00000e+00,0.00000e+00
1.52340e+03,3.21913e+01,-4.95049e+00,0.00000e+00,0.00000e+00,0.00000e+00
1.52340e+03,3.19709e+01,-7.42574e+00,0.00000e+00,0.00000e+00,0.00000e+00
1.52340e+03,3.17026e+01,-9.90099e+00,0.00000e+00,0.00000e+00,0.00000e+00
1.52340e+03,3.14232e+01,-1.23762e+01,0.00000e+00,0.00000e+00,0.00000e+00
1.52340e+03,3.11072e+01,-1.48515e+01,0.00000e+00,0.00000e+00,0.00000e+00
1.52340e+03,3.07733e+01,-1.73267e+01,0.00000e+00,0.00000e+00,0.00000e+00
1.52340e+03,3.04098e+01,-1.98020e+01,0.00000e+00,0.00000e+00,0.00000e+00
1.52340e+03,3.00222e+01,-2.22772e+01,0.00000e+00,0.00000e+00,0.00000e+00
1.52340e+03,2.96079e+01,-2.47525e+01,0.00000e+00,0.00000e+00,0.00000e+00
1.52340e+03,2.91613e+01,-2.72277e+01,0.00000e+00,0.00000e+00,0.00000e+00
1.52340e+03,2.86816e+01,-2.97030e+01,0.00000e+00,0.00000e+00,0.00000e+00
1.52340e+03,2.81552e+01,-3.21782e+01,0.00000e+00,0.00000e+00,0.00000e+00
1.52340e+03,2.75832e+01,-3.46535e+01,0.00000e+00,0.00000e+00,0.00000e+00
1.52340e+03,2.69567e+01,-3.71287e+01,0.00000e+00,0.00000e+00,0.00000e+00
1.52340e+03,2.62564e+01,-3.96040e+01,0.00000e+00,0.00000e+00,0.00000e+00
1.52340e+03,2.55047e+01,-4.20792e+01,0.00000e+00,0.00000e+00,0.00000e+00
1.52340e+03,2.46375e+01,-4.45544e+01,0.00000e+00,0.00000e+00,0.00000e+00
1.52340e+03,2.37225e+01,-4.70297e+01,0.00000e+00,0.00000e+00,0.00000e+00
1.52340e+03,2.26740e+01,-4.95049e+01,0.00000e+00,0.00000e+00,0.00000e+00
1.52340e+03,2.15185e+01,-5.19802e+01,0.00000e+00,0.00000e+00,0.00000e+00
1.52340e+03,2.02543e+01,-5.44554e+01,0.00000e+00,0.00000e+00,0.00000e+00
1.52340e+03,1.88075e+01,-5.69307e+01,0.00000e+00,0.00000e+00,0.00000e+00
1.52340e+03,1.71490e+01,-5.94059e+01,0.00000e+00,0.00000e+00,0.00000e+00
1.52340e+03,1.52515e+01,-6.18812e+01,0.00000e+00,0.00000e+00,0.00000e+00
1.52340e+03,1.30071e+01,-6.43564e+01,0.00000e+00,0.00000e+00,0.00000e+00
1.52340e+03,1.01263e+01,-6.68317e+01,0.00000e+00,0.00000e+00,0.00000e+00
1.52340e+03,6.23005e+00,-6.93069e+01,0.00000e+00,0.00000e+00,0.00000e+00
1.52340e+03,-2.52437e+00,-7.17822e+01,0.00000e+00,0.00000e+00,0.00000e+00
1.52340e+03,-3.15618e+00,-7.17879e+01,0.00000e+00,0.00000e+00,0.00000e+00
1.52340e+03,-8.91241e+00,-6.92241e+01,0.00000e+00,0.00000e+00,0.00000e+00
1.52340e+03,-9.60935e+00,-6.66602e+01,0.00000e+00,0.00000e+00,0.00000e+00
1.52340e+03,-9.84985e+00,-6.40963e+01,0.00000e+00,0.00000e+00,0.00000e+00
1.52340e+03,-9.88634e+00,-6.15325e+01,0.00000e+00,0.00000e+00,0.00000e+00
1.52340e+03,-9.76914e+00,-5.89686e+01,0.00000e+00,0.00000e+00,0.00000e+00
1.52340e+03,-9.55548e+00,-5.64048e+01,0.00000e+00,0.00000e+00,0.00000e+00
1.52340e+03,-9.24498e+00,-5.38409e+01,0.00000e+00,0.00000e+00,0.00000e+00
1.52340e+03,-8.87540e+00,-5.12771e+01,0.00000e+00,0.00000e+00,0.00000e+00
1.52340e+03,-8.47156e+00,-4.87132e+01,0.00000e+00,0.00000e+00,0.00000e+00
1.52340e+03,-8.01609e+00,-4.61494e+01,0.00000e+00,0.00000e+00,0.00000e+00
1.52340e+03,-7.52837e+00,-4.35855e+01,0.00000e+00,0.00000e+00,0.00000e+00
1.52340e+03,-7.00922e+00,-4.10217e+01,0.00000e+00,0.00000e+00,0.00000e+00
1.52340e+03,-6.45878e+00,-3.84578e+01,0.00000e+00,0.00000e+00,0.00000e+00
1.52340e+03,-5.88872e+00,-3.58940e+01,0.00000e+00,0.00000e+00,0.00000e+00
1.52340e+03,-5.29352e+00,-3.33301e+01,0.00000e+00,0.00000e+00,0.00000e+00
1.52340e+03,-4.68222e+00,-3.07662e+01,0.00000e+00,0.00000e+00,0.00000e+00
1.52340e+03,-4.05649e+00,-2.82024e+01,0.00000e+00,0.00000e+00,0.00000e+00
1.52340e+03,-3.41788e+00,-2.56385e+01,0.00000e+00,0.00000e+00,0.00000e+00
1.52340e+03,-2.77381e+00,-2.30747e+01,0.00000e+00,0.00000e+00,0.00000e+00
1.52340e+03,-2.12129e+00,-2.05108e+01,0.00000e+00,0.00000e+00,0.00000e+00
1.52340e+03,-1.46736e+00,-1.79470e+01,0.00000e+00,0.00000e+00,0.00000e+00
1.52340e+03,-8.08383e-01,-1.53831e+01,0.00000e+00,0.00000e+00,0.00000e+00
1.52340e+03,-1.49473e-01,-1.28193e+01,0.00000e+00,0.00000e+00,0.00000e+00
1.52340e+03,5.06948e-01,-1.02554e+01,0.00000e+00,0.00000e+00,0.00000e+00
1.52340e+03,1.16337e+00,-7.69156e+00,0.00000e+00,0.00000e+00,0.00000e+00
1.52340e+03,1.80424e+00,-5.12771e+00,0.00000e+00,0.00000e+00,0.00000e+00
1.52340e+03,2.44222e+00,-2.56385e+00,0.00000e+00,0.00000e+00,0.00000e+00
1.59310e+03,3.14533e+01,0.00000e+00,0.00000e+00,0.00000e+00,0.00000e+00
1.59310e+03,3.12949e+01,-2.39012e+00,0.00000e+00,0.00000e+00,0.00000e+00
1.59310e+03,3.10841e+01,-4.78023e+00,0.00000e+00,0.00000e+00,0.00000e+00
1.59310e+03,3.08713e+01,-7.17035e+00,0.00000e+00,0.00000e+00,0.00000e+00
1.59310e+03,3.06123e+01,-9.56047e+00,0.00000e+00,0.00000e+00,0.00000e+00
1.59310e+03,3.03425e+01,-1.19506e+01,0.00000e+00,0.00000e+00,0.00000e+00
1.59310e+03,3.00373e+01,-1.43407e+01,0.00000e+00,0.00000e+00,0.00000e+00
1.59310e+03,2.97149e+01,-1.67308e+01,0.00000e+00,0.00000e+00,0.00000e+00
1.59310e+03,2.93640e+01,-1.91209e+01,0.00000e+00,0.00000e+00,0.00000e+00
1.59310e+03,2.89896e+01,-2.15111e+01,0.00000e+00,0.00000e+00,0.00000e+00
1.59310e+03,2.85896e+01,-2.39012e+01,0.00000e+00,0.00000e+00,0.00000e+00
1.59310e+03,2.81583e+01,-2.62913e+01,0.00000e+00,0.00000e+00,0.00000e+00
1.59310e+03,2.76952e+01,-2.86814e+01,0.00000e+00,0.00000e+00,0.00000e+00
1.59310e+03,2.71869e+01,-3.10715e+01,0.00000e+00,0.00000e+00,0.00000e+00
1.59310e+03,2.66345e+01,-3.34616e+01,0.00000e+00,0.00000e+00,0.00000e+00
1.59310e+03,2.60296e+01,-3.58518e+01,0.00000e+00,0.00000e+00,0.00000e+00
1.59310e+03,2.53533e+01,-3.82419e+01,0.00000e+00,0.00000e+00,0.00000e+00
1.59310e+03,2.46276e+01,-4.06320e+01,0.00000e+00,0.00000e+00,0.00000e+00
1.59310e+03,2.37902e+01,-4.30221e+01,0.00000e+00,0.00000e+00,0.00000e+00
1.59310e+03,2.29066e+01,-4.54122e+01,0.00000e+00,0.00000e+00,0.00000e+00
1.59310e+03,2.18941e+01,-4.78023e+01,0.00000e+00,0.00000e+00,0.00000e+00
1.59310e+03,2.07785e+01,-5.01925e+01,0.00000e+00,0.00000e+00,0.00000e+00
1.59310e+03,1.95577e+01,-5.25826e+01,0.00000e+00,0.00000e+00,0.00000e+00
1.59310e+03,1.81606e+01,-5.49727e+01,0.00000e+00,0.00000e+00,0.00000e+00
1.59310e+03,1.65592e+01,-5.73628e+01,0.00000e+00,0.00000e+00,0.00000e+00
1.59310e+03,1.47269e+01,-5.97529e+01,0.00000e+00,0.00000e+00,0.00000e+00
1.59310e+03,1.25597e+01,-6.21430e+01,0.00000e+00,0.00000e+00,0.00000e+00
1.59310e+03,9.77800e+00,-6.45332e+01,0.00000e+00,0.00000e+00,0.00000e+00
1.59310e+03,6.01578e+00,-6.69233e+01,0.00000e+00,0.00000e+00,0.00000e+00
1.59310e+03,-2.43755e+00,-6.93134e+01,0.00000e+00,0.00000e+00,0.00000e+00
1.59310e+03,-3.04763e+00,-6.93189e+01,0.00000e+00,0.00000e+00,0.00000e+00
1.59310e+03,-8.60589e+00,-6.68433e+01,0.00000e+00,0.00000e+00,0.00000e+00
1.59310e+03,-9.27886e+00,-6.43676e+01,0.00000e+00,0.00000e+00,0.00000e+00
1.59310e+03,-9.51109e+00,-6.18919e+01,0.00000e+00,0.00000e+00,0.00000e+00
1.59310e+03,-9.54632e+00,-5.94162e+01,0.00000e+00,0.00000e+00,0.00000e+00
1.59310e+03,-9.43315e+00,-5.69406e+01,0.00000e+00,0.00000e+00,0.00000e+00
1.59310e+03,-9.22684e+00,-5.44649e+01,0.00000e+00,0.00000e+00,0.00000e+00
1.59310e+03,-8.92702e+00,-5.19892e+01,0.00000e+00,0.00000e+00,0.00000e+00
1.59310e+03,-8.57016e+00,-4.95135e+01,0.00000e+00,0.00000e+00,0.00000e+00
1.59310e+03,-8.18020e+00,-4.70379e+01,0.00000e+00,0.00000e+00,0.00000e+00
1.59310e+03,-7.74040e+00,-4.45622e+01,0.00000e+00,0.00000e+00,0.00000e+00
1.59310e+03,-7.26945e+00,-4.20865e+01,0.00000e+00,0.00000e+00,0.00000e+00
1.59310e+03,-6.76816e+00,-3.96108e+01,0.00000e+00,0.00000e+00,0.00000e+00
1.59310e+03,-6.23665e+00,-3.71351e+01,0.00000e+00,0.00000e+00,0.00000e+00
1.59310e+03,-5.68619e+00,-3.46595e+01,0.00000e+00,0.00000e+00,0.00000e+00
1.59310e+03,-5.11146e+00,-3.21838e+01,0.00000e+00,0.00000e+00,0.00000e+00
1.59310e+03,-4.52119e+00,-2.97081e+01,0.00000e+00,0.00000e+00,0.00000e+00
1.59310e+03,-3.91698e+00,-2.72324e+01,0.00000e+00,0.00000e+00,0.00000e+00
1.59310e+03,-3.30033e+00,-2.47568e+01,0.00000e+00,0.00000e+00,0.00000e+00
1.59310e+03,-2.67841e+00,-2.22811e+01,0.00000e+00,0.00000e+00,0.00000e+00
1.59310e+03,-2.04833e+00,-1.98054e+01,0.00000e+00,0.00000e+00,0.00000e+00
1.59310e+03,-1.41689e+00,-1.73297e+01,0.00000e+00,0.00000e+00,0.00000e+00
1.59310e+03,-7.80581e-01,-1.48541e+01,0.00000e+00,0.00000e+00,0.00000e+00
1.59310e+03,-1.44332e-01,-1.23784e+01,0.00000e+00,0.00000e+00,0.00000e+00
1.59310e+03,4.89512e-01,-9.90271e+00,0.00000e+00,0.00000e+00,0.00000e+00
1.59310e+03,1.12336e+00,-7.42703e+00,0.00000e+00,0.00000e+00,0.00000e+00
1.59310e+03,1.74219e+00,-4.95135e+00,0.00000e+00,0.00000e+00,0.00000e+00
1.59310e+03,2.35823e+00,-2.47568e+00,0.00000e+00,0.00000e+00,0.00000e+00
1.65850e+03,3.04021e+01,0.00000e+00,0.00000e+00,0.00000e+00,0.00000e+00
1.65850e+03,3.02490e+01,-2.31024e+00,0.00000e+00,0.00000e+00,0.00000e+00
1.65850e+03,3.00453e+01,-4.62048e+00,0.00000e+00,0.00000e+00,0.00000e+00
1.65850e+03,2.98396e+01,-6.93072e+00,0.00000e+00,0.00000e+00,0.00000e+00
1.65850e+03,2.95892e+01,-9.24096e+00,0.00000e+00,0.00000e+00,0.00000e+00
1.65850e+03,2.93285e+01,-1.15512e+01,0.00000e+00,0.00000e+00,0.00000e+00
1.65850e+03,2.90335e+01,-1.38614e+01,0.00000e+00,0.00000e+00,0.00000e+00
1.65850e+03,2.87218e+01,-1.61717e+01,0.00000e+00,0.00000e+00,0.00000e+00
1.65850e+03,2.83826e+01,-1.84819e+01,0.00000e+00,0.00000e+00,0.00000e+00
1.65850e+03,2.80208e+01,-2.07921e+01,0.00000e+00,0.00000e+00,0.00000e+00
1.65850e+03,2.76341e+01,-2.31024e+01,0.00000e+00,0.00000e+00,0.00000e+00
1.65850e+03,2.72173e+01,-2.54126e+01,0.00000e+00,0.00000e+00,0.00000e+00
1.65850e+03,2.67696e+01,-2.77229e+01,0.00000e+00,0.00000e+00,0.00000e+00
1.65850e+03,2.62783e+01,-3.00331e+01,0.00000e+00,0.00000e+00,0.00000e+00
1.65850e+03,2.57444e+01,-3.23433e+01,0.00000e+00,0.00000e+00,0.00000e+00
1.65850e+03,2.51597e+01,-3.46536e+01,0.00000e+00,0.00000e+00,0.00000e+00
1.65850e+03,2.45060e+01,-3.69638e+01,0.00000e+00,0.00000e+00,0.00000e+00
1.65850e+03,2.38045e+01,-3.92741e+01,0.00000e+00,0.00000e+00,0.00000e+00
1.65850e+03,2.29951e+01,-4.15843e+01,0.00000e+00,0.00000e+00,0.00000e+00
1.65850e+03,2.21410e+01,-4.38945e+01,0.00000e+00,0.00000e+00,0.00000e+00
1.65850e+03,2.11624e+01,-4.62048e+01,0.00000e+00,0.00000e+00,0.00000e+00
1.65850e+03,2.00840e+01,-4.85150e+01,0.00000e+00,0.00000e+00,0.00000e+00
1.65850e+03,1.89041e+01,-5.08253e+01,0.00000e+00,0.00000e+00,0.00000e+00
1.65850e+03,1.75537e+01,-5.31355e+01,0.00000e+00,0.00000e+00,0.00000e+00
1.65850e+03,1.60058e+01,-5.54457e+01,0.00000e+00,0.00000e+00,0.00000e+00
1.65850e+03,1.42348e+01,-5.77560e+01,0.00000e+00,0.00000e+00,0.00000e+00
1.65850e+03,1.21400e+01,-6.00662e+01,0.00000e+00,0.00000e+00,0.00000e+00
1.65850e+03,9.45122e+00,-6.23764e+01,0.00000e+00,0.00000e+00,0.00000e+00
1.65850e+03,5.81473e+00,-6.46867e+01,0.00000e+00,0.00000e+00,0.00000e+00
1.65850e+03,-2.35608e+00,-6.69969e+01,0.00000e+00,0.00000e+00,0.00000e+00
1.65850e+03,-2.94577e+00,-6.70023e+01,0.00000e+00,0.00000e+00,0.00000e+00
1.65850e+03,-8.31828e+00,-6.46093e+01,0.00000e+00,0.00000e+00,0.00000e+00
1.65850e+03,-8.96876e+00,-6.22164e+01,0.00000e+00,0.00000e+00,0.00000e+00
1.65850e+03,-9.19322e+00,-5.98235e+01,0.00000e+00,0.00000e+00,0.00000e+00
1.65850e+03,-9.22728e+00,-5.74305e+01,0.00000e+00,0.00000e+00,0.00000e+00
1.65850e+03,-9.11789e+00,-5.50376e+01,0.00000e+00,0.00000e+00,0.00000e+00
1.65850e+03,-8.91848e+00,-5.26447e+01,0.00000e+00,0.00000e+00,0.00000e+00
1.65850e+03,-8.62868e+00,-5.02517e+01,0.00000e+00,0.00000e+00,0.00000e+00
1.65850e+03,-8.28374e+00,-4.78588e+01,0.00000e+00,0.00000e+00,0.00000e+00
1.65850e+03,-7.90682e+00,-4.54658e+01,0.00000e+00,0.00000e+00,0.00000e+00
1.65850e+03,-7.48171e+00,-4.30729e+01,0.00000e+00,0.00000e+00,0.00000e+00
1.65850e+03,-7.02650e+00,-4.06800e+01,0.00000e+00,0.00000e+00,0.00000e+00
1.65850e+03,-6.54196e+00,-3.82870e+01,0.00000e+00,0.00000e+00,0.00000e+00
1.65850e+03,-6.02822e+00,-3.58941e+01,0.00000e+00,0.00000e+00,0.00000e+00
1.65850e+03,-5.49615e+00,-3.35011e+01,0.00000e+00,0.00000e+00,0.00000e+00
1.65850e+03,-4.94063e+00,-3.11082e+01,0.00000e+00,0.00000e+00,0.00000e+00
1.65850e+03,-4.37009e+00,-2.87153e+01,0.00000e+00,0.00000e+00,0.00000e+00
1.65850e+03,-3.78607e+00,-2.63223e+01,0.00000e+00,0.00000e+00,0.00000e+00
1.65850e+03,-3.19003e+00,-2.39294e+01,0.00000e+00,0.00000e+00,0.00000e+00
1.65850e+03,-2.58890e+00,-2.15364e+01,0.00000e+00,0.00000e+00,0.00000e+00
1.65850e+03,-1.97988e+00,-1.91435e+01,0.00000e+00,0.00000e+00,0.00000e+00
1.65850e+03,-1.36954e+00,-1.67506e+01,0.00000e+00,0.00000e+00,0.00000e+00
1.65850e+03,-7.54494e-01,-1.43576e+01,0.00000e+00,0.00000e+00,0.00000e+00
1.65850e+03,-1.39508e-01,-1.19647e+01,0.00000e+00,0.00000e+00,0.00000e+00
1.65850e+03,4.73153e-01,-9.57176e+00,0.00000e+00,0.00000e+00,0.00000e+00
1.65850e+03,1.08581e+00,-7.17882e+00,0.00000e+00,0.00000e+00,0.00000e+00
1.65850e+03,1.68397e+00,-4.78588e+00,0.00000e+00,0.00000e+00,0.00000e+00
1.65850e+03,2.27942e+00,-2.39294e+00,0.00000e+00,0.00000e+00,0.00000e+00
1.71930e+03,2.94249e+01,0.00000e+00,0.00000e+00,0.00000e+00,0.00000e+00
1.71930e+03,2.92767e+01,-2.23598e+00,0.00000e+00,0.00000e+00,0.00000e+00
1.71930e+03,2.90795e+01,-4.47196e+00,0.00000e+00,0.00000e+00,0.00000e+00
1.71930e+03,2.88804e+01,-6.70794e+00,0.00000e+00,0.00000e+00,0.00000e+00
1.71930e+03,2.86381e+01,-8.94392e+00,0.00000e+00,0.00000e+00,0.00000e+00
1.71930e+03,2.83857e+01,-1.11799e+01,0.00000e+00,0.00000e+00,0.00000e+00
1.71930e+03,2.81002e+01,-1.34159e+01,0.00000e+00,0.00000e+00,0.00000e+00
1.71930e+03,2.77986e+01,-1.56519e+01,0.00000e+00,0.00000e+00,0.00000e+00
1.71930e+03,2.74703e+01,-1.78878e+01,0.00000e+00,0.00000e+00,0.00000e+00
1.71930e+03,2.71201e+01,-2.01238e+01,0.00000e+00,0.00000e+00,0.00000e+00
1.71930e+03,2.67458e+01,-2.23598e+01,0.00000e+00,0.00000e+00,0.00000e+00
1.71930e+03,2.63424e+01,-2.45958e+01,0.00000e+00,0.00000e+00,0.00000e+00
1.71930e+03,2.59091e+01,-2.68317e+01,0.00000e+00,0.00000e+00,0.00000e+00
1.71930e+03,2.54336e+01,-2.90677e+01,0.00000e+00,0.00000e+00,0.00000e+00
1.71930e+03,2.49169e+01,-3.13037e+01,0.00000e+00,0.00000e+00,0.00000e+00
1.71930e+03,2.43509e+01,-3.35397e+01,0.00000e+00,0.00000e+00,0.00000e+00
1.71930e+03,2.37183e+01,-3.57757e+01,0.00000e+00,0.00000e+00,0.00000e+00
1.71930e+03,2.30393e+01,-3.80116e+01,0.00000e+00,0.00000e+00,0.00000e+00
1.71930e+03,2.22560e+01,-4.02476e+01,0.00000e+00,0.00000e+00,0.00000e+00
1.71930e+03,2.14293e+01,-4.24836e+01,0.00000e+00,0.00000e+00,0.00000e+00
1.71930e+03,2.04822e+01,-4.47196e+01,0.00000e+00,0.00000e+00,0.00000e+00
1.71930e+03,1.94385e+01,-4.69556e+01,0.00000e+00,0.00000e+00,0.00000e+00
1.71930e+03,1.82964e+01,-4.91915e+01,0.00000e+00,0.00000e+00,0.00000e+00
1.71930e+03,1.69894e+01,-5.14275e+01,0.00000e+00,0.00000e+00,0.00000e+00
1.71930e+03,1.54913e+01,-5.36635e+01,0.00000e+00,0.00000e+00,0.00000e+00
1.71930e+03,1.37772e+01,-5.58995e+01,0.00000e+00,0.00000e+00,0.00000e+00
1.71930e+03,1.17498e+01,-5.81355e+01,0.00000e+00,0.00000e+00,0.00000e+00
1.71930e+03,9.14742e+00,-6.03714e+01,0.00000e+00,0.00000e+00,0.00000e+00
1.71930e+03,5.62782e+00,-6.26074e+01,0.00000e+00,0.00000e+00,0.00000e+00
1.71930e+03,-2.28035e+00,-6.48434e+01,0.00000e+00,0.00000e+00,0.00000e+00
1.71930e+03,-2.85109e+00,-6.48486e+01,0.00000e+00,0.00000e+00,0.00000e+00
1.71930e+03,-8.05090e+00,-6.25326e+01,0.00000e+00,0.00000e+00,0.00000e+00
1.71930e+03,-8.68047e+00,-6.02165e+01,0.00000e+00,0.00000e+00,0.00000e+00
1.71930e+03,-8.89772e+00,-5.79005e+01,0.00000e+00,0.00000e+00,0.00000e+00
1.71930e+03,-8.93068e+00,-5.55845e+01,0.00000e+00,0.00000e+00,0.00000e+00
1.71930e+03,-8.82481e+00,-5.32685e+01,0.00000e+00,0.00000e+00,0.00000e+00
1.71930e+03,-8.63181e+00,-5.09525e+01,0.00000e+00,0.00000e+00,0.00000e+00
1.71930e+03,-8.35132e+00,-4.86364e+01,0.00000e+00,0.00000e+00,0.00000e+00
1.71930e+03,-8.01747e+00,-4.63204e+01,0.00000e+00,0.00000e+00,0.00000e+00
1.71930e+03,-7.65266e+00,-4.40044e+01,0.00000e+00,0.00000e+00,0.00000e+00
1.71930e+03,-7.24122e+00,-4.16884e+01,0.00000e+00,0.00000e+00,0.00000e+00
1.71930e+03,-6.80064e+00,-3.93724e+01,0.00000e+00,0.00000e+00,0.00000e+00
1.71930e+03,-6.33168e+00,-3.70563e+01,0.00000e+00,0.00000e+00,0.00000e+00
1.71930e+03,-5.83445e+00,-3.47403e+01,0.00000e+00,0.00000e+00,0.00000e+00
1.71930e+03,-5.31949e+00,-3.24243e+01,0.00000e+00,0.00000e+00,0.00000e+00
1.71930e+03,-4.78182e+00,-3.01083e+01,0.00000e+00,0.00000e+00,0.00000e+00
1.71930e+03,-4.22962e+00,-2.77922e+01,0.00000e+00,0.00000e+00,0.00000e+00
1.71930e+03,-3.66437e+00,-2.54762e+01,0.00000e+00,0.00000e+00,0.00000e+00
1.71930e+03,-3.08749e+00,-2.31602e+01,0.00000e+00,0.00000e+00,0.00000e+00
1.71930e+03,-2.50568e+00,-2.08442e+01,0.00000e+00,0.00000e+00,0.00000e+00
1.71930e+03,-1.91624e+00,-1.85282e+01,0.00000e+00,0.00000e+00,0.00000e+00
1.71930e+03,-1.32552e+00,-1.62121e+01,0.00000e+00,0.00000e+00,0.00000e+00
1.71930e+03,-7.30242e-01,-1.38961e+01,0.00000e+00,0.00000e+00,0.00000e+00
1.71930e+03,-1.35024e-01,-1.15801e+01,0.00000e+00,0.00000e+00,0.00000e+00
1.71930e+03,4.57944e-01,-9.26408e+00,0.00000e+00,0.00000e+00,0.00000e+00
1.71930e+03,1.05091e+00,-6.94806e+00,0.00000e+00,0.00000e+00,0.00000e+00
1.71930e+03,1.62984e+00,-4.63204e+00,0.00000e+00,0.00000e+00,0.00000e+00
1.71930e+03,2.20615e+00,-2.31602e+00,0.00000e+00,0.00000e+00,0.00000e+00
1.77540e+03,2.77303e+01,0.00000e+00,0.00000e+00,0.00000e+00,0.00000e+00
1.77540e+03,2.75906e+01,-2.10721e+00,0.00000e+00,0.00000e+00,0.00000e+00
1.77540e+03,2.74048e+01,-4.21442e+00,0.00000e+00,0.00000e+00,0.00000e+00
1.77540e+03,2.72172e+01,-6.32163e+00,0.00000e+00,0.00000e+00,0.00000e+00
1.77540e+03,2.69888e+01,-8.42884e+00,0.00000e+00,0.00000e+00,0.00000e+00
1.77540e+03,2.67510e+01,-1.05361e+01,0.00000e+00,0.00000e+00,0.00000e+00
1.77540e+03,2.64819e+01,-1.26433e+01,0.00000e+00,0.00000e+00,0.00000e+00
1.77540e+03,2.61977e+01,-1.47505e+01,0.00000e+00,0.00000e+00,0.00000e+00
1.77540e+03,2.58883e+01,-1.68577e+01,0.00000e+00,0.00000e+00,0.00000e+00
1.77540e+03,2.55583e+01,-1.89649e+01,0.00000e+00,0.00000e+00,0.00000e+00
1.77540e+03,2.52056e+01,-2.10721e+01,0.00000e+00,0.00000e+00,0.00000e+00
1.77540e+03,2.48254e+01,-2.31793e+01,0.00000e+00,0.00000e+00,0.00000e+00
1.77540e+03,2.44171e+01,-2.52865e+01,0.00000e+00,0.00000e+00,0.00000e+00
1.77540e+03,2.39689e+01,-2.73937e+01,0.00000e+00,0.00000e+00,0.00000e+00
1.77540e+03,2.34819e+01,-2.95009e+01,0.00000e+00,0.00000e+00,0.00000e+00
1.77540e+03,2.29486e+01,-3.16082e+01,0.00000e+00,0.00000e+00,0.00000e+00
1.77540e+03,2.23524e+01,-3.37154e+01,0.00000e+00,0.00000e+00,0.00000e+00
1.77540e+03,2.17125e+01,-3.58226e+01,0.00000e+00,0.00000e+00,0.00000e+00
1.77540e+03,2.09743e+01,-3.79298e+01,0.00000e+00,0.00000e+00,0.00000e+00
1.77540e+03,2.01952e+01,-4.00370e+01,0.00000e+00,0.00000e+00,0.00000e+00
1.77540e+03,1.93026e+01,-4.21442e+01,0.00000e+00,0.00000e+00,0.00000e+00
1.77540e+03,1.83190e+01,-4.42514e+01,0.00000e+00,0.00000e+00,0.00000e+00
1.77540e+03,1.72428e+01,-4.63586e+01,0.00000e+00,0.00000e+00,0.00000e+00
1.77540e+03,1.60110e+01,-4.84658e+01,0.00000e+00,0.00000e+00,0.00000e+00
1.77540e+03,1.45992e+01,-5.05731e+01,0.00000e+00,0.00000e+00,0.00000e+00
1.77540e+03,1.29838e+01,-5.26803e+01,0.00000e+00,0.00000e+00,0.00000e+00
1.77540e+03,1.10731e+01,-5.47875e+01,0.00000e+00,0.00000e+00,0.00000e+00
1.77540e+03,8.62063e+00,-5.68947e+01,0.00000e+00,0.00000e+00,0.00000e+00
1.77540e+03,5.30372e+00,-5.90019e+01,0.00000e+00,0.00000e+00,0.00000e+00
1.77540e+03,-2.14903e+00,-6.11091e+01,0.00000e+00,0.00000e+00,0.00000e+00
1.77540e+03,-2.68689e+00,-6.11140e+01,0.00000e+00,0.00000e+00,0.00000e+00
1.77540e+03,-7.58725e+00,-5.89314e+01,0.00000e+00,0.00000e+00,0.00000e+00
1.77540e+03,-8.18057e+00,-5.67487e+01,0.00000e+00,0.00000e+00,0.00000e+00
1.77540e+03,-8.38530e+00,-5.45661e+01,0.00000e+00,0.00000e+00,0.00000e+00
1.77540e+03,-8.41637e+00,-5.23834e+01,0.00000e+00,0.00000e+00,0.00000e+00
1.77540e+03,-8.31659e+00,-5.02008e+01,0.00000e+00,0.00000e+00,0.00000e+00
1.77540e+03,-8.13471e+00,-4.80181e+01,0.00000e+00,0.00000e+00,0.00000e+00
1.77540e+03,-7.87037e+00,-4.58355e+01,0.00000e+00,0.00000e+00,0.00000e+00
1.77540e+03,-7.55575e+00,-4.36529e+01,0.00000e+00,0.00000e+00,0.00000e+00
1.77540e+03,-7.21195e+00,-4.14702e+01,0.00000e+00,0.00000e+00,0.00000e+00
1.77540e+03,-6.82421e+00,-3.92876e+01,0.00000e+00,0.00000e+00,0.00000e+00
1.77540e+03,-6.40900e+00,-3.71049e+01,0.00000e+00,0.00000e+00,0.00000e+00
1.77540e+03,-5.96704e+00,-3.49223e+01,0.00000e+00,0.00000e+00,0.00000e+00
1.77540e+03,-5.49844e+00,-3.27396e+01,0.00000e+00,0.00000e+00,0.00000e+00
1.77540e+03,-5.01314e+00,-3.05570e+01,0.00000e+00,0.00000e+00,0.00000e+00
1.77540e+03,-4.50644e+00,-2.83744e+01,0.00000e+00,0.00000e+00,0.00000e+00
1.77540e+03,-3.98604e+00,-2.61917e+01,0.00000e+00,0.00000e+00,0.00000e+00
1.77540e+03,-3.45334e+00,-2.40091e+01,0.00000e+00,0.00000e+00,0.00000e+00
1.77540e+03,-2.90969e+00,-2.18264e+01,0.00000e+00,0.00000e+00,0.00000e+00
1.77540e+03,-2.36138e+00,-1.96438e+01,0.00000e+00,0.00000e+00,0.00000e+00
1.77540e+03,-1.80588e+00,-1.74611e+01,0.00000e+00,0.00000e+00,0.00000e+00
1.77540e+03,-1.24918e+00,-1.52785e+01,0.00000e+00,0.00000e+00,0.00000e+00
1.77540e+03,-6.88187e-01,-1.30959e+01,0.00000e+00,0.00000e+00,0.00000e+00
1.77540e+03,-1.27248e-01,-1.09132e+01,0.00000e+00,0.00000e+00,0.00000e+00
1.77540e+03,4.31571e-01,-8.73057e+00,0.00000e+00,0.00000e+00,0.00000e+00
1.77540e+03,9.90390e-01,-6.54793e+00,0.00000e+00,0.00000e+00,0.00000e+00
1.77540e+03,1.53598e+00,-4.36529e+00,0.00000e+00,0.00000e+00,0.00000e+00
1.77540e+03,2.07910e+00,-2.18264e+00,0.00000e+00,0.00000e+00,0.00000e+00
1.82660e+03,2.53092e+01,0.00000e+00,0.00000e+00,0.00000e+00,0.00000e+00
1.82660e+03,2.51817e+01,-1.92323e+00,0.00000e+00,0.00000e+00,0.00000e+00
1.82660e+03,2.50121e+01,-3.84646e+00,0.00000e+00,0.00000e+00,0.00000e+00
1.82660e+03,2.48409e+01,-5.76969e+00,0.00000e+00,0.00000e+00,0.00000e+00
1.82660e+03,2.46324e+01,-7.69292e+00,0.00000e+00,0.00000e+00,0.00000e+00
1.82660e+03,2.44154e+01,-9.61614e+00,0.00000e+00,0.00000e+00,0.00000e+00
1.82660e+03,2.41698e+01,-1.15394e+01,0.00000e+00,0.00000e+00,0.00000e+00
1.82660e+03,2.39103e+01,-1.34626e+01,0.00000e+00,0.00000e+00,0.00000e+00
1.82660e+03,2.36280e+01,-1.53858e+01,0.00000e+00,0.00000e+00,0.00000e+00
1.82660e+03,2.33268e+01,-1.73091e+01,0.00000e+00,0.00000e+00,0.00000e+00
1.82660e+03,2.30049e+01,-1.92323e+01,0.00000e+00,0.00000e+00,0.00000e+00
1.82660e+03,2.26579e+01,-2.11555e+01,0.00000e+00,0.00000e+00,0.00000e+00
1.82660e+03,2.22852e+01,-2.30787e+01,0.00000e+00,0.00000e+00,0.00000e+00
1.82660e+03,2.18762e+01,-2.50020e+01,0.00000e+00,0.00000e+00,0.00000e+00
1.82660e+03,2.14317e+01,-2.69252e+01,0.00000e+00,0.00000e+00,0.00000e+00
1.82660e+03,2.09449e+01,-2.88484e+01,0.00000e+00,0.00000e+00,0.00000e+00
1.82660e+03,2.04008e+01,-3.07717e+01,0.00000e+00,0.00000e+00,0.00000e+00
1.82660e+03,1.98168e+01,-3.26949e+01,0.00000e+00,0.00000e+00,0.00000e+00
1.82660e+03,1.91430e+01,-3.46181e+01,0.00000e+00,0.00000e+00,0.00000e+00
1.82660e+03,1.84320e+01,-3.65413e+01,0.00000e+00,0.00000e+00,0.00000e+00
1.82660e+03,1.76173e+01,-3.84646e+01,0.00000e+00,0.00000e+00,0.00000e+00
1.82660e+03,1.67196e+01,-4.03878e+01,0.00000e+00,0.00000e+00,0.00000e+00
1.82660e+03,1.57373e+01,-4.23110e+01,0.00000e+00,0.00000e+00,0.00000e+00
1.82660e+03,1.46131e+01,-4.42343e+01,0.00000e+00,0.00000e+00,0.00000e+00
1.82660e+03,1.33245e+01,-4.61575e+01,0.00000e+00,0.00000e+00,0.00000e+00
1.82660e+03,1.18502e+01,-4.80807e+01,0.00000e+00,0.00000e+00,0.00000e+00
1.82660e+03,1.01063e+01,-5.00040e+01,0.00000e+00,0.00000e+00,0.00000e+00
1.82660e+03,7.86795e+00,-5.19272e+01,0.00000e+00,0.00000e+00,0.00000e+00
1.82660e+03,4.84065e+00,-5.38504e+01,0.00000e+00,0.00000e+00,0.00000e+00
1.82660e+03,-1.96139e+00,-5.57736e+01,0.00000e+00,0.00000e+00,0.00000e+00
1.82660e+03,-2.45230e+00,-5.57781e+01,0.00000e+00,0.00000e+00,0.00000e+00
1.82660e+03,-6.92480e+00,-5.37860e+01,0.00000e+00,0.00000e+00,0.00000e+00
1.82660e+03,-7.46632e+00,-5.17940e+01,0.00000e+00,0.00000e+00,0.00000e+00
1.82660e+03,-7.65318e+00,-4.98019e+01,0.00000e+00,0.00000e+00,0.00000e+00
1.82660e+03,-7.68153e+00,-4.78098e+01,0.00000e+00,0.00000e+00,0.00000e+00
1.82660e+03,-7.59047e+00,-4.58177e+01,0.00000e+00,0.00000e+00,0.00000e+00
1.82660e+03,-7.42446e+00,-4.38257e+01,0.00000e+00,0.00000e+00,0.00000e+00
1.82660e+03,-7.18321e+00,-4.18336e+01,0.00000e+00,0.00000e+00,0.00000e+00
1.82660e+03,-6.89605e+00,-3.98415e+01,0.00000e+00,0.00000e+00,0.00000e+00
1.82660e+03,-6.58227e+00,-3.78494e+01,0.00000e+00,0.00000e+00,0.00000e+00
1.82660e+03,-6.22838e+00,-3.58574e+01,0.00000e+00,0.00000e+00,0.00000e+00
1.82660e+03,-5.84943e+00,-3.38653e+01,0.00000e+00,0.00000e+00,0.00000e+00
1.82660e+03,-5.44606e+00,-3.18732e+01,0.00000e+00,0.00000e+00,0.00000e+00
1.82660e+03,-5.01837e+00,-2.98811e+01,0.00000e+00,0.00000e+00,0.00000e+00
1.82660e+03,-4.57544e+00,-2.78891e+01,0.00000e+00,0.00000e+00,0.00000e+00
1.82660e+03,-4.11298e+00,-2.58970e+01,0.00000e+00,0.00000e+00,0.00000e+00
1.82660e+03,-3.63801e+00,-2.39049e+01,0.00000e+00,0.00000e+00,0.00000e+00
1.82660e+03,-3.15183e+00,-2.19128e+01,0.00000e+00,0.00000e+00,0.00000e+00
1.82660e+03,-2.65564e+00,-1.99208e+01,0.00000e+00,0.00000e+00,0.00000e+00
1.82660e+03,-2.15521e+00,-1.79287e+01,0.00000e+00,0.00000e+00,0.00000e+00
1.82660e+03,-1.64821e+00,-1.59366e+01,0.00000e+00,0.00000e+00,0.00000e+00
1.82660e+03,-1.14012e+00,-1.39445e+01,0.00000e+00,0.00000e+00,0.00000e+00
1.82660e+03,-6.28101e-01,-1.19525e+01,0.00000e+00,0.00000e+00,0.00000e+00
1.82660e+03,-1.16138e-01,-9.96038e+00,0.00000e+00,0.00000e+00,0.00000e+00
1.82660e+03,3.93890e-01,-7.96830e+00,0.00000e+00,0.00000e+00,0.00000e+00
1.82660e+03,9.03919e-01,-5.97623e+00,0.00000e+00,0.00000e+00,0.00000e+00
1.82660e+03,1.40187e+00,-3.98415e+00,0.00000e+00,0.00000e+00,0.00000e+00
1.82660e+03,1.89757e+00,-1.99208e+00,0.00000e+00,0.00000e+00,0.00000e+00
1.87280e+03,2.31244e+01,0.00000e+00,0.00000e+00,0.00000e+00,0.00000e+00
1.87280e+03,2.30080e+01,-1.75721e+00,0.00000e+00,0.00000e+00,0.00000e+00
1.87280e+03,2.28531e+01,-3.51443e+00,0.00000e+00,0.00000e+00,0.00000e+00
1.87280e+03,2.26966e+01,-5.27164e+00,0.00000e+00,0.00000e+00,0.00000e+00
1.87280e+03,2.25061e+01,-7.02886e+00,0.00000e+00,0.00000e+00,0.00000e+00
1.87280e+03,2.23078e+01,-8.78607e+00,0.00000e+00,0.00000e+00,0.00000e+00
1.87280e+03,2.20834e+01,-1.05433e+01,0.00000e+00,0.00000e+00,0.00000e+00
1.87280e+03,2.18464e+01,-1.23005e+01,0.00000e+00,0.00000e+00,0.00000e+00
1.87280e+03,2.15884e+01,-1.40577e+01,0.00000e+00,0.00000e+00,0.00000e+00
1.87280e+03,2.13132e+01,-1.58149e+01,0.00000e+00,0.00000e+00,0.00000e+00
1.87280e+03,2.10191e+01,-1.75721e+01,0.00000e+00,0.00000e+00,0.00000e+00
1.87280e+03,2.07020e+01,-1.93294e+01,0.00000e+00,0.00000e+00,0.00000e+00
1.87280e+03,2.03615e+01,-2.10866e+01,0.00000e+00,0.00000e+00,0.00000e+00
1.87280e+03,1.99878e+01,-2.28438e+01,0.00000e+00,0.00000e+00,0.00000e+00
1.87280e+03,1.95817e+01,-2.46010e+01,0.00000e+00,0.00000e+00,0.00000e+00
1.87280e+03,1.91369e+01,-2.63582e+01,0.00000e+00,0.00000e+00,0.00000e+00
1.87280e+03,1.86398e+01,-2.81154e+01,0.00000e+00,0.00000e+00,0.00000e+00
1.87280e+03,1.81062e+01,-2.98726e+01,0.00000e+00,0.00000e+00,0.00000e+00
1.87280e+03,1.74905e+01,-3.16299e+01,0.00000e+00,0.00000e+00,0.00000e+00
1.87280e+03,1.68409e+01,-3.33871e+01,0.00000e+00,0.00000e+00,0.00000e+00
1.87280e+03,1.60966e+01,-3.51443e+01,0.00000e+00,0.00000e+00,0.00000e+00
1.87280e+03,1.52763e+01,-3.69015e+01,0.00000e+00,0.00000e+00,0.00000e+00
1.87280e+03,1.43788e+01,-3.86587e+01,0.00000e+00,0.00000e+00,0.00000e+00
1.87280e+03,1.33517e+01,-4.04159e+01,0.00000e+00,0.00000e+00,0.00000e+00
1.87280e+03,1.21743e+01,-4.21731e+01,0.00000e+00,0.00000e+00,0.00000e+00
1.87280e+03,1.08272e+01,-4.39304e+01,0.00000e+00,0.00000e+00,0.00000e+00
1.87280e+03,9.23393e+00,-4.56876e+01,0.00000e+00,0.00000e+00,0.00000e+00
1.87280e+03,7.18879e+00,-4.74448e+01,0.00000e+00,0.00000e+00,0.00000e+00
1.87280e+03,4.42280e+00,-4.92020e+01,0.00000e+00,0.00000e+00,0.00000e+00
1.87280e+03,-1.79208e+00,-5.09592e+01,0.00000e+00,0.00000e+00,0.00000e+00
1.87280e+03,-2.24062e+00,-5.09633e+01,0.00000e+00,0.00000e+00,0.00000e+00
1.87280e+03,-6.32705e+00,-4.91432e+01,0.00000e+00,0.00000e+00,0.00000e+00
1.87280e+03,-6.82182e+00,-4.73231e+01,0.00000e+00,0.00000e+00,0.00000e+00
1.87280e+03,-6.99255e+00,-4.55029e+01,0.00000e+00,0.00000e+00,0.00000e+00
1.87280e+03,-7.01846e+00,-4.36828e+01,0.00000e+00,0.00000e+00,0.00000e+00
1.87280e+03,-6.93525e+00,-4.18627e+01,0.00000e+00,0.00000e+00,0.00000e+00
1.87280e+03,-6.78358e+00,-4.00426e+01,0.00000e+00,0.00000e+00,0.00000e+00
1.87280e+03,-6.56315e+00,-3.82225e+01,0.00000e+00,0.00000e+00,0.00000e+00
1.87280e+03,-6.30078e+00,-3.64024e+01,0.00000e+00,0.00000e+00,0.00000e+00
1.87280e+03,-6.01408e+00,-3.45822e+01,0.00000e+00,0.00000e+00,0.00000e+00
1.87280e+03,-5.69074e+00,-3.27621e+01,0.00000e+00,0.00000e+00,0.00000e+00
1.87280e+03,-5.34450e+00,-3.09420e+01,0.00000e+00,0.00000e+00,0.00000e+00
1.87280e+03,-4.97595e+00,-2.91219e+01,0.00000e+00,0.00000e+00,0.00000e+00
1.87280e+03,-4.58518e+00,-2.73018e+01,0.00000e+00,0.00000e+00,0.00000e+00
1.87280e+03,-4.18049e+00,-2.54816e+01,0.00000e+00,0.00000e+00,0.00000e+00
1.87280e+03,-3.75794e+00,-2.36615e+01,0.00000e+00,0.00000e+00,0.00000e+00
1.87280e+03,-3.32398e+00,-2.18414e+01,0.00000e+00,0.00000e+00,0.00000e+00
1.87280e+03,-2.87976e+00,-2.00213e+01,0.00000e+00,0.00000e+00,0.00000e+00
1.87280e+03,-2.42640e+00,-1.82012e+01,0.00000e+00,0.00000e+00,0.00000e+00
1.87280e+03,-1.96917e+00,-1.63811e+01,0.00000e+00,0.00000e+00,0.00000e+00
1.87280e+03,-1.50594e+00,-1.45609e+01,0.00000e+00,0.00000e+00,0.00000e+00
1.87280e+03,-1.04170e+00,-1.27408e+01,0.00000e+00,0.00000e+00,0.00000e+00
1.87280e+03,-5.73883e-01,-1.09207e+01,0.00000e+00,0.00000e+00,0.00000e+00
1.87280e+03,-1.06113e-01,-9.10059e+00,0.00000e+00,0.00000e+00,0.00000e+00
1.87280e+03,3.59890e-01,-7.28047e+00,0.00000e+00,0.00000e+00,0.00000e+00
1.87280e+03,8.25892e-01,-5.46035e+00,0.00000e+00,0.00000e+00,0.00000e+00
1.87280e+03,1.28086e+00,-3.64024e+00,0.00000e+00,0.00000e+00,0.00000e+00
1.87280e+03,1.73377e+00,-1.82012e+00,0.00000e+00,0.00000e+00,0.00000e+00
1.91380e+03,2.11856e+01,0.00000e+00,0.00000e+00,0.00000e+00,0.00000e+00
1.91380e+03,2.10789e+01,-1.60989e+00,0.00000e+00,0.00000e+00,0.00000e+00
1.91380e+03,2.09370e+01,-3.21977e+00,0.00000e+00,0.00000e+00,0.00000e+00
1.91380e+03,2.07936e+01,-4.82966e+00,0.00000e+00,0.00000e+00,0.00000e+00
1.91380e+03,2.06192e+01,-6.43954e+00,0.00000e+00,0.00000e+00,0.00000e+00
1.91380e+03,2.04375e+01,-8.04943e+00,0.00000e+00,0.00000e+00,0.00000e+00
1.91380e+03,2.02319e+01,-9.65931e+00,0.00000e+00,0.00000e+00,0.00000e+00
1.91380e+03,2.00147e+01,-1.12692e+01,0.00000e+00,0.00000e+00,0.00000e+00
1.91380e+03,1.97784e+01,-1.28791e+01,0.00000e+00,0.00000e+00,0.00000e+00
1.91380e+03,1.95262e+01,-1.44890e+01,0.00000e+00,0.00000e+00,0.00000e+00
1.91380e+03,1.92568e+01,-1.60989e+01,0.00000e+00,0.00000e+00,0.00000e+00
1.91380e+03,1.89663e+01,-1.77087e+01,0.00000e+00,0.00000e+00,0.00000e+00
1.91380e+03,1.86544e+01,-1.93186e+01,0.00000e+00,0.00000e+00,0.00000e+00
1.91380e+03,1.83120e+01,-2.09285e+01,0.00000e+00,0.00000e+00,0.00000e+00
1.91380e+03,1.79399e+01,-2.25384e+01,0.00000e+00,0.00000e+00,0.00000e+00
1.91380e+03,1.75325e+01,-2.41483e+01,0.00000e+00,0.00000e+00,0.00000e+00
1.91380e+03,1.70770e+01,-2.57582e+01,0.00000e+00,0.00000e+00,0.00000e+00
1.91380e+03,1.65881e+01,-2.73680e+01,0.00000e+00,0.00000e+00,0.00000e+00
1.91380e+03,1.60241e+01,-2.89779e+01,0.00000e+00,0.00000e+00,0.00000e+00
1.91380e+03,1.54289e+01,-3.05878e+01,0.00000e+00,0.00000e+00,0.00000e+00
1.91380e+03,1.47470e+01,-3.21977e+01,0.00000e+00,0.00000e+00,0.00000e+00
1.91380e+03,1.39955e+01,-3.38076e+01,0.00000e+00,0.00000e+00,0.00000e+00
1.91380e+03,1.31733e+01,-3.54175e+01,0.00000e+00,0.00000e+00,0.00000e+00
1.91380e+03,1.22322e+01,-3.70274e+01,0.00000e+00,0.00000e+00,0.00000e+00
1.91380e+03,1.11536e+01,-3.86372e+01,0.00000e+00,0.00000e+00,0.00000e+00
1.91380e+03,9.91946e+00,-4.02471e+01,0.00000e+00,0.00000e+00,0.00000e+00
1.91380e+03,8.45973e+00,-4.18570e+01,0.00000e+00,0.00000e+00,0.00000e+00
1.91380e+03,6.58606e+00,-4.34669e+01,0.00000e+00,0.00000e+00,0.00000e+00
1.91380e+03,4.05198e+00,-4.50768e+01,0.00000e+00,0.00000e+00,0.00000e+00
1.91380e+03,-1.64183e+00,-4.66867e+01,0.00000e+00,0.00000e+00,0.00000e+00
1.91380e+03,-2.05276e+00,-4.66904e+01,0.00000e+00,0.00000e+00,0.00000e+00
1.91380e+03,-5.79657e+00,-4.50229e+01,0.00000e+00,0.00000e+00,0.00000e+00
1.91380e+03,-6.24986e+00,-4.33554e+01,0.00000e+00,0.00000e+00,0.00000e+00
1.91380e+03,-6.40628e+00,-4.16879e+01,0.00000e+00,0.00000e+00,0.00000e+00
1.91380e+03,-6.43001e+00,-4.00204e+01,0.00000e+00,0.00000e+00,0.00000e+00
1.91380e+03,-6.35378e+00,-3.83528e+01,0.00000e+00,0.00000e+00,0.00000e+00
1.91380e+03,-6.21483e+00,-3.66853e+01,0.00000e+00,0.00000e+00,0.00000e+00
1.91380e+03,-6.01288e+00,-3.50178e+01,0.00000e+00,0.00000e+00,0.00000e+00
1.91380e+03,-5.77251e+00,-3.33503e+01,0.00000e+00,0.00000e+00,0.00000e+00
1.91380e+03,-5.50985e+00,-3.16828e+01,0.00000e+00,0.00000e+00,0.00000e+00
1.91380e+03,-5.21362e+00,-3.00153e+01,0.00000e+00,0.00000e+00,0.00000e+00
1.91380e+03,-4.89640e+00,-2.83477e+01,0.00000e+00,0.00000e+00,0.00000e+00
1.91380e+03,-4.55876e+00,-2.66802e+01,0.00000e+00,0.00000e+00,0.00000e+00
1.91380e+03,-4.20075e+00,-2.50127e+01,0.00000e+00,0.00000e+00,0.00000e+00
1.91380e+03,-3.82998e+00,-2.33452e+01,0.00000e+00,0.00000e+00,0.00000e+00
1.91380e+03,-3.44287e+00,-2.16777e+01,0.00000e+00,0.00000e+00,0.00000e+00
1.91380e+03,-3.04529e+00,-2.00102e+01,0.00000e+00,0.00000e+00,0.00000e+00
1.91380e+03,-2.63832e+00,-1.83427e+01,0.00000e+00,0.00000e+00,0.00000e+00
1.91380e+03,-2.22297e+00,-1.66751e+01,0.00000e+00,0.00000e+00,0.00000e+00
1.91380e+03,-1.80407e+00,-1.50076e+01,0.00000e+00,0.00000e+00,0.00000e+00
1.91380e+03,-1.37967e+00,-1.33401e+01,0.00000e+00,0.00000e+00,0.00000e+00
1.91380e+03,-9.54362e-01,-1.16726e+01,0.00000e+00,0.00000e+00,0.00000e+00
1.91380e+03,-5.25768e-01,-1.00051e+01,0.00000e+00,0.00000e+00,0.00000e+00
1.91380e+03,-9.72161e-02,-8.33757e+00,0.00000e+00,0.00000e+00,0.00000e+00
1.91380e+03,3.29716e-01,-6.67006e+00,0.00000e+00,0.00000e+00,0.00000e+00
1.91380e+03,7.56647e-01,-5.00254e+00,0.00000e+00,0.00000e+00,0.00000e+00
1.91380e+03,1.17347e+00,-3.33503e+00,0.00000e+00,0.00000e+00,0.00000e+00
1.91380e+03,1.58841e+00,-1.66751e+00,0.00000e+00,0.00000e+00,0.00000e+00
1.94970e+03,1.94880e+01,0.00000e+00,0.00000e+00,0.00000e+00,0.00000e+00
1.94970e+03,1.93899e+01,-1.48088e+00,0.00000e+00,0.00000e+00,0.00000e+00
1.94970e+03,1.92593e+01,-2.96177e+00,0.00000e+00,0.00000e+00,0.00000e+00
1.94970e+03,1.91274e+01,-4.44265e+00,0.00000e+00,0.00000e+00,0.00000e+00
1.94970e+03,1.89669e+01,-5.92353e+00,0.00000e+00,0.00000e+00,0.00000e+00
1.94970e+03,1.87998e+01,-7.40441e+00,0.00000e+00,0.00000e+00,0.00000e+00
1.94970e+03,1.86107e+01,-8.88530e+00,0.00000e+00,0.00000e+00,0.00000e+00
1.94970e+03,1.84109e+01,-1.03662e+01,0.00000e+00,0.00000e+00,0.00000e+00
1.94970e+03,1.81935e+01,-1.18471e+01,0.00000e+00,0.00000e+00,0.00000e+00
1.94970e+03,1.79616e+01,-1.33279e+01,0.00000e+00,0.00000e+00,0.00000e+00
1.94970e+03,1.77137e+01,-1.48088e+01,0.00000e+00,0.00000e+00,0.00000e+00
1.94970e+03,1.74465e+01,-1.62897e+01,0.00000e+00,0.00000e+00,0.00000e+00
1.94970e+03,1.71596e+01,-1.77706e+01,0.00000e+00,0.00000e+00,0.00000e+00
1.94970e+03,1.68446e+01,-1.92515e+01,0.00000e+00,0.00000e+00,0.00000e+00
1.94970e+03,1.65024e+01,-2.07324e+01,0.00000e+00,0.00000e+00,0.00000e+00
1.94970e+03,1.61276e+01,-2.22132e+01,0.00000e+00,0.00000e+00,0.00000e+00
1.94970e+03,1.57086e+01,-2.36941e+01,0.00000e+00,0.00000e+00,0.00000e+00
1.94970e+03,1.52589e+01,-2.51750e+01,0.00000e+00,0.00000e+00,0.00000e+00
1.94970e+03,1.47401e+01,-2.66559e+01,0.00000e+00,0.00000e+00,0.00000e+00
1.94970e+03,1.41926e+01,-2.81368e+01,0.00000e+00,0.00000e+00,0.00000e+00
1.94970e+03,1.35653e+01,-2.96177e+01,0.00000e+00,0.00000e+00,0.00000e+00
1.94970e+03,1.28740e+01,-3.10985e+01,0.00000e+00,0.00000e+00,0.00000e+00
1.94970e+03,1.21177e+01,-3.25794e+01,0.00000e+00,0.00000e+00,0.00000e+00
1.94970e+03,1.12521e+01,-3.40603e+01,0.00000e+00,0.00000e+00,0.00000e+00
1.94970e+03,1.02599e+01,-3.55412e+01,0.00000e+00,0.00000e+00,0.00000e+00
1.94970e+03,9.12460e+00,-3.70221e+01,0.00000e+00,0.00000e+00,0.00000e+00
1.94970e+03,7.78184e+00,-3.85029e+01,0.00000e+00,0.00000e+00,0.00000e+00
1.94970e+03,6.05831e+00,-3.99838e+01,0.00000e+00,0.00000e+00,0.00000e+00
1.94970e+03,3.72729e+00,-4.14647e+01,0.00000e+00,0.00000e+00,0.00000e+00
1.94970e+03,-1.51027e+00,-4.29456e+01,0.00000e+00,0.00000e+00,0.00000e+00
1.94970e+03,-1.88827e+00,-4.29490e+01,0.00000e+00,0.00000e+00,0.00000e+00
1.94970e+03,-5.33209e+00,-4.14151e+01,0.00000e+00,0.00000e+00,0.00000e+00
1.94970e+03,-5.74905e+00,-3.98812e+01,0.00000e+00,0.00000e+00,0.00000e+00
1.94970e+03,-5.89293e+00,-3.83473e+01,0.00000e+00,0.00000e+00,0.00000e+00
1.94970e+03,-5.91477e+00,-3.68135e+01,0.00000e+00,0.00000e+00,0.00000e+00
1.94970e+03,-5.84465e+00,-3.52796e+01,0.00000e+00,0.00000e+00,0.00000e+00
1.94970e+03,-5.71682e+00,-3.37457e+01,0.00000e+00,0.00000e+00,0.00000e+00
1.94970e+03,-5.53106e+00,-3.22118e+01,0.00000e+00,0.00000e+00,0.00000e+00
1.94970e+03,-5.30995e+00,-3.06779e+01,0.00000e+00,0.00000e+00,0.00000e+00
1.94970e+03,-5.06834e+00,-2.91440e+01,0.00000e+00,0.00000e+00,0.00000e+00
1.94970e+03,-4.79584e+00,-2.76101e+01,0.00000e+00,0.00000e+00,0.00000e+00
1.94970e+03,-4.50405e+00,-2.60762e+01,0.00000e+00,0.00000e+00,0.00000e+00
1.94970e+03,-4.19345e+00,-2.45423e+01,0.00000e+00,0.00000e+00,0.00000e+00
1.94970e+03,-3.86414e+00,-2.30084e+01,0.00000e+00,0.00000e+00,0.00000e+00
1.94970e+03,-3.52308e+00,-2.14745e+01,0.00000e+00,0.00000e+00,0.00000e+00
1.94970e+03,-3.16699e+00,-1.99406e+01,0.00000e+00,0.00000e+00,0.00000e+00
1.94970e+03,-2.80126e+00,-1.84067e+01,0.00000e+00,0.00000e+00,0.00000e+00
1.94970e+03,-2.42690e+00,-1.68728e+01,0.00000e+00,0.00000e+00,0.00000e+00
1.94970e+03,-2.04484e+00,-1.53389e+01,0.00000e+00,0.00000e+00,0.00000e+00
1.94970e+03,-1.65951e+00,-1.38050e+01,0.00000e+00,0.00000e+00,0.00000e+00
1.94970e+03,-1.26912e+00,-1.22712e+01,0.00000e+00,0.00000e+00,0.00000e+00
1.94970e+03,-8.77888e-01,-1.07373e+01,0.00000e+00,0.00000e+00,0.00000e+00
1.94970e+03,-4.83637e-01,-9.20336e+00,0.00000e+00,0.00000e+00,0.00000e+00
1.94970e+03,-8.94260e-02,-7.66947e+00,0.00000e+00,0.00000e+00,0.00000e+00
1.94970e+03,3.03295e-01,-6.13558e+00,0.00000e+00,0.00000e+00,0.00000e+00
1.94970e+03,6.96016e-01,-4.60168e+00,0.00000e+00,0.00000e+00,0.00000e+00
1.94970e+03,1.07944e+00,-3.06779e+00,0.00000e+00,0.00000e+00,0.00000e+00
1.94970e+03,1.46113e+00,-1.53389e+00,0.00000e+00,0.00000e+00,0.00000e+00
1.98010e+03,1.80504e+01,0.00000e+00,0.00000e+00,0.00000e+00,0.00000e+00
1.98010e+03,1.79595e+01,-1.37164e+00,0.00000e+00,0.00000e+00,0.00000e+00
1.98010e+03,1.78386e+01,-2.74329e+00,0.00000e+00,0.00000e+00,0.00000e+00
1.98010e+03,1.77165e+01,-4.11493e+00,0.00000e+00,0.00000e+00,0.00000e+00
1.98010e+03,1.75678e+01,-5.48657e+00,0.00000e+00,0.00000e+00,0.00000e+00
1.98010e+03,1.74130e+01,-6.85822e+00,0.00000e+00,0.00000e+00,0.00000e+00
1.98010e+03,1.72378e+01,-8.22986e+00,0.00000e+00,0.00000e+00,0.00000e+00
1.98010e+03,1.70528e+01,-9.60150e+00,0.00000e+00,0.00000e+00,0.00000e+00
1.98010e+03,1.68514e+01,-1.09731e+01,0.00000e+00,0.00000e+00,0.00000e+00
1.98010e+03,1.66366e+01,-1.23448e+01,0.00000e+00,0.00000e+00,0.00000e+00
1.98010e+03,1.64070e+01,-1.37164e+01,0.00000e+00,0.00000e+00,0.00000e+00
1.98010e+03,1.61595e+01,-1.50881e+01,0.00000e+00,0.00000e+00,0.00000e+00
1.98010e+03,1.58938e+01,-1.64597e+01,0.00000e+00,0.00000e+00,0.00000e+00
1.98010e+03,1.56020e+01,-1.78314e+01,0.00000e+00,0.00000e+00,0.00000e+00
1.98010e+03,1.52851e+01,-1.92030e+01,0.00000e+00,0.00000e+00,0.00000e+00
1.98010e+03,1.49379e+01,-2.05747e+01,0.00000e+00,0.00000e+00,0.00000e+00
1.98010e+03,1.45498e+01,-2.19463e+01,0.00000e+00,0.00000e+00,0.00000e+00
1.98010e+03,1.41333e+01,-2.33179e+01,0.00000e+00,0.00000e+00,0.00000e+00
1.98010e+03,1.36527e+01,-2.46896e+01,0.00000e+00,0.00000e+00,0.00000e+00
1.98010e+03,1.31457e+01,-2.60612e+01,0.00000e+00,0.00000e+00,0.00000e+00
1.98010e+03,1.25646e+01,-2.74329e+01,0.00000e+00,0.00000e+00,0.00000e+00
1.98010e+03,1.19244e+01,-2.88045e+01,0.00000e+00,0.00000e+00,0.00000e+00
1.98010e+03,1.12238e+01,-3.01762e+01,0.00000e+00,0.00000e+00,0.00000e+00
1.98010e+03,1.04220e+01,-3.15478e+01,0.00000e+00,0.00000e+00,0.00000e+00
1.98010e+03,9.50303e+00,-3.29194e+01,0.00000e+00,0.00000e+00,0.00000e+00
1.98010e+03,8.45151e+00,-3.42911e+01,0.00000e+00,0.00000e+00,0.00000e+00
1.98010e+03,7.20780e+00,-3.56627e+01,0.00000e+00,0.00000e+00,0.00000e+00
1.98010e+03,5.61141e+00,-3.70344e+01,0.00000e+00,0.00000e+00,0.00000e+00
1.98010e+03,3.45234e+00,-3.84060e+01,0.00000e+00,0.00000e+00,0.00000e+00
1.98010e+03,-1.39886e+00,-3.97777e+01,0.00000e+00,0.00000e+00,0.00000e+00
1.98010e+03,-1.74898e+00,-3.97808e+01,0.00000e+00,0.00000e+00,0.00000e+00
1.98010e+03,-4.93876e+00,-3.83601e+01,0.00000e+00,0.00000e+00,0.00000e+00
1.98010e+03,-5.32496e+00,-3.69394e+01,0.00000e+00,0.00000e+00,0.00000e+00
1.98010e+03,-5.45823e+00,-3.55186e+01,0.00000e+00,0.00000e+00,0.00000e+00
1.98010e+03,-5.47846e+00,-3.40979e+01,0.00000e+00,0.00000e+00,0.00000e+00
1.98010e+03,-5.41351e+00,-3.26771e+01,0.00000e+00,0.00000e+00,0.00000e+00
1.98010e+03,-5.29511e+00,-3.12564e+01,0.00000e+00,0.00000e+00,0.00000e+00
1.98010e+03,-5.12305e+00,-2.98356e+01,0.00000e+00,0.00000e+00,0.00000e+00
1.98010e+03,-4.91825e+00,-2.84149e+01,0.00000e+00,0.00000e+00,0.00000e+00
1.98010e+03,-4.69446e+00,-2.69941e+01,0.00000e+00,0.00000e+00,0.00000e+00
1.98010e+03,-4.44207e+00,-2.55734e+01,0.00000e+00,0.00000e+00,0.00000e+00
1.98010e+03,-4.17180e+00,-2.41527e+01,0.00000e+00,0.00000e+00,0.00000e+00
1.98010e+03,-3.88412e+00,-2.27319e+01,0.00000e+00,0.00000e+00,0.00000e+00
1.98010e+03,-3.57909e+00,-2.13112e+01,0.00000e+00,0.00000e+00,0.00000e+00
1.98010e+03,-3.26320e+00,-1.98904e+01,0.00000e+00,0.00000e+00,0.00000e+00
1.98010e+03,-2.93337e+00,-1.84697e+01,0.00000e+00,0.00000e+00,0.00000e+00
1.98010e+03,-2.59462e+00,-1.70489e+01,0.00000e+00,0.00000e+00,0.00000e+00
1.98010e+03,-2.24788e+00,-1.56282e+01,0.00000e+00,0.00000e+00,0.00000e+00
1.98010e+03,-1.89400e+00,-1.42074e+01,0.00000e+00,0.00000e+00,0.00000e+00
1.98010e+03,-1.53709e+00,-1.27867e+01,0.00000e+00,0.00000e+00,0.00000e+00
1.98010e+03,-1.17550e+00,-1.13660e+01,0.00000e+00,0.00000e+00,0.00000e+00
1.98010e+03,-8.13129e-01,-9.94521e+00,0.00000e+00,0.00000e+00,0.00000e+00
1.98010e+03,-4.47961e-01,-8.52447e+00,0.00000e+00,0.00000e+00,0.00000e+00
1.98010e+03,-8.28294e-02,-7.10372e+00,0.00000e+00,0.00000e+00,0.00000e+00
1.98010e+03,2.80922e-01,-5.68298e+00,0.00000e+00,0.00000e+00,0.00000e+00
1.98010e+03,6.44673e-01,-4.26223e+00,0.00000e+00,0.00000e+00,0.00000e+00
1.98010e+03,9.99811e-01,-2.84149e+00,0.00000e+00,0.00000e+00,0.00000e+00
1.98010e+03,1.35334e+00,-1.42074e+00,0.00000e+00,0.00000e+00,0.00000e+00
2.00520e+03,1.68635e+01,0.00000e+00,0.00000e+00,0.00000e+00,0.00000e+00
2.00520e+03,1.67786e+01,-1.28145e+00,0.00000e+00,0.00000e+00,0.00000e+00
2.00520e+03,1.66656e+01,-2.56290e+00,0.00000e+00,0.00000e+00,0.00000e+00
2.00520e+03,1.65515e+01,-3.84435e+00,0.00000e+00,0.00000e+00,0.00000e+00
2.00520e+03,1.64126e+01,-5.12580e+00,0.00000e+00,0.00000e+00,0.00000e+00
2.00520e+03,1.62680e+01,-6.40725e+00,0.00000e+00,0.00000e+00,0.00000e+00
2.00520e+03,1.61044e+01,-7.68870e+00,0.00000e+00,0.00000e+00,0.00000e+00
2.00520e+03,1.59315e+01,-8.97015e+00,0.00000e+00,0.00000e+00,0.00000e+00
2.00520e+03,1.57433e+01,-1.02516e+01,0.00000e+00,0.00000e+00,0.00000e+00
2.00520e+03,1.55427e+01,-1.15330e+01,0.00000e+00,0.00000e+00,0.00000e+00
2.00520e+03,1.53282e+01,-1.28145e+01,0.00000e+00,0.00000e+00,0.00000e+00
2.00520e+03,1.50970e+01,-1.40959e+01,0.00000e+00,0.00000e+00,0.00000e+00
2.00520e+03,1.48486e+01,-1.53774e+01,0.00000e+00,0.00000e+00,0.00000e+00
2.00520e+03,1.45761e+01,-1.66588e+01,0.00000e+00,0.00000e+00,0.00000e+00
2.00520e+03,1.42800e+01,-1.79403e+01,0.00000e+00,0.00000e+00,0.00000e+00
2.00520e+03,1.39556e+01,-1.92217e+01,0.00000e+00,0.00000e+00,0.00000e+00
2.00520e+03,1.35931e+01,-2.05032e+01,0.00000e+00,0.00000e+00,0.00000e+00
2.00520e+03,1.32039e+01,-2.17846e+01,0.00000e+00,0.00000e+00,0.00000e+00
2.00520e+03,1.27550e+01,-2.30661e+01,0.00000e+00,0.00000e+00,0.00000e+00
2.00520e+03,1.22812e+01,-2.43475e+01,0.00000e+00,0.00000e+00,0.00000e+00
2.00520e+03,1.17384e+01,-2.56290e+01,0.00000e+00,0.00000e+00,0.00000e+00
2.00520e+03,1.11403e+01,-2.69104e+01,0.00000e+00,0.00000e+00,0.00000e+00
2.00520e+03,1.04858e+01,-2.81919e+01,0.00000e+00,0.00000e+00,0.00000e+00
2.00520e+03,9.73672e+00,-2.94733e+01,0.00000e+00,0.00000e+00,0.00000e+00
2.00520e+03,8.87814e+00,-3.07548e+01,0.00000e+00,0.00000e+00,0.00000e+00
2.00520e+03,7.89577e+00,-3.20362e+01,0.00000e+00,0.00000e+00,0.00000e+00
2.00520e+03,6.73385e+00,-3.33177e+01,0.00000e+00,0.00000e+00,0.00000e+00
2.00520e+03,5.24243e+00,-3.45991e+01,0.00000e+00,0.00000e+00,0.00000e+00
2.00520e+03,3.22533e+00,-3.58806e+01,0.00000e+00,0.00000e+00,0.00000e+00
2.00520e+03,-1.30688e+00,-3.71620e+01,0.00000e+00,0.00000e+00,0.00000e+00
2.00520e+03,-1.63397e+00,-3.71650e+01,0.00000e+00,0.00000e+00,0.00000e+00
2.00520e+03,-4.61400e+00,-3.58377e+01,0.00000e+00,0.00000e+00,0.00000e+00
2.00520e+03,-4.97481e+00,-3.45104e+01,0.00000e+00,0.00000e+00,0.00000e+00
2.00520e+03,-5.09932e+00,-3.31830e+01,0.00000e+00,0.00000e+00,0.00000e+00
2.00520e+03,-5.11821e+00,-3.18557e+01,0.00000e+00,0.00000e+00,0.00000e+00
2.00520e+03,-5.05754e+00,-3.05284e+01,0.00000e+00,0.00000e+00,0.00000e+00
2.00520e+03,-4.94693e+00,-2.92011e+01,0.00000e+00,0.00000e+00,0.00000e+00
2.00520e+03,-4.78618e+00,-2.78738e+01,0.00000e+00,0.00000e+00,0.00000e+00
2.00520e+03,-4.59485e+00,-2.65464e+01,0.00000e+00,0.00000e+00,0.00000e+00
2.00520e+03,-4.38577e+00,-2.52191e+01,0.00000e+00,0.00000e+00,0.00000e+00
2.00520e+03,-4.14998e+00,-2.38918e+01,0.00000e+00,0.00000e+00,0.00000e+00
2.00520e+03,-3.89748e+00,-2.25645e+01,0.00000e+00,0.00000e+00,0.00000e+00
2.00520e+03,-3.62871e+00,-2.12371e+01,0.00000e+00,0.00000e+00,0.00000e+00
2.00520e+03,-3.34375e+00,-1.99098e+01,0.00000e+00,0.00000e+00,0.00000e+00
2.00520e+03,-3.04862e+00,-1.85825e+01,0.00000e+00,0.00000e+00,0.00000e+00
2.00520e+03,-2.74048e+00,-1.72552e+01,0.00000e+00,0.00000e+00,0.00000e+00
2.00520e+03,-2.42401e+00,-1.59279e+01,0.00000e+00,0.00000e+00,0.00000e+00
2.00520e+03,-2.10007e+00,-1.46005e+01,0.00000e+00,0.00000e+00,0.00000e+00
2.00520e+03,-1.76946e+00,-1.32732e+01,0.00000e+00,0.00000e+00,0.00000e+00
2.00520e+03,-1.43602e+00,-1.19459e+01,0.00000e+00,0.00000e+00,0.00000e+00
2.00520e+03,-1.09820e+00,-1.06186e+01,0.00000e+00,0.00000e+00,0.00000e+00
2.00520e+03,-7.59661e-01,-9.29125e+00,0.00000e+00,0.00000e+00,0.00000e+00
2.00520e+03,-4.18505e-01,-7.96393e+00,0.00000e+00,0.00000e+00,0.00000e+00
2.00520e+03,-7.73829e-02,-6.63661e+00,0.00000e+00,0.00000e+00,0.00000e+00
2.00520e+03,2.62450e-01,-5.30929e+00,0.00000e+00,0.00000e+00,0.00000e+00
2.00520e+03,6.02282e-01,-3.98196e+00,0.00000e+00,0.00000e+00,0.00000e+00
2.00520e+03,9.34067e-01,-2.65464e+00,0.00000e+00,0.00000e+00,0.00000e+00
2.00520e+03,1.26435e+00,-1.32732e+00,0.00000e+00,0.00000e+00,0.00000e+00
2.02480e+03,1.59367e+01,0.00000e+00,0.00000e+00,0.00000e+00,0.00000e+00
2.02480e+03,1.58564e+01,-1.21102e+00,0.00000e+00,0.00000e+00,0.00000e+00
2.02480e+03,1.57496e+01,-2.42204e+00,0.00000e+00,0.00000e+00,0.00000e+00
2.02480e+03,1.56418e+01,-3.63306e+00,0.00000e+00,0.00000e+00,0.00000e+00
2.02480e+03,1.55106e+01,-4.84408e+00,0.00000e+00,0.00000e+00,0.00000e+00
2.02480e+03,1.53739e+01,-6.05509e+00,0.00000e+00,0.00000e+00,0.00000e+00
2.02480e+03,1.52192e+01,-7.26611e+00,0.00000e+00,0.00000e+00,0.00000e+00
2.02480e+03,1.50559e+01,-8.47713e+00,0.00000e+00,0.00000e+00,0.00000e+00
2.02480e+03,1.48781e+01,-9.68815e+00,0.00000e+00,0.00000e+00,0.00000e+00
2.02480e+03,1.46884e+01,-1.08992e+01,0.00000e+00,0.00000e+00,0.00000e+00
2.02480e+03,1.44857e+01,-1.21102e+01,0.00000e+00,0.00000e+00,0.00000e+00
2.02480e+03,1.42672e+01,-1.33212e+01,0.00000e+00,0.00000e+00,0.00000e+00
2.02480e+03,1.40325e+01,-1.45322e+01,0.00000e+00,0.00000e+00,0.00000e+00
2.02480e+03,1.37750e+01,-1.57432e+01,0.00000e+00,0.00000e+00,0.00000e+00
2.02480e+03,1.34951e+01,-1.69543e+01,0.00000e+00,0.00000e+00,0.00000e+00
2.02480e+03,1.31886e+01,-1.81653e+01,0.00000e+00,0.00000e+00,0.00000e+00
2.02480e+03,1.28460e+01,-1.93763e+01,0.00000e+00,0.00000e+00,0.00000e+00
2.02480e+03,1.24782e+01,-2.05873e+01,0.00000e+00,0.00000e+00,0.00000e+00
2.02480e+03,1.20540e+01,-2.17983e+01,0.00000e+00,0.00000e+00,0.00000e+00
2.02480e+03,1.16063e+01,-2.30094e+01,0.00000e+00,0.00000e+00,0.00000e+00
2.02480e+03,1.10933e+01,-2.42204e+01,0.00000e+00,0.00000e+00,0.00000e+00
2.02480e+03,1.05280e+01,-2.54314e+01,0.00000e+00,0.00000e+00,0.00000e+00
2.02480e+03,9.90946e+00,-2.66424e+01,0.00000e+00,0.00000e+00,0.00000e+00
2.02480e+03,9.20158e+00,-2.78534e+01,0.00000e+00,0.00000e+00,0.00000e+00
2.02480e+03,8.39019e+00,-2.90645e+01,0.00000e+00,0.00000e+00,0.00000e+00
2.02480e+03,7.46181e+00,-3.02755e+01,0.00000e+00,0.00000e+00,0.00000e+00
2.02480e+03,6.36374e+00,-3.14865e+01,0.00000e+00,0.00000e+00,0.00000e+00
2.02480e+03,4.95429e+00,-3.26975e+01,0.00000e+00,0.00000e+00,0.00000e+00
2.02480e+03,3.04806e+00,-3.39085e+01,0.00000e+00,0.00000e+00,0.00000e+00
2.02480e+03,-1.23505e+00,-3.51195e+01,0.00000e+00,0.00000e+00,0.00000e+00
2.02480e+03,-1.54416e+00,-3.51224e+01,0.00000e+00,0.00000e+00,0.00000e+00
2.02480e+03,-4.36041e+00,-3.38680e+01,0.00000e+00,0.00000e+00,0.00000e+00
2.02480e+03,-4.70139e+00,-3.26136e+01,0.00000e+00,0.00000e+00,0.00000e+00
2.02480e+03,-4.81905e+00,-3.13592e+01,0.00000e+00,0.00000e+00,0.00000e+00
2.02480e+03,-4.83691e+00,-3.01049e+01,0.00000e+00,0.00000e+00,0.00000e+00
2.02480e+03,-4.77957e+00,-2.88505e+01,0.00000e+00,0.00000e+00,0.00000e+00
2.02480e+03,-4.67504e+00,-2.75961e+01,0.00000e+00,0.00000e+00,0.00000e+00
2.02480e+03,-4.52312e+00,-2.63418e+01,0.00000e+00,0.00000e+00,0.00000e+00
2.02480e+03,-4.34231e+00,-2.50874e+01,0.00000e+00,0.00000e+00,0.00000e+00
2.02480e+03,-4.14473e+00,-2.38330e+01,0.00000e+00,0.00000e+00,0.00000e+00
2.02480e+03,-3.92189e+00,-2.25787e+01,0.00000e+00,0.00000e+00,0.00000e+00
2.02480e+03,-3.68327e+00,-2.13243e+01,0.00000e+00,0.00000e+00,0.00000e+00
2.02480e+03,-3.42927e+00,-2.00699e+01,0.00000e+00,0.00000e+00,0.00000e+00
2.02480e+03,-3.15997e+00,-1.88155e+01,0.00000e+00,0.00000e+00,0.00000e+00
2.02480e+03,-2.88106e+00,-1.75612e+01,0.00000e+00,0.00000e+00,0.00000e+00
2.02480e+03,-2.58986e+00,-1.63068e+01,0.00000e+00,0.00000e+00,0.00000e+00
2.02480e+03,-2.29078e+00,-1.50524e+01,0.00000e+00,0.00000e+00,0.00000e+00
2.02480e+03,-1.98465e+00,-1.37981e+01,0.00000e+00,0.00000e+00,0.00000e+00
2.02480e+03,-1.67220e+00,-1.25437e+01,0.00000e+00,0.00000e+00,0.00000e+00
2.02480e+03,-1.35709e+00,-1.12893e+01,0.00000e+00,0.00000e+00,0.00000e+00
2.02480e+03,-1.03784e+00,-1.00350e+01,0.00000e+00,0.00000e+00,0.00000e+00
2.02480e+03,-7.17909e-01,-8.78059e+00,0.00000e+00,0.00000e+00,0.00000e+00
2.02480e+03,-3.95503e-01,-7.52622e+00,0.00000e+00,0.00000e+00,0.00000e+00
2.02480e+03,-7.31298e-02,-6.27185e+00,0.00000e+00,0.00000e+00,0.00000e+00
2.02480e+03,2.48025e-01,-5.01748e+00,0.00000e+00,0.00000e+00,0.00000e+00
2.02480e+03,5.69180e-01,-3.76311e+00,0.00000e+00,0.00000e+00,0.00000e+00
2.02480e+03,8.82730e-01,-2.50874e+00,0.00000e+00,0.00000e+00,0.00000e+00
2.02480e+03,1.19486e+00,-1.25437e+00,0.00000e+00,0.00000e+00,0.00000e+00
2.03880e+03,1.52746e+01,0.00000e+00,0.00000e+00,0.00000e+00,0.00000e+00
2.03880e+03,1.51977e+01,-1.16071e+00,0.00000e+00,0.00000e+00,0.00000e+00
2.03880e+03,1.50954e+01,-2.32142e+00,0.00000e+00,0.00000e+00,0.00000e+00
2.03880e+03,1.49920e+01,-3.48213e+00,0.00000e+00,0.00000e+00,0.00000e+00
2.03880e+03,1.48662e+01,-4.64285e+00,0.00000e+00,0.00000e+00,0.00000e+00
2.03880e+03,1.47352e+01,-5.80356e+00,0.00000e+00,0.00000e+00,0.00000e+00
2.03880e+03,1.45870e+01,-6.96427e+00,0.00000e+00,0.00000e+00,0.00000e+00
2.03880e+03,1.44304e+01,-8.12498e+00,0.00000e+00,0.00000e+00,0.00000e+00
2.03880e+03,1.42600e+01,-9.28569e+00,0.00000e+00,0.00000e+00,0.00000e+00
2.03880e+03,1.40782e+01,-1.04464e+01,0.00000e+00,0.00000e+00,0.00000e+00
2.03880e+03,1.38839e+01,-1.16071e+01,0.00000e+00,0.00000e+00,0.00000e+00
2.03880e+03,1.36745e+01,-1.27678e+01,0.00000e+00,0.00000e+00,0.00000e+00
2.03880e+03,1.34496e+01,-1.39285e+01,0.00000e+00,0.00000e+00,0.00000e+00
2.03880e+03,1.32028e+01,-1.50892e+01,0.00000e+00,0.00000e+00,0.00000e+00
2.03880e+03,1.29345e+01,-1.62500e+01,0.00000e+00,0.00000e+00,0.00000e+00
2.03880e+03,1.26407e+01,-1.74107e+01,0.00000e+00,0.00000e+00,0.00000e+00
2.03880e+03,1.23123e+01,-1.85714e+01,0.00000e+00,0.00000e+00,0.00000e+00
2.03880e+03,1.19599e+01,-1.97321e+01,0.00000e+00,0.00000e+00,0.00000e+00
2.03880e+03,1.15532e+01,-2.08928e+01,0.00000e+00,0.00000e+00,0.00000e+00
2.03880e+03,1.11241e+01,-2.20535e+01,0.00000e+00,0.00000e+00,0.00000e+00
2.03880e+03,1.06324e+01,-2.32142e+01,0.00000e+00,0.00000e+00,0.00000e+00
2.03880e+03,1.00906e+01,-2.43749e+01,0.00000e+00,0.00000e+00,0.00000e+00
2.03880e+03,9.49781e+00,-2.55357e+01,0.00000e+00,0.00000e+00,0.00000e+00
2.03880e+03,8.81933e+00,-2.66964e+01,0.00000e+00,0.00000e+00,0.00000e+00
2.03880e+03,8.04165e+00,-2.78571e+01,0.00000e+00,0.00000e+00,0.00000e+00
2.03880e+03,7.15183e+00,-2.90178e+01,0.00000e+00,0.00000e+00,0.00000e+00
2.03880e+03,6.09938e+00,-3.01785e+01,0.00000e+00,0.00000e+00,0.00000e+00
2.03880e+03,4.74849e+00,-3.13392e+01,0.00000e+00,0.00000e+00,0.00000e+00
2.03880e+03,2.92144e+00,-3.24999e+01,0.00000e+00,0.00000e+00,0.00000e+00
2.03880e+03,-1.18374e+00,-3.36606e+01,0.00000e+00,0.00000e+00,0.00000e+00
2.03880e+03,-1.48002e+00,-3.36633e+01,0.00000e+00,0.00000e+00,0.00000e+00
2.03880e+03,-4.17927e+00,-3.24611e+01,0.00000e+00,0.00000e+00,0.00000e+00
2.03880e+03,-4.50609e+00,-3.12588e+01,0.00000e+00,0.00000e+00,0.00000e+00
2.03880e+03,-4.61886e+00,-3.00565e+01,0.00000e+00,0.00000e+00,0.00000e+00
2.03880e+03,-4.63598e+00,-2.88543e+01,0.00000e+00,0.00000e+00,0.00000e+00
2.03880e+03,-4.58102e+00,-2.76520e+01,0.00000e+00,0.00000e+00,0.00000e+00
2.03880e+03,-4.48083e+00,-2.64498e+01,0.00000e+00,0.00000e+00,0.00000e+00
2.03880e+03,-4.33523e+00,-2.52475e+01,0.00000e+00,0.00000e+00,0.00000e+00
2.03880e+03,-4.16192e+00,-2.40452e+01,0.00000e+00,0.00000e+00,0.00000e+00
2.03880e+03,-3.97255e+00,-2.28430e+01,0.00000e+00,0.00000e+00,0.00000e+00
2.03880e+03,-3.75897e+00,-2.16407e+01,0.00000e+00,0.00000e+00,0.00000e+00
2.03880e+03,-3.53026e+00,-2.04384e+01,0.00000e+00,0.00000e+00,0.00000e+00
2.03880e+03,-3.28682e+00,-1.92362e+01,0.00000e+00,0.00000e+00,0.00000e+00
2.03880e+03,-3.02870e+00,-1.80339e+01,0.00000e+00,0.00000e+00,0.00000e+00
2.03880e+03,-2.76138e+00,-1.68317e+01,0.00000e+00,0.00000e+00,0.00000e+00
2.03880e+03,-2.48228e+00,-1.56294e+01,0.00000e+00,0.00000e+00,0.00000e+00
2.03880e+03,-2.19562e+00,-1.44271e+01,0.00000e+00,0.00000e+00,0.00000e+00
2.03880e+03,-1.90220e+00,-1.32249e+01,0.00000e+00,0.00000e+00,0.00000e+00
2.03880e+03,-1.60274e+00,-1.20226e+01,0.00000e+00,0.00000e+00,0.00000e+00
2.03880e+03,-1.30072e+00,-1.08204e+01,0.00000e+00,0.00000e+00,0.00000e+00
2.03880e+03,-9.94731e-01,-9.61809e+00,0.00000e+00,0.00000e+00,0.00000e+00
2.03880e+03,-6.88086e-01,-8.41583e+00,0.00000e+00,0.00000e+00,0.00000e+00
2.03880e+03,-3.79073e-01,-7.21357e+00,0.00000e+00,0.00000e+00,0.00000e+00
2.03880e+03,-7.00919e-02,-6.01131e+00,0.00000e+00,0.00000e+00,0.00000e+00
2.03880e+03,2.37722e-01,-4.80905e+00,0.00000e+00,0.00000e+00,0.00000e+00
2.03880e+03,5.45535e-01,-3.60678e+00,0.00000e+00,0.00000e+00,0.00000e+00
2.03880e+03,8.46060e-01,-2.40452e+00,0.00000e+00,0.00000e+00,0.00000e+00
2.03880e+03,1.14523e+00,-1.20226e+00,0.00000e+00,0.00000e+00,0.00000e+00
2.04720e+03,1.48774e+01,0.00000e+00,0.00000e+00,0.00000e+00,0.00000e+00
2.04720e+03,1.48025e+01,-1.13053e+00,0.00000e+00,0.00000e+00,0.00000e+00
2.04720e+03,1.47028e+01,-2.26105e+00,0.00000e+00,0.00000e+00,0.00000e+00
2.04720e+03,1.46021e+01,-3.39158e+00,0.00000e+00,0.00000e+00,0.00000e+00
2.04720e+03,1.44796e+01,-4.52211e+00,0.00000e+00,0.00000e+00,0.00000e+00
2.04720e+03,1.43520e+01,-5.65264e+00,0.00000e+00,0.00000e+00,0.00000e+00
2.04720e+03,1.42077e+01,-6.78316e+00,0.00000e+00,0.00000e+00,0.00000e+00
2.04720e+03,1.40552e+01,-7.91369e+00,0.00000e+00,0.00000e+00,0.00000e+00
2.04720e+03,1.38892e+01,-9.04422e+00,0.00000e+00,0.00000e+00,0.00000e+00
2.04720e+03,1.37121e+01,-1.01747e+01,0.00000e+00,0.00000e+00,0.00000e+00
2.04720e+03,1.35229e+01,-1.13053e+01,0.00000e+00,0.00000e+00,0.00000e+00
2.04720e+03,1.33189e+01,-1.24358e+01,0.00000e+00,0.00000e+00,0.00000e+00
2.04720e+03,1.30998e+01,-1.35663e+01,0.00000e+00,0.00000e+00,0.00000e+00
2.04720e+03,1.28594e+01,-1.46969e+01,0.00000e+00,0.00000e+00,0.00000e+00
2.04720e+03,1.25982e+01,-1.58274e+01,0.00000e+00,0.00000e+00,0.00000e+00
2.04720e+03,1.23120e+01,-1.69579e+01,0.00000e+00,0.00000e+00,0.00000e+00
2.04720e+03,1.19922e+01,-1.80884e+01,0.00000e+00,0.00000e+00,0.00000e+00
2.04720e+03,1.16489e+01,-1.92190e+01,0.00000e+00,0.00000e+00,0.00000e+00
2.04720e+03,1.12528e+01,-2.03495e+01,0.00000e+00,0.00000e+00,0.00000e+00
2.04720e+03,1.08348e+01,-2.14800e+01,0.00000e+00,0.00000e+00,0.00000e+00
2.04720e+03,1.03559e+01,-2.26105e+01,0.00000e+00,0.00000e+00,0.00000e+00
2.04720e+03,9.82823e+00,-2.37411e+01,0.00000e+00,0.00000e+00,0.00000e+00
2.04720e+03,9.25081e+00,-2.48716e+01,0.00000e+00,0.00000e+00,0.00000e+00
2.04720e+03,8.58998e+00,-2.60021e+01,0.00000e+00,0.00000e+00,0.00000e+00
2.04720e+03,7.83252e+00,-2.71326e+01,0.00000e+00,0.00000e+00,0.00000e+00
2.04720e+03,6.96585e+00,-2.82632e+01,0.00000e+00,0.00000e+00,0.00000e+00
2.04720e+03,5.94077e+00,-2.93937e+01,0.00000e+00,0.00000e+00,0.00000e+00
2.04720e+03,4.62500e+00,-3.05242e+01,0.00000e+00,0.00000e+00,0.00000e+00
2.04720e+03,2.84547e+00,-3.16548e+01,0.00000e+00,0.00000e+00,0.00000e+00
2.04720e+03,-1.15296e+00,-3.27853e+01,0.00000e+00,0.00000e+00,0.00000e+00
2.04720e+03,-1.44153e+00,-3.27879e+01,0.00000e+00,0.00000e+00,0.00000e+00
2.04720e+03,-4.07059e+00,-3.16169e+01,0.00000e+00,0.00000e+00,0.00000e+00
2.04720e+03,-4.38891e+00,-3.04459e+01,0.00000e+00,0.00000e+00,0.00000e+00
2.04720e+03,-4.49875e+00,-2.92749e+01,0.00000e+00,0.00000e+00,0.00000e+00
2.04720e+03,-4.51542e+00,-2.81039e+01,0.00000e+00,0.00000e+00,0.00000e+00
2.04720e+03,-4.46189e+00,-2.69329e+01,0.00000e+00,0.00000e+00,0.00000e+00
2.04720e+03,-4.36430e+00,-2.57619e+01,0.00000e+00,0.00000e+00,0.00000e+00
2.04720e+03,-4.22249e+00,-2.45909e+01,0.00000e+00,0.00000e+00,0.00000e+00
2.04720e+03,-4.05369e+00,-2.34199e+01,0.00000e+00,0.00000e+00,0.00000e+00
2.04720e+03,-3.86924e+00,-2.22489e+01,0.00000e+00,0.00000e+00,0.00000e+00
2.04720e+03,-3.66121e+00,-2.10779e+01,0.00000e+00,0.00000e+00,0.00000e+00
2.04720e+03,-3.43845e+00,-1.99069e+01,0.00000e+00,0.00000e+00,0.00000e+00
2.04720e+03,-3.20134e+00,-1.87359e+01,0.00000e+00,0.00000e+00,0.00000e+00
2.04720e+03,-2.94994e+00,-1.75649e+01,0.00000e+00,0.00000e+00,0.00000e+00
2.04720e+03,-2.68957e+00,-1.63940e+01,0.00000e+00,0.00000e+00,0.00000e+00
2.04720e+03,-2.41772e+00,-1.52230e+01,0.00000e+00,0.00000e+00,0.00000e+00
2.04720e+03,-2.13852e+00,-1.40520e+01,0.00000e+00,0.00000e+00,0.00000e+00
2.04720e+03,-1.85273e+00,-1.28810e+01,0.00000e+00,0.00000e+00,0.00000e+00
2.04720e+03,-1.56106e+00,-1.17100e+01,0.00000e+00,0.00000e+00,0.00000e+00
2.04720e+03,-1.26689e+00,-1.05390e+01,0.00000e+00,0.00000e+00,0.00000e+00
2.04720e+03,-9.68863e-01,-9.36797e+00,0.00000e+00,0.00000e+00,0.00000e+00
2.04720e+03,-6.70192e-01,-8.19698e+00,0.00000e+00,0.00000e+00,0.00000e+00
2.04720e+03,-3.69215e-01,-7.02598e+00,0.00000e+00,0.00000e+00,0.00000e+00
2.04720e+03,-6.82691e-02,-5.85498e+00,0.00000e+00,0.00000e+00,0.00000e+00
2.04720e+03,2.31540e-01,-4.68399e+00,0.00000e+00,0.00000e+00,0.00000e+00
2.04720e+03,5.31348e-01,-3.51299e+00,0.00000e+00,0.00000e+00,0.00000e+00
2.04720e+03,8.24058e-01,-2.34199e+00,0.00000e+00,0.00000e+00,0.00000e+00
2.04720e+03,1.11544e+00,-1.17100e+00,0.00000e+00,0.00000e+00,0.00000e+00
2.05000e+03,1.47450e+01,0.00000e+00,0.00000e+00,0.00000e+00,0.00000e+00
2.05000e+03,1.46708e+01,-1.12047e+00,0.00000e+00,0.00000e+00,0.00000e+00
2.05000e+03,1.45720e+01,-2.24093e+00,0.00000e+00,0.00000e+00,0.00000e+00
2.05000e+03,1.44722e+01,-3.36140e+00,0.00000e+00,0.00000e+00,0.00000e+00
2.05000e+03,1.43508e+01,-4.48186e+00,0.00000e+00,0.00000e+00,0.00000e+00
2.05000e+03,1.42243e+01,-5.60233e+00,0.00000e+00,0.00000e+00,0.00000e+00
2.05000e+03,1.40812e+01,-6.72279e+00,0.00000e+00,0.00000e+00,0.00000e+00
2.05000e+03,1.39301e+01,-7.84326e+00,0.00000e+00,0.00000e+00,0.00000e+00
2.05000e+03,1.37656e+01,-8.96372e+00,0.00000e+00,0.00000e+00,0.00000e+00
2.05000e+03,1.35901e+01,-1.00842e+01,0.00000e+00,0.00000e+00,0.00000e+00
2.05000e+03,1.34025e+01,-1.12047e+01,0.00000e+00,0.00000e+00,0.00000e+00
2.05000e+03,1.32004e+01,-1.23251e+01,0.00000e+00,0.00000e+00,0.00000e+00
2.05000e+03,1.29833e+01,-1.34456e+01,0.00000e+00,0.00000e+00,0.00000e+00
2.05000e+03,1.27450e+01,-1.45661e+01,0.00000e+00,0.00000e+00,0.00000e+00
2.05000e+03,1.24860e+01,-1.56865e+01,0.00000e+00,0.00000e+00,0.00000e+00
2.05000e+03,1.22024e+01,-1.68070e+01,0.00000e+00,0.00000e+00,0.00000e+00
2.05000e+03,1.18854e+01,-1.79274e+01,0.00000e+00,0.00000e+00,0.00000e+00
2.05000e+03,1.15452e+01,-1.90479e+01,0.00000e+00,0.00000e+00,0.00000e+00
2.05000e+03,1.11526e+01,-2.01684e+01,0.00000e+00,0.00000e+00,0.00000e+00
2.05000e+03,1.07384e+01,-2.12888e+01,0.00000e+00,0.00000e+00,0.00000e+00
2.05000e+03,1.02638e+01,-2.24093e+01,0.00000e+00,0.00000e+00,0.00000e+00
2.05000e+03,9.74076e+00,-2.35298e+01,0.00000e+00,0.00000e+00,0.00000e+00
2.05000e+03,9.16848e+00,-2.46502e+01,0.00000e+00,0.00000e+00,0.00000e+00
2.05000e+03,8.51353e+00,-2.57707e+01,0.00000e+00,0.00000e+00,0.00000e+00
2.05000e+03,7.76281e+00,-2.68912e+01,0.00000e+00,0.00000e+00,0.00000e+00
2.05000e+03,6.90385e+00,-2.80116e+01,0.00000e+00,0.00000e+00,0.00000e+00
2.05000e+03,5.88790e+00,-2.91321e+01,0.00000e+00,0.00000e+00,0.00000e+00
2.05000e+03,4.58384e+00,-3.02526e+01,0.00000e+00,0.00000e+00,0.00000e+00
2.05000e+03,2.82014e+00,-3.13730e+01,0.00000e+00,0.00000e+00,0.00000e+00
2.05000e+03,-1.14270e+00,-3.24935e+01,0.00000e+00,0.00000e+00,0.00000e+00
2.05000e+03,-1.42870e+00,-3.24961e+01,0.00000e+00,0.00000e+00,0.00000e+00
2.05000e+03,-4.03436e+00,-3.13355e+01,0.00000e+00,0.00000e+00,0.00000e+00
2.05000e+03,-4.34985e+00,-3.01749e+01,0.00000e+00,0.00000e+00,0.00000e+00
2.05000e+03,-4.45871e+00,-2.90144e+01,0.00000e+00,0.00000e+00,0.00000e+00
2.05000e+03,-4.47523e+00,-2.78538e+01,0.00000e+00,0.00000e+00,0.00000e+00
2.05000e+03,-4.42218e+00,-2.66932e+01,0.00000e+00,0.00000e+00,0.00000e+00
2.05000e+03,-4.32546e+00,-2.55327e+01,0.00000e+00,0.00000e+00,0.00000e+00
2.05000e+03,-4.18491e+00,-2.43721e+01,0.00000e+00,0.00000e+00,0.00000e+00
2.05000e+03,-4.01761e+00,-2.32115e+01,0.00000e+00,0.00000e+00,0.00000e+00
2.05000e+03,-3.83480e+00,-2.20509e+01,0.00000e+00,0.00000e+00,0.00000e+00
2.05000e+03,-3.62863e+00,-2.08903e+01,0.00000e+00,0.00000e+00,0.00000e+00
2.05000e+03,-3.40785e+00,-1.97298e+01,0.00000e+00,0.00000e+00,0.00000e+00
2.05000e+03,-3.17285e+00,-1.85692e+01,0.00000e+00,0.00000e+00,0.00000e+00
2.05000e+03,-2.92368e+00,-1.74086e+01,0.00000e+00,0.00000e+00,0.00000e+00
2.05000e+03,-2.66563e+00,-1.62480e+01,0.00000e+00,0.00000e+00,0.00000e+00
2.05000e+03,-2.39621e+00,-1.50875e+01,0.00000e+00,0.00000e+00,0.00000e+00
2.05000e+03,-2.11949e+00,-1.39269e+01,0.00000e+00,0.00000e+00,0.00000e+00
2.05000e+03,-1.83624e+00,-1.27663e+01,0.00000e+00,0.00000e+00,0.00000e+00
2.05000e+03,-1.54717e+00,-1.16057e+01,0.00000e+00,0.00000e+00,0.00000e+00
2.05000e+03,-1.25562e+00,-1.04452e+01,0.00000e+00,0.00000e+00,0.00000e+00
2.05000e+03,-9.60241e-01,-9.28460e+00,0.00000e+00,0.00000e+00,0.00000e+00
2.05000e+03,-6.64227e-01,-8.12402e+00,0.00000e+00,0.00000e+00,0.00000e+00
2.05000e+03,-3.65929e-01,-6.96345e+00,0.00000e+00,0.00000e+00,0.00000e+00
2.05000e+03,-6.76615e-02,-5.80287e+00,0.00000e+00,0.00000e+00,0.00000e+00
2.05000e+03,2.29479e-01,-4.64230e+00,0.00000e+00,0.00000e+00,0.00000e+00
2.05000e+03,5.26620e-01,-3.48173e+00,0.00000e+00,0.00000e+00,0.00000e+00
2.05000e+03,8.16724e-01,-2.32115e+00,0.00000e+00,0.00000e+00,0.00000e+00
2.05000e+03,1.10552e+00,-1.16058e+00,0.00000e+00,0.00000e+00,0.00000e+00
--------------------------------------------------------------------------------------------------------------------------------------------------------------------------------------------------------------------------------------------------------------------------------------------------------------------------------------------------------------------------------

ALMA 
--------------------------------------------------------------------------------------------------------------------------------------------------------------------------------------------------------------------------------------------------------------------------------------------------------------------------------------------------------------------------------
X,Y,Z,Sigma,Tau,Von Mises
0.00000e+00,4.05613e+00,0.00000e+00,2.66885e-01,1.08932e+00,1.90554e+00
0.00000e+00,1.70710e+01,0.00000e+00,9.98046e-02,1.09049e+00,1.89141e+00
0.00000e+00,3.00859e+01,0.00000e+00,-6.72755e-02,1.09049e+00,1.88998e+00
0.00000e+00,4.31008e+01,0.00000e+00,-2.34356e-01,1.08935e+00,1.90130e+00
1.07300e+02,4.01639e+00,0.00000e+00,2.38982e-01,1.03042e+00,1.80067e+00
1.07300e+02,1.69038e+01,0.00000e+00,8.93917e-02,1.03151e+00,1.78887e+00
1.07300e+02,2.97912e+01,0.00000e+00,-6.01980e-02,1.03151e+00,1.78765e+00
1.07300e+02,4.26785e+01,0.00000e+00,-2.09788e-01,1.03044e+00,1.79707e+00
2.14300e+02,3.97676e+00,0.00000e+00,2.12532e-01,9.70998e-01,1.69519e+00
2.14300e+02,1.67370e+01,0.00000e+00,7.95218e-02,9.72018e-01,1.68546e+00
2.14300e+02,2.94972e+01,0.00000e+00,-5.34886e-02,9.72018e-01,1.68443e+00
2.14300e+02,4.22575e+01,0.00000e+00,-1.86499e-01,9.71019e-01,1.69216e+00
3.20700e+02,3.93736e+00,0.00000e+00,1.87635e-01,9.10479e-01,1.58812e+00
3.20700e+02,1.65712e+01,0.00000e+00,7.02307e-02,9.11427e-01,1.58020e+00
3.20700e+02,2.92050e+01,0.00000e+00,-4.71738e-02,9.11427e-01,1.57934e+00
3.20700e+02,4.18388e+01,0.00000e+00,-1.64578e-01,9.10498e-01,1.58559e+00
4.26200e+02,3.89829e+00,0.00000e+00,1.64379e-01,8.49808e-01,1.48106e+00
4.26200e+02,1.64067e+01,0.00000e+00,6.15507e-02,8.50686e-01,1.47472e+00
4.26200e+02,2.89151e+01,0.00000e+00,-4.12777e-02,8.50686e-01,1.47401e+00
4.26200e+02,4.14236e+01,0.00000e+00,-1.44106e-01,8.49825e-01,1.47898e+00
5.30600e+02,3.85963e+00,0.00000e+00,1.42798e-01,7.89219e-01,1.37441e+00
5.30600e+02,1.62440e+01,0.00000e+00,5.34942e-02,7.90027e-01,1.36941e+00
5.30600e+02,2.86284e+01,0.00000e+00,-3.58099e-02,7.90027e-01,1.36884e+00
5.30600e+02,4.10127e+01,0.00000e+00,-1.25114e-01,7.89235e-01,1.37271e+00
6.33500e+02,3.82152e+00,0.00000e+00,1.22950e-01,7.29016e-01,1.26866e+00
6.33500e+02,1.60836e+01,0.00000e+00,4.60823e-02,7.29757e-01,1.26482e+00
6.33500e+02,2.83457e+01,0.00000e+00,-3.07854e-02,7.29757e-01,1.26435e+00
6.33500e+02,4.06078e+01,0.00000e+00,-1.07653e-01,7.29030e-01,1.26730e+00
7.34700e+02,3.78404e+00,0.00000e+00,1.04831e-01,6.69399e-01,1.16416e+00
7.34700e+02,1.59259e+01,0.00000e+00,3.93134e-02,6.70074e-01,1.16127e+00
7.34700e+02,2.80677e+01,0.00000e+00,-2.62038e-02,6.70074e-01,1.16090e+00
7.34700e+02,4.02095e+01,0.00000e+00,-9.17210e-02,6.69412e-01,1.16308e+00
8.33800e+02,3.74734e+00,0.00000e+00,8.84548e-02,6.10724e-01,1.06150e+00
8.33800e+02,1.57714e+01,0.00000e+00,3.31929e-02,6.11336e-01,1.05939e+00
8.33800e+02,2.77955e+01,0.00000e+00,-2.20689e-02,6.11336e-01,1.05910e+00
8.33800e+02,3.98196e+01,0.00000e+00,-7.73308e-02,6.10736e-01,1.06065e+00
9.30700e+02,3.71145e+00,0.00000e+00,7.37701e-02,5.53039e-01,9.60729e-01
9.30700e+02,1.56204e+01,0.00000e+00,2.77014e-02,5.53590e-01,9.59246e-01
9.30700e+02,2.75293e+01,0.00000e+00,-1.83673e-02,5.53590e-01,9.59022e-01
9.30700e+02,3.94382e+01,0.00000e+00,-6.44360e-02,5.53050e-01,9.60075e-01
1.02500e+03,3.67653e+00,0.00000e+00,6.07503e-02,4.97061e-01,8.63076e-01
1.02500e+03,1.54734e+01,0.00000e+00,2.28295e-02,4.97554e-01,8.62091e-01
1.02500e+03,2.72703e+01,0.00000e+00,-1.50913e-02,4.97554e-01,8.61921e-01
1.02500e+03,3.90671e+01,0.00000e+00,-5.30121e-02,4.97071e-01,8.62582e-01
1.11650e+03,3.64264e+00,0.00000e+00,4.93311e-02,4.42158e-01,7.67427e-01
1.11650e+03,1.53308e+01,0.00000e+00,1.85537e-02,4.42595e-01,7.66821e-01
1.11650e+03,2.70189e+01,0.00000e+00,-1.22238e-02,4.42595e-01,7.66694e-01
1.11650e+03,3.87070e+01,0.00000e+00,-4.30012e-02,4.42166e-01,7.67061e-01
1.20500e+03,3.54704e+00,0.00000e+00,5.66079e-02,3.94130e-01,6.84996e-01
1.20500e+03,1.49284e+01,0.00000e+00,2.14537e-02,3.94671e-01,6.83927e-01
1.20500e+03,2.63098e+01,0.00000e+00,-1.37004e-02,3.94671e-01,6.83728e-01
1.20500e+03,3.76912e+01,0.00000e+00,-4.88546e-02,3.94144e-01,6.84424e-01
1.29010e+03,3.41832e+00,0.00000e+00,4.60124e-02,3.57266e-01,6.20511e-01
1.29010e+03,1.43867e+01,0.00000e+00,1.74460e-02,3.57740e-01,6.19869e-01
1.29010e+03,2.53550e+01,0.00000e+00,-1.11204e-02,3.57740e-01,6.19723e-01
1.29010e+03,3.63234e+01,0.00000e+00,-3.96868e-02,3.57278e-01,6.20095e-01
1.37170e+03,3.29489e+00,0.00000e+00,3.66631e-02,3.20032e-01,5.55523e-01
1.37170e+03,1.38672e+01,0.00000e+00,1.39090e-02,3.20442e-01,5.55196e-01
1.37170e+03,2.44395e+01,0.00000e+00,-8.84514e-03,3.20442e-01,5.55093e-01
1.37170e+03,3.50118e+01,0.00000e+00,-3.15993e-02,3.20042e-01,5.55229e-01
1.44960e+03,3.17706e+00,0.00000e+00,2.85532e-02,2.82582e-01,4.90278e-01
1.44960e+03,1.33713e+01,0.00000e+00,1.08400e-02,2.82932e-01,4.90173e-01
1.44960e+03,2.35655e+01,0.00000e+00,-6.87317e-03,2.82932e-01,4.90102e-01
1.44960e+03,3.37597e+01,0.00000e+00,-2.45864e-02,2.82590e-01,4.90078e-01
1.52340e+03,3.06543e+00,0.00000e+00,2.16785e-02,2.45372e-01,4.25550e-01
1.52340e+03,1.29015e+01,0.00000e+00,8.23730e-03,2.45667e-01,4.25587e-01
1.52340e+03,2.27375e+01,0.00000e+00,-5.20389e-03,2.45667e-01,4.25539e-01
1.52340e+03,3.25736e+01,0.00000e+00,-1.86451e-02,2.45379e-01,4.25418e-01
1.59310e+03,2.96000e+00,0.00000e+00,1.59796e-02,2.08862e-01,3.62112e-01
1.59310e+03,1.24578e+01,0.00000e+00,6.07836e-03,2.09104e-01,3.62230e-01
1.59310e+03,2.19555e+01,0.00000e+00,-3.82291e-03,2.09104e-01,3.62199e-01
1.59310e+03,3.14533e+01,0.00000e+00,-1.37242e-02,2.08867e-01,3.62029e-01
1.65850e+03,2.86108e+00,0.00000e+00,1.13857e-02,1.73924e-01,3.01461e-01
1.65850e+03,1.20414e+01,0.00000e+00,4.33634e-03,1.74120e-01,3.01615e-01
1.65850e+03,2.12218e+01,0.00000e+00,-2.71298e-03,1.74120e-01,3.01596e-01
1.65850e+03,3.04021e+01,0.00000e+00,-9.76230e-03,1.73928e-01,3.01411e-01
1.71930e+03,2.76911e+00,0.00000e+00,7.80872e-03,1.40364e-01,2.43244e-01
1.71930e+03,1.16544e+01,0.00000e+00,2.97822e-03,1.40518e-01,2.43402e-01
1.71930e+03,2.05396e+01,0.00000e+00,-1.85228e-03,1.40518e-01,2.43391e-01
1.71930e+03,2.94249e+01,0.00000e+00,-6.68278e-03,1.40368e-01,2.43216e-01
1.77540e+03,2.60964e+00,0.00000e+00,9.29590e-03,1.85219e-01,3.20943e-01
1.77540e+03,1.09832e+01,0.00000e+00,3.60840e-03,1.85424e-01,3.21185e-01
1.77540e+03,1.93567e+01,0.00000e+00,-2.07911e-03,1.85424e-01,3.21171e-01
1.77540e+03,2.77303e+01,0.00000e+00,-7.76662e-03,1.85227e-01,3.20916e-01
1.82660e+03,2.38179e+00,0.00000e+00,6.30157e-03,1.52311e-01,2.63886e-01
1.82660e+03,1.00242e+01,0.00000e+00,2.44939e-03,1.52466e-01,2.64090e-01
1.82660e+03,1.76667e+01,0.00000e+00,-1.40279e-03,1.52466e-01,2.64082e-01
1.82660e+03,2.53092e+01,0.00000e+00,-5.25497e-03,1.52317e-01,2.63873e-01
1.87280e+03,2.17619e+00,0.00000e+00,4.02883e-03,1.21454e-01,2.10404e-01
1.87280e+03,9.15894e+00,0.00000e+00,1.57136e-03,1.21566e-01,2.10565e-01
1.87280e+03,1.61417e+01,0.00000e+00,-8.86104e-04,1.21566e-01,2.10561e-01
1.87280e+03,2.31244e+01,0.00000e+00,-3.34357e-03,1.21458e-01,2.10398e-01
1.91380e+03,1.99374e+00,0.00000e+00,2.39350e-03,9.29812e-02,1.61066e-01
1.91380e+03,8.39104e+00,0.00000e+00,9.39022e-04,9.30591e-02,1.61186e-01
1.91380e+03,1.47883e+01,0.00000e+00,-5.15459e-04,9.30591e-02,1.61184e-01
1.91380e+03,2.11856e+01,0.00000e+00,-1.96994e-03,9.29835e-02,1.61064e-01
1.94970e+03,1.83398e+00,0.00000e+00,1.28626e-03,6.75405e-02,1.16991e-01
1.94970e+03,7.71865e+00,0.00000e+00,5.09190e-04,6.75917e-02,1.17073e-01
1.94970e+03,1.36033e+01,0.00000e+00,-2.67876e-04,6.75917e-02,1.17073e-01
1.94970e+03,1.94880e+01,0.00000e+00,-1.04494e-03,6.75419e-02,1.16991e-01
1.98010e+03,1.69869e+00,0.00000e+00,6.06623e-04,4.55787e-02,7.89470e-02
1.98010e+03,7.14927e+00,0.00000e+00,2.43334e-04,4.56100e-02,7.89993e-02
1.98010e+03,1.25999e+01,0.00000e+00,-1.19955e-04,4.56100e-02,7.89990e-02
1.98010e+03,1.80504e+01,0.00000e+00,-4.83243e-04,4.55796e-02,7.89476e-02
2.00520e+03,1.58699e+00,0.00000e+00,2.35341e-04,2.75600e-02,4.77359e-02
2.00520e+03,6.67917e+00,0.00000e+00,9.62784e-05,2.75771e-02,4.77650e-02
2.00520e+03,1.17713e+01,0.00000e+00,-4.27848e-05,2.75771e-02,4.77649e-02
2.00520e+03,1.68635e+01,0.00000e+00,-1.81848e-04,2.75604e-02,4.77364e-02
2.02480e+03,1.49977e+00,0.00000e+00,6.79688e-05,1.40091e-02,2.42647e-02
2.02480e+03,6.31207e+00,0.00000e+00,2.86637e-05,1.40169e-02,2.42780e-02
2.02480e+03,1.11244e+01,0.00000e+00,-1.06415e-05,1.40169e-02,2.42780e-02
2.02480e+03,1.59367e+01,0.00000e+00,-4.99467e-05,1.40093e-02,2.42649e-02
2.03880e+03,1.43746e+00,0.00000e+00,1.22630e-05,5.27299e-03,9.13309e-03
2.03880e+03,6.04986e+00,0.00000e+00,5.44648e-06,5.27554e-03,9.13750e-03
2.03880e+03,1.06622e+01,0.00000e+00,-1.37001e-06,5.27554e-03,9.13750e-03
2.03880e+03,1.52746e+01,0.00000e+00,-8.18651e-06,5.27304e-03,9.13318e-03
2.04720e+03,1.40008e+00,0.00000e+00,1.59585e-06,9.69048e-04,1.67844e-03
2.04720e+03,5.89253e+00,0.00000e+00,7.66030e-07,9.69409e-04,1.67907e-03
2.04720e+03,1.03850e+01,0.00000e+00,-6.37876e-08,9.69409e-04,1.67907e-03
2.04720e+03,1.48774e+01,0.00000e+00,-8.93606e-07,9.69055e-04,1.67845e-03
2.05000e+03,1.38762e+00,0.00000e+00,0.00000e+00,0.00000e+00,0.00000e+00
2.05000e+03,5.84009e+00,0.00000e+00,0.00000e+00,0.00000e+00,0.00000e+00
2.05000e+03,1.02925e+01,0.00000e+00,0.00000e+00,0.00000e+00,0.00000e+00
2.05000e+03,1.47450e+01,0.00000e+00,0.00000e+00,0.00000e+00,0.00000e+00
MESA INFERIOR 
--------------------------------------------------------------------------------------------------------------------------------------------------------------------------------------------------------------------------------------------------------------------------------------------------------------------------------------------------------------------------------
X,Y,Z,Sigma,Von Mises
0.00000e+00,4.05613e+00,0.00000e+00,0.00000e+00,0.00000e+00
1.07300e+02,4.01639e+00,0.00000e+00,0.00000e+00,0.00000e+00
2.14300e+02,3.97676e+00,0.00000e+00,0.00000e+00,0.00000e+00
3.20700e+02,3.93736e+00,0.00000e+00,0.00000e+00,0.00000e+00
4.26200e+02,3.89829e+00,0.00000e+00,0.00000e+00,0.00000e+00
5.30600e+02,3.85963e+00,0.00000e+00,0.00000e+00,0.00000e+00
6.33500e+02,3.82152e+00,0.00000e+00,0.00000e+00,0.00000e+00
7.34700e+02,3.78404e+00,0.00000e+00,0.00000e+00,0.00000e+00
8.33800e+02,3.74734e+00,0.00000e+00,0.00000e+00,0.00000e+00
9.30700e+02,3.71145e+00,0.00000e+00,0.00000e+00,0.00000e+00
1.02500e+03,3.67653e+00,0.00000e+00,0.00000e+00,0.00000e+00
1.11650e+03,3.64264e+00,0.00000e+00,0.00000e+00,0.00000e+00
1.20500e+03,3.54704e+00,0.00000e+00,0.00000e+00,0.00000e+00
1.29010e+03,3.41832e+00,0.00000e+00,0.00000e+00,0.00000e+00
1.37170e+03,3.29489e+00,0.00000e+00,0.00000e+00,0.00000e+00
1.44960e+03,3.17706e+00,0.00000e+00,0.00000e+00,0.00000e+00
1.52340e+03,3.06543e+00,0.00000e+00,0.00000e+00,0.00000e+00
1.59310e+03,2.96000e+00,0.00000e+00,0.00000e+00,0.00000e+00
1.65850e+03,2.86108e+00,0.00000e+00,0.00000e+00,0.00000e+00
1.71930e+03,2.76911e+00,0.00000e+00,0.00000e+00,0.00000e+00
1.77540e+03,2.60964e+00,0.00000e+00,0.00000e+00,0.00000e+00
1.82660e+03,2.38179e+00,0.00000e+00,0.00000e+00,0.00000e+00
1.87280e+03,2.17619e+00,0.00000e+00,0.00000e+00,0.00000e+00
1.91380e+03,1.99374e+00,0.00000e+00,0.00000e+00,0.00000e+00
1.94970e+03,1.83398e+00,0.00000e+00,0.00000e+00,0.00000e+00
1.98010e+03,1.69869e+00,0.00000e+00,0.00000e+00,0.00000e+00
2.00520e+03,1.58699e+00,0.00000e+00,0.00000e+00,0.00000e+00
2.02480e+03,1.49977e+00,0.00000e+00,0.00000e+00,0.00000e+00
2.03880e+03,1.43746e+00,0.00000e+00,0.00000e+00,0.00000e+00
2.04720e+03,1.40008e+00,0.00000e+00,0.00000e+00,0.00000e+00
2.05000e+03,1.38762e+00,0.00000e+00,0.00000e+00,0.00000e+00
--------------------------------------------------------------------------------------------------------------------------------------------------------------------------------------------------------------------------------------------------------------------------------------------------------------------------------------------------------------------------------

MESA SUPERIOR 
--------------------------------------------------------------------------------------------------------------------------------------------------------------------------------------------------------------------------------------------------------------------------------------------------------------------------------------------------------------------------------
X,Y,Z,Sigma,Von Mises
0.00000e+00,4.31008e+01,0.00000e+00,0.00000e+00,0.00000e+00
1.07300e+02,4.26785e+01,0.00000e+00,0.00000e+00,0.00000e+00
2.14300e+02,4.22575e+01,0.00000e+00,0.00000e+00,0.00000e+00
3.20700e+02,4.18388e+01,0.00000e+00,0.00000e+00,0.00000e+00
4.26200e+02,4.14236e+01,0.00000e+00,0.00000e+00,0.00000e+00
5.30600e+02,4.10127e+01,0.00000e+00,0.00000e+00,0.00000e+00
6.33500e+02,4.06078e+01,0.00000e+00,0.00000e+00,0.00000e+00
7.34700e+02,4.02095e+01,0.00000e+00,0.00000e+00,0.00000e+00
8.33800e+02,3.98196e+01,0.00000e+00,0.00000e+00,0.00000e+00
9.30700e+02,3.94382e+01,0.00000e+00,0.00000e+00,0.00000e+00
1.02500e+03,3.90671e+01,0.00000e+00,0.00000e+00,0.00000e+00
1.11650e+03,3.87070e+01,0.00000e+00,0.00000e+00,0.00000e+00
1.20500e+03,3.76912e+01,0.00000e+00,0.00000e+00,0.00000e+00
1.29010e+03,3.63234e+01,0.00000e+00,0.00000e+00,0.00000e+00
1.37170e+03,3.50118e+01,0.00000e+00,0.00000e+00,0.00000e+00
1.44960e+03,3.37597e+01,0.00000e+00,0.00000e+00,0.00000e+00
1.52340e+03,3.25736e+01,0.00000e+00,0.00000e+00,0.00000e+00
1.59310e+03,3.14533e+01,0.00000e+00,0.00000e+00,0.00000e+00
1.65850e+03,3.04021e+01,0.00000e+00,0.00000e+00,0.00000e+00
1.71930e+03,2.94249e+01,0.00000e+00,0.00000e+00,0.00000e+00
1.77540e+03,2.77303e+01,0.00000e+00,0.00000e+00,0.00000e+00
1.82660e+03,2.53092e+01,0.00000e+00,0.00000e+00,0.00000e+00
1.87280e+03,2.31244e+01,0.00000e+00,0.00000e+00,0.00000e+00
1.91380e+03,2.11856e+01,0.00000e+00,0.00000e+00,0.00000e+00
1.94970e+03,1.94880e+01,0.00000e+00,0.00000e+00,0.00000e+00
1.98010e+03,1.80504e+01,0.00000e+00,0.00000e+00,0.00000e+00
2.00520e+03,1.68635e+01,0.00000e+00,0.00000e+00,0.00000e+00
2.02480e+03,1.59367e+01,0.00000e+00,0.00000e+00,0.00000e+00
2.03880e+03,1.52746e+01,0.00000e+00,0.00000e+00,0.00000e+00
2.04720e+03,1.48774e+01,0.00000e+00,0.00000e+00,0.00000e+00
2.05000e+03,1.47450e+01,0.00000e+00,0.00000e+00,0.00000e+00
--------------------------------------------------------------------------------------------------------------------------------------------------------------------------------------------------------------------------------------------------------------------------------------------------------------------------------------------------------------------------------

