----------------------------------------------
LOG MATLAB Estruturas Copyright Charles 2020
----------------------------------------------

VISÃO GERAL POR SEÇÃO
--------------------------------------------------------------------------------------------------------------------------------------------------------------------------------------------------------------------------------------------------------------------------------------------------------------------------------------------------------------------------------
SEÇÃO,POSIÇÃO .25c,, ESFORÇOS,,,,,INÉRCIAS,,,,CENTROS GEOMÉTRICOS,,,DEFLEXÇOES,,,,,TENSÕES NORMAIS,,,,,,,,TENSÕES CISALHAMENTO,,,TENSÕES DE VON MISES
NUMERO,X,Y,MFz,MFy,MTx,Vz,Vy,EIzz,EIyy,EIzy,GJ,Zcg,Ycg,Zcc,Z,Y,Z´,Y´,Theta,Sigma_Chap+,Sigma_Chap-,Sigma_Lam+,Sigma_Lam-,Sigma_Mesa+,Sigma_Mesa-,Sigma_Alma+,Sigma_Alma-,  Tau_Alma,  Tau_Chap,  Tau_Lam, Von Mises_Alma,  Von Mises_Chap,  Von Mises_Lam
--------------------------------------------------------------------------------------------------------------------------------------------------------------------------------------------------------------------------------------------------------------------------------------------------------------------------------------------------------------------------------
01,0.00000e+00,0.00000e+00,2.78924e+05,-3.85280e+04,-1.23727e+04,-4.46425e+01,3.07122e+02,2.43720e+09,3.02407e+09,6.88619e+08,3.65441e+07,8.66395e+01,2.17434e+01,7.43235e+01,0.00000e+00,0.00000e+00,0.00000e+00,0.00000e+00,0.00000e+00,4.69539e+00,-3.69591e+00,0.00000e+00,0.00000e+00,1.85861e+02,-2.02375e+02,2.32509e-01,-2.53168e-01,9.17732e-01,8.44942e-01,0.00000e+00,1.60757e+00,4.78847e+00,0.00000e+00
02,1.07300e+02,0.00000e+00,2.47003e+05,-3.38922e+04,-1.14993e+04,-4.17649e+01,2.87865e+02,2.38487e+09,2.93941e+09,6.69313e+08,3.55133e+07,8.58583e+01,2.15452e+01,7.36225e+01,-2.27329e-01,6.91546e-01,-4.23727e-03,1.28899e-02,-3.55362e-02,4.20810e+00,-3.31004e+00,0.00000e+00,0.00000e+00,1.66571e+02,-1.81251e+02,2.08377e-01,-2.26742e-01,8.69202e-01,7.98283e-01,0.00000e+00,1.52057e+00,4.30140e+00,0.00000e+00
03,2.14300e+02,0.00000e+00,2.17213e+05,-2.95781e+04,-1.06510e+04,-3.88722e+01,2.68963e+02,2.33333e+09,2.85653e+09,6.50412e+08,3.45021e+07,8.50782e+01,2.13473e+01,7.29231e+01,-8.84509e-01,2.69068e+00,-8.04646e-03,2.44770e-02,-6.93755e-02,3.74457e+00,-2.94423e+00,0.00000e+00,0.00000e+00,1.48265e+02,-1.61211e+02,1.85477e-01,-2.01672e-01,8.20662e-01,7.51767e-01,0.00000e+00,1.43388e+00,3.83815e+00,0.00000e+00
04,3.20700e+02,0.00000e+00,1.89602e+05,-2.55993e+04,-9.82546e+03,-3.59185e+01,2.50038e+02,2.28273e+09,2.77562e+09,6.31961e+08,3.35270e+07,8.43013e+01,2.11503e+01,7.22271e+01,-1.92098e+00,5.84369e+00,-1.14361e-02,3.47901e-02,-1.01390e-01,3.30686e+00,-2.59972e+00,0.00000e+00,0.00000e+00,1.31007e+02,-1.42329e+02,1.63888e-01,-1.78051e-01,7.71116e-01,7.04922e-01,0.00000e+00,1.34576e+00,3.40071e+00,0.00000e+00
05,4.26200e+02,0.00000e+00,1.64206e+05,-2.19644e+04,-9.02284e+03,-3.29885e+01,2.31411e+02,2.23318e+09,2.69686e+09,6.14002e+08,3.25771e+07,8.35299e+01,2.09548e+01,7.15366e+01,-3.28492e+00,9.99320e+00,-1.44204e-02,4.38737e-02,-1.31459e-01,2.89692e+00,-2.27771e+00,0.00000e+00,0.00000e+00,1.14859e+02,-1.24675e+02,1.43687e-01,-1.55966e-01,7.21338e-01,6.58048e-01,0.00000e+00,1.25755e+00,2.99092e+00,0.00000e+00
06,5.30600e+02,0.00000e+00,1.41001e+05,-1.86710e+04,-8.24305e+03,-3.01032e+01,2.13127e+02,2.18477e+09,2.62035e+09,5.96558e+08,3.16514e+07,8.27655e+01,2.07610e+01,7.08528e+01,-4.92614e+00,1.49870e+01,-1.70206e-02,5.17934e-02,-1.59511e-01,2.51567e+00,-1.97868e+00,0.00000e+00,0.00000e+00,9.98481e+01,-1.08278e+02,1.24908e-01,-1.35455e-01,6.71444e-01,6.11188e-01,0.00000e+00,1.16941e+00,2.60963e+00,0.00000e+00
07,6.33500e+02,0.00000e+00,1.19989e+05,-1.57182e+04,-7.48683e+03,-2.72890e+01,1.95256e+02,2.13765e+09,2.54632e+09,5.79679e+08,3.07497e+07,8.20110e+01,2.05698e+01,7.01785e+01,-6.79260e+00,2.06673e+01,-1.92567e-02,5.86105e-02,-1.85437e-01,2.16454e+00,-1.70347e+00,0.00000e+00,0.00000e+00,8.60187e+01,-9.31885e+01,1.07608e-01,-1.16577e-01,6.21615e-01,5.64441e-01,0.00000e+00,1.08165e+00,2.25811e+00,0.00000e+00
08,7.34700e+02,0.00000e+00,1.01111e+05,-1.30943e+04,-6.75284e+03,-2.45678e+01,1.77829e+02,2.09189e+09,2.47483e+09,5.63383e+08,2.98683e+07,8.12680e+01,2.03815e+01,6.95148e+01,-8.83755e+00,2.68921e+01,-2.11571e-02,6.44102e-02,-2.09197e-01,1.84379e+00,-1.45216e+00,0.00000e+00,0.00000e+00,7.33770e+01,-7.94101e+01,9.17933e-02,-9.93407e-02,5.71935e-01,5.17793e-01,0.00000e+00,9.94394e-01,1.93646e+00,0.00000e+00
09,8.33800e+02,0.00000e+00,8.43251e+04,-1.07888e+04,-6.04471e+03,-2.19605e+01,1.60945e+02,2.04762e+09,2.40610e+09,5.47713e+08,2.90075e+07,8.05393e+01,2.01969e+01,6.88645e+01,-1.10131e+01,3.35161e+01,-2.27484e-02,6.92730e-02,-2.30725e-01,1.55390e+00,-1.22507e+00,0.00000e+00,0.00000e+00,6.19417e+01,-6.69619e+01,7.74880e-02,-8.37682e-02,5.22739e-01,4.71540e-01,0.00000e+00,9.08192e-01,1.64525e+00,0.00000e+00
10,9.30700e+02,0.00000e+00,6.95201e+04,-8.78170e+03,-5.36447e+03,-1.94653e+01,1.44627e+02,2.00486e+09,2.34009e+09,5.32666e+08,2.81669e+07,7.98259e+01,2.00162e+01,6.82283e+01,-1.32811e+01,4.04238e+01,-2.40640e-02,7.32991e-02,-2.50049e-01,1.29416e+00,-1.02155e+00,0.00000e+00,0.00000e+00,5.16834e+01,-5.58094e+01,6.46551e-02,-6.98166e-02,4.74173e-01,4.25870e-01,0.00000e+00,8.23277e-01,1.38420e+00,0.00000e+00
11,1.02500e+03,0.00000e+00,5.66137e+04,-7.05578e+03,-4.71380e+03,-1.71396e+01,1.29103e+02,1.96375e+09,2.27699e+09,5.18282e+08,2.73325e+07,7.91308e+01,1.98401e+01,6.76088e+01,-1.56008e+01,4.74904e+01,-2.51330e-02,7.65765e-02,-2.67160e-01,1.06424e+00,-8.41300e-01,0.00000e+00,0.00000e+00,4.25897e+01,-4.59361e+01,5.32789e-02,-5.74653e-02,4.26932e-01,3.81141e-01,0.00000e+00,7.40824e-01,1.15210e+00,0.00000e+00
12,1.11650e+03,0.00000e+00,4.54870e+04,-5.58813e+03,-4.09103e+03,-1.49402e+01,1.14104e+02,1.92432e+09,2.21681e+09,5.04566e+08,2.65142e+07,7.84554e+01,1.96691e+01,6.70073e+01,-1.79395e+01,5.46173e+01,-2.59877e-02,7.92018e-02,-2.82109e-01,8.63052e-01,-6.83486e-01,0.00000e+00,0.00000e+00,3.46204e+01,-3.72950e+01,4.33095e-02,-4.66554e-02,3.80335e-01,3.37082e-01,0.00000e+00,6.59636e-01,9.48136e-01,0.00000e+00
13,1.20500e+03,0.00000e+00,3.60143e+04,-4.35318e+03,-3.49739e+03,-1.29684e+01,9.99681e+01,1.32148e+09,1.95268e+09,4.45208e+08,2.40513e+07,7.39632e+01,1.86188e+01,6.42675e+01,-2.02738e+01,6.17366e+01,-2.67642e-02,8.16876e-02,-2.95371e-01,9.18850e-01,-8.02794e-01,0.00000e+00,0.00000e+00,3.96166e+01,-4.26536e+01,4.95597e-02,-5.33589e-02,3.37836e-01,3.39873e-01,0.00000e+00,5.86629e-01,9.90310e-01,0.00000e+00
14,1.29010e+03,0.00000e+00,2.80675e+04,-3.32774e+03,-2.95879e+03,-1.11314e+01,8.67963e+01,1.21619e+09,1.75686e+09,4.00479e+08,2.16521e+07,7.15330e+01,1.79989e+01,6.20379e+01,-2.25820e+01,6.87895e+01,-2.74825e-02,8.40687e-02,-3.07373e-01,7.50217e-01,-6.53422e-01,0.00000e+00,0.00000e+00,3.23155e+01,-3.47334e+01,4.04262e-02,-4.34509e-02,3.05423e-01,3.04715e-01,0.00000e+00,5.29959e-01,8.23071e-01,0.00000e+00
15,1.37170e+03,0.00000e+00,2.14828e+04,-2.49072e+03,-2.48327e+03,-9.38364e+00,7.45937e+01,1.12002e+09,1.58132e+09,3.60391e+08,1.95150e+07,6.91884e+01,1.74013e+01,5.98941e+01,-2.48481e+01,7.57276e+01,-2.80599e-02,8.59810e-02,-3.18141e-01,6.01020e-01,-5.22235e-01,0.00000e+00,0.00000e+00,2.58815e+01,-2.77650e+01,3.23774e-02,-3.47335e-02,2.73357e-01,2.70815e-01,0.00000e+00,4.74022e-01,6.82810e-01,0.00000e+00
16,1.44960e+03,0.00000e+00,1.61055e+04,-1.82176e+03,-2.06216e+03,-7.79124e+00,6.34621e+01,1.03251e+09,1.42458e+09,3.24609e+08,1.76003e+07,6.69366e+01,1.68278e+01,5.78421e+01,-2.70516e+01,8.24839e+01,-2.85126e-02,8.74798e-02,-3.27661e-01,4.71129e-01,-4.08652e-01,0.00000e+00,0.00000e+00,2.02927e+01,-2.17254e+01,2.53858e-02,-2.71780e-02,2.42065e-01,2.38159e-01,0.00000e+00,4.19532e-01,5.66483e-01,0.00000e+00
17,1.52340e+03,0.00000e+00,1.17996e+04,-1.30057e+03,-1.69047e+03,-6.33327e+00,5.32281e+01,9.53418e+08,1.28561e+09,2.92889e+08,1.59058e+07,6.47909e+01,1.62818e+01,5.58929e+01,-2.91686e+01,8.89819e+01,-2.88567e-02,8.86192e-02,-3.35906e-01,3.60466e-01,-3.12244e-01,0.00000e+00,0.00000e+00,1.55344e+01,-1.65970e+01,1.94333e-02,-2.07626e-02,2.11205e-01,2.06542e-01,0.00000e+00,3.65893e-01,4.64711e-01,0.00000e+00
18,1.59310e+03,0.00000e+00,8.41400e+03,-9.04248e+02,-1.36152e+03,-5.03891e+00,4.39202e+01,8.82075e+08,1.16263e+09,2.64824e+08,1.43959e+07,6.27531e+01,1.57637e+01,5.40474e+01,-3.11887e+01,9.51880e+01,-2.91107e-02,8.94602e-02,-3.42906e-01,2.68139e-01,-2.31950e-01,0.00000e+00,0.00000e+00,1.15605e+01,-1.23274e+01,1.44619e-02,-1.54214e-02,1.81072e-01,1.75942e-01,0.00000e+00,3.13673e-01,3.76034e-01,0.00000e+00
19,1.65850e+03,0.00000e+00,5.81595e+03,-6.11081e+02,-1.06983e+03,-3.92644e+00,3.55310e+01,8.18049e+08,1.05434e+09,2.40117e+08,1.30415e+07,6.08309e+01,1.52752e+01,5.23116e+01,-3.30985e+01,1.01058e+02,-2.92913e-02,9.00583e-02,-3.48681e-01,1.93148e-01,-1.66768e-01,0.00000e+00,0.00000e+00,8.32644e+00,-8.86403e+00,1.04162e-02,-1.10888e-02,1.51867e-01,1.46304e-01,0.00000e+00,2.63071e-01,2.98846e-01,0.00000e+00
20,1.71930e+03,0.00000e+00,3.88312e+03,-4.00167e+02,-8.10768e+02,-3.01152e+00,2.80486e+01,7.61023e+08,9.59670e+08,2.18523e+08,1.18099e+07,5.90349e+01,1.48192e+01,5.06943e+01,-3.48831e+01,1.06546e+02,-2.94143e-02,9.04653e-02,-3.53262e-01,1.34209e-01,-1.15597e-01,0.00000e+00,0.00000e+00,5.78164e+00,-6.14634e+00,7.23273e-03,-7.68897e-03,1.23811e-01,1.17602e-01,0.00000e+00,2.14464e-01,2.31422e-01,0.00000e+00
21,1.77540e+03,0.00000e+00,2.49169e+03,-2.50511e+02,-5.82761e+02,-2.32381e+00,2.15570e+01,3.98519e+08,7.29057e+08,1.66652e+08,7.91406e+06,5.21005e+01,1.31900e+01,4.07358e+01,-3.65361e+01,1.11631e+02,-2.95166e-02,9.08204e-02,-3.57253e-01,1.48278e-01,-1.43434e-01,0.00000e+00,0.00000e+00,6.90701e+00,-7.33433e+00,8.64055e-03,-9.17513e-03,1.63622e-01,1.16302e-01,0.00000e+00,2.83420e-01,2.40331e-01,0.00000e+00
22,1.82660e+03,0.00000e+00,1.52729e+03,-1.45568e+02,-4.00032e+02,-1.77555e+00,1.61146e+01,3.22692e+08,5.63581e+08,1.28741e+08,6.05643e+06,4.80842e+01,1.21552e+01,3.73499e+01,-3.80496e+01,1.16289e+02,-2.96045e-02,9.11377e-02,-3.60829e-01,1.02235e-01,-9.85661e-02,0.00000e+00,0.00000e+00,4.76409e+00,-5.03910e+00,5.95980e-03,-6.30383e-03,1.34767e-01,9.27303e-02,0.00000e+00,2.33433e-01,1.84137e-01,0.00000e+00
23,1.87280e+03,0.00000e+00,8.85188e+02,-7.60352e+01,-2.74079e+02,-1.23451e+00,1.16822e+01,2.62353e+08,4.36581e+08,9.96683e+07,4.70310e+06,4.43938e+01,1.12070e+01,3.42731e+01,-3.94187e+01,1.20505e+02,-2.96625e-02,9.13476e-02,-3.63701e-01,6.61671e-02,-6.40753e-02,0.00000e+00,0.00000e+00,3.10570e+00,-3.26277e+00,3.88518e-03,-4.08166e-03,1.08085e-01,7.28680e-02,0.00000e+00,1.87215e-01,1.39030e-01,0.00000e+00
24,1.91380e+03,0.00000e+00,4.78671e+02,-3.42724e+01,-1.82880e+02,-8.02693e-01,8.14790e+00,2.14932e+08,3.40501e+08,7.76906e+07,3.69361e+06,4.10625e+01,1.03532e+01,3.15244e+01,-4.06356e+01,1.24253e+02,-2.96973e-02,9.14754e-02,-3.65910e-01,3.95087e-02,-3.88915e-02,0.00000e+00,0.00000e+00,1.88524e+00,-1.96085e+00,2.35841e-03,-2.45299e-03,8.33190e-02,5.54151e-02,0.00000e+00,1.44315e-01,1.02179e-01,0.00000e+00
25,1.94970e+03,0.00000e+00,2.35076e+02,-1.23133e+01,-1.22270e+02,-4.20659e-01,5.42284e+00,1.77937e+08,2.68420e+08,6.12136e+07,2.98465e+06,3.80992e+01,9.59536e+00,2.91026e+01,-4.17020e+01,1.27538e+02,-2.97159e-02,9.15457e-02,-3.67534e-01,2.11346e-02,-2.14411e-02,0.00000e+00,0.00000e+00,1.03569e+00,-1.06319e+00,1.29563e-03,-1.33004e-03,6.16233e-02,4.13746e-02,0.00000e+00,1.06736e-01,7.41390e-02,0.00000e+00
26,1.98010e+03,0.00000e+00,1.01675e+02,-3.02915e+00,-7.67805e+01,-1.90138e-01,3.35353e+00,1.49784e+08,2.15653e+08,4.91590e+07,2.45953e+06,3.55543e+01,8.94582e+00,2.70403e+01,-4.26055e+01,1.30321e+02,-2.97244e-02,9.15790e-02,-3.68632e-01,9.80414e-03,-1.03840e-02,0.00000e+00,0.00000e+00,4.97274e-01,-5.02872e-01,6.22081e-04,-6.29084e-04,4.21285e-02,2.87770e-02,0.00000e+00,7.29690e-02,5.06470e-02,0.00000e+00
27,2.00520e+03,0.00000e+00,3.62631e+01,-4.99032e-02,-4.51865e+01,-4.72515e-02,1.85859e+00,1.28656e+08,1.77484e+08,4.04436e+07,2.09951e+06,3.34272e+01,8.40385e+00,2.53292e+01,-4.33516e+01,1.32620e+02,-2.97276e-02,9.15921e-02,-3.69294e-01,3.68067e-03,-4.14462e-03,0.00000e+00,0.00000e+00,1.95297e-01,-1.93876e-01,2.44313e-04,-2.42535e-04,2.58501e-02,1.83764e-02,0.00000e+00,4.47738e-02,3.20169e-02,0.00000e+00
28,2.02480e+03,0.00000e+00,9.60968e+00,3.15908e-01,-2.28358e+01,9.92381e-03,8.61139e-01,1.13447e+08,1.50904e+08,3.43767e+07,1.85556e+06,3.17493e+01,7.97693e+00,2.39876e+01,-4.39343e+01,1.34415e+02,-2.97285e-02,9.15959e-02,-3.69625e-01,1.01087e-03,-1.22668e-03,0.00000e+00,0.00000e+00,5.63488e-02,-5.47299e-02,7.04913e-05,-6.84662e-05,1.31990e-02,9.89907e-03,0.00000e+00,2.28614e-02,1.71736e-02,0.00000e+00
29,2.03880e+03,0.00000e+00,1.56759e+00,1.26113e-01,-8.52138e+00,1.71898e-02,2.87730e-01,1.03260e+08,1.33576e+08,3.04229e+07,1.70680e+06,3.05414e+01,7.66993e+00,2.30264e+01,-4.43505e+01,1.35698e+02,-2.97286e-02,9.15967e-02,-3.69746e-01,1.75797e-04,-2.24710e-04,0.00000e+00,0.00000e+00,9.90656e-03,-9.33927e-03,1.23929e-05,-1.16833e-05,4.82363e-03,3.85471e-03,0.00000e+00,8.35477e-03,6.67864e-03,0.00000e+00
30,2.04720e+03,0.00000e+00,1.79561e-01,2.69576e-02,-1.55472e+00,6.41848e-03,4.27527e-02,9.74134e+07,1.23821e+08,2.81976e+07,1.66901e+06,2.98129e+01,7.48488e+00,2.24484e+01,-4.46002e+01,1.36467e+02,-2.97286e-02,9.15967e-02,-3.69771e-01,2.13494e-05,-2.93721e-05,0.00000e+00,0.00000e+00,1.21295e-03,-1.09567e-03,1.51738e-06,-1.37066e-06,7.97084e-04,7.06716e-04,0.00000e+00,1.38059e-03,1.22422e-03,0.00000e+00
31,2.05000e+03,0.00000e+00,0.00000e+00,0.00000e+00,0.00000e+00,0.00000e+00,0.00000e+00,5.74754e+07,1.08343e+08,2.47732e+07,NaN,2.74871e+01,6.96602e+00,2.15905e+01,-4.46835e+01,1.36724e+02,-2.97286e-02,9.15967e-02,-3.69772e-01,0.00000e+00,0.00000e+00,0.00000e+00,0.00000e+00,0.00000e+00,0.00000e+00,0.00000e+00,0.00000e+00,0.00000e+00,0.00000e+00,0.00000e+00,0.00000e+00,0.00000e+00,0.00000e+00
--------------------------------------------------------------------------------------------------------------------------------------------------------------------------------------------------------------------------------------------------------------------------------------------------------------------------------------------------------------------------------

CHAPEADO 
--------------------------------------------------------------------------------------------------------------------------------------------------------------------------------------------------------------------------------------------------------------------------------------------------------------------------------------------------------------------------------
X,Y,Z,Sigma,Tau,Von Mises
0.00000e+00,4.31008e+01,0.00000e+00,-3.61669e+00,8.44942e-01,3.90157e+00
0.00000e+00,4.28837e+01,-3.27521e+00,-3.64805e+00,8.31688e-01,3.92217e+00
0.00000e+00,4.25950e+01,-6.55041e+00,-3.66668e+00,8.18111e-01,3.93096e+00
0.00000e+00,4.23033e+01,-9.82562e+00,-3.68479e+00,8.04226e-01,3.93929e+00
0.00000e+00,4.19484e+01,-1.31008e+01,-3.69166e+00,7.90059e-01,3.93712e+00
0.00000e+00,4.15787e+01,-1.63760e+01,-3.69591e+00,7.75629e-01,3.93250e+00
0.00000e+00,4.11605e+01,-1.96512e+01,-3.69153e+00,7.60958e-01,3.91976e+00
0.00000e+00,4.07187e+01,-2.29264e+01,-3.68295e+00,7.46067e-01,3.90307e+00
0.00000e+00,4.02378e+01,-2.62017e+01,-3.66744e+00,7.30974e-01,3.87983e+00
0.00000e+00,3.97249e+01,-2.94769e+01,-3.64623e+00,7.15702e-01,3.85119e+00
0.00000e+00,3.91766e+01,-3.27521e+01,-3.61875e+00,7.00269e-01,3.81661e+00
0.00000e+00,3.85857e+01,-3.60273e+01,-3.58368e+00,6.84695e-01,3.77481e+00
0.00000e+00,3.79511e+01,-3.93025e+01,-3.54084e+00,6.69001e-01,3.72562e+00
0.00000e+00,3.72545e+01,-4.25777e+01,-3.48700e+00,6.53214e-01,3.66596e+00
0.00000e+00,3.64976e+01,-4.58529e+01,-3.42244e+00,6.37365e-01,3.59609e+00
0.00000e+00,3.56687e+01,-4.91281e+01,-3.34507e+00,6.21477e-01,3.51400e+00
0.00000e+00,3.47420e+01,-5.24033e+01,-3.25035e+00,6.05606e-01,3.41541e+00
0.00000e+00,3.37474e+01,-5.56785e+01,-3.14355e+00,5.89763e-01,3.30535e+00
0.00000e+00,3.26000e+01,-5.89537e+01,-3.00959e+00,5.74034e-01,3.16957e+00
0.00000e+00,3.13892e+01,-6.22289e+01,-2.86436e+00,5.58455e-01,3.02327e+00
0.00000e+00,3.00018e+01,-6.55041e+01,-2.68777e+00,5.43065e-01,2.84761e+00
0.00000e+00,2.84730e+01,-6.87793e+01,-2.48603e+00,5.27994e-01,2.64890e+00
0.00000e+00,2.68002e+01,-7.20546e+01,-2.25871e+00,5.13266e-01,2.42737e+00
0.00000e+00,2.48857e+01,-7.53298e+01,-1.98845e+00,4.98937e-01,2.16812e+00
0.00000e+00,2.26913e+01,-7.86050e+01,-1.66844e+00,4.85180e-01,1.86813e+00
0.00000e+00,2.01805e+01,-8.18802e+01,-1.29221e+00,4.72161e-01,1.52925e+00
0.00000e+00,1.72108e+01,-8.51554e+01,-8.34426e-01,4.59987e-01,1.15370e+00
0.00000e+00,1.33989e+01,-8.84306e+01,-2.26996e-01,4.49254e-01,8.10565e-01
0.00000e+00,8.24350e+00,-9.17058e+01,6.19185e-01,4.42698e-01,9.85563e-01
0.00000e+00,-3.34020e+00,-9.49810e+01,2.60767e+00,4.45298e-01,2.71934e+00
0.00000e+00,-4.17620e+00,-9.49886e+01,2.75607e+00,4.53368e-01,2.86575e+00
0.00000e+00,-1.17928e+01,-9.15961e+01,4.18197e+00,4.68673e-01,4.26003e+00
0.00000e+00,-1.27149e+01,-8.82037e+01,4.41829e+00,4.79980e-01,4.49582e+00
0.00000e+00,-1.30332e+01,-8.48113e+01,4.54728e+00,4.91878e-01,4.62640e+00
0.00000e+00,-1.30814e+01,-8.14188e+01,4.62830e+00,5.04328e-01,4.71001e+00
0.00000e+00,-1.29264e+01,-7.80264e+01,4.67318e+00,5.17231e-01,4.75828e+00
0.00000e+00,-1.26437e+01,-7.46339e+01,4.69539e+00,5.30511e-01,4.78446e+00
0.00000e+00,-1.22328e+01,-7.12415e+01,4.69482e+00,5.44093e-01,4.78847e+00
0.00000e+00,-1.17438e+01,-6.78490e+01,4.68037e+00,5.57909e-01,4.77908e+00
0.00000e+00,-1.12094e+01,-6.44565e+01,4.65785e+00,5.71925e-01,4.76203e+00
0.00000e+00,-1.06068e+01,-6.10641e+01,4.62320e+00,5.86100e-01,4.73334e+00
0.00000e+00,-9.96142e+00,-5.76716e+01,4.58097e+00,6.00396e-01,4.69752e+00
0.00000e+00,-9.27449e+00,-5.42792e+01,4.53134e+00,6.14787e-01,4.65478e+00
0.00000e+00,-8.54615e+00,-5.08867e+01,4.47436e+00,6.29239e-01,4.60518e+00
0.00000e+00,-7.79185e+00,-4.74943e+01,4.41276e+00,6.43730e-01,4.55144e+00
0.00000e+00,-7.00429e+00,-4.41018e+01,4.34525e+00,6.58237e-01,4.49233e+00
0.00000e+00,-6.19544e+00,-4.07094e+01,4.27396e+00,6.72739e-01,4.42995e+00
0.00000e+00,-5.36748e+00,-3.73169e+01,4.19928e+00,6.87219e-01,4.36471e+00
0.00000e+00,-4.52248e+00,-3.39245e+01,4.12156e+00,7.01661e-01,4.29701e+00
0.00000e+00,-3.67026e+00,-3.05320e+01,4.04256e+00,7.16056e-01,4.22854e+00
0.00000e+00,-2.80686e+00,-2.71396e+01,3.96158e+00,7.30395e-01,4.15867e+00
0.00000e+00,-1.94159e+00,-2.37472e+01,3.88026e+00,7.44671e-01,4.08901e+00
0.00000e+00,-1.06964e+00,-2.03547e+01,3.79776e+00,7.58881e-01,4.01879e+00
0.00000e+00,-1.97780e-01,-1.69622e+01,3.71527e+00,7.73020e-01,3.94917e+00
0.00000e+00,6.70785e-01,-1.35698e+01,3.63337e+00,7.87088e-01,3.88071e+00
0.00000e+00,1.53935e+00,-1.01774e+01,3.55147e+00,8.01081e-01,3.81289e+00
0.00000e+00,2.38735e+00,-6.78490e+00,3.47322e+00,8.15007e-01,3.74913e+00
0.00000e+00,3.23151e+00,-3.39245e+00,3.39565e+00,8.28873e-01,3.68667e+00
1.07300e+02,4.26785e+01,0.00000e+00,-3.23917e+00,7.98283e-01,3.52193e+00
1.07300e+02,4.24636e+01,-3.24312e+00,-3.26725e+00,7.85841e-01,3.53943e+00
1.07300e+02,4.21777e+01,-6.48624e+00,-3.28391e+00,7.73095e-01,3.54642e+00
1.07300e+02,4.18889e+01,-9.72936e+00,-3.30012e+00,7.60060e-01,3.55301e+00
1.07300e+02,4.15374e+01,-1.29725e+01,-3.30625e+00,7.46760e-01,3.55025e+00
1.07300e+02,4.11714e+01,-1.62156e+01,-3.31004e+00,7.33214e-01,3.54530e+00
1.07300e+02,4.07572e+01,-1.94587e+01,-3.30609e+00,7.19441e-01,3.53313e+00
1.07300e+02,4.03197e+01,-2.27018e+01,-3.29839e+00,7.05461e-01,3.51745e+00
1.07300e+02,3.98436e+01,-2.59450e+01,-3.28448e+00,6.91293e-01,3.49592e+00
1.07300e+02,3.93357e+01,-2.91881e+01,-3.26545e+00,6.76956e-01,3.46958e+00
1.07300e+02,3.87928e+01,-3.24312e+01,-3.24081e+00,6.62468e-01,3.43794e+00
1.07300e+02,3.82077e+01,-3.56743e+01,-3.20937e+00,6.47848e-01,3.39988e+00
1.07300e+02,3.75793e+01,-3.89174e+01,-3.17098e+00,6.33115e-01,3.35523e+00
1.07300e+02,3.68895e+01,-4.21606e+01,-3.12272e+00,6.18294e-01,3.30125e+00
1.07300e+02,3.61401e+01,-4.54037e+01,-3.06486e+00,6.03416e-01,3.23816e+00
1.07300e+02,3.53192e+01,-4.86468e+01,-2.99552e+00,5.88501e-01,3.16420e+00
1.07300e+02,3.44016e+01,-5.18899e+01,-2.91064e+00,5.73602e-01,3.07553e+00
1.07300e+02,3.34168e+01,-5.51330e+01,-2.81494e+00,5.58729e-01,2.97664e+00
1.07300e+02,3.22806e+01,-5.83762e+01,-2.69490e+00,5.43963e-01,2.85485e+00
1.07300e+02,3.10816e+01,-6.16193e+01,-2.56477e+00,5.29338e-01,2.72372e+00
1.07300e+02,2.97079e+01,-6.48624e+01,-2.40654e+00,5.14891e-01,2.56647e+00
1.07300e+02,2.81940e+01,-6.81055e+01,-2.22578e+00,5.00743e-01,2.38880e+00
1.07300e+02,2.65376e+01,-7.13486e+01,-2.02211e+00,4.86917e-01,2.19093e+00
1.07300e+02,2.46419e+01,-7.45918e+01,-1.77996e+00,4.73466e-01,1.95979e+00
1.07300e+02,2.24690e+01,-7.78349e+01,-1.49324e+00,4.60552e-01,1.69295e+00
1.07300e+02,1.99828e+01,-8.10780e+01,-1.15615e+00,4.48329e-01,1.39273e+00
1.07300e+02,1.70422e+01,-8.43211e+01,-7.46005e-01,4.36901e-01,1.06263e+00
1.07300e+02,1.32676e+01,-8.75642e+01,-2.01787e-01,4.26827e-01,7.66329e-01
1.07300e+02,8.16273e+00,-9.08074e+01,5.56328e-01,4.20672e-01,9.16731e-01
1.07300e+02,-3.30748e+00,-9.40505e+01,2.33784e+00,4.23113e-01,2.45001e+00
1.07300e+02,-4.13529e+00,-9.40580e+01,2.47079e+00,4.30690e-01,2.58094e+00
1.07300e+02,-1.16772e+01,-9.06988e+01,3.74824e+00,4.45058e-01,3.82668e+00
1.07300e+02,-1.25904e+01,-8.73396e+01,3.95993e+00,4.55672e-01,4.03781e+00
1.07300e+02,-1.29055e+01,-8.39804e+01,4.07547e+00,4.66842e-01,4.15491e+00
1.07300e+02,-1.29533e+01,-8.06211e+01,4.14804e+00,4.78528e-01,4.23003e+00
1.07300e+02,-1.27997e+01,-7.72619e+01,4.18823e+00,4.90641e-01,4.27358e+00
1.07300e+02,-1.25198e+01,-7.39027e+01,4.20810e+00,5.03109e-01,4.29738e+00
1.07300e+02,-1.21130e+01,-7.05435e+01,4.20757e+00,5.15859e-01,4.30140e+00
1.07300e+02,-1.16287e+01,-6.71843e+01,4.19460e+00,5.28829e-01,4.29344e+00
1.07300e+02,-1.10996e+01,-6.38251e+01,4.17441e+00,5.41986e-01,4.27866e+00
1.07300e+02,-1.05029e+01,-6.04659e+01,4.14334e+00,5.55293e-01,4.25351e+00
1.07300e+02,-9.86382e+00,-5.71066e+01,4.10548e+00,5.68714e-01,4.22200e+00
1.07300e+02,-9.18363e+00,-5.37474e+01,4.06100e+00,5.82223e-01,4.18434e+00
1.07300e+02,-8.46243e+00,-5.03882e+01,4.00993e+00,5.95790e-01,4.14058e+00
1.07300e+02,-7.71552e+00,-4.70290e+01,3.95472e+00,6.09393e-01,4.09316e+00
1.07300e+02,-6.93567e+00,-4.36698e+01,3.89422e+00,6.23012e-01,4.04097e+00
1.07300e+02,-6.13474e+00,-4.03106e+01,3.83033e+00,6.36625e-01,3.98589e+00
1.07300e+02,-5.31490e+00,-3.69514e+01,3.76340e+00,6.50218e-01,3.92830e+00
1.07300e+02,-4.47818e+00,-3.35921e+01,3.69375e+00,6.63776e-01,3.86854e+00
1.07300e+02,-3.63431e+00,-3.02329e+01,3.62296e+00,6.77289e-01,3.80815e+00
1.07300e+02,-2.77936e+00,-2.68737e+01,3.55038e+00,6.90749e-01,3.74655e+00
1.07300e+02,-1.92257e+00,-2.35145e+01,3.47751e+00,7.04151e-01,3.68518e+00
1.07300e+02,-1.05916e+00,-2.01553e+01,3.40357e+00,7.17490e-01,3.62335e+00
1.07300e+02,-1.95842e-01,-1.67961e+01,3.32965e+00,7.30762e-01,3.56211e+00
1.07300e+02,6.64213e-01,-1.34369e+01,3.25625e+00,7.43969e-01,3.50195e+00
1.07300e+02,1.52427e+00,-1.00776e+01,3.18286e+00,7.57105e-01,3.44241e+00
1.07300e+02,2.36396e+00,-6.71843e+00,3.11273e+00,7.70177e-01,3.38654e+00
1.07300e+02,3.19985e+00,-3.35921e+00,3.04322e+00,7.83193e-01,3.33187e+00
2.14300e+02,4.22575e+01,0.00000e+00,-2.88103e+00,7.51767e-01,3.16161e+00
2.14300e+02,4.20447e+01,-3.21112e+00,-2.90604e+00,7.40123e-01,3.17623e+00
2.14300e+02,4.17615e+01,-6.42224e+00,-2.92090e+00,7.28196e-01,3.18158e+00
2.14300e+02,4.14756e+01,-9.63337e+00,-2.93535e+00,7.15998e-01,3.18657e+00
2.14300e+02,4.11276e+01,-1.28445e+01,-2.94083e+00,7.03552e-01,3.18330e+00
2.14300e+02,4.07652e+01,-1.60556e+01,-2.94423e+00,6.90874e-01,3.17811e+00
2.14300e+02,4.03551e+01,-1.92667e+01,-2.94074e+00,6.77986e-01,3.16654e+00
2.14300e+02,3.99219e+01,-2.24779e+01,-2.93392e+00,6.64904e-01,3.15185e+00
2.14300e+02,3.94505e+01,-2.56890e+01,-2.92156e+00,6.51645e-01,3.13201e+00
2.14300e+02,3.89476e+01,-2.89001e+01,-2.90466e+00,6.38229e-01,3.10791e+00
2.14300e+02,3.84101e+01,-3.21112e+01,-2.88277e+00,6.24670e-01,3.07912e+00
2.14300e+02,3.78307e+01,-3.53223e+01,-2.85483e+00,6.10989e-01,3.04466e+00
2.14300e+02,3.72085e+01,-3.85335e+01,-2.82069e+00,5.97202e-01,3.00437e+00
2.14300e+02,3.65256e+01,-4.17446e+01,-2.77778e+00,5.83333e-01,2.95582e+00
2.14300e+02,3.57835e+01,-4.49557e+01,-2.72633e+00,5.69410e-01,2.89923e+00
2.14300e+02,3.49707e+01,-4.81668e+01,-2.66466e+00,5.55452e-01,2.83302e+00
2.14300e+02,3.40622e+01,-5.13780e+01,-2.58916e+00,5.41510e-01,2.75381e+00
2.14300e+02,3.30871e+01,-5.45891e+01,-2.50404e+00,5.27593e-01,2.66557e+00
2.14300e+02,3.19621e+01,-5.78002e+01,-2.39726e+00,5.13775e-01,2.55710e+00
2.14300e+02,3.07750e+01,-6.10113e+01,-2.28151e+00,5.00089e-01,2.44040e+00
2.14300e+02,2.94148e+01,-6.42224e+01,-2.14075e+00,4.86569e-01,2.30067e+00
2.14300e+02,2.79159e+01,-6.74336e+01,-1.97995e+00,4.73330e-01,2.14297e+00
2.14300e+02,2.62758e+01,-7.06447e+01,-1.79876e+00,4.60392e-01,1.96759e+00
2.14300e+02,2.43988e+01,-7.38558e+01,-1.58333e+00,4.47805e-01,1.76310e+00
2.14300e+02,2.22473e+01,-7.70669e+01,-1.32825e+00,4.35720e-01,1.52768e+00
2.14300e+02,1.97856e+01,-8.02781e+01,-1.02836e+00,4.24282e-01,1.26395e+00
2.14300e+02,1.68740e+01,-8.34892e+01,-6.63455e-01,4.13588e-01,9.76390e-01
2.14300e+02,1.31367e+01,-8.67003e+01,-1.79263e-01,4.04161e-01,7.22615e-01
2.14300e+02,8.08220e+00,-8.99114e+01,4.95244e-01,3.98402e-01,8.49376e-01
2.14300e+02,-3.27484e+00,-9.31226e+01,2.08032e+00,4.00686e-01,2.19303e+00
2.14300e+02,-4.09449e+00,-9.31300e+01,2.19861e+00,4.07777e-01,2.30927e+00
2.14300e+02,-1.15620e+01,-8.98039e+01,3.33525e+00,4.21222e-01,3.41412e+00
2.14300e+02,-1.24661e+01,-8.64779e+01,3.52364e+00,4.31155e-01,3.60190e+00
2.14300e+02,-1.27781e+01,-8.31518e+01,3.62647e+00,4.41608e-01,3.70626e+00
2.14300e+02,-1.28255e+01,-7.98257e+01,3.69107e+00,4.52544e-01,3.77338e+00
2.14300e+02,-1.26734e+01,-7.64996e+01,3.72685e+00,4.63879e-01,3.81248e+00
2.14300e+02,-1.23963e+01,-7.31736e+01,3.74457e+00,4.75546e-01,3.83408e+00
2.14300e+02,-1.19935e+01,-6.98475e+01,3.74412e+00,4.87478e-01,3.83815e+00
2.14300e+02,-1.15140e+01,-6.65214e+01,3.73261e+00,4.99615e-01,3.83161e+00
2.14300e+02,-1.09901e+01,-6.31954e+01,3.71467e+00,5.11927e-01,3.81903e+00
2.14300e+02,-1.03992e+01,-5.98693e+01,3.68706e+00,5.24379e-01,3.79728e+00
2.14300e+02,-9.76651e+00,-5.65432e+01,3.65340e+00,5.36938e-01,3.76992e+00
2.14300e+02,-9.09302e+00,-5.32171e+01,3.61386e+00,5.49580e-01,3.73712e+00
2.14300e+02,-8.37893e+00,-4.98911e+01,3.56844e+00,5.62275e-01,3.69895e+00
2.14300e+02,-7.63939e+00,-4.65650e+01,3.51935e+00,5.75005e-01,3.65756e+00
2.14300e+02,-6.86724e+00,-4.32389e+01,3.46555e+00,5.87749e-01,3.61198e+00
2.14300e+02,-6.07421e+00,-3.99129e+01,3.40873e+00,6.00488e-01,3.56388e+00
2.14300e+02,-5.26246e+00,-3.65868e+01,3.34921e+00,6.13209e-01,3.51358e+00
2.14300e+02,-4.43399e+00,-3.32607e+01,3.28727e+00,6.25895e-01,3.46141e+00
2.14300e+02,-3.59845e+00,-2.99346e+01,3.22431e+00,6.38540e-01,3.40872e+00
2.14300e+02,-2.75194e+00,-2.66086e+01,3.15976e+00,6.51136e-01,3.35500e+00
2.14300e+02,-1.90360e+00,-2.32825e+01,3.09495e+00,6.63677e-01,3.30154e+00
2.14300e+02,-1.04871e+00,-1.99564e+01,3.02920e+00,6.76159e-01,3.24771e+00
2.14300e+02,-1.93910e-01,-1.66304e+01,2.96345e+00,6.88579e-01,3.19445e+00
2.14300e+02,6.57660e-01,-1.33043e+01,2.89818e+00,7.00937e-01,3.14219e+00
2.14300e+02,1.50923e+00,-9.97821e+00,2.83290e+00,7.13229e-01,3.09054e+00
2.14300e+02,2.34063e+00,-6.65214e+00,2.77054e+00,7.25462e-01,3.04216e+00
2.14300e+02,3.16828e+00,-3.32607e+00,2.70872e+00,7.37642e-01,2.99491e+00
3.20700e+02,4.18388e+01,0.00000e+00,-2.54359e+00,7.04922e-01,2.82145e+00
3.20700e+02,4.16280e+01,-3.17930e+00,-2.56575e+00,6.94081e-01,2.83343e+00
3.20700e+02,4.13477e+01,-6.35861e+00,-2.57893e+00,6.82975e-01,2.83730e+00
3.20700e+02,4.10646e+01,-9.53791e+00,-2.59175e+00,6.71617e-01,2.84085e+00
3.20700e+02,4.07201e+01,-1.27172e+01,-2.59666e+00,6.60029e-01,2.83717e+00
3.20700e+02,4.03613e+01,-1.58965e+01,-2.59972e+00,6.48225e-01,2.83181e+00
3.20700e+02,3.99553e+01,-1.90758e+01,-2.59671e+00,6.36225e-01,2.82086e+00
3.20700e+02,3.95264e+01,-2.22551e+01,-2.59075e+00,6.24044e-01,2.80718e+00
3.20700e+02,3.90596e+01,-2.54344e+01,-2.57990e+00,6.11699e-01,2.78898e+00
3.20700e+02,3.85617e+01,-2.86137e+01,-2.56503e+00,5.99207e-01,2.76705e+00
3.20700e+02,3.80295e+01,-3.17930e+01,-2.54576e+00,5.86583e-01,2.74101e+00
3.20700e+02,3.74559e+01,-3.49724e+01,-2.52114e+00,5.73845e-01,2.70999e+00
3.20700e+02,3.68398e+01,-3.81517e+01,-2.49105e+00,5.61008e-01,2.67386e+00
3.20700e+02,3.61637e+01,-4.13310e+01,-2.45322e+00,5.48095e-01,2.63049e+00
3.20700e+02,3.54289e+01,-4.45103e+01,-2.40784e+00,5.35131e-01,2.58007e+00
3.20700e+02,3.46242e+01,-4.76896e+01,-2.35343e+00,5.22136e-01,2.52122e+00
3.20700e+02,3.37247e+01,-5.08689e+01,-2.28681e+00,5.09154e-01,2.45096e+00
3.20700e+02,3.27593e+01,-5.40482e+01,-2.21170e+00,4.96196e-01,2.37281e+00
3.20700e+02,3.16454e+01,-5.72275e+01,-2.11745e+00,4.83331e-01,2.27693e+00
3.20700e+02,3.04701e+01,-6.04068e+01,-2.01528e+00,4.70588e-01,2.17387e+00
3.20700e+02,2.91233e+01,-6.35861e+01,-1.89102e+00,4.58000e-01,2.05067e+00
3.20700e+02,2.76393e+01,-6.67654e+01,-1.74906e+00,4.45673e-01,1.91183e+00
3.20700e+02,2.60154e+01,-6.99447e+01,-1.58909e+00,4.33627e-01,1.75764e+00
3.20700e+02,2.41570e+01,-7.31240e+01,-1.39888e+00,4.21908e-01,1.57825e+00
3.20700e+02,2.20269e+01,-7.63033e+01,-1.17365e+00,4.10656e-01,1.37236e+00
3.20700e+02,1.95896e+01,-7.94826e+01,-9.08837e-01,4.00007e-01,1.14280e+00
3.20700e+02,1.67068e+01,-8.26619e+01,-5.86610e-01,3.90050e-01,8.94722e-01
3.20700e+02,1.30066e+01,-8.58412e+01,-1.59023e-01,3.81272e-01,6.79260e-01
3.20700e+02,8.00212e+00,-8.90205e+01,4.36656e-01,3.75911e-01,7.83962e-01
3.20700e+02,-3.24239e+00,-9.21998e+01,1.83657e+00,3.78038e-01,1.94980e+00
3.20700e+02,-4.05392e+00,-9.22072e+01,1.94105e+00,3.84640e-01,2.05220e+00
3.20700e+02,-1.14474e+01,-8.89141e+01,2.94502e+00,3.97159e-01,3.02430e+00
3.20700e+02,-1.23426e+01,-8.56210e+01,3.11147e+00,4.06408e-01,3.19011e+00
3.20700e+02,-1.26515e+01,-8.23279e+01,3.20236e+00,4.16140e-01,3.28248e+00
3.20700e+02,-1.26984e+01,-7.90348e+01,3.25948e+00,4.26323e-01,3.34208e+00
3.20700e+02,-1.25479e+01,-7.57416e+01,3.29116e+00,4.36877e-01,3.37702e+00
3.20700e+02,-1.22734e+01,-7.24485e+01,3.30686e+00,4.47739e-01,3.39658e+00
3.20700e+02,-1.18746e+01,-6.91554e+01,3.30654e+00,4.58848e-01,3.40071e+00
3.20700e+02,-1.13999e+01,-6.58623e+01,3.29644e+00,4.70149e-01,3.39553e+00
3.20700e+02,-1.08812e+01,-6.25692e+01,3.28066e+00,4.81612e-01,3.38505e+00
3.20700e+02,-1.02962e+01,-5.92761e+01,3.25634e+00,4.93206e-01,3.36652e+00
3.20700e+02,-9.66973e+00,-5.59829e+01,3.22667e+00,5.04900e-01,3.34308e+00
3.20700e+02,-9.00292e+00,-5.26898e+01,3.19181e+00,5.16670e-01,3.31489e+00
3.20700e+02,-8.29591e+00,-4.93967e+01,3.15176e+00,5.28490e-01,3.28200e+00
3.20700e+02,-7.56370e+00,-4.61036e+01,3.10847e+00,5.40343e-01,3.24631e+00
3.20700e+02,-6.79920e+00,-4.28105e+01,3.06102e+00,5.52208e-01,3.20697e+00
3.20700e+02,-6.01403e+00,-3.95174e+01,3.01090e+00,5.64069e-01,3.16544e+00
3.20700e+02,-5.21032e+00,-3.62243e+01,2.95839e+00,5.75912e-01,3.12203e+00
3.20700e+02,-4.39006e+00,-3.29311e+01,2.90375e+00,5.87725e-01,3.07702e+00
3.20700e+02,-3.56279e+00,-2.96380e+01,2.84821e+00,5.99498e-01,3.03158e+00
3.20700e+02,-2.72467e+00,-2.63449e+01,2.79126e+00,6.11225e-01,2.98529e+00
3.20700e+02,-1.88474e+00,-2.30518e+01,2.73409e+00,6.22901e-01,2.93926e+00
3.20700e+02,-1.03832e+00,-1.97587e+01,2.67607e+00,6.34523e-01,2.89296e+00
3.20700e+02,-1.91989e-01,-1.64656e+01,2.61807e+00,6.46087e-01,2.84721e+00
3.20700e+02,6.51143e-01,-1.31725e+01,2.56048e+00,6.57593e-01,2.80239e+00
3.20700e+02,1.49428e+00,-9.87934e+00,2.50290e+00,6.69037e-01,2.75814e+00
3.20700e+02,2.31744e+00,-6.58623e+00,2.44788e+00,6.80426e-01,2.71681e+00
3.20700e+02,3.13689e+00,-3.29311e+00,2.39334e+00,6.91766e-01,2.67651e+00
4.26200e+02,4.14236e+01,0.00000e+00,-2.22809e+00,6.58048e-01,2.50269e+00
4.26200e+02,4.12150e+01,-3.14776e+00,-2.24759e+00,6.47999e-01,2.51225e+00
4.26200e+02,4.09374e+01,-6.29551e+00,-2.25923e+00,6.37704e-01,2.51478e+00
4.26200e+02,4.06571e+01,-9.44327e+00,-2.27056e+00,6.27176e-01,2.51704e+00
4.26200e+02,4.03160e+01,-1.25910e+01,-2.27494e+00,6.16434e-01,2.51303e+00
4.26200e+02,3.99607e+01,-1.57388e+01,-2.27771e+00,6.05493e-01,2.50756e+00
4.26200e+02,3.95588e+01,-1.88865e+01,-2.27516e+00,5.94369e-01,2.49723e+00
4.26200e+02,3.91341e+01,-2.20343e+01,-2.27001e+00,5.83079e-01,2.48453e+00
4.26200e+02,3.86720e+01,-2.51820e+01,-2.26059e+00,5.71636e-01,2.46791e+00
4.26200e+02,3.81790e+01,-2.83298e+01,-2.24765e+00,5.60056e-01,2.44805e+00
4.26200e+02,3.76521e+01,-3.14776e+01,-2.23085e+00,5.48355e-01,2.42462e+00
4.26200e+02,3.70842e+01,-3.46253e+01,-2.20936e+00,5.36547e-01,2.39686e+00
4.26200e+02,3.64743e+01,-3.77731e+01,-2.18308e+00,5.24648e-01,2.36466e+00
4.26200e+02,3.58048e+01,-4.09208e+01,-2.15001e+00,5.12678e-01,2.32617e+00
4.26200e+02,3.50774e+01,-4.40686e+01,-2.11032e+00,5.00662e-01,2.28155e+00
4.26200e+02,3.42806e+01,-4.72163e+01,-2.06274e+00,4.88616e-01,2.22960e+00
4.26200e+02,3.33901e+01,-5.03641e+01,-2.00444e+00,4.76583e-01,2.16776e+00
4.26200e+02,3.24342e+01,-5.35118e+01,-1.93870e+00,4.64572e-01,2.09905e+00
4.26200e+02,3.13314e+01,-5.66596e+01,-1.85619e+00,4.52647e-01,2.01497e+00
4.26200e+02,3.01677e+01,-5.98074e+01,-1.76674e+00,4.40835e-01,1.92468e+00
4.26200e+02,2.88343e+01,-6.29551e+01,-1.65793e+00,4.29168e-01,1.81695e+00
4.26200e+02,2.73650e+01,-6.61029e+01,-1.53362e+00,4.17741e-01,1.69573e+00
4.26200e+02,2.57573e+01,-6.92506e+01,-1.39351e+00,4.06576e-01,1.56134e+00
4.26200e+02,2.39173e+01,-7.23984e+01,-1.22691e+00,3.95712e-01,1.40538e+00
4.26200e+02,2.18083e+01,-7.55461e+01,-1.02962e+00,3.85283e-01,1.22697e+00
4.26200e+02,1.93952e+01,-7.86939e+01,-7.97643e-01,3.75412e-01,1.02910e+00
4.26200e+02,1.65410e+01,-8.18417e+01,-5.15349e-01,3.66183e-01,8.17224e-01
4.26200e+02,1.28775e+01,-8.49894e+01,-1.40725e-01,3.58047e-01,6.35922e-01
4.26200e+02,7.92271e+00,-8.81372e+01,3.81203e-01,3.53078e-01,7.20631e-01
4.26200e+02,-3.21022e+00,-9.12849e+01,1.60791e+00,3.55050e-01,1.72150e+00
4.26200e+02,-4.01369e+00,-9.12922e+01,1.69947e+00,3.61170e-01,1.81095e+00
4.26200e+02,-1.13339e+01,-8.80318e+01,2.57938e+00,3.72774e-01,2.65896e+00
4.26200e+02,-1.22201e+01,-8.47713e+01,2.72533e+00,3.81347e-01,2.80423e+00
4.26200e+02,-1.25260e+01,-8.15109e+01,2.80507e+00,3.90368e-01,2.88541e+00
4.26200e+02,-1.25724e+01,-7.82505e+01,2.85522e+00,3.99807e-01,2.93799e+00
4.26200e+02,-1.24233e+01,-7.49900e+01,2.88306e+00,4.09589e-01,2.96906e+00
4.26200e+02,-1.21516e+01,-7.17296e+01,2.89692e+00,4.19659e-01,2.98671e+00
4.26200e+02,-1.17568e+01,-6.84692e+01,2.89672e+00,4.29956e-01,2.99092e+00
4.26200e+02,-1.12868e+01,-6.52087e+01,2.88795e+00,4.40431e-01,2.98701e+00
4.26200e+02,-1.07732e+01,-6.19483e+01,2.87422e+00,4.51056e-01,2.97850e+00
4.26200e+02,-1.01940e+01,-5.86879e+01,2.85299e+00,4.61803e-01,2.96300e+00
4.26200e+02,-9.57378e+00,-5.54274e+01,2.82709e+00,4.72642e-01,2.94323e+00
4.26200e+02,-8.91358e+00,-5.21670e+01,2.79662e+00,4.83552e-01,2.91934e+00
4.26200e+02,-8.21359e+00,-4.89065e+01,2.76162e+00,4.94508e-01,2.89139e+00
4.26200e+02,-7.48864e+00,-4.56461e+01,2.72377e+00,5.05495e-01,2.86103e+00
4.26200e+02,-6.73173e+00,-4.23857e+01,2.68227e+00,5.16493e-01,2.82752e+00
4.26200e+02,-5.95435e+00,-3.91252e+01,2.63844e+00,5.27487e-01,2.79215e+00
4.26200e+02,-5.15861e+00,-3.58648e+01,2.59251e+00,5.38464e-01,2.75517e+00
4.26200e+02,-4.34650e+00,-3.26044e+01,2.54472e+00,5.49413e-01,2.71683e+00
4.26200e+02,-3.52744e+00,-2.93439e+01,2.49613e+00,5.60326e-01,2.67817e+00
4.26200e+02,-2.69763e+00,-2.60835e+01,2.44632e+00,5.71196e-01,2.63880e+00
4.26200e+02,-1.86603e+00,-2.28231e+01,2.39630e+00,5.82019e-01,2.59971e+00
4.26200e+02,-1.02802e+00,-1.95626e+01,2.34555e+00,5.92791e-01,2.56044e+00
4.26200e+02,-1.90083e-01,-1.63022e+01,2.29481e+00,6.03509e-01,2.52168e+00
4.26200e+02,6.44682e-01,-1.30417e+01,2.24444e+00,6.14174e-01,2.48377e+00
4.26200e+02,1.47945e+00,-9.78131e+00,2.19406e+00,6.24782e-01,2.44642e+00
4.26200e+02,2.29445e+00,-6.52087e+00,2.14594e+00,6.35339e-01,2.41164e+00
4.26200e+02,3.10576e+00,-3.26044e+00,2.09823e+00,6.45850e-01,2.37780e+00
5.30600e+02,4.10127e+01,0.00000e+00,-1.93506e+00,6.11188e-01,2.20570e+00
5.30600e+02,4.08062e+01,-3.11654e+00,-1.95211e+00,6.01918e-01,2.21306e+00
5.30600e+02,4.05314e+01,-6.23307e+00,-1.96232e+00,5.92422e-01,2.21441e+00
5.30600e+02,4.02539e+01,-9.34961e+00,-1.97226e+00,5.82711e-01,2.21551e+00
5.30600e+02,3.99161e+01,-1.24661e+01,-1.97617e+00,5.72802e-01,2.21123e+00
5.30600e+02,3.95644e+01,-1.55827e+01,-1.97868e+00,5.62710e-01,2.20570e+00
5.30600e+02,3.91664e+01,-1.86992e+01,-1.97656e+00,5.52449e-01,2.19599e+00
5.30600e+02,3.87460e+01,-2.18158e+01,-1.97219e+00,5.42035e-01,2.18425e+00
5.30600e+02,3.82884e+01,-2.49323e+01,-1.96410e+00,5.31479e-01,2.16913e+00
5.30600e+02,3.78003e+01,-2.80488e+01,-1.95296e+00,5.20799e-01,2.15122e+00
5.30600e+02,3.72787e+01,-3.11654e+01,-1.93846e+00,5.10005e-01,2.13024e+00
5.30600e+02,3.67164e+01,-3.42819e+01,-1.91989e+00,4.99114e-01,2.10554e+00
5.30600e+02,3.61125e+01,-3.73984e+01,-1.89715e+00,4.88138e-01,2.07702e+00
5.30600e+02,3.54497e+01,-4.05150e+01,-1.86852e+00,4.77097e-01,2.04309e+00
5.30600e+02,3.47295e+01,-4.36315e+01,-1.83414e+00,4.66014e-01,2.00389e+00
5.30600e+02,3.39406e+01,-4.67480e+01,-1.79289e+00,4.54902e-01,1.95838e+00
5.30600e+02,3.30589e+01,-4.98646e+01,-1.74234e+00,4.43803e-01,1.90437e+00
5.30600e+02,3.21125e+01,-5.29811e+01,-1.68532e+00,4.32724e-01,1.84446e+00
5.30600e+02,3.10206e+01,-5.60976e+01,-1.61373e+00,4.21724e-01,1.77135e+00
5.30600e+02,2.98685e+01,-5.92142e+01,-1.53611e+00,4.10829e-01,1.69292e+00
5.30600e+02,2.85484e+01,-6.23307e+01,-1.44167e+00,4.00067e-01,1.59955e+00
5.30600e+02,2.70936e+01,-6.54473e+01,-1.33375e+00,3.89528e-01,1.49468e+00
5.30600e+02,2.55018e+01,-6.85638e+01,-1.21211e+00,3.79229e-01,1.37865e+00
5.30600e+02,2.36801e+01,-7.16803e+01,-1.06746e+00,3.69209e-01,1.24435e+00
5.30600e+02,2.15920e+01,-7.47969e+01,-8.96139e-01,3.59588e-01,1.09132e+00
5.30600e+02,1.92028e+01,-7.79134e+01,-6.94676e-01,3.50484e-01,9.22547e-01
5.30600e+02,1.63770e+01,-8.10299e+01,-4.49497e-01,3.41972e-01,7.43560e-01
5.30600e+02,1.27498e+01,-8.41465e+01,-1.24094e-01,3.34467e-01,5.92456e-01
5.30600e+02,7.84413e+00,-8.72630e+01,3.29300e-01,3.29884e-01,6.59476e-01
5.30600e+02,-3.17838e+00,-9.03795e+01,1.39506e+00,3.31703e-01,1.50873e+00
5.30600e+02,-3.97388e+00,-9.03868e+01,1.47461e+00,3.37348e-01,1.58616e+00
5.30600e+02,-1.12214e+01,-8.71587e+01,2.23925e+00,3.48052e-01,2.31898e+00
5.30600e+02,-1.20989e+01,-8.39306e+01,2.36617e+00,3.55960e-01,2.44518e+00
5.30600e+02,-1.24018e+01,-8.07025e+01,2.43556e+00,3.64281e-01,2.51596e+00
5.30600e+02,-1.24477e+01,-7.74744e+01,2.47923e+00,3.72987e-01,2.56202e+00
5.30600e+02,-1.23001e+01,-7.42463e+01,2.50353e+00,3.82011e-01,2.58949e+00
5.30600e+02,-1.20311e+01,-7.10182e+01,2.51567e+00,3.91298e-01,2.60537e+00
5.30600e+02,-1.16402e+01,-6.77901e+01,2.51561e+00,4.00796e-01,2.60963e+00
5.30600e+02,-1.11748e+01,-6.45620e+01,2.50809e+00,4.10458e-01,2.60691e+00
5.30600e+02,-1.06664e+01,-6.13339e+01,2.49626e+00,4.20259e-01,2.60023e+00
5.30600e+02,-1.00929e+01,-5.81058e+01,2.47792e+00,4.30172e-01,2.58752e+00
5.30600e+02,-9.47882e+00,-5.48777e+01,2.45552e+00,4.40170e-01,2.57115e+00
5.30600e+02,-8.82518e+00,-5.16496e+01,2.42915e+00,4.50233e-01,2.55126e+00
5.30600e+02,-8.13212e+00,-4.84215e+01,2.39884e+00,4.60339e-01,2.52788e+00
5.30600e+02,-7.41437e+00,-4.51934e+01,2.36606e+00,4.70472e-01,2.50245e+00
5.30600e+02,-6.66496e+00,-4.19653e+01,2.33010e+00,4.80617e-01,2.47434e+00
5.30600e+02,-5.89529e+00,-3.87372e+01,2.29212e+00,4.90758e-01,2.44466e+00
5.30600e+02,-5.10745e+00,-3.55091e+01,2.25232e+00,5.00883e-01,2.41363e+00
5.30600e+02,-4.30339e+00,-3.22810e+01,2.21090e+00,5.10982e-01,2.38147e+00
5.30600e+02,-3.49245e+00,-2.90529e+01,2.16879e+00,5.21048e-01,2.34907e+00
5.30600e+02,-2.67088e+00,-2.58248e+01,2.12561e+00,5.31074e-01,2.31610e+00
5.30600e+02,-1.84753e+00,-2.25967e+01,2.08225e+00,5.41057e-01,2.28342e+00
5.30600e+02,-1.01782e+00,-1.93686e+01,2.03826e+00,5.50993e-01,2.25062e+00
5.30600e+02,-1.88198e-01,-1.61405e+01,1.99428e+00,5.60879e-01,2.21831e+00
5.30600e+02,6.38288e-01,-1.29124e+01,1.95061e+00,5.70716e-01,2.18679e+00
5.30600e+02,1.46477e+00,-9.68430e+00,1.90694e+00,5.80500e-01,2.15578e+00
5.30600e+02,2.27169e+00,-6.45620e+00,1.86523e+00,5.90237e-01,2.12702e+00
5.30600e+02,3.07496e+00,-3.22810e+00,1.82389e+00,5.99932e-01,2.09912e+00
6.33500e+02,4.06078e+01,0.00000e+00,-1.66539e+00,5.64441e-01,1.93114e+00
6.33500e+02,4.04033e+01,-3.08576e+00,-1.68017e+00,5.55935e-01,1.93653e+00
6.33500e+02,4.01312e+01,-6.17153e+00,-1.68907e+00,5.47223e-01,1.93683e+00
6.33500e+02,3.98564e+01,-9.25729e+00,-1.69774e+00,5.38312e-01,1.93692e+00
6.33500e+02,3.95220e+01,-1.23431e+01,-1.70121e+00,5.29221e-01,1.93244e+00
6.33500e+02,3.91738e+01,-1.54288e+01,-1.70347e+00,5.19960e-01,1.92689e+00
6.33500e+02,3.87797e+01,-1.85146e+01,-1.70175e+00,5.10546e-01,1.91780e+00
6.33500e+02,3.83634e+01,-2.16004e+01,-1.69810e+00,5.00990e-01,1.90697e+00
6.33500e+02,3.79104e+01,-2.46861e+01,-1.69124e+00,4.91305e-01,1.89326e+00
6.33500e+02,3.74271e+01,-2.77719e+01,-1.68176e+00,4.81505e-01,1.87719e+00
6.33500e+02,3.69106e+01,-3.08576e+01,-1.66938e+00,4.71602e-01,1.85851e+00
6.33500e+02,3.63539e+01,-3.39434e+01,-1.65349e+00,4.61609e-01,1.83665e+00
6.33500e+02,3.57559e+01,-3.70292e+01,-1.63402e+00,4.51538e-01,1.81154e+00
6.33500e+02,3.50997e+01,-4.01149e+01,-1.60947e+00,4.41408e-01,1.78183e+00
6.33500e+02,3.43866e+01,-4.32007e+01,-1.57998e+00,4.31238e-01,1.74764e+00
6.33500e+02,3.36055e+01,-4.62865e+01,-1.54457e+00,4.21043e-01,1.70808e+00
6.33500e+02,3.27325e+01,-4.93722e+01,-1.50115e+00,4.10860e-01,1.66128e+00
6.33500e+02,3.17954e+01,-5.24580e+01,-1.45215e+00,4.00694e-01,1.60948e+00
6.33500e+02,3.07144e+01,-5.55438e+01,-1.39062e+00,3.90602e-01,1.54646e+00
6.33500e+02,2.95736e+01,-5.86295e+01,-1.32389e+00,3.80605e-01,1.47894e+00
6.33500e+02,2.82665e+01,-6.17153e+01,-1.24268e+00,3.70731e-01,1.39878e+00
6.33500e+02,2.68261e+01,-6.48011e+01,-1.14986e+00,3.61061e-01,1.30892e+00
6.33500e+02,2.52500e+01,-6.78868e+01,-1.04524e+00,3.51611e-01,1.20972e+00
6.33500e+02,2.34463e+01,-7.09726e+01,-9.20790e-01,3.42418e-01,1.09526e+00
6.33500e+02,2.13788e+01,-7.40584e+01,-7.73380e-01,3.33591e-01,9.65384e-01
6.33500e+02,1.90132e+01,-7.71441e+01,-6.00018e-01,3.25237e-01,8.23018e-01
6.33500e+02,1.62153e+01,-8.02299e+01,-3.89013e-01,3.17427e-01,6.73506e-01
6.33500e+02,1.26239e+01,-8.33156e+01,-1.08931e-01,3.10542e-01,5.48794e-01
6.33500e+02,7.76668e+00,-8.64014e+01,2.81356e-01,3.06337e-01,6.00573e-01
6.33500e+02,-3.14700e+00,-8.94872e+01,1.19892e+00,3.08006e-01,1.31226e+00
6.33500e+02,-3.93464e+00,-8.94943e+01,1.26742e+00,3.13186e-01,1.37863e+00
6.33500e+02,-1.11106e+01,-8.62981e+01,1.92592e+00,3.23007e-01,2.00554e+00
6.33500e+02,-1.19795e+01,-8.31019e+01,2.03532e+00,3.30263e-01,2.11418e+00
6.33500e+02,-1.22793e+01,-7.99057e+01,2.09517e+00,3.37897e-01,2.17538e+00
6.33500e+02,-1.23248e+01,-7.67094e+01,2.13289e+00,3.45886e-01,2.21543e+00
6.33500e+02,-1.21787e+01,-7.35132e+01,2.15392e+00,3.54165e-01,2.23957e+00
6.33500e+02,-1.19123e+01,-7.03170e+01,2.16448e+00,3.62687e-01,2.25380e+00
6.33500e+02,-1.15252e+01,-6.71208e+01,2.16454e+00,3.71402e-01,2.25811e+00
6.33500e+02,-1.10645e+01,-6.39245e+01,2.15818e+00,3.80267e-01,2.25645e+00
6.33500e+02,-1.05611e+01,-6.07283e+01,2.14810e+00,3.89259e-01,2.25142e+00
6.33500e+02,-9.99326e+00,-5.75321e+01,2.13242e+00,3.98355e-01,2.24127e+00
6.33500e+02,-9.38524e+00,-5.43358e+01,2.11324e+00,4.07527e-01,2.22801e+00
6.33500e+02,-8.73804e+00,-5.11396e+01,2.09065e+00,4.16761e-01,2.21176e+00
6.33500e+02,-8.05183e+00,-4.79434e+01,2.06466e+00,4.26033e-01,2.19256e+00
6.33500e+02,-7.34116e+00,-4.47472e+01,2.03654e+00,4.35331e-01,2.17164e+00
6.33500e+02,-6.59916e+00,-4.15509e+01,2.00570e+00,4.44639e-01,2.14847e+00
6.33500e+02,-5.83709e+00,-3.83547e+01,1.97310e+00,4.53943e-01,2.12399e+00
6.33500e+02,-5.05702e+00,-3.51585e+01,1.93894e+00,4.63233e-01,2.09839e+00
6.33500e+02,-4.26090e+00,-3.19623e+01,1.90338e+00,4.72499e-01,2.07187e+00
6.33500e+02,-3.45797e+00,-2.87660e+01,1.86723e+00,4.81734e-01,2.04518e+00
6.33500e+02,-2.64450e+00,-2.55698e+01,1.83017e+00,4.90933e-01,2.01806e+00
6.33500e+02,-1.82928e+00,-2.23736e+01,1.79295e+00,5.00092e-01,1.99121e+00
6.33500e+02,-1.00777e+00,-1.91774e+01,1.75518e+00,5.09209e-01,1.96431e+00
6.33500e+02,-1.86340e-01,-1.59811e+01,1.71742e+00,5.18279e-01,1.93788e+00
6.33500e+02,6.31986e-01,-1.27849e+01,1.67993e+00,5.27305e-01,1.91215e+00
6.33500e+02,1.45031e+00,-9.58868e+00,1.64244e+00,5.36282e-01,1.88690e+00
6.33500e+02,2.24926e+00,-6.39245e+00,1.60663e+00,5.45216e-01,1.86361e+00
6.33500e+02,3.04460e+00,-3.19623e+00,1.57114e+00,5.54111e-01,1.84109e+00
7.34700e+02,4.02095e+01,0.00000e+00,-1.41915e+00,5.17793e-01,1.67879e+00
7.34700e+02,4.00070e+01,-3.05550e+00,-1.43186e+00,5.10034e-01,1.68245e+00
7.34700e+02,3.97376e+01,-6.11100e+00,-1.43956e+00,5.02087e-01,1.68185e+00
7.34700e+02,3.94656e+01,-9.16651e+00,-1.44706e+00,4.93960e-01,1.68106e+00
7.34700e+02,3.91344e+01,-1.22220e+01,-1.45012e+00,4.85667e-01,1.67645e+00
7.34700e+02,3.87896e+01,-1.52775e+01,-1.45216e+00,4.77221e-01,1.67093e+00
7.34700e+02,3.83994e+01,-1.83330e+01,-1.45081e+00,4.68634e-01,1.66244e+00
7.34700e+02,3.79872e+01,-2.13885e+01,-1.44780e+00,4.59918e-01,1.65248e+00
7.34700e+02,3.75386e+01,-2.44440e+01,-1.44206e+00,4.51084e-01,1.64011e+00
7.34700e+02,3.70601e+01,-2.74995e+01,-1.43408e+00,4.42146e-01,1.62575e+00
7.34700e+02,3.65486e+01,-3.05550e+01,-1.42363e+00,4.33113e-01,1.60919e+00
7.34700e+02,3.59973e+01,-3.36105e+01,-1.41020e+00,4.23998e-01,1.58996e+00
7.34700e+02,3.54053e+01,-3.66660e+01,-1.39371e+00,4.14812e-01,1.56800e+00
7.34700e+02,3.47554e+01,-3.97215e+01,-1.37289e+00,4.05573e-01,1.54217e+00
7.34700e+02,3.40493e+01,-4.27770e+01,-1.34785e+00,3.96297e-01,1.51256e+00
7.34700e+02,3.32760e+01,-4.58325e+01,-1.31776e+00,3.86998e-01,1.47845e+00
7.34700e+02,3.24115e+01,-4.88880e+01,-1.28085e+00,3.77710e-01,1.43825e+00
7.34700e+02,3.14836e+01,-5.19435e+01,-1.23919e+00,3.68438e-01,1.39386e+00
7.34700e+02,3.04131e+01,-5.49990e+01,-1.18684e+00,3.59232e-01,1.34005e+00
7.34700e+02,2.92835e+01,-5.80545e+01,-1.13005e+00,3.50115e-01,1.28248e+00
7.34700e+02,2.79893e+01,-6.11100e+01,-1.06092e+00,3.41108e-01,1.21434e+00
7.34700e+02,2.65630e+01,-6.41655e+01,-9.81898e-01,3.32288e-01,1.13814e+00
7.34700e+02,2.50024e+01,-6.72210e+01,-8.92805e-01,3.23669e-01,1.05422e+00
7.34700e+02,2.32164e+01,-7.02765e+01,-7.86813e-01,3.15284e-01,9.57751e-01
7.34700e+02,2.11691e+01,-7.33320e+01,-6.61243e-01,3.07233e-01,8.48775e-01
7.34700e+02,1.88268e+01,-7.63875e+01,-5.13547e-01,2.99614e-01,7.30093e-01
7.34700e+02,1.60563e+01,-7.94430e+01,-3.33758e-01,2.92491e-01,6.06668e-01
7.34700e+02,1.25001e+01,-8.24985e+01,-9.50757e-02,2.86211e-01,5.04766e-01
7.34700e+02,7.69051e+00,-8.55540e+01,2.37564e-01,2.82376e-01,5.43732e-01
7.34700e+02,-3.11614e+00,-8.86096e+01,1.01975e+00,2.83899e-01,1.13211e+00
7.34700e+02,-3.89606e+00,-8.86166e+01,1.07815e+00,2.88623e-01,1.18841e+00
7.34700e+02,-1.10017e+01,-8.54518e+01,1.63968e+00,2.97581e-01,1.71878e+00
7.34700e+02,-1.18620e+01,-8.22869e+01,1.73306e+00,3.04199e-01,1.81138e+00
7.34700e+02,-1.21589e+01,-7.91220e+01,1.78420e+00,3.11163e-01,1.86383e+00
7.34700e+02,-1.22039e+01,-7.59571e+01,1.81647e+00,3.18449e-01,1.89836e+00
7.34700e+02,-1.20592e+01,-7.27922e+01,1.83451e+00,3.26000e-01,1.91944e+00
7.34700e+02,-1.17955e+01,-6.96274e+01,1.84363e+00,3.33773e-01,1.93215e+00
7.34700e+02,-1.14122e+01,-6.64625e+01,1.84379e+00,3.41722e-01,1.93646e+00
7.34700e+02,-1.09560e+01,-6.32976e+01,1.83848e+00,3.49808e-01,1.93574e+00
7.34700e+02,-1.04575e+01,-6.01327e+01,1.83000e+00,3.58010e-01,1.93220e+00
7.34700e+02,-9.89525e+00,-5.69678e+01,1.81674e+00,3.66305e-01,1.92434e+00
7.34700e+02,-9.29319e+00,-5.38030e+01,1.80050e+00,3.74672e-01,1.91388e+00
7.34700e+02,-8.65235e+00,-5.06381e+01,1.78135e+00,3.83093e-01,1.90092e+00
7.34700e+02,-7.97287e+00,-4.74732e+01,1.75931e+00,3.91551e-01,1.88550e+00
7.34700e+02,-7.26917e+00,-4.43083e+01,1.73544e+00,4.00031e-01,1.86865e+00
7.34700e+02,-6.53444e+00,-4.11434e+01,1.70926e+00,4.08521e-01,1.84993e+00
7.34700e+02,-5.77984e+00,-3.79786e+01,1.68158e+00,4.17007e-01,1.83014e+00
7.34700e+02,-5.00742e+00,-3.48137e+01,1.65257e+00,4.25480e-01,1.80944e+00
7.34700e+02,-4.21911e+00,-3.16488e+01,1.62237e+00,4.33932e-01,1.78800e+00
7.34700e+02,-3.42406e+00,-2.84839e+01,1.59166e+00,4.42355e-01,1.76647e+00
7.34700e+02,-2.61857e+00,-2.53190e+01,1.56017e+00,4.50745e-01,1.74460e+00
7.34700e+02,-1.81134e+00,-2.21542e+01,1.52854e+00,4.59099e-01,1.72301e+00
7.34700e+02,-9.97887e-01,-1.89893e+01,1.49646e+00,4.67414e-01,1.70141e+00
7.34700e+02,-1.84513e-01,-1.58244e+01,1.46437e+00,4.75687e-01,1.68025e+00
7.34700e+02,6.25788e-01,-1.26595e+01,1.43252e+00,4.83919e-01,1.65971e+00
7.34700e+02,1.43609e+00,-9.49464e+00,1.40067e+00,4.92106e-01,1.63963e+00
7.34700e+02,2.22720e+00,-6.32976e+00,1.37026e+00,5.00255e-01,1.62122e+00
7.34700e+02,3.01474e+00,-3.16488e+00,1.34011e+00,5.08368e-01,1.60350e+00
8.33800e+02,3.98196e+01,0.00000e+00,-1.19669e+00,4.71540e-01,1.44883e+00
8.33800e+02,3.96190e+01,-3.02587e+00,-1.20752e+00,4.64508e-01,1.45100e+00
8.33800e+02,3.93522e+01,-6.05173e+00,-1.21412e+00,4.57305e-01,1.44964e+00
8.33800e+02,3.90828e+01,-9.07760e+00,-1.22055e+00,4.49938e-01,1.44812e+00
8.33800e+02,3.87549e+01,-1.21035e+01,-1.22324e+00,4.42422e-01,1.44344e+00
8.33800e+02,3.84134e+01,-1.51293e+01,-1.22507e+00,4.34766e-01,1.43800e+00
8.33800e+02,3.80270e+01,-1.81552e+01,-1.22403e+00,4.26983e-01,1.43010e+00
8.33800e+02,3.76188e+01,-2.11811e+01,-1.22160e+00,4.19083e-01,1.42098e+00
8.33800e+02,3.71745e+01,-2.42069e+01,-1.21686e+00,4.11077e-01,1.40986e+00
8.33800e+02,3.67006e+01,-2.72328e+01,-1.21023e+00,4.02975e-01,1.39708e+00
8.33800e+02,3.61941e+01,-3.02587e+01,-1.20152e+00,3.94787e-01,1.38247e+00
8.33800e+02,3.56482e+01,-3.32845e+01,-1.19030e+00,3.86526e-01,1.36565e+00
8.33800e+02,3.50619e+01,-3.63104e+01,-1.17649e+00,3.78201e-01,1.34656e+00
8.33800e+02,3.44183e+01,-3.93363e+01,-1.15903e+00,3.69826e-01,1.32426e+00
8.33800e+02,3.37191e+01,-4.23621e+01,-1.13801e+00,3.61418e-01,1.29882e+00
8.33800e+02,3.29532e+01,-4.53880e+01,-1.11273e+00,3.52990e-01,1.26964e+00
8.33800e+02,3.20971e+01,-4.84139e+01,-1.08170e+00,3.44571e-01,1.23542e+00
8.33800e+02,3.11783e+01,-5.14397e+01,-1.04665e+00,3.36168e-01,1.19771e+00
8.33800e+02,3.01182e+01,-5.44656e+01,-1.00259e+00,3.27824e-01,1.15221e+00
8.33800e+02,2.89995e+01,-5.74915e+01,-9.54787e-01,3.19560e-01,1.10362e+00
8.33800e+02,2.77178e+01,-6.05173e+01,-8.96569e-01,3.11397e-01,1.04630e+00
8.33800e+02,2.63054e+01,-6.35432e+01,-8.30003e-01,3.03403e-01,9.82378e-01
8.33800e+02,2.47599e+01,-6.65691e+01,-7.54943e-01,2.95591e-01,9.12174e-01
8.33800e+02,2.29912e+01,-6.95949e+01,-6.65625e-01,2.87991e-01,8.31789e-01
8.33800e+02,2.09638e+01,-7.26208e+01,-5.59790e-01,2.80694e-01,7.41439e-01
8.33800e+02,1.86442e+01,-7.56467e+01,-4.35287e-01,2.73789e-01,6.43704e-01
8.33800e+02,1.59005e+01,-7.86725e+01,-2.83708e-01,2.67332e-01,5.43037e-01
8.33800e+02,1.23789e+01,-8.16984e+01,-8.24423e-02,2.61640e-01,4.60612e-01
8.33800e+02,7.61592e+00,-8.47243e+01,1.98094e-01,2.58165e-01,4.89069e-01
8.33800e+02,-3.08591e+00,-8.77501e+01,8.57903e-01,2.59545e-01,9.68550e-01
8.33800e+02,-3.85827e+00,-8.77572e+01,9.07173e-01,2.63827e-01,1.01576e+00
8.33800e+02,-1.08950e+01,-8.46230e+01,1.38104e+00,2.71947e-01,1.45915e+00
8.33800e+02,-1.17470e+01,-8.14888e+01,1.45993e+00,2.77945e-01,1.53725e+00
8.33800e+02,-1.20409e+01,-7.83546e+01,1.50319e+00,2.84257e-01,1.58176e+00
8.33800e+02,-1.20856e+01,-7.52204e+01,1.53052e+00,2.90861e-01,1.61130e+00
8.33800e+02,-1.19423e+01,-7.20862e+01,1.54585e+00,2.97705e-01,1.62958e+00
8.33800e+02,-1.16811e+01,-6.89521e+01,1.55365e+00,3.04750e-01,1.64087e+00
8.33800e+02,-1.13015e+01,-6.58179e+01,1.55390e+00,3.11955e-01,1.64516e+00
8.33800e+02,-1.08497e+01,-6.26837e+01,1.54953e+00,3.19283e-01,1.64525e+00
8.33800e+02,-1.03561e+01,-5.95495e+01,1.54248e+00,3.26718e-01,1.64301e+00
8.33800e+02,-9.79928e+00,-5.64153e+01,1.53141e+00,3.34237e-01,1.63718e+00
8.33800e+02,-9.20306e+00,-5.32811e+01,1.51781e+00,3.41820e-01,1.62919e+00
8.33800e+02,-8.56843e+00,-5.01469e+01,1.50177e+00,3.49453e-01,1.61915e+00
8.33800e+02,-7.89554e+00,-4.70128e+01,1.48328e+00,3.57118e-01,1.60708e+00
8.33800e+02,-7.19866e+00,-4.38786e+01,1.46325e+00,3.64804e-01,1.59385e+00
8.33800e+02,-6.47106e+00,-4.07444e+01,1.44127e+00,3.72499e-01,1.57909e+00
8.33800e+02,-5.72378e+00,-3.76102e+01,1.41803e+00,3.80190e-01,1.56347e+00
8.33800e+02,-4.95886e+00,-3.44760e+01,1.39366e+00,3.87870e-01,1.54713e+00
8.33800e+02,-4.17819e+00,-3.13418e+01,1.36829e+00,3.95530e-01,1.53021e+00
8.33800e+02,-3.39085e+00,-2.82077e+01,1.34249e+00,4.03165e-01,1.51324e+00
8.33800e+02,-2.59317e+00,-2.50735e+01,1.31603e+00,4.10769e-01,1.49604e+00
8.33800e+02,-1.79378e+00,-2.19393e+01,1.28946e+00,4.18341e-01,1.47910e+00
8.33800e+02,-9.88209e-01,-1.88051e+01,1.26250e+00,4.25877e-01,1.46220e+00
8.33800e+02,-1.82723e-01,-1.56709e+01,1.23554e+00,4.33375e-01,1.44569e+00
8.33800e+02,6.19718e-01,-1.25367e+01,1.20878e+00,4.40836e-01,1.42974e+00
8.33800e+02,1.42216e+00,-9.40255e+00,1.18202e+00,4.48257e-01,1.41420e+00
8.33800e+02,2.20560e+00,-6.26837e+00,1.15647e+00,4.55642e-01,1.40009e+00
8.33800e+02,2.98550e+00,-3.13418e+00,1.13114e+00,4.62995e-01,1.38657e+00
9.30700e+02,3.94382e+01,0.00000e+00,-9.97381e-01,4.25870e-01,1.24051e+00
9.30700e+02,3.92396e+01,-2.99689e+00,-1.00651e+00,4.19542e-01,1.24141e+00
9.30700e+02,3.89754e+01,-5.99378e+00,-1.01211e+00,4.13060e-01,1.23945e+00
9.30700e+02,3.87085e+01,-8.99067e+00,-1.01758e+00,4.06430e-01,1.23734e+00
9.30700e+02,3.83837e+01,-1.19876e+01,-1.01992e+00,3.99666e-01,1.23266e+00
9.30700e+02,3.80455e+01,-1.49844e+01,-1.02155e+00,3.92777e-01,1.22735e+00
9.30700e+02,3.76628e+01,-1.79813e+01,-1.02078e+00,3.85773e-01,1.22002e+00
9.30700e+02,3.72585e+01,-2.09782e+01,-1.01885e+00,3.78664e-01,1.21170e+00
9.30700e+02,3.68185e+01,-2.39751e+01,-1.01500e+00,3.71459e-01,1.20174e+00
9.30700e+02,3.63492e+01,-2.69720e+01,-1.00958e+00,3.64168e-01,1.19042e+00
9.30700e+02,3.58475e+01,-2.99689e+01,-1.00241e+00,3.56800e-01,1.17760e+00
9.30700e+02,3.53068e+01,-3.29658e+01,-9.93152e-01,3.49365e-01,1.16298e+00
9.30700e+02,3.47261e+01,-3.59627e+01,-9.81737e-01,3.41873e-01,1.14649e+00
9.30700e+02,3.40887e+01,-3.89596e+01,-9.67276e-01,3.34337e-01,1.12737e+00
9.30700e+02,3.33962e+01,-4.19565e+01,-9.49848e-01,3.26771e-01,1.10569e+00
9.30700e+02,3.26376e+01,-4.49533e+01,-9.28872e-01,3.19187e-01,1.08095e+00
9.30700e+02,3.17897e+01,-4.79502e+01,-9.03091e-01,3.11611e-01,1.05208e+00
9.30700e+02,3.08797e+01,-5.09471e+01,-8.73968e-01,3.04049e-01,1.02037e+00
9.30700e+02,2.98297e+01,-5.39440e+01,-8.37323e-01,2.96540e-01,9.82303e-01
9.30700e+02,2.87218e+01,-5.69409e+01,-7.97560e-01,2.89104e-01,9.41725e-01
9.30700e+02,2.74524e+01,-5.99378e+01,-7.49112e-01,2.81758e-01,8.94054e-01
9.30700e+02,2.60534e+01,-6.29347e+01,-6.93703e-01,2.74564e-01,8.41059e-01
9.30700e+02,2.45228e+01,-6.59316e+01,-6.31211e-01,2.67534e-01,7.83039e-01
9.30700e+02,2.27710e+01,-6.89285e+01,-5.56828e-01,2.60695e-01,7.16898e-01
9.30700e+02,2.07631e+01,-7.19254e+01,-4.68672e-01,2.54129e-01,6.42960e-01
9.30700e+02,1.84656e+01,-7.49222e+01,-3.64949e-01,2.47915e-01,5.63536e-01
9.30700e+02,1.57483e+01,-7.79191e+01,-2.38647e-01,2.42105e-01,4.82490e-01
9.30700e+02,1.22603e+01,-8.09160e+01,-7.09115e-02,2.36983e-01,4.16547e-01
9.30700e+02,7.54299e+00,-8.39129e+01,1.62928e-01,2.33855e-01,4.36590e-01
9.30700e+02,-3.05636e+00,-8.69098e+01,7.13044e-01,2.35098e-01,8.21124e-01
9.30700e+02,-3.82132e+00,-8.69168e+01,7.54129e-01,2.38951e-01,8.60235e-01
9.30700e+02,-1.07906e+01,-8.38126e+01,1.14939e+00,2.46258e-01,1.22598e+00
9.30700e+02,-1.16345e+01,-8.07084e+01,1.21528e+00,2.51656e-01,1.29108e+00
9.30700e+02,-1.19256e+01,-7.76042e+01,1.25146e+00,2.57336e-01,1.32846e+00
9.30700e+02,-1.19698e+01,-7.45001e+01,1.27435e+00,2.63279e-01,1.35348e+00
9.30700e+02,-1.18279e+01,-7.13959e+01,1.28724e+00,2.69438e-01,1.36923e+00
9.30700e+02,-1.15692e+01,-6.82917e+01,1.29385e+00,2.75778e-01,1.37921e+00
9.30700e+02,-1.11933e+01,-6.51876e+01,1.29416e+00,2.82261e-01,1.38342e+00
9.30700e+02,-1.07458e+01,-6.20834e+01,1.29062e+00,2.88856e-01,1.38420e+00
9.30700e+02,-1.02569e+01,-5.89792e+01,1.28485e+00,2.95546e-01,1.38307e+00
9.30700e+02,-9.70544e+00,-5.58751e+01,1.27571e+00,3.02312e-01,1.37899e+00
9.30700e+02,-9.11493e+00,-5.27709e+01,1.26448e+00,3.09136e-01,1.37318e+00
9.30700e+02,-8.48637e+00,-4.96667e+01,1.25121e+00,3.16005e-01,1.36568e+00
9.30700e+02,-7.81993e+00,-4.65625e+01,1.23589e+00,3.22903e-01,1.35655e+00
9.30700e+02,-7.12973e+00,-4.34584e+01,1.21930e+00,3.29819e-01,1.34649e+00
9.30700e+02,-6.40909e+00,-4.03542e+01,1.20107e+00,3.36743e-01,1.33520e+00
9.30700e+02,-5.66897e+00,-3.72500e+01,1.18179e+00,3.43665e-01,1.32323e+00
9.30700e+02,-4.91137e+00,-3.41459e+01,1.16158e+00,3.50576e-01,1.31071e+00
9.30700e+02,-4.13818e+00,-3.10417e+01,1.14052e+00,3.57469e-01,1.29774e+00
9.30700e+02,-3.35837e+00,-2.79375e+01,1.11911e+00,3.64339e-01,1.28477e+00
9.30700e+02,-2.56834e+00,-2.48334e+01,1.09715e+00,3.71182e-01,1.27164e+00
9.30700e+02,-1.77660e+00,-2.17292e+01,1.07510e+00,3.77995e-01,1.25876e+00
9.30700e+02,-9.78745e-01,-1.86250e+01,1.05272e+00,3.84777e-01,1.24594e+00
9.30700e+02,-1.80973e-01,-1.55208e+01,1.03034e+00,3.91524e-01,1.23348e+00
9.30700e+02,6.13784e-01,-1.24167e+01,1.00813e+00,3.98238e-01,1.22152e+00
9.30700e+02,1.40854e+00,-9.31251e+00,9.85913e-01,4.04916e-01,1.20991e+00
9.30700e+02,2.18448e+00,-6.20834e+00,9.64710e-01,4.11561e-01,1.19951e+00
9.30700e+02,2.95691e+00,-3.10417e+00,9.43696e-01,4.18178e-01,1.18961e+00
1.02500e+03,3.90671e+01,0.00000e+00,-8.20933e-01,3.81141e-01,1.05344e+00
1.02500e+03,3.88704e+01,-2.96869e+00,-8.28545e-01,3.75484e-01,1.05331e+00
1.02500e+03,3.86086e+01,-5.93738e+00,-8.33253e-01,3.69690e-01,1.05087e+00
1.02500e+03,3.83443e+01,-8.90607e+00,-8.37844e-01,3.63764e-01,1.04831e+00
1.02500e+03,3.80226e+01,-1.18748e+01,-8.39869e-01,3.57717e-01,1.04368e+00
1.02500e+03,3.76875e+01,-1.48435e+01,-8.41300e-01,3.51559e-01,1.03854e+00
1.02500e+03,3.73084e+01,-1.78121e+01,-8.40761e-01,3.45298e-01,1.03178e+00
1.02500e+03,3.69079e+01,-2.07808e+01,-8.39267e-01,3.38943e-01,1.02421e+00
1.02500e+03,3.64721e+01,-2.37495e+01,-8.36191e-01,3.32502e-01,1.01533e+00
1.02500e+03,3.60071e+01,-2.67182e+01,-8.31815e-01,3.25985e-01,1.00534e+00
1.02500e+03,3.55102e+01,-2.96869e+01,-8.26009e-01,3.19398e-01,9.94152e-01
1.02500e+03,3.49746e+01,-3.26556e+01,-8.18474e-01,3.12753e-01,9.81500e-01
1.02500e+03,3.43994e+01,-3.56243e+01,-8.09166e-01,3.06056e-01,9.67347e-01
1.02500e+03,3.37680e+01,-3.85930e+01,-7.97350e-01,2.99319e-01,9.51074e-01
1.02500e+03,3.30819e+01,-4.15617e+01,-7.83090e-01,2.92556e-01,9.32736e-01
1.02500e+03,3.23305e+01,-4.45304e+01,-7.65908e-01,2.85776e-01,9.11932e-01
1.02500e+03,3.14906e+01,-4.74990e+01,-7.44770e-01,2.79004e-01,8.87812e-01
1.02500e+03,3.05891e+01,-5.04677e+01,-7.20879e-01,2.72244e-01,8.61403e-01
1.02500e+03,2.95491e+01,-5.34364e+01,-6.90793e-01,2.65532e-01,8.29889e-01
1.02500e+03,2.84516e+01,-5.64051e+01,-6.58139e-01,2.58885e-01,7.96374e-01
1.02500e+03,2.71940e+01,-5.93738e+01,-6.18333e-01,2.52318e-01,7.57185e-01
1.02500e+03,2.58083e+01,-6.23425e+01,-5.72794e-01,2.45888e-01,7.13775e-01
1.02500e+03,2.42920e+01,-6.53112e+01,-5.21421e-01,2.39604e-01,6.66416e-01
1.02500e+03,2.25567e+01,-6.82799e+01,-4.60256e-01,2.33490e-01,6.12690e-01
1.02500e+03,2.05677e+01,-7.12486e+01,-3.87749e-01,2.27621e-01,5.52976e-01
1.02500e+03,1.82919e+01,-7.42173e+01,-3.02421e-01,2.22066e-01,4.89283e-01
1.02500e+03,1.56001e+01,-7.71859e+01,-1.98498e-01,2.16872e-01,4.24855e-01
1.02500e+03,1.21450e+01,-8.01546e+01,-6.04522e-02,2.12294e-01,3.72640e-01
1.02500e+03,7.47201e+00,-8.31233e+01,1.32033e-01,2.09499e-01,3.86137e-01
1.02500e+03,-3.02760e+00,-8.60920e+01,5.84988e-01,2.10609e-01,6.89405e-01
1.02500e+03,-3.78536e+00,-8.60989e+01,6.18824e-01,2.14054e-01,7.21388e-01
1.02500e+03,-1.06891e+01,-8.30239e+01,9.44436e-01,2.20586e-01,1.01879e+00
1.02500e+03,-1.15250e+01,-7.99490e+01,9.98798e-01,2.25411e-01,1.07239e+00
1.02500e+03,-1.18134e+01,-7.68740e+01,1.02869e+00,2.30488e-01,1.10344e+00
1.02500e+03,-1.18572e+01,-7.37991e+01,1.04764e+00,2.35801e-01,1.12444e+00
1.02500e+03,-1.17166e+01,-7.07241e+01,1.05835e+00,2.41307e-01,1.13789e+00
1.02500e+03,-1.14604e+01,-6.76491e+01,1.06389e+00,2.46974e-01,1.14667e+00
1.02500e+03,-1.10880e+01,-6.45742e+01,1.06424e+00,2.52769e-01,1.15077e+00
1.02500e+03,-1.06447e+01,-6.14992e+01,1.06142e+00,2.58664e-01,1.15210e+00
1.02500e+03,-1.01604e+01,-5.84243e+01,1.05676e+00,2.64644e-01,1.15189e+00
1.02500e+03,-9.61411e+00,-5.53493e+01,1.04934e+00,2.70693e-01,1.14932e+00
1.02500e+03,-9.02916e+00,-5.22743e+01,1.04019e+00,2.76792e-01,1.14535e+00
1.02500e+03,-8.40652e+00,-4.91994e+01,1.02935e+00,2.82932e-01,1.14005e+00
1.02500e+03,-7.74634e+00,-4.61244e+01,1.01683e+00,2.89099e-01,1.13344e+00
1.02500e+03,-7.06264e+00,-4.30495e+01,1.00326e+00,2.95281e-01,1.12610e+00
1.02500e+03,-6.34878e+00,-3.99745e+01,9.88347e-01,3.01471e-01,1.11780e+00
1.02500e+03,-5.61563e+00,-3.68995e+01,9.72569e-01,3.07658e-01,1.10899e+00
1.02500e+03,-4.86516e+00,-3.38246e+01,9.56016e-01,3.13835e-01,1.09975e+00
1.02500e+03,-4.09924e+00,-3.07496e+01,9.38773e-01,3.19997e-01,1.09018e+00
1.02500e+03,-3.32677e+00,-2.76746e+01,9.21237e-01,3.26138e-01,1.08064e+00
1.02500e+03,-2.54417e+00,-2.45997e+01,9.03247e-01,3.32255e-01,1.07100e+00
1.02500e+03,-1.75988e+00,-2.15247e+01,8.85183e-01,3.38345e-01,1.06159e+00
1.02500e+03,-9.69535e-01,-1.84498e+01,8.66848e-01,3.44407e-01,1.05227e+00
1.02500e+03,-1.79270e-01,-1.53748e+01,8.48516e-01,3.50438e-01,1.04326e+00
1.02500e+03,6.08008e-01,-1.22998e+01,8.30318e-01,3.56440e-01,1.03469e+00
1.02500e+03,1.39529e+00,-9.22488e+00,8.12120e-01,3.62409e-01,1.02643e+00
1.02500e+03,2.16392e+00,-6.14992e+00,7.94755e-01,3.68349e-01,1.01916e+00
1.02500e+03,2.92908e+00,-3.07496e+00,7.77545e-01,3.74264e-01,1.01232e+00
1.11650e+03,3.87070e+01,0.00000e+00,-6.66505e-01,3.37082e-01,8.86059e-01
1.11650e+03,3.85121e+01,-2.94133e+00,-6.72777e-01,3.32075e-01,8.85127e-01
1.11650e+03,3.82528e+01,-5.88266e+00,-6.76687e-01,3.26947e-01,8.82377e-01
1.11650e+03,3.79909e+01,-8.82398e+00,-6.80504e-01,3.21702e-01,8.79524e-01
1.11650e+03,3.76721e+01,-1.17653e+01,-6.82237e-01,3.16351e-01,8.75032e-01
1.11650e+03,3.73401e+01,-1.47066e+01,-6.83486e-01,3.10900e-01,8.70132e-01
1.11650e+03,3.69645e+01,-1.76480e+01,-6.83135e-01,3.05359e-01,8.63948e-01
1.11650e+03,3.65678e+01,-2.05893e+01,-6.82008e-01,2.99735e-01,8.57122e-01
1.11650e+03,3.61359e+01,-2.35306e+01,-6.79596e-01,2.94035e-01,8.49247e-01
1.11650e+03,3.56753e+01,-2.64720e+01,-6.76128e-01,2.88267e-01,8.40501e-01
1.11650e+03,3.51829e+01,-2.94133e+01,-6.71499e-01,2.82438e-01,8.30797e-01
1.11650e+03,3.46522e+01,-3.23546e+01,-6.65465e-01,2.76556e-01,8.19935e-01
1.11650e+03,3.40823e+01,-3.52959e+01,-6.57991e-01,2.70629e-01,8.07881e-01
1.11650e+03,3.34567e+01,-3.82373e+01,-6.48479e-01,2.64667e-01,7.94147e-01
1.11650e+03,3.27770e+01,-4.11786e+01,-6.36981e-01,2.58681e-01,7.78777e-01
1.11650e+03,3.20325e+01,-4.41199e+01,-6.23110e-01,2.52681e-01,7.61453e-01
1.11650e+03,3.12004e+01,-4.70612e+01,-6.06025e-01,2.46688e-01,7.41506e-01
1.11650e+03,3.03072e+01,-5.00026e+01,-5.86704e-01,2.40705e-01,7.19748e-01
1.11650e+03,2.92767e+01,-5.29439e+01,-5.62350e-01,2.34765e-01,6.93961e-01
1.11650e+03,2.81893e+01,-5.58852e+01,-5.35910e-01,2.28882e-01,6.66604e-01
1.11650e+03,2.69434e+01,-5.88266e+01,-5.03660e-01,2.23071e-01,6.34787e-01
1.11650e+03,2.55704e+01,-6.17679e+01,-4.66753e-01,2.17380e-01,5.99683e-01
1.11650e+03,2.40681e+01,-6.47092e+01,-4.25106e-01,2.11818e-01,5.61530e-01
1.11650e+03,2.23488e+01,-6.76505e+01,-3.75505e-01,2.06408e-01,5.18475e-01
1.11650e+03,2.03781e+01,-7.05919e+01,-3.16689e-01,2.01213e-01,4.70906e-01
1.11650e+03,1.81233e+01,-7.35332e+01,-2.47459e-01,1.96297e-01,4.20516e-01
1.11650e+03,1.54563e+01,-7.64745e+01,-1.63122e-01,1.91701e-01,3.69941e-01
1.11650e+03,1.20330e+01,-7.94159e+01,-5.10657e-02,1.87649e-01,3.29005e-01
1.11650e+03,7.40314e+00,-8.23572e+01,1.05216e-01,1.85175e-01,3.37550e-01
1.11650e+03,-2.99970e+00,-8.52985e+01,4.73094e-01,1.86159e-01,5.72523e-01
1.11650e+03,-3.75047e+00,-8.53053e+01,5.00581e-01,1.89207e-01,5.98314e-01
1.11650e+03,-1.05906e+01,-8.22587e+01,7.65187e-01,1.94988e-01,8.36405e-01
1.11650e+03,-1.14188e+01,-7.92121e+01,8.09439e-01,1.99258e-01,8.79945e-01
1.11650e+03,-1.17045e+01,-7.61655e+01,8.33810e-01,2.03752e-01,9.05419e-01
1.11650e+03,-1.17479e+01,-7.31189e+01,8.49296e-01,2.08453e-01,9.22856e-01
1.11650e+03,-1.16086e+01,-7.00722e+01,8.58088e-01,2.13326e-01,9.34259e-01
1.11650e+03,-1.13547e+01,-6.70256e+01,8.62679e-01,2.18342e-01,9.41931e-01
1.11650e+03,-1.09858e+01,-6.39790e+01,8.63052e-01,2.23471e-01,9.45873e-01
1.11650e+03,-1.05466e+01,-6.09324e+01,8.60852e-01,2.28688e-01,9.47608e-01
1.11650e+03,-1.00667e+01,-5.78858e+01,8.57159e-01,2.33980e-01,9.48136e-01
1.11650e+03,-9.52550e+00,-5.48391e+01,8.51218e-01,2.39333e-01,9.46791e-01
1.11650e+03,-8.94594e+00,-5.17925e+01,8.43872e-01,2.44732e-01,9.44352e-01
1.11650e+03,-8.32904e+00,-4.87459e+01,8.35158e-01,2.50166e-01,9.40870e-01
1.11650e+03,-7.67495e+00,-4.56993e+01,8.25080e-01,2.55623e-01,9.36368e-01
1.11650e+03,-6.99754e+00,-4.26527e+01,8.14148e-01,2.61094e-01,9.31315e-01
1.11650e+03,-6.29027e+00,-3.96060e+01,8.02121e-01,2.66572e-01,9.25516e-01
1.11650e+03,-5.56387e+00,-3.65594e+01,7.89393e-01,2.72047e-01,9.19331e-01
1.11650e+03,-4.82031e+00,-3.35128e+01,7.76036e-01,2.77515e-01,9.12839e-01
1.11650e+03,-4.06146e+00,-3.04662e+01,7.62118e-01,2.82968e-01,9.06110e-01
1.11650e+03,-3.29611e+00,-2.74196e+01,7.47963e-01,2.88403e-01,8.99431e-01
1.11650e+03,-2.52072e+00,-2.43730e+01,7.33439e-01,2.93816e-01,8.92702e-01
1.11650e+03,-1.74366e+00,-2.13263e+01,7.18854e-01,2.99206e-01,8.86185e-01
1.11650e+03,-9.60599e-01,-1.82797e+01,7.04049e-01,3.04571e-01,8.79759e-01
1.11650e+03,-1.77618e-01,-1.52331e+01,6.89247e-01,3.09908e-01,8.73608e-01
1.11650e+03,6.02404e-01,-1.21865e+01,6.74554e-01,3.15219e-01,8.67821e-01
1.11650e+03,1.38243e+00,-9.13986e+00,6.59860e-01,3.20502e-01,8.62311e-01
1.11650e+03,2.14398e+00,-6.09324e+00,6.45844e-01,3.25759e-01,8.57596e-01
1.11650e+03,2.90209e+00,-3.04662e+00,6.31954e-01,3.30993e-01,8.53250e-01
1.20500e+03,3.76912e+01,0.00000e+00,-7.62270e-01,3.39873e-01,9.63118e-01
1.20500e+03,3.75014e+01,-2.86413e+00,-7.72638e-01,3.33712e-01,9.64915e-01
1.20500e+03,3.72488e+01,-5.72827e+00,-7.80306e-01,3.27401e-01,9.64598e-01
1.20500e+03,3.69938e+01,-8.59240e+00,-7.87865e-01,3.20945e-01,9.64235e-01
1.20500e+03,3.66834e+01,-1.14565e+01,-7.93041e-01,3.14358e-01,9.61965e-01
1.20500e+03,3.63602e+01,-1.43207e+01,-7.97663e-01,3.07649e-01,9.59276e-01
1.20500e+03,3.59944e+01,-1.71848e+01,-8.00455e-01,3.00827e-01,9.55102e-01
1.20500e+03,3.56080e+01,-2.00489e+01,-8.02360e-01,2.93903e-01,9.50220e-01
1.20500e+03,3.51875e+01,-2.29131e+01,-8.02794e-01,2.86884e-01,9.44132e-01
1.20500e+03,3.47390e+01,-2.57772e+01,-8.02020e-01,2.79782e-01,9.37054e-01
1.20500e+03,3.42596e+01,-2.86413e+01,-7.99918e-01,2.72604e-01,9.28875e-01
1.20500e+03,3.37428e+01,-3.15055e+01,-7.96208e-01,2.65361e-01,9.19346e-01
1.20500e+03,3.31878e+01,-3.43696e+01,-7.90851e-01,2.58062e-01,9.08424e-01
1.20500e+03,3.25787e+01,-3.72337e+01,-7.83163e-01,2.50719e-01,8.95502e-01
1.20500e+03,3.19168e+01,-4.00979e+01,-7.73204e-01,2.43347e-01,8.80623e-01
1.20500e+03,3.11919e+01,-4.29620e+01,-7.60529e-01,2.35956e-01,8.63383e-01
1.20500e+03,3.03815e+01,-4.58261e+01,-7.44177e-01,2.28573e-01,8.42933e-01
1.20500e+03,2.95118e+01,-4.86903e+01,-7.25267e-01,2.21203e-01,8.20247e-01
1.20500e+03,2.85084e+01,-5.15544e+01,-7.00601e-01,2.13885e-01,7.92516e-01
1.20500e+03,2.74495e+01,-5.44186e+01,-6.73547e-01,2.06637e-01,7.62734e-01
1.20500e+03,2.62363e+01,-5.72827e+01,-6.39847e-01,1.99477e-01,7.27171e-01
1.20500e+03,2.48993e+01,-6.01468e+01,-6.00819e-01,1.92465e-01,6.87104e-01
1.20500e+03,2.34365e+01,-6.30110e+01,-5.56369e-01,1.85612e-01,6.42575e-01
1.20500e+03,2.17623e+01,-6.58751e+01,-5.02820e-01,1.78944e-01,5.90670e-01
1.20500e+03,1.98433e+01,-6.87392e+01,-4.38729e-01,1.72542e-01,5.30844e-01
1.20500e+03,1.76476e+01,-7.16034e+01,-3.62723e-01,1.66483e-01,4.63377e-01
1.20500e+03,1.50506e+01,-7.44675e+01,-2.69437e-01,1.60817e-01,3.87534e-01
1.20500e+03,1.17172e+01,-7.73316e+01,-1.44439e-01,1.55821e-01,3.06109e-01
1.20500e+03,7.20885e+00,-8.01958e+01,3.11512e-02,1.52765e-01,2.66423e-01
1.20500e+03,-2.92097e+00,-8.30599e+01,4.48805e-01,1.53970e-01,5.22060e-01
1.20500e+03,-3.65204e+00,-8.30665e+01,4.80242e-01,1.57722e-01,5.52505e-01
1.20500e+03,-1.03126e+01,-8.00999e+01,7.86257e-01,1.64840e-01,8.36490e-01
1.20500e+03,-1.11191e+01,-7.71332e+01,8.40188e-01,1.70099e-01,8.90346e-01
1.20500e+03,-1.13974e+01,-7.41666e+01,8.71376e-01,1.75634e-01,9.22950e-01
1.20500e+03,-1.14396e+01,-7.11999e+01,8.92399e-01,1.81425e-01,9.46109e-01
1.20500e+03,-1.13040e+01,-6.82332e+01,9.05765e-01,1.87428e-01,9.62184e-01
1.20500e+03,-1.10567e+01,-6.52666e+01,9.14325e-01,1.93607e-01,9.73879e-01
1.20500e+03,-1.06975e+01,-6.22999e+01,9.18059e-01,1.99926e-01,9.81195e-01
1.20500e+03,-1.02698e+01,-5.93332e+01,9.18850e-01,2.06355e-01,9.85917e-01
1.20500e+03,-9.80253e+00,-5.63666e+01,9.17934e-01,2.12876e-01,9.89217e-01
1.20500e+03,-9.27551e+00,-5.33999e+01,9.14445e-01,2.19473e-01,9.90310e-01
1.20500e+03,-8.71115e+00,-5.04333e+01,9.09349e-01,2.26126e-01,9.90108e-01
1.20500e+03,-8.11045e+00,-4.74666e+01,9.02687e-01,2.32823e-01,9.88668e-01
1.20500e+03,-7.47352e+00,-4.44999e+01,8.94466e-01,2.39549e-01,9.86013e-01
1.20500e+03,-6.81389e+00,-4.15333e+01,8.85268e-01,2.46293e-01,9.82691e-01
1.20500e+03,-6.12518e+00,-3.85666e+01,8.74817e-01,2.53046e-01,9.78469e-01
1.20500e+03,-5.41785e+00,-3.55999e+01,8.63564e-01,2.59796e-01,9.73768e-01
1.20500e+03,-4.69381e+00,-3.26333e+01,8.51592e-01,2.66537e-01,9.68676e-01
1.20500e+03,-3.95486e+00,-2.96666e+01,8.38978e-01,2.73260e-01,9.63274e-01
1.20500e+03,-3.20961e+00,-2.67000e+01,8.26092e-01,2.79961e-01,9.57895e-01
1.20500e+03,-2.45457e+00,-2.37333e+01,8.12785e-01,2.86637e-01,9.52418e-01
1.20500e+03,-1.69790e+00,-2.07666e+01,7.99408e-01,2.93283e-01,9.47153e-01
1.20500e+03,-9.35389e-01,-1.78000e+01,7.85779e-01,2.99900e-01,9.41949e-01
1.20500e+03,-1.72956e-01,-1.48333e+01,7.72154e-01,3.06483e-01,9.37026e-01
1.20500e+03,5.86594e-01,-1.18666e+01,7.58652e-01,3.13034e-01,9.32483e-01
1.20500e+03,1.34615e+00,-8.89999e+00,7.45151e-01,3.19551e-01,9.28218e-01
1.20500e+03,2.08771e+00,-5.93332e+00,7.32424e-01,3.26036e-01,9.24848e-01
1.20500e+03,2.82592e+00,-2.96666e+00,7.19842e-01,3.32494e-01,9.21861e-01
1.29010e+03,3.63234e+01,0.00000e+00,-6.20727e-01,3.04715e-01,8.14774e-01
1.29010e+03,3.61405e+01,-2.76019e+00,-6.29135e-01,2.99327e-01,8.15230e-01
1.29010e+03,3.58971e+01,-5.52039e+00,-6.35343e-01,2.93807e-01,8.14019e-01
1.29010e+03,3.56513e+01,-8.28058e+00,-6.41462e-01,2.88161e-01,8.12763e-01
1.29010e+03,3.53522e+01,-1.10408e+01,-6.45639e-01,2.82400e-01,8.09999e-01
1.29010e+03,3.50407e+01,-1.38010e+01,-6.49365e-01,2.76531e-01,8.06898e-01
1.29010e+03,3.46882e+01,-1.65612e+01,-6.51599e-01,2.70565e-01,8.02620e-01
1.29010e+03,3.43158e+01,-1.93214e+01,-6.53110e-01,2.64509e-01,7.97777e-01
1.29010e+03,3.39106e+01,-2.20816e+01,-6.53422e-01,2.58371e-01,7.91977e-01
1.29010e+03,3.34783e+01,-2.48418e+01,-6.52751e-01,2.52159e-01,7.85389e-01
1.29010e+03,3.30163e+01,-2.76019e+01,-6.50996e-01,2.45882e-01,7.77926e-01
1.29010e+03,3.25183e+01,-3.03621e+01,-6.47931e-01,2.39547e-01,7.69392e-01
1.29010e+03,3.19834e+01,-3.31223e+01,-6.43524e-01,2.33163e-01,7.59749e-01
1.29010e+03,3.13964e+01,-3.58825e+01,-6.37217e-01,2.26741e-01,7.48519e-01
1.29010e+03,3.07585e+01,-3.86427e+01,-6.29059e-01,2.20294e-01,7.35733e-01
1.29010e+03,3.00599e+01,-4.14029e+01,-6.18688e-01,2.13831e-01,7.21072e-01
1.29010e+03,2.92790e+01,-4.41631e+01,-6.05320e-01,2.07374e-01,7.03864e-01
1.29010e+03,2.84408e+01,-4.69233e+01,-5.89868e-01,2.00929e-01,6.84880e-01
1.29010e+03,2.74738e+01,-4.96835e+01,-5.69723e-01,1.94529e-01,6.61898e-01
1.29010e+03,2.64534e+01,-5.24437e+01,-5.47634e-01,1.88190e-01,6.37299e-01
1.29010e+03,2.52842e+01,-5.52039e+01,-5.20127e-01,1.81929e-01,6.08134e-01
1.29010e+03,2.39957e+01,-5.79641e+01,-4.88279e-01,1.75796e-01,5.75438e-01
1.29010e+03,2.25860e+01,-6.07243e+01,-4.52012e-01,1.69804e-01,5.39272e-01
1.29010e+03,2.09725e+01,-6.34845e+01,-4.08328e-01,1.63973e-01,4.97386e-01
1.29010e+03,1.91232e+01,-6.62447e+01,-3.56054e-01,1.58374e-01,4.49468e-01
1.29010e+03,1.70072e+01,-6.90049e+01,-2.94069e-01,1.53076e-01,3.95946e-01
1.29010e+03,1.45045e+01,-7.17651e+01,-2.18001e-01,1.48121e-01,3.36666e-01
1.29010e+03,1.12920e+01,-7.45253e+01,-1.16088e-01,1.43752e-01,2.74719e-01
1.29010e+03,6.94724e+00,-7.72855e+01,2.70569e-02,1.41080e-01,2.45852e-01
1.29010e+03,-2.81497e+00,-8.00457e+01,3.67480e-01,1.42135e-01,4.42322e-01
1.29010e+03,-3.51951e+00,-8.00521e+01,3.93101e-01,1.45417e-01,4.66869e-01
1.29010e+03,-9.93839e+00,-7.71931e+01,6.42455e-01,1.51642e-01,6.94071e-01
1.29010e+03,-1.07156e+01,-7.43341e+01,6.86365e-01,1.56242e-01,7.37788e-01
1.29010e+03,-1.09838e+01,-7.14751e+01,7.11740e-01,1.61082e-01,7.64471e-01
1.29010e+03,-1.10244e+01,-6.86160e+01,7.28831e-01,1.66147e-01,7.83588e-01
1.29010e+03,-1.08937e+01,-6.57570e+01,7.39681e-01,1.71397e-01,7.97031e-01
1.29010e+03,-1.06555e+01,-6.28980e+01,7.46615e-01,1.76801e-01,8.06975e-01
1.29010e+03,-1.03093e+01,-6.00390e+01,7.49615e-01,1.82327e-01,8.13420e-01
1.29010e+03,-9.89713e+00,-5.71800e+01,7.50217e-01,1.87949e-01,8.17802e-01
1.29010e+03,-9.44680e+00,-5.43210e+01,7.49427e-01,1.93652e-01,8.21063e-01
1.29010e+03,-8.93890e+00,-5.14620e+01,7.46541e-01,1.99421e-01,8.22575e-01
1.29010e+03,-8.39503e+00,-4.86030e+01,7.42345e-01,2.05239e-01,8.23071e-01
1.29010e+03,-7.81612e+00,-4.57440e+01,7.36873e-01,2.11096e-01,8.22597e-01
1.29010e+03,-7.20231e+00,-4.28850e+01,7.30131e-01,2.16978e-01,8.21175e-01
1.29010e+03,-6.56662e+00,-4.00260e+01,7.22591e-01,2.22876e-01,8.19243e-01
1.29010e+03,-5.90290e+00,-3.71670e+01,7.14031e-01,2.28780e-01,8.16616e-01
1.29010e+03,-5.22123e+00,-3.43080e+01,7.04817e-01,2.34683e-01,8.13631e-01
1.29010e+03,-4.52347e+00,-3.14490e+01,6.95017e-01,2.40578e-01,8.10359e-01
1.29010e+03,-3.81134e+00,-2.85900e+01,6.84694e-01,2.46457e-01,8.06864e-01
1.29010e+03,-3.09313e+00,-2.57310e+01,6.74150e-01,2.52317e-01,8.03411e-01
1.29010e+03,-2.36549e+00,-2.28720e+01,6.63262e-01,2.58154e-01,7.99904e-01
1.29010e+03,-1.63628e+00,-2.00130e+01,6.52317e-01,2.63966e-01,7.96588e-01
1.29010e+03,-9.01444e-01,-1.71540e+01,6.41167e-01,2.69752e-01,7.93343e-01
1.29010e+03,-1.66680e-01,-1.42950e+01,6.30019e-01,2.75509e-01,7.90341e-01
1.29010e+03,5.65307e-01,-1.14360e+01,6.18973e-01,2.81237e-01,7.87661e-01
1.29010e+03,1.29729e+00,-8.57701e+00,6.07927e-01,2.86935e-01,7.85220e-01
1.29010e+03,2.01195e+00,-5.71800e+00,5.97512e-01,2.92606e-01,7.83502e-01
1.29010e+03,2.72337e+00,-2.85900e+00,5.87215e-01,2.98252e-01,7.82102e-01
1.37170e+03,3.50118e+01,0.00000e+00,-4.96193e-01,2.70815e-01,6.82810e-01
1.37170e+03,3.48355e+01,-2.66053e+00,-5.02906e-01,2.66151e-01,6.82220e-01
1.37170e+03,3.46009e+01,-5.32106e+00,-5.07858e-01,2.61373e-01,6.80344e-01
1.37170e+03,3.43640e+01,-7.98159e+00,-5.12740e-01,2.56486e-01,6.78423e-01
1.37170e+03,3.40757e+01,-1.06421e+01,-5.16067e-01,2.51500e-01,6.75338e-01
1.37170e+03,3.37754e+01,-1.33027e+01,-5.19033e-01,2.46421e-01,6.71986e-01
1.37170e+03,3.34357e+01,-1.59632e+01,-5.20806e-01,2.41258e-01,6.67723e-01
1.37170e+03,3.30768e+01,-1.86237e+01,-5.22000e-01,2.36016e-01,6.63019e-01
1.37170e+03,3.26861e+01,-2.12842e+01,-5.22235e-01,2.30704e-01,6.57572e-01
1.37170e+03,3.22695e+01,-2.39448e+01,-5.21682e-01,2.25328e-01,6.51514e-01
1.37170e+03,3.18241e+01,-2.66053e+01,-5.20264e-01,2.19895e-01,6.44775e-01
1.37170e+03,3.13441e+01,-2.92658e+01,-5.17796e-01,2.14412e-01,6.37206e-01
1.37170e+03,3.08286e+01,-3.19264e+01,-5.14256e-01,2.08887e-01,6.28777e-01
1.37170e+03,3.02627e+01,-3.45869e+01,-5.09194e-01,2.03330e-01,6.19118e-01
1.37170e+03,2.96479e+01,-3.72474e+01,-5.02652e-01,1.97750e-01,6.08255e-01
1.37170e+03,2.89745e+01,-3.99080e+01,-4.94339e-01,1.92156e-01,5.95939e-01
1.37170e+03,2.82218e+01,-4.25685e+01,-4.83629e-01,1.86568e-01,5.81653e-01
1.37170e+03,2.74139e+01,-4.52290e+01,-4.71250e-01,1.80990e-01,5.65994e-01
1.37170e+03,2.64818e+01,-4.78895e+01,-4.55118e-01,1.75452e-01,5.47250e-01
1.37170e+03,2.54982e+01,-5.05501e+01,-4.37429e-01,1.69966e-01,5.27266e-01
1.37170e+03,2.43712e+01,-5.32106e+01,-4.15406e-01,1.64548e-01,5.03775e-01
1.37170e+03,2.31293e+01,-5.58711e+01,-3.89908e-01,1.59241e-01,4.77599e-01
1.37170e+03,2.17704e+01,-5.85317e+01,-3.60876e-01,1.54054e-01,4.48809e-01
1.37170e+03,2.02153e+01,-6.11922e+01,-3.25910e-01,1.49008e-01,4.15725e-01
1.37170e+03,1.84327e+01,-6.38527e+01,-2.84069e-01,1.44164e-01,3.78213e-01
1.37170e+03,1.63931e+01,-6.65133e+01,-2.34460e-01,1.39578e-01,3.36776e-01
1.37170e+03,1.39807e+01,-6.91738e+01,-1.73582e-01,1.35291e-01,2.91619e-01
1.37170e+03,1.08843e+01,-7.18343e+01,-9.20261e-02,1.31510e-01,2.45670e-01
1.37170e+03,6.69639e+00,-7.44949e+01,2.25206e-02,1.29199e-01,2.24910e-01
1.37170e+03,-2.71333e+00,-7.71554e+01,2.94911e-01,1.30112e-01,3.71161e-01
1.37170e+03,-3.39243e+00,-7.71616e+01,3.15411e-01,1.32953e-01,3.90530e-01
1.37170e+03,-9.57954e+00,-7.44058e+01,5.14906e-01,1.38341e-01,5.67929e-01
1.37170e+03,-1.03287e+01,-7.16500e+01,5.50024e-01,1.42322e-01,6.02738e-01
1.37170e+03,-1.05872e+01,-6.88942e+01,5.70311e-01,1.46511e-01,6.24221e-01
1.37170e+03,-1.06264e+01,-6.61385e+01,5.83971e-01,1.50894e-01,6.39788e-01
1.37170e+03,-1.05004e+01,-6.33827e+01,5.92637e-01,1.55438e-01,6.50923e-01
1.37170e+03,-1.02708e+01,-6.06269e+01,5.98169e-01,1.60114e-01,6.59330e-01
1.37170e+03,-9.93701e+00,-5.78712e+01,6.00554e-01,1.64897e-01,6.65010e-01
1.37170e+03,-9.53977e+00,-5.51154e+01,6.01020e-01,1.69762e-01,6.69091e-01
1.37170e+03,-9.10569e+00,-5.23596e+01,6.00373e-01,1.74698e-01,6.72314e-01
1.37170e+03,-8.61613e+00,-4.96039e+01,5.98048e-01,1.79690e-01,6.74187e-01
1.37170e+03,-8.09190e+00,-4.68481e+01,5.94676e-01,1.84725e-01,6.75285e-01
1.37170e+03,-7.53389e+00,-4.40923e+01,5.90282e-01,1.89793e-01,6.75646e-01
1.37170e+03,-6.94225e+00,-4.13365e+01,5.84872e-01,1.94884e-01,6.75288e-01
1.37170e+03,-6.32951e+00,-3.85808e+01,5.78824e-01,1.99988e-01,6.74554e-01
1.37170e+03,-5.68976e+00,-3.58250e+01,5.71960e-01,2.05098e-01,6.73300e-01
1.37170e+03,-5.03271e+00,-3.30692e+01,5.64572e-01,2.10206e-01,6.71790e-01
1.37170e+03,-4.36014e+00,-3.03135e+01,5.56716e-01,2.15306e-01,6.70077e-01
1.37170e+03,-3.67372e+00,-2.75577e+01,5.48441e-01,2.20394e-01,6.68213e-01
1.37170e+03,-2.98144e+00,-2.48019e+01,5.39989e-01,2.25465e-01,6.66402e-01
1.37170e+03,-2.28008e+00,-2.20462e+01,5.31262e-01,2.30516e-01,6.64569e-01
1.37170e+03,-1.57720e+00,-1.92904e+01,5.22489e-01,2.35546e-01,6.62903e-01
1.37170e+03,-8.68894e-01,-1.65346e+01,5.13553e-01,2.40552e-01,6.61311e-01
1.37170e+03,-1.60661e-01,-1.37788e+01,5.04618e-01,2.45533e-01,6.59924e-01
1.37170e+03,5.44895e-01,-1.10231e+01,4.95765e-01,2.50490e-01,6.58801e-01
1.37170e+03,1.25045e+00,-8.26731e+00,4.86911e-01,2.55421e-01,6.57877e-01
1.37170e+03,1.93930e+00,-5.51154e+00,4.78563e-01,2.60328e-01,6.57521e-01
1.37170e+03,2.62503e+00,-2.75577e+00,4.70308e-01,2.65214e-01,6.57423e-01
1.44960e+03,3.37597e+01,0.00000e+00,-3.88258e-01,2.38159e-01,5.66483e-01
1.44960e+03,3.35897e+01,-2.56538e+00,-3.93515e-01,2.34163e-01,5.65112e-01
1.44960e+03,3.33635e+01,-5.13077e+00,-3.97393e-01,2.30071e-01,5.62778e-01
1.44960e+03,3.31351e+01,-7.69615e+00,-4.01216e-01,2.25885e-01,5.60399e-01
1.44960e+03,3.28571e+01,-1.02615e+01,-4.03822e-01,2.21614e-01,5.57145e-01
1.44960e+03,3.25675e+01,-1.28269e+01,-4.06145e-01,2.17264e-01,5.53682e-01
1.44960e+03,3.22399e+01,-1.53923e+01,-4.07533e-01,2.12840e-01,5.49533e-01
1.44960e+03,3.18939e+01,-1.79577e+01,-4.08468e-01,2.08351e-01,5.45047e-01
1.44960e+03,3.15172e+01,-2.05231e+01,-4.08652e-01,2.03800e-01,5.40000e-01
1.44960e+03,3.11155e+01,-2.30885e+01,-4.08219e-01,1.99196e-01,5.34490e-01
1.44960e+03,3.06860e+01,-2.56538e+01,-4.07107e-01,1.94542e-01,5.28466e-01
1.44960e+03,3.02232e+01,-2.82192e+01,-4.05174e-01,1.89847e-01,5.21816e-01
1.44960e+03,2.97261e+01,-3.07846e+01,-4.02401e-01,1.85114e-01,5.14518e-01
1.44960e+03,2.91805e+01,-3.33500e+01,-3.98436e-01,1.80354e-01,5.06294e-01
1.44960e+03,2.85877e+01,-3.59154e+01,-3.93312e-01,1.75575e-01,4.97166e-01
1.44960e+03,2.79383e+01,-3.84808e+01,-3.86801e-01,1.70784e-01,4.86945e-01
1.44960e+03,2.72125e+01,-4.10462e+01,-3.78411e-01,1.65998e-01,4.75248e-01
1.44960e+03,2.64335e+01,-4.36115e+01,-3.68715e-01,1.61220e-01,4.62522e-01
1.44960e+03,2.55347e+01,-4.61769e+01,-3.56079e-01,1.56477e-01,4.47490e-01
1.44960e+03,2.45863e+01,-4.87423e+01,-3.42225e-01,1.51779e-01,4.31541e-01
1.44960e+03,2.34997e+01,-5.13077e+01,-3.24975e-01,1.47137e-01,4.12985e-01
1.44960e+03,2.23022e+01,-5.38731e+01,-3.05004e-01,1.42592e-01,3.92460e-01
1.44960e+03,2.09919e+01,-5.64385e+01,-2.82264e-01,1.38150e-01,3.70040e-01
1.44960e+03,1.94923e+01,-5.90039e+01,-2.54877e-01,1.33829e-01,3.44518e-01
1.44960e+03,1.77735e+01,-6.15692e+01,-2.22106e-01,1.29679e-01,3.15882e-01
1.44960e+03,1.58069e+01,-6.41346e+01,-1.83249e-01,1.25752e-01,2.84642e-01
1.44960e+03,1.34808e+01,-6.67000e+01,-1.35567e-01,1.22080e-01,2.51176e-01
1.44960e+03,1.04950e+01,-6.92654e+01,-7.16891e-02,1.18843e-01,2.17968e-01
1.44960e+03,6.45692e+00,-7.18308e+01,1.80287e-02,1.16864e-01,2.03216e-01
1.44960e+03,-2.61629e+00,-7.43962e+01,2.31376e-01,1.17647e-01,3.08313e-01
1.44960e+03,-3.27111e+00,-7.44021e+01,2.47432e-01,1.20080e-01,3.23234e-01
1.44960e+03,-9.23696e+00,-7.17449e+01,4.03684e-01,1.24695e-01,4.57829e-01
1.44960e+03,-9.95928e+00,-6.90877e+01,4.31189e-01,1.28105e-01,4.84930e-01
1.44960e+03,-1.02085e+01,-6.64305e+01,4.47079e-01,1.31693e-01,5.01905e-01
1.44960e+03,-1.02464e+01,-6.37732e+01,4.57777e-01,1.35447e-01,5.14391e-01
1.44960e+03,-1.01249e+01,-6.11160e+01,4.64564e-01,1.39339e-01,5.23513e-01
1.44960e+03,-9.90345e+00,-5.84588e+01,4.68897e-01,1.43344e-01,5.30572e-01
1.44960e+03,-9.58164e+00,-5.58016e+01,4.70765e-01,1.47441e-01,5.35571e-01
1.44960e+03,-9.19861e+00,-5.31444e+01,4.71129e-01,1.51608e-01,5.39368e-01
1.44960e+03,-8.78006e+00,-5.04872e+01,4.70622e-01,1.55835e-01,5.42530e-01
1.44960e+03,-8.30801e+00,-4.78299e+01,4.68801e-01,1.60111e-01,5.44684e-01
1.44960e+03,-7.80252e+00,-4.51727e+01,4.66159e-01,1.64423e-01,5.46269e-01
1.44960e+03,-7.26447e+00,-4.25155e+01,4.62718e-01,1.68764e-01,5.47313e-01
1.44960e+03,-6.69398e+00,-3.98583e+01,4.58480e-01,1.73123e-01,5.47831e-01
1.44960e+03,-6.10316e+00,-3.72011e+01,4.53743e-01,1.77495e-01,5.48083e-01
1.44960e+03,-5.48628e+00,-3.45438e+01,4.48366e-01,1.81871e-01,5.47963e-01
1.44960e+03,-4.85273e+00,-3.18866e+01,4.42579e-01,1.86246e-01,5.47667e-01
1.44960e+03,-4.20421e+00,-2.92294e+01,4.36425e-01,1.90614e-01,5.47237e-01
1.44960e+03,-3.54234e+00,-2.65722e+01,4.29944e-01,1.94971e-01,5.46711e-01
1.44960e+03,-2.87482e+00,-2.39150e+01,4.23323e-01,1.99314e-01,5.46243e-01
1.44960e+03,-2.19854e+00,-2.12577e+01,4.16488e-01,2.03640e-01,5.45775e-01
1.44960e+03,-1.52080e+00,-1.86005e+01,4.09616e-01,2.07948e-01,5.45447e-01
1.44960e+03,-8.37821e-01,-1.59433e+01,4.02617e-01,2.12235e-01,5.45189e-01
1.44960e+03,-1.54916e-01,-1.32861e+01,3.95618e-01,2.16501e-01,5.45098e-01
1.44960e+03,5.25408e-01,-1.06289e+01,3.88684e-01,2.20746e-01,5.45217e-01
1.44960e+03,1.20573e+00,-7.97166e+00,3.81749e-01,2.24968e-01,5.45495e-01
1.44960e+03,1.86995e+00,-5.31444e+00,3.75210e-01,2.29170e-01,5.46205e-01
1.44960e+03,2.53116e+00,-2.65722e+00,3.68744e-01,2.33355e-01,5.47115e-01
1.52340e+03,3.25736e+01,0.00000e+00,-2.96609e-01,2.06542e-01,4.64711e-01
1.52340e+03,3.24095e+01,-2.47525e+00,-3.00634e-01,2.03170e-01,4.62833e-01
1.52340e+03,3.21913e+01,-4.95049e+00,-3.03605e-01,1.99715e-01,4.60254e-01
1.52340e+03,3.19709e+01,-7.42574e+00,-3.06533e-01,1.96181e-01,4.57628e-01
1.52340e+03,3.17026e+01,-9.90099e+00,-3.08531e-01,1.92575e-01,4.54364e-01
1.52340e+03,3.14232e+01,-1.23762e+01,-3.10312e-01,1.88903e-01,4.50940e-01
1.52340e+03,3.11072e+01,-1.48515e+01,-3.11379e-01,1.85169e-01,4.47012e-01
1.52340e+03,3.07733e+01,-1.73267e+01,-3.12098e-01,1.81379e-01,4.42832e-01
1.52340e+03,3.04098e+01,-1.98020e+01,-3.12244e-01,1.77538e-01,4.38241e-01
1.52340e+03,3.00222e+01,-2.22772e+01,-3.11918e-01,1.73651e-01,4.33309e-01
1.52340e+03,2.96079e+01,-2.47525e+01,-3.11073e-01,1.69722e-01,4.27999e-01
1.52340e+03,2.91613e+01,-2.72277e+01,-3.09600e-01,1.65758e-01,4.22232e-01
1.52340e+03,2.86816e+01,-2.97030e+01,-3.07484e-01,1.61764e-01,4.15991e-01
1.52340e+03,2.81552e+01,-3.21782e+01,-3.04457e-01,1.57745e-01,4.09078e-01
1.52340e+03,2.75832e+01,-3.46535e+01,-3.00543e-01,1.53711e-01,4.01507e-01
1.52340e+03,2.69567e+01,-3.71287e+01,-2.95569e-01,1.49667e-01,3.93143e-01
1.52340e+03,2.62564e+01,-3.96040e+01,-2.89159e-01,1.45627e-01,3.83711e-01
1.52340e+03,2.55047e+01,-4.20792e+01,-2.81749e-01,1.41594e-01,3.73536e-01
1.52340e+03,2.46375e+01,-4.45544e+01,-2.72092e-01,1.37590e-01,3.61700e-01
1.52340e+03,2.37225e+01,-4.70297e+01,-2.61502e-01,1.33624e-01,3.49213e-01
1.52340e+03,2.26740e+01,-4.95049e+01,-2.48316e-01,1.29707e-01,3.34861e-01
1.52340e+03,2.15185e+01,-5.19802e+01,-2.33049e-01,1.25870e-01,3.19126e-01
1.52340e+03,2.02543e+01,-5.44554e+01,-2.15665e-01,1.22121e-01,3.02079e-01
1.52340e+03,1.88075e+01,-5.69307e+01,-1.94726e-01,1.18473e-01,2.82888e-01
1.52340e+03,1.71490e+01,-5.94059e+01,-1.69671e-01,1.14971e-01,2.61616e-01
1.52340e+03,1.52515e+01,-6.18812e+01,-1.39962e-01,1.11656e-01,2.38727e-01
1.52340e+03,1.30071e+01,-6.43564e+01,-1.03505e-01,1.08557e-01,2.14632e-01
1.52340e+03,1.01263e+01,-6.68317e+01,-5.46615e-02,1.05824e-01,1.91269e-01
1.52340e+03,6.23005e+00,-6.93069e+01,1.39412e-02,1.04154e-01,1.80938e-01
1.52340e+03,-2.52437e+00,-7.17822e+01,1.77084e-01,1.04815e-01,2.53609e-01
1.52340e+03,-3.15618e+00,-7.17879e+01,1.89362e-01,1.06870e-01,2.64805e-01
1.52340e+03,-8.91241e+00,-6.92241e+01,3.08854e-01,1.10766e-01,3.63590e-01
1.52340e+03,-9.60935e+00,-6.66602e+01,3.29893e-01,1.13644e-01,3.84154e-01
1.52340e+03,-9.84985e+00,-6.40963e+01,3.42049e-01,1.16673e-01,3.97285e-01
1.52340e+03,-9.88634e+00,-6.15325e+01,3.50235e-01,1.19842e-01,4.07125e-01
1.52340e+03,-9.76914e+00,-5.89686e+01,3.55430e-01,1.23127e-01,4.14501e-01
1.52340e+03,-9.55548e+00,-5.64048e+01,3.58748e-01,1.26508e-01,4.20373e-01
1.52340e+03,-9.24498e+00,-5.38409e+01,3.60182e-01,1.29966e-01,4.24741e-01
1.52340e+03,-8.87540e+00,-5.12771e+01,3.60466e-01,1.33484e-01,4.28240e-01
1.52340e+03,-8.47156e+00,-4.87132e+01,3.60083e-01,1.37052e-01,4.31288e-01
1.52340e+03,-8.01609e+00,-4.61494e+01,3.58696e-01,1.40661e-01,4.33612e-01
1.52340e+03,-7.52837e+00,-4.35855e+01,3.56681e-01,1.44301e-01,4.35534e-01
1.52340e+03,-7.00922e+00,-4.10217e+01,3.54054e-01,1.47965e-01,4.37076e-01
1.52340e+03,-6.45878e+00,-3.84578e+01,3.50819e-01,1.51645e-01,4.38249e-01
1.52340e+03,-5.88872e+00,-3.58940e+01,3.47201e-01,1.55335e-01,4.39244e-01
1.52340e+03,-5.29352e+00,-3.33301e+01,3.43095e-01,1.59029e-01,4.39982e-01
1.52340e+03,-4.68222e+00,-3.07662e+01,3.38675e-01,1.62721e-01,4.40608e-01
1.52340e+03,-4.05649e+00,-2.82024e+01,3.33974e-01,1.66408e-01,4.41151e-01
1.52340e+03,-3.41788e+00,-2.56385e+01,3.29023e-01,1.70086e-01,4.41638e-01
1.52340e+03,-2.77381e+00,-2.30747e+01,3.23965e-01,1.73752e-01,4.42179e-01
1.52340e+03,-2.12129e+00,-2.05108e+01,3.18743e-01,1.77403e-01,4.42733e-01
1.52340e+03,-1.46736e+00,-1.79470e+01,3.13494e-01,1.81038e-01,4.43399e-01
1.52340e+03,-8.08383e-01,-1.53831e+01,3.08146e-01,1.84657e-01,4.44127e-01
1.52340e+03,-1.49473e-01,-1.28193e+01,3.02800e-01,1.88258e-01,4.44984e-01
1.52340e+03,5.06948e-01,-1.02554e+01,2.97502e-01,1.91841e-01,4.46000e-01
1.52340e+03,1.16337e+00,-7.69156e+00,2.92204e-01,1.95404e-01,4.47137e-01
1.52340e+03,1.80424e+00,-5.12771e+00,2.87209e-01,1.98951e-01,4.48590e-01
1.52340e+03,2.44222e+00,-2.56385e+00,2.82269e-01,2.02482e-01,4.50193e-01
1.59310e+03,3.14533e+01,0.00000e+00,-2.20306e-01,1.75942e-01,3.76034e-01
1.59310e+03,3.12949e+01,-2.39012e+00,-2.23301e-01,1.73142e-01,3.73896e-01
1.59310e+03,3.10841e+01,-4.78023e+00,-2.25512e-01,1.70274e-01,3.71261e-01
1.59310e+03,3.08713e+01,-7.17035e+00,-2.27692e-01,1.67340e-01,3.68580e-01
1.59310e+03,3.06123e+01,-9.56047e+00,-2.29179e-01,1.64347e-01,3.65448e-01
1.59310e+03,3.03425e+01,-1.19506e+01,-2.30506e-01,1.61298e-01,3.62193e-01
1.59310e+03,3.00373e+01,-1.43407e+01,-2.31302e-01,1.58198e-01,3.58580e-01
1.59310e+03,2.97149e+01,-1.67308e+01,-2.31839e-01,1.55051e-01,3.54785e-01
1.59310e+03,2.93640e+01,-1.91209e+01,-2.31950e-01,1.51862e-01,3.50695e-01
1.59310e+03,2.89896e+01,-2.15111e+01,-2.31710e-01,1.48635e-01,3.46362e-01
1.59310e+03,2.85896e+01,-2.39012e+01,-2.31085e-01,1.45374e-01,3.41761e-01
1.59310e+03,2.81583e+01,-2.62913e+01,-2.29992e-01,1.42083e-01,3.36837e-01
1.59310e+03,2.76952e+01,-2.86814e+01,-2.28422e-01,1.38767e-01,3.31580e-01
1.59310e+03,2.71869e+01,-3.10715e+01,-2.26174e-01,1.35431e-01,3.25851e-01
1.59310e+03,2.66345e+01,-3.34616e+01,-2.23267e-01,1.32082e-01,3.19664e-01
1.59310e+03,2.60296e+01,-3.58518e+01,-2.19572e-01,1.28724e-01,3.12924e-01
1.59310e+03,2.53533e+01,-3.82419e+01,-2.14808e-01,1.25370e-01,3.05443e-01
1.59310e+03,2.46276e+01,-4.06320e+01,-2.09302e-01,1.22022e-01,2.97449e-01
1.59310e+03,2.37902e+01,-4.30221e+01,-2.02125e-01,1.18699e-01,2.88310e-01
1.59310e+03,2.29066e+01,-4.54122e+01,-1.94255e-01,1.15406e-01,2.78730e-01
1.59310e+03,2.18941e+01,-4.78023e+01,-1.84454e-01,1.12154e-01,2.67878e-01
1.59310e+03,2.07785e+01,-5.01925e+01,-1.73107e-01,1.08969e-01,2.56103e-01
1.59310e+03,1.95577e+01,-5.25826e+01,-1.60185e-01,1.05857e-01,2.43467e-01
1.59310e+03,1.81606e+01,-5.49727e+01,-1.44621e-01,1.02829e-01,2.29426e-01
1.59310e+03,1.65592e+01,-5.73628e+01,-1.25997e-01,9.99212e-02,2.14074e-01
1.59310e+03,1.47269e+01,-5.97529e+01,-1.03912e-01,9.71697e-02,1.97797e-01
1.59310e+03,1.25597e+01,-6.21430e+01,-7.68107e-02,9.45970e-02,1.80958e-01
1.59310e+03,9.77800e+00,-6.45332e+01,-4.05012e-02,9.23287e-02,1.64967e-01
1.59310e+03,6.01578e+00,-6.69233e+01,1.04984e-02,9.09430e-02,1.57867e-01
1.59310e+03,-2.43755e+00,-6.93134e+01,1.31783e-01,9.14923e-02,2.06105e-01
1.59310e+03,-3.04763e+00,-6.93189e+01,1.40911e-01,9.31979e-02,2.14275e-01
1.59310e+03,-8.60589e+00,-6.68433e+01,2.29750e-01,9.64324e-02,2.84047e-01
1.59310e+03,-9.27886e+00,-6.43676e+01,2.45393e-01,9.88220e-02,2.99191e-01
1.59310e+03,-9.51109e+00,-6.18919e+01,2.54433e-01,1.01337e-01,3.09101e-01
1.59310e+03,-9.54632e+00,-5.94162e+01,2.60522e-01,1.03968e-01,3.16701e-01
1.59310e+03,-9.43315e+00,-5.69406e+01,2.64387e-01,1.06695e-01,3.22570e-01
1.59310e+03,-9.22684e+00,-5.44649e+01,2.66856e-01,1.09502e-01,3.27390e-01
1.59310e+03,-8.92702e+00,-5.19892e+01,2.67925e-01,1.12372e-01,3.31159e-01
1.59310e+03,-8.57016e+00,-4.95135e+01,2.68139e-01,1.15292e-01,3.34328e-01
1.59310e+03,-8.18020e+00,-4.70379e+01,2.67857e-01,1.18254e-01,3.37194e-01
1.59310e+03,-7.74040e+00,-4.45622e+01,2.66828e-01,1.21251e-01,3.39562e-01
1.59310e+03,-7.26945e+00,-4.20865e+01,2.65333e-01,1.24272e-01,3.41661e-01
1.59310e+03,-6.76816e+00,-3.96108e+01,2.63383e-01,1.27314e-01,3.43507e-01
1.59310e+03,-6.23665e+00,-3.71351e+01,2.60980e-01,1.30369e-01,3.45106e-01
1.59310e+03,-5.68619e+00,-3.46595e+01,2.58293e-01,1.33432e-01,3.46594e-01
1.59310e+03,-5.11146e+00,-3.21838e+01,2.55243e-01,1.36498e-01,3.47914e-01
1.59310e+03,-4.52119e+00,-2.97081e+01,2.51960e-01,1.39563e-01,3.49167e-01
1.59310e+03,-3.91698e+00,-2.72324e+01,2.48467e-01,1.42624e-01,3.50373e-01
1.59310e+03,-3.30033e+00,-2.47568e+01,2.44789e-01,1.45677e-01,3.51549e-01
1.59310e+03,-2.67841e+00,-2.22811e+01,2.41032e-01,1.48720e-01,3.52773e-01
1.59310e+03,-2.04833e+00,-1.98054e+01,2.37152e-01,1.51750e-01,3.54014e-01
1.59310e+03,-1.41689e+00,-1.73297e+01,2.33252e-01,1.54768e-01,3.55340e-01
1.59310e+03,-7.80581e-01,-1.48541e+01,2.29279e-01,1.57772e-01,3.56714e-01
1.59310e+03,-1.44332e-01,-1.23784e+01,2.25307e-01,1.60761e-01,3.58184e-01
1.59310e+03,4.89512e-01,-9.90271e+00,2.21371e-01,1.63735e-01,3.59767e-01
1.59310e+03,1.12336e+00,-7.42703e+00,2.17435e-01,1.66693e-01,3.61438e-01
1.59310e+03,1.74219e+00,-4.95135e+00,2.13724e-01,1.69637e-01,3.63329e-01
1.59310e+03,2.35823e+00,-2.47568e+00,2.10055e-01,1.72568e-01,3.65325e-01
1.65850e+03,3.04021e+01,0.00000e+00,-1.58411e-01,1.46304e-01,2.98846e-01
1.65850e+03,3.02490e+01,-2.31024e+00,-1.60563e-01,1.44026e-01,2.96666e-01
1.65850e+03,3.00453e+01,-4.62048e+00,-1.62152e-01,1.41692e-01,2.94147e-01
1.65850e+03,2.98396e+01,-6.93072e+00,-1.63717e-01,1.39304e-01,2.91583e-01
1.65850e+03,2.95892e+01,-9.24096e+00,-1.64785e-01,1.36869e-01,2.88709e-01
1.65850e+03,2.93285e+01,-1.15512e+01,-1.65737e-01,1.34388e-01,2.85743e-01
1.65850e+03,2.90335e+01,-1.38614e+01,-1.66307e-01,1.31865e-01,2.82530e-01
1.65850e+03,2.87218e+01,-1.61717e+01,-1.66691e-01,1.29305e-01,2.79187e-01
1.65850e+03,2.83826e+01,-1.84819e+01,-1.66768e-01,1.26710e-01,2.75641e-01
1.65850e+03,2.80208e+01,-2.07921e+01,-1.66592e-01,1.24084e-01,2.71926e-01
1.65850e+03,2.76341e+01,-2.31024e+01,-1.66139e-01,1.21431e-01,2.68027e-01
1.65850e+03,2.72173e+01,-2.54126e+01,-1.65350e-01,1.18753e-01,2.63908e-01
1.65850e+03,2.67696e+01,-2.77229e+01,-1.64217e-01,1.16055e-01,2.59564e-01
1.65850e+03,2.62783e+01,-3.00331e+01,-1.62597e-01,1.13340e-01,2.54904e-01
1.65850e+03,2.57444e+01,-3.23433e+01,-1.60502e-01,1.10615e-01,2.49936e-01
1.65850e+03,2.51597e+01,-3.46536e+01,-1.57840e-01,1.07884e-01,2.44602e-01
1.65850e+03,2.45060e+01,-3.69638e+01,-1.54409e-01,1.05155e-01,2.38778e-01
1.65850e+03,2.38045e+01,-3.92741e+01,-1.50444e-01,1.02431e-01,2.32615e-01
1.65850e+03,2.29951e+01,-4.15843e+01,-1.45276e-01,9.97263e-02,2.25702e-01
1.65850e+03,2.21410e+01,-4.38945e+01,-1.39610e-01,9.70476e-02,2.18508e-01
1.65850e+03,2.11624e+01,-4.62048e+01,-1.32554e-01,9.44015e-02,2.10489e-01
1.65850e+03,2.00840e+01,-4.85150e+01,-1.24385e-01,9.18102e-02,2.01889e-01
1.65850e+03,1.89041e+01,-5.08253e+01,-1.15084e-01,8.92779e-02,1.92759e-01
1.65850e+03,1.75537e+01,-5.31355e+01,-1.03881e-01,8.68142e-02,1.82760e-01
1.65850e+03,1.60058e+01,-5.54457e+01,-9.04748e-02,8.44487e-02,1.71990e-01
1.65850e+03,1.42348e+01,-5.77560e+01,-7.45795e-02,8.22101e-02,1.60741e-01
1.65850e+03,1.21400e+01,-6.00662e+01,-5.50735e-02,8.01170e-02,1.49296e-01
1.65850e+03,9.45122e+00,-6.23764e+01,-2.89412e-02,7.82717e-02,1.38625e-01
1.65850e+03,5.81473e+00,-6.46867e+01,7.76259e-03,7.71446e-02,1.33844e-01
1.65850e+03,-2.35608e+00,-6.69969e+01,9.50458e-02,7.75917e-02,1.64606e-01
1.65850e+03,-2.94577e+00,-6.70023e+01,1.01615e-01,7.89797e-02,1.70408e-01
1.65850e+03,-8.31828e+00,-6.46093e+01,1.65542e-01,8.16116e-02,2.17683e-01
1.65850e+03,-8.96876e+00,-6.22164e+01,1.76797e-01,8.35559e-02,2.28478e-01
1.65850e+03,-9.19322e+00,-5.98235e+01,1.83300e-01,8.56020e-02,2.35758e-01
1.65850e+03,-9.22728e+00,-5.74305e+01,1.87678e-01,8.77428e-02,2.41494e-01
1.65850e+03,-9.11789e+00,-5.50376e+01,1.90457e-01,8.99617e-02,2.46075e-01
1.65850e+03,-8.91848e+00,-5.26447e+01,1.92231e-01,9.22456e-02,2.49961e-01
1.65850e+03,-8.62868e+00,-5.02517e+01,1.92997e-01,9.45812e-02,2.53149e-01
1.65850e+03,-8.28374e+00,-4.78588e+01,1.93148e-01,9.69571e-02,2.55946e-01
1.65850e+03,-7.90682e+00,-4.54658e+01,1.92942e-01,9.93672e-02,2.58550e-01
1.65850e+03,-7.48171e+00,-4.30729e+01,1.92199e-01,1.01805e-01,2.60832e-01
1.65850e+03,-7.02650e+00,-4.06800e+01,1.91120e-01,1.04263e-01,2.62944e-01
1.65850e+03,-6.54196e+00,-3.82870e+01,1.89714e-01,1.06738e-01,2.64897e-01
1.65850e+03,-6.02822e+00,-3.58941e+01,1.87981e-01,1.09224e-01,2.66695e-01
1.65850e+03,-5.49615e+00,-3.35011e+01,1.86045e-01,1.11716e-01,2.68429e-01
1.65850e+03,-4.94063e+00,-3.11082e+01,1.83847e-01,1.14210e-01,2.70059e-01
1.65850e+03,-4.37009e+00,-2.87153e+01,1.81481e-01,1.16704e-01,2.71653e-01
1.65850e+03,-3.78607e+00,-2.63223e+01,1.78966e-01,1.19195e-01,2.73223e-01
1.65850e+03,-3.19003e+00,-2.39294e+01,1.76315e-01,1.21678e-01,2.74780e-01
1.65850e+03,-2.58890e+00,-2.15364e+01,1.73609e-01,1.24154e-01,2.76374e-01
1.65850e+03,-1.97988e+00,-1.91435e+01,1.70814e-01,1.26620e-01,2.77984e-01
1.65850e+03,-1.36954e+00,-1.67506e+01,1.68004e-01,1.29075e-01,2.79654e-01
1.65850e+03,-7.54494e-01,-1.43576e+01,1.65142e-01,1.31519e-01,2.81360e-01
1.65850e+03,-1.39508e-01,-1.19647e+01,1.62281e-01,1.33950e-01,2.83131e-01
1.65850e+03,4.73153e-01,-9.57176e+00,1.59445e-01,1.36370e-01,2.84979e-01
1.65850e+03,1.08581e+00,-7.17882e+00,1.56610e-01,1.38776e-01,2.86886e-01
1.65850e+03,1.68397e+00,-4.78588e+00,1.53936e-01,1.41171e-01,2.88937e-01
1.65850e+03,2.27942e+00,-2.39294e+00,1.51293e-01,1.43556e-01,2.91058e-01
1.71930e+03,2.94249e+01,0.00000e+00,-1.09842e-01,1.17602e-01,2.31422e-01
1.71930e+03,2.92767e+01,-2.23598e+00,-1.11330e-01,1.15793e-01,2.29388e-01
1.71930e+03,2.90795e+01,-4.47196e+00,-1.12427e-01,1.13941e-01,2.27128e-01
1.71930e+03,2.88804e+01,-6.70794e+00,-1.13508e-01,1.12046e-01,2.24826e-01
1.71930e+03,2.86381e+01,-8.94392e+00,-1.14243e-01,1.10113e-01,2.22319e-01
1.71930e+03,2.83857e+01,-1.11799e+01,-1.14898e-01,1.08143e-01,2.19742e-01
1.71930e+03,2.81002e+01,-1.34159e+01,-1.15288e-01,1.06141e-01,2.17001e-01
1.71930e+03,2.77986e+01,-1.56519e+01,-1.15549e-01,1.04109e-01,2.14168e-01
1.71930e+03,2.74703e+01,-1.78878e+01,-1.15597e-01,1.02050e-01,2.11199e-01
1.71930e+03,2.71201e+01,-2.01238e+01,-1.15469e-01,9.99658e-02,2.08117e-01
1.71930e+03,2.67458e+01,-2.23598e+01,-1.15149e-01,9.78597e-02,2.04912e-01
1.71930e+03,2.63424e+01,-2.45958e+01,-1.14596e-01,9.57346e-02,2.01563e-01
1.71930e+03,2.59091e+01,-2.68317e+01,-1.13804e-01,9.35929e-02,1.98067e-01
1.71930e+03,2.54336e+01,-2.90677e+01,-1.12675e-01,9.14386e-02,1.94367e-01
1.71930e+03,2.49169e+01,-3.13037e+01,-1.11216e-01,8.92759e-02,1.90472e-01
1.71930e+03,2.43509e+01,-3.35397e+01,-1.09363e-01,8.71077e-02,1.86342e-01
1.71930e+03,2.37183e+01,-3.57757e+01,-1.06977e-01,8.49420e-02,1.81905e-01
1.71930e+03,2.30393e+01,-3.80116e+01,-1.04220e-01,8.27801e-02,1.77255e-01
1.71930e+03,2.22560e+01,-4.02476e+01,-1.00629e-01,8.06337e-02,1.72138e-01
1.71930e+03,2.14293e+01,-4.24836e+01,-9.66911e-02,7.85078e-02,1.66852e-01
1.71930e+03,2.04822e+01,-4.47196e+01,-9.17899e-02,7.64077e-02,1.61058e-01
1.71930e+03,1.94385e+01,-4.69556e+01,-8.61162e-02,7.43511e-02,1.54920e-01
1.71930e+03,1.82964e+01,-4.91915e+01,-7.96565e-02,7.23414e-02,1.48476e-01
1.71930e+03,1.69894e+01,-5.14275e+01,-7.18775e-02,7.03861e-02,1.41524e-01
1.71930e+03,1.54913e+01,-5.36635e+01,-6.25700e-02,6.85089e-02,1.34147e-01
1.71930e+03,1.37772e+01,-5.58995e+01,-5.15352e-02,6.67323e-02,1.26552e-01
1.71930e+03,1.17498e+01,-5.81355e+01,-3.79949e-02,6.50712e-02,1.18939e-01
1.71930e+03,9.14742e+00,-6.03714e+01,-1.98569e-02,6.36068e-02,1.11945e-01
1.71930e+03,5.62782e+00,-6.26074e+01,5.61633e-03,6.27126e-02,1.08766e-01
1.71930e+03,-2.28035e+00,-6.48434e+01,6.61852e-02,6.30677e-02,1.27723e-01
1.71930e+03,-2.85109e+00,-6.48486e+01,7.07432e-02,6.41693e-02,1.31749e-01
1.71930e+03,-8.05090e+00,-6.25326e+01,1.15095e-01,6.62583e-02,1.62534e-01
1.71930e+03,-8.68047e+00,-6.02165e+01,1.22899e-01,6.78015e-02,1.69986e-01
1.71930e+03,-8.89772e+00,-5.79005e+01,1.27405e-01,6.94255e-02,1.75190e-01
1.71930e+03,-8.93068e+00,-5.55845e+01,1.30437e-01,7.11246e-02,1.79416e-01
1.71930e+03,-8.82481e+00,-5.32685e+01,1.32359e-01,7.28856e-02,1.82910e-01
1.71930e+03,-8.63181e+00,-5.09525e+01,1.33585e-01,7.46983e-02,1.85969e-01
1.71930e+03,-8.35132e+00,-4.86364e+01,1.34110e-01,7.65520e-02,1.88590e-01
1.71930e+03,-8.01747e+00,-4.63204e+01,1.34209e-01,7.84376e-02,1.90970e-01
1.71930e+03,-7.65266e+00,-4.40044e+01,1.34061e-01,8.03504e-02,1.93238e-01
1.71930e+03,-7.24122e+00,-4.16884e+01,1.33539e-01,8.22851e-02,1.95308e-01
1.71930e+03,-6.80064e+00,-3.93724e+01,1.32785e-01,8.42363e-02,1.97279e-01
1.71930e+03,-6.33168e+00,-3.70563e+01,1.31803e-01,8.62003e-02,1.99157e-01
1.71930e+03,-5.83445e+00,-3.47403e+01,1.30596e-01,8.81727e-02,2.00944e-01
1.71930e+03,-5.31949e+00,-3.24243e+01,1.29246e-01,9.01505e-02,2.02697e-01
1.71930e+03,-4.78182e+00,-3.01083e+01,1.27715e-01,9.21305e-02,2.04390e-01
1.71930e+03,-4.22962e+00,-2.77922e+01,1.26068e-01,9.41096e-02,2.06066e-01
1.71930e+03,-3.66437e+00,-2.54762e+01,1.24317e-01,9.60859e-02,2.07731e-01
1.71930e+03,-3.08749e+00,-2.31602e+01,1.22472e-01,9.80570e-02,2.09392e-01
1.71930e+03,-2.50568e+00,-2.08442e+01,1.20588e-01,1.00022e-01,2.11079e-01
1.71930e+03,-1.91624e+00,-1.85282e+01,1.18643e-01,1.01979e-01,2.12779e-01
1.71930e+03,-1.32552e+00,-1.62121e+01,1.16688e-01,1.03927e-01,2.14519e-01
1.71930e+03,-7.30242e-01,-1.38961e+01,1.14696e-01,1.05866e-01,2.16283e-01
1.71930e+03,-1.35024e-01,-1.15801e+01,1.12705e-01,1.07796e-01,2.18088e-01
1.71930e+03,4.57944e-01,-9.26408e+00,1.10732e-01,1.09716e-01,2.19942e-01
1.71930e+03,1.05091e+00,-6.94806e+00,1.08759e-01,1.11626e-01,2.21832e-01
1.71930e+03,1.62984e+00,-4.63204e+00,1.06898e-01,1.13526e-01,2.23812e-01
1.71930e+03,2.20615e+00,-2.31602e+00,1.05058e-01,1.15419e-01,2.25835e-01
1.77540e+03,2.77303e+01,0.00000e+00,-1.31073e-01,1.16302e-01,2.40331e-01
1.77540e+03,2.75906e+01,-2.10721e+00,-1.33452e-01,1.13873e-01,2.38140e-01
1.77540e+03,2.74048e+01,-4.21442e+00,-1.35364e-01,1.11383e-01,2.35674e-01
1.77540e+03,2.72172e+01,-6.32163e+00,-1.37257e-01,1.08837e-01,2.33187e-01
1.77540e+03,2.69888e+01,-8.42884e+00,-1.38737e-01,1.06238e-01,2.30451e-01
1.77540e+03,2.67510e+01,-1.05361e+01,-1.40122e-01,1.03591e-01,2.27657e-01
1.77540e+03,2.64819e+01,-1.26433e+01,-1.41190e-01,1.00899e-01,2.24670e-01
1.77540e+03,2.61977e+01,-1.47505e+01,-1.42104e-01,9.81667e-02,2.21593e-01
1.77540e+03,2.58883e+01,-1.68577e+01,-1.42763e-01,9.53967e-02,2.18364e-01
1.77540e+03,2.55583e+01,-1.89649e+01,-1.43214e-01,9.25934e-02,2.15013e-01
1.77540e+03,2.52056e+01,-2.10721e+01,-1.43434e-01,8.97600e-02,2.11528e-01
1.77540e+03,2.48254e+01,-2.31793e+01,-1.43376e-01,8.69005e-02,2.07875e-01
1.77540e+03,2.44171e+01,-2.52865e+01,-1.43034e-01,8.40185e-02,2.04049e-01
1.77540e+03,2.39689e+01,-2.73937e+01,-1.42287e-01,8.11191e-02,1.99966e-01
1.77540e+03,2.34819e+01,-2.95009e+01,-1.41148e-01,7.82080e-02,1.95633e-01
1.77540e+03,2.29486e+01,-3.16082e+01,-1.39538e-01,7.52892e-02,1.90988e-01
1.77540e+03,2.23524e+01,-3.37154e+01,-1.37292e-01,7.23734e-02,1.85911e-01
1.77540e+03,2.17125e+01,-3.58226e+01,-1.34603e-01,6.94624e-02,1.80535e-01
1.77540e+03,2.09743e+01,-3.79298e+01,-1.30917e-01,6.65718e-02,1.74456e-01
1.77540e+03,2.01952e+01,-4.00370e+01,-1.26819e-01,6.37085e-02,1.68105e-01
1.77540e+03,1.93026e+01,-4.21442e+01,-1.21569e-01,6.08797e-02,1.60929e-01
1.77540e+03,1.83190e+01,-4.42514e+01,-1.15398e-01,5.81090e-02,1.53123e-01
1.77540e+03,1.72428e+01,-4.63586e+01,-1.08288e-01,5.54011e-02,1.44686e-01
1.77540e+03,1.60110e+01,-4.84658e+01,-9.96026e-02,5.27660e-02,1.35179e-01
1.77540e+03,1.45992e+01,-5.05731e+01,-8.90925e-02,5.02355e-02,1.24532e-01
1.77540e+03,1.29838e+01,-5.26803e+01,-7.65200e-02,4.78401e-02,1.12789e-01
1.77540e+03,1.10731e+01,-5.47875e+01,-6.09562e-02,4.55995e-02,9.97678e-02
1.77540e+03,8.62063e+00,-5.68947e+01,-3.99029e-02,4.36227e-02,8.54463e-02
1.77540e+03,5.30372e+00,-5.90019e+01,-1.00918e-02,4.24102e-02,7.41466e-02
1.77540e+03,-2.14903e+00,-6.11091e+01,6.16216e-02,4.28825e-02,9.65088e-02
1.77540e+03,-2.68689e+00,-6.11140e+01,6.70622e-02,4.43622e-02,1.01987e-01
1.77540e+03,-7.58725e+00,-5.89314e+01,1.20640e-01,4.71709e-02,1.45703e-01
1.77540e+03,-8.18057e+00,-5.67487e+01,1.30581e-01,4.92470e-02,1.55972e-01
1.77540e+03,-8.38530e+00,-5.45661e+01,1.36585e-01,5.14323e-02,1.63069e-01
1.77540e+03,-8.41637e+00,-5.23834e+01,1.40830e-01,5.37193e-02,1.68791e-01
1.77540e+03,-8.31659e+00,-5.02008e+01,1.43749e-01,5.60900e-02,1.73499e-01
1.77540e+03,-8.13471e+00,-4.80181e+01,1.45836e-01,5.85306e-02,1.77611e-01
1.77540e+03,-7.87037e+00,-4.58355e+01,1.47088e-01,6.10269e-02,1.81129e-01
1.77540e+03,-7.55575e+00,-4.36529e+01,1.47830e-01,6.35666e-02,1.84325e-01
1.77540e+03,-7.21195e+00,-4.14702e+01,1.48276e-01,6.61433e-02,1.87379e-01
1.77540e+03,-6.82421e+00,-3.92876e+01,1.48278e-01,6.87498e-02,1.90173e-01
1.77540e+03,-6.40900e+00,-3.71049e+01,1.48001e-01,7.13790e-02,1.92845e-01
1.77540e+03,-5.96704e+00,-3.49223e+01,1.47453e-01,7.40258e-02,1.95402e-01
1.77540e+03,-5.49844e+00,-3.27396e+01,1.46636e-01,7.66844e-02,1.97847e-01
1.77540e+03,-5.01314e+00,-3.05570e+01,1.45649e-01,7.93505e-02,2.00257e-01
1.77540e+03,-4.50644e+00,-2.83744e+01,1.44445e-01,8.20200e-02,2.02598e-01
1.77540e+03,-3.98604e+00,-2.61917e+01,1.43102e-01,8.46888e-02,2.04926e-01
1.77540e+03,-3.45334e+00,-2.40091e+01,1.41635e-01,8.73540e-02,2.07250e-01
1.77540e+03,-2.90969e+00,-2.18264e+01,1.40057e-01,9.00127e-02,2.09578e-01
1.77540e+03,-2.36138e+00,-1.96438e+01,1.38432e-01,9.26631e-02,2.11950e-01
1.77540e+03,-1.80588e+00,-1.74611e+01,1.36733e-01,9.53034e-02,2.14346e-01
1.77540e+03,-1.24918e+00,-1.52785e+01,1.35023e-01,9.79328e-02,2.16803e-01
1.77540e+03,-6.88187e-01,-1.30959e+01,1.33269e-01,1.00550e-01,2.19298e-01
1.77540e+03,-1.27248e-01,-1.09132e+01,1.31516e-01,1.03155e-01,2.21854e-01
1.77540e+03,4.31571e-01,-8.73057e+00,1.29784e-01,1.05747e-01,2.24480e-01
1.77540e+03,9.90390e-01,-6.54793e+00,1.28052e-01,1.08326e-01,2.27159e-01
1.77540e+03,1.53598e+00,-4.36529e+00,1.26455e-01,1.10893e-01,2.29962e-01
1.77540e+03,2.07910e+00,-2.18264e+00,1.24882e-01,1.13449e-01,2.32825e-01
1.82660e+03,2.53092e+01,0.00000e+00,-9.00548e-02,9.27303e-02,1.84137e-01
1.82660e+03,2.51817e+01,-1.92323e+00,-9.16927e-02,9.08701e-02,1.82153e-01
1.82660e+03,2.50121e+01,-3.84646e+00,-9.30089e-02,8.89643e-02,1.79985e-01
1.82660e+03,2.48409e+01,-5.76969e+00,-9.43122e-02,8.70149e-02,1.77791e-01
1.82660e+03,2.46324e+01,-7.69292e+00,-9.53315e-02,8.50256e-02,1.75431e-01
1.82660e+03,2.44154e+01,-9.61614e+00,-9.62848e-02,8.29991e-02,1.73024e-01
1.82660e+03,2.41698e+01,-1.15394e+01,-9.70201e-02,8.09385e-02,1.70488e-01
1.82660e+03,2.39103e+01,-1.34626e+01,-9.76495e-02,7.88467e-02,1.67886e-01
1.82660e+03,2.36280e+01,-1.53858e+01,-9.81038e-02,7.67263e-02,1.65182e-01
1.82660e+03,2.33268e+01,-1.73091e+01,-9.84141e-02,7.45805e-02,1.62395e-01
1.82660e+03,2.30049e+01,-1.92323e+01,-9.85661e-02,7.24118e-02,1.59517e-01
1.82660e+03,2.26579e+01,-2.11555e+01,-9.85266e-02,7.02231e-02,1.56529e-01
1.82660e+03,2.22852e+01,-2.30787e+01,-9.82908e-02,6.80173e-02,1.53428e-01
1.82660e+03,2.18762e+01,-2.50020e+01,-9.77773e-02,6.57981e-02,1.50162e-01
1.82660e+03,2.14317e+01,-2.69252e+01,-9.69931e-02,6.35700e-02,1.46735e-01
1.82660e+03,2.09449e+01,-2.88484e+01,-9.58853e-02,6.13362e-02,1.43110e-01
1.82660e+03,2.04008e+01,-3.07717e+01,-9.43393e-02,5.91046e-02,1.39212e-01
1.82660e+03,1.98168e+01,-3.26949e+01,-9.24886e-02,5.68768e-02,1.35126e-01
1.82660e+03,1.91430e+01,-3.46181e+01,-8.99519e-02,5.46647e-02,1.30599e-01
1.82660e+03,1.84320e+01,-3.65413e+01,-8.71308e-02,5.24735e-02,1.25905e-01
1.82660e+03,1.76173e+01,-3.84646e+01,-8.35177e-02,5.03087e-02,1.20698e-01
1.82660e+03,1.67196e+01,-4.03878e+01,-7.92697e-02,4.81884e-02,1.15109e-01
1.82660e+03,1.57373e+01,-4.23110e+01,-7.43756e-02,4.61163e-02,1.09141e-01
1.82660e+03,1.46131e+01,-4.42343e+01,-6.83973e-02,4.40999e-02,1.02531e-01
1.82660e+03,1.33245e+01,-4.61575e+01,-6.11628e-02,4.21637e-02,9.52587e-02
1.82660e+03,1.18502e+01,-4.80807e+01,-5.25087e-02,4.03309e-02,8.73893e-02
1.82660e+03,1.01063e+01,-5.00040e+01,-4.17953e-02,3.86166e-02,7.88706e-02
1.82660e+03,7.86795e+00,-5.19272e+01,-2.73033e-02,3.71044e-02,6.98261e-02
1.82660e+03,4.84065e+00,-5.38504e+01,-6.78272e-03,3.61775e-02,6.30273e-02
1.82660e+03,-1.96139e+00,-5.57736e+01,4.25818e-02,3.65397e-02,7.62801e-02
1.82660e+03,-2.45230e+00,-5.57781e+01,4.63269e-02,3.76725e-02,8.00239e-02
1.82660e+03,-6.92480e+00,-5.37860e+01,8.32080e-02,3.98225e-02,1.08079e-01
1.82660e+03,-7.46632e+00,-5.17940e+01,9.00513e-02,4.14116e-02,1.15126e-01
1.82660e+03,-7.65318e+00,-4.98019e+01,9.41846e-02,4.30842e-02,1.20164e-01
1.82660e+03,-7.68153e+00,-4.78098e+01,9.71067e-02,4.48345e-02,1.24339e-01
1.82660e+03,-7.59047e+00,-4.58177e+01,9.91162e-02,4.66489e-02,1.27876e-01
1.82660e+03,-7.42446e+00,-4.38257e+01,1.00553e-01,4.85167e-02,1.31044e-01
1.82660e+03,-7.18321e+00,-4.18336e+01,1.01415e-01,5.04270e-02,1.33842e-01
1.82660e+03,-6.89605e+00,-3.98415e+01,1.01926e-01,5.23705e-02,1.36444e-01
1.82660e+03,-6.58227e+00,-3.78494e+01,1.02234e-01,5.43423e-02,1.38964e-01
1.82660e+03,-6.22838e+00,-3.58574e+01,1.02235e-01,5.63369e-02,1.41328e-01
1.82660e+03,-5.84943e+00,-3.38653e+01,1.02045e-01,5.83487e-02,1.43621e-01
1.82660e+03,-5.44606e+00,-3.18732e+01,1.01668e-01,6.03740e-02,1.45847e-01
1.82660e+03,-5.01837e+00,-2.98811e+01,1.01105e-01,6.24082e-02,1.48009e-01
1.82660e+03,-4.57544e+00,-2.78891e+01,1.00426e-01,6.44482e-02,1.50154e-01
1.82660e+03,-4.11298e+00,-2.58970e+01,9.95979e-02,6.64906e-02,1.52259e-01
1.82660e+03,-3.63801e+00,-2.39049e+01,9.86740e-02,6.85325e-02,1.54359e-01
1.82660e+03,-3.15183e+00,-2.19128e+01,9.76644e-02,7.05717e-02,1.56459e-01
1.82660e+03,-2.65564e+00,-1.99208e+01,9.65782e-02,7.26058e-02,1.58563e-01
1.82660e+03,-2.15521e+00,-1.79287e+01,9.54597e-02,7.46334e-02,1.60695e-01
1.82660e+03,-1.64821e+00,-1.59366e+01,9.42910e-02,7.66533e-02,1.62843e-01
1.82660e+03,-1.14012e+00,-1.39445e+01,9.31139e-02,7.86648e-02,1.65029e-01
1.82660e+03,-6.28101e-01,-1.19525e+01,9.19069e-02,8.06671e-02,1.67238e-01
1.82660e+03,-1.16138e-01,-9.96038e+00,9.07003e-02,8.26597e-02,1.69483e-01
1.82660e+03,3.93890e-01,-7.96830e+00,8.95084e-02,8.46426e-02,1.71770e-01
1.82660e+03,9.03919e-01,-5.97623e+00,8.83165e-02,8.66152e-02,1.74087e-01
1.82660e+03,1.40187e+00,-3.98415e+00,8.72170e-02,8.85785e-02,1.76480e-01
1.82660e+03,1.89757e+00,-1.99208e+00,8.61346e-02,9.05336e-02,1.78908e-01
1.87280e+03,2.31244e+01,0.00000e+00,-5.83095e-02,7.28680e-02,1.39030e-01
1.87280e+03,2.30080e+01,-1.75721e+00,-5.93972e-02,7.14894e-02,1.37333e-01
1.87280e+03,2.28531e+01,-3.51443e+00,-6.02759e-02,7.00770e-02,1.35520e-01
1.87280e+03,2.26966e+01,-5.27164e+00,-6.11462e-02,6.86324e-02,1.33679e-01
1.87280e+03,2.25061e+01,-7.02886e+00,-6.18320e-02,6.71582e-02,1.31734e-01
1.87280e+03,2.23078e+01,-8.78607e+00,-6.24750e-02,6.56565e-02,1.29751e-01
1.87280e+03,2.20834e+01,-1.05433e+01,-6.29763e-02,6.41295e-02,1.27686e-01
1.87280e+03,2.18464e+01,-1.23005e+01,-6.34089e-02,6.25795e-02,1.25576e-01
1.87280e+03,2.15884e+01,-1.40577e+01,-6.37276e-02,6.10084e-02,1.23399e-01
1.87280e+03,2.13132e+01,-1.58149e+01,-6.39529e-02,5.94185e-02,1.21168e-01
1.87280e+03,2.10191e+01,-1.75721e+01,-6.40753e-02,5.78115e-02,1.18879e-01
1.87280e+03,2.07020e+01,-1.93294e+01,-6.40733e-02,5.61899e-02,1.16522e-01
1.87280e+03,2.03615e+01,-2.10866e+01,-6.39438e-02,5.45556e-02,1.14095e-01
1.87280e+03,1.99878e+01,-2.28438e+01,-6.36338e-02,5.29114e-02,1.11571e-01
1.87280e+03,1.95817e+01,-2.46010e+01,-6.31480e-02,5.12607e-02,1.08952e-01
1.87280e+03,1.91369e+01,-2.63582e+01,-6.24521e-02,4.96057e-02,1.06219e-01
1.87280e+03,1.86398e+01,-2.81154e+01,-6.14714e-02,4.79524e-02,1.03330e-01
1.87280e+03,1.81062e+01,-2.98726e+01,-6.02928e-02,4.63020e-02,1.00334e-01
1.87280e+03,1.74905e+01,-3.16299e+01,-5.86685e-02,4.46632e-02,9.70896e-02
1.87280e+03,1.68409e+01,-3.33871e+01,-5.68595e-02,4.30399e-02,9.37566e-02
1.87280e+03,1.60966e+01,-3.51443e+01,-5.45359e-02,4.14362e-02,9.01391e-02
1.87280e+03,1.52763e+01,-3.69015e+01,-5.18000e-02,3.98656e-02,8.63194e-02
1.87280e+03,1.43788e+01,-3.86587e+01,-4.86443e-02,3.83306e-02,8.23042e-02
1.87280e+03,1.33517e+01,-4.04159e+01,-4.47843e-02,3.68370e-02,7.79521e-02
1.87280e+03,1.21743e+01,-4.21731e+01,-4.01082e-02,3.54028e-02,7.32717e-02
1.87280e+03,1.08272e+01,-4.39304e+01,-3.45098e-02,3.40453e-02,6.83240e-02
1.87280e+03,9.23393e+00,-4.56876e+01,-2.75738e-02,3.27756e-02,6.31113e-02
1.87280e+03,7.18879e+00,-4.74448e+01,-1.81829e-02,3.16558e-02,5.77658e-02
1.87280e+03,4.42280e+00,-4.92020e+01,-4.87576e-03,3.09698e-02,5.38625e-02
1.87280e+03,-1.79208e+00,-5.09592e+01,2.71693e-02,3.12386e-02,6.05453e-02
1.87280e+03,-2.24062e+00,-5.09633e+01,2.96022e-02,3.20782e-02,6.29549e-02
1.87280e+03,-6.32705e+00,-4.91432e+01,5.35859e-02,3.36714e-02,7.92006e-02
1.87280e+03,-6.82182e+00,-4.73231e+01,5.80560e-02,3.48488e-02,8.37485e-02
1.87280e+03,-6.99255e+00,-4.55029e+01,6.07656e-02,3.60879e-02,8.71750e-02
1.87280e+03,-7.01846e+00,-4.36828e+01,6.26884e-02,3.73847e-02,9.01260e-02
1.87280e+03,-6.93525e+00,-4.18627e+01,6.40184e-02,3.87289e-02,9.27262e-02
1.87280e+03,-6.78358e+00,-4.00426e+01,6.49764e-02,4.01126e-02,9.51262e-02
1.87280e+03,-6.56315e+00,-3.82225e+01,6.55608e-02,4.15278e-02,9.73237e-02
1.87280e+03,-6.30078e+00,-3.64024e+01,6.59174e-02,4.29676e-02,9.94170e-02
1.87280e+03,-6.01408e+00,-3.45822e+01,6.61418e-02,4.44282e-02,1.01471e-01
1.87280e+03,-5.69074e+00,-3.27621e+01,6.61671e-02,4.59057e-02,1.03441e-01
1.87280e+03,-5.34450e+00,-3.09420e+01,6.60680e-02,4.73959e-02,1.05376e-01
1.87280e+03,-4.97595e+00,-2.91219e+01,6.58477e-02,4.88961e-02,1.07277e-01
1.87280e+03,-4.58518e+00,-2.73018e+01,6.55067e-02,5.04029e-02,1.09144e-01
1.87280e+03,-4.18049e+00,-2.54816e+01,6.50900e-02,5.19139e-02,1.11004e-01
1.87280e+03,-3.75794e+00,-2.36615e+01,6.45764e-02,5.34267e-02,1.12842e-01
1.87280e+03,-3.32398e+00,-2.18414e+01,6.40007e-02,5.49390e-02,1.14678e-01
1.87280e+03,-2.87976e+00,-2.00213e+01,6.33693e-02,5.64493e-02,1.16513e-01
1.87280e+03,-2.42640e+00,-1.82012e+01,6.26882e-02,5.79558e-02,1.18349e-01
1.87280e+03,-1.96917e+00,-1.63811e+01,6.19861e-02,5.94574e-02,1.20199e-01
1.87280e+03,-1.50594e+00,-1.45609e+01,6.12514e-02,6.09533e-02,1.22056e-01
1.87280e+03,-1.04170e+00,-1.27408e+01,6.05112e-02,6.24430e-02,1.23931e-01
1.87280e+03,-5.73883e-01,-1.09207e+01,5.97516e-02,6.39258e-02,1.25816e-01
1.87280e+03,-1.06113e-01,-9.10059e+00,5.89922e-02,6.54014e-02,1.27719e-01
1.87280e+03,3.59890e-01,-7.28047e+00,5.82425e-02,6.68697e-02,1.29641e-01
1.87280e+03,8.25892e-01,-5.46035e+00,5.74927e-02,6.83304e-02,1.31577e-01
1.87280e+03,1.28086e+00,-3.64024e+00,5.68029e-02,6.97842e-02,1.33552e-01
1.87280e+03,1.73377e+00,-1.82012e+00,5.61243e-02,7.12319e-02,1.35543e-01
1.91380e+03,2.11856e+01,0.00000e+00,-3.50427e-02,5.54151e-02,1.02179e-01
1.91380e+03,2.10789e+01,-1.60989e+00,-3.57331e-02,5.44341e-02,1.00827e-01
1.91380e+03,2.09370e+01,-3.21977e+00,-3.62972e-02,5.34292e-02,9.94058e-02
1.91380e+03,2.07936e+01,-4.82966e+00,-3.68562e-02,5.24013e-02,9.79596e-02
1.91380e+03,2.06192e+01,-6.43954e+00,-3.73039e-02,5.13524e-02,9.64510e-02
1.91380e+03,2.04375e+01,-8.04943e+00,-3.77256e-02,5.02840e-02,9.49140e-02
1.91380e+03,2.02319e+01,-9.65931e+00,-3.80618e-02,4.91977e-02,9.33271e-02
1.91380e+03,2.00147e+01,-1.12692e+01,-3.83565e-02,4.80950e-02,9.17093e-02
1.91380e+03,1.97784e+01,-1.28791e+01,-3.85824e-02,4.69772e-02,9.00510e-02
1.91380e+03,1.95262e+01,-1.44890e+01,-3.87519e-02,4.58461e-02,8.83590e-02
1.91380e+03,1.92568e+01,-1.60989e+01,-3.88593e-02,4.47030e-02,8.66321e-02
1.91380e+03,1.89663e+01,-1.77087e+01,-3.88915e-02,4.35494e-02,8.48658e-02
1.91380e+03,1.86544e+01,-1.93186e+01,-3.88468e-02,4.23868e-02,8.30601e-02
1.91380e+03,1.83120e+01,-2.09285e+01,-3.86930e-02,4.12172e-02,8.12017e-02
1.91380e+03,1.79399e+01,-2.25384e+01,-3.84331e-02,4.00430e-02,7.92932e-02
1.91380e+03,1.75325e+01,-2.41483e+01,-3.80462e-02,3.88658e-02,7.73250e-02
1.91380e+03,1.70770e+01,-2.57582e+01,-3.74874e-02,3.76897e-02,7.52785e-02
1.91380e+03,1.65881e+01,-2.73680e+01,-3.68090e-02,3.65158e-02,7.31786e-02
1.91380e+03,1.60241e+01,-2.89779e+01,-3.58615e-02,3.53501e-02,7.09573e-02
1.91380e+03,1.54289e+01,-3.05878e+01,-3.48025e-02,3.41955e-02,6.86965e-02
1.91380e+03,1.47470e+01,-3.21977e+01,-3.34326e-02,3.30549e-02,6.62995e-02
1.91380e+03,1.39955e+01,-3.38076e+01,-3.18137e-02,3.19378e-02,6.38136e-02
1.91380e+03,1.31733e+01,-3.54175e+01,-2.99414e-02,3.08461e-02,6.12448e-02
1.91380e+03,1.22322e+01,-3.70274e+01,-2.76436e-02,2.97838e-02,5.85269e-02
1.91380e+03,1.11536e+01,-3.86372e+01,-2.48531e-02,2.87638e-02,5.56754e-02
1.91380e+03,9.91946e+00,-4.02471e+01,-2.15055e-02,2.77984e-02,5.27327e-02
1.91380e+03,8.45973e+00,-4.18570e+01,-1.73501e-02,2.68955e-02,4.97105e-02
1.91380e+03,6.58606e+00,-4.34669e+01,-1.17121e-02,2.60992e-02,4.66978e-02
1.91380e+03,4.05198e+00,-4.50768e+01,-3.70901e-03,2.56118e-02,4.45157e-02
1.91380e+03,-1.64183e+00,-4.66867e+01,1.56105e-02,2.58033e-02,4.73405e-02
1.91380e+03,-2.05276e+00,-4.66904e+01,1.70797e-02,2.64007e-02,4.88130e-02
1.91380e+03,-5.79657e+00,-4.50229e+01,3.15987e-02,2.75341e-02,5.72090e-02
1.91380e+03,-6.24986e+00,-4.33554e+01,3.43330e-02,2.83717e-02,5.99468e-02
1.91380e+03,-6.40628e+00,-4.16879e+01,3.60041e-02,2.92532e-02,6.21574e-02
1.91380e+03,-6.43001e+00,-4.00204e+01,3.71999e-02,3.01756e-02,6.41525e-02
1.91380e+03,-6.35378e+00,-3.83528e+01,3.80378e-02,3.11318e-02,6.59882e-02
1.91380e+03,-6.21483e+00,-3.66853e+01,3.86510e-02,3.21160e-02,6.77363e-02
1.91380e+03,-6.01288e+00,-3.50178e+01,3.90386e-02,3.31226e-02,6.93926e-02
1.91380e+03,-5.77251e+00,-3.33503e+01,3.92886e-02,3.41467e-02,7.10041e-02
1.91380e+03,-5.50985e+00,-3.16828e+01,3.94587e-02,3.51856e-02,7.26021e-02
1.91380e+03,-5.21362e+00,-3.00153e+01,3.95087e-02,3.62364e-02,7.41631e-02
1.91380e+03,-4.89640e+00,-2.83477e+01,3.94834e-02,3.72963e-02,7.57098e-02
1.91380e+03,-4.55876e+00,-2.66802e+01,3.93850e-02,3.83632e-02,7.72424e-02
1.91380e+03,-4.20075e+00,-2.50127e+01,3.92137e-02,3.94348e-02,7.87593e-02
1.91380e+03,-3.82998e+00,-2.33452e+01,3.89967e-02,4.05094e-02,8.02731e-02
1.91380e+03,-3.44287e+00,-2.16777e+01,3.87212e-02,4.15852e-02,8.17761e-02
1.91380e+03,-3.04529e+00,-2.00102e+01,3.84081e-02,4.26607e-02,8.32766e-02
1.91380e+03,-2.63832e+00,-1.83427e+01,3.80614e-02,4.37347e-02,8.47753e-02
1.91380e+03,-2.22297e+00,-1.66751e+01,3.76848e-02,4.48060e-02,8.62721e-02
1.91380e+03,-1.80407e+00,-1.50076e+01,3.72954e-02,4.58738e-02,8.77734e-02
1.91380e+03,-1.37967e+00,-1.33401e+01,3.68863e-02,4.69376e-02,8.92749e-02
1.91380e+03,-9.54362e-01,-1.16726e+01,3.64739e-02,4.79968e-02,9.07823e-02
1.91380e+03,-5.25768e-01,-1.00051e+01,3.60498e-02,4.90512e-02,9.22911e-02
1.91380e+03,-9.72161e-02,-8.33757e+00,3.56258e-02,5.01003e-02,9.38047e-02
1.91380e+03,3.29716e-01,-6.67006e+00,3.52077e-02,5.11444e-02,9.53248e-02
1.91380e+03,7.56647e-01,-5.00254e+00,3.47895e-02,5.21829e-02,9.68477e-02
1.91380e+03,1.17347e+00,-3.33503e+00,3.44076e-02,5.32165e-02,9.83864e-02
1.91380e+03,1.58841e+00,-1.66751e+00,3.40324e-02,5.42458e-02,9.99301e-02
1.94970e+03,1.94880e+01,0.00000e+00,-1.90005e-02,4.13746e-02,7.41390e-02
1.94970e+03,1.93899e+01,-1.48088e+00,-1.94076e-02,4.07100e-02,7.31339e-02
1.94970e+03,1.92593e+01,-2.96177e+00,-1.97459e-02,4.00291e-02,7.20895e-02
1.94970e+03,1.91274e+01,-4.44265e+00,-2.00813e-02,3.93328e-02,7.10244e-02
1.94970e+03,1.89669e+01,-5.92353e+00,-2.03560e-02,3.86222e-02,6.99242e-02
1.94970e+03,1.87998e+01,-7.40441e+00,-2.06165e-02,3.78984e-02,6.88034e-02
1.94970e+03,1.86107e+01,-8.88530e+00,-2.08304e-02,3.71625e-02,6.76539e-02
1.94970e+03,1.84109e+01,-1.03662e+01,-2.10216e-02,3.64154e-02,6.64843e-02
1.94970e+03,1.81935e+01,-1.18471e+01,-2.11753e-02,3.56583e-02,6.52911e-02
1.94970e+03,1.79616e+01,-1.33279e+01,-2.12982e-02,3.48921e-02,6.40779e-02
1.94970e+03,1.77137e+01,-1.48088e+01,-2.13871e-02,3.41177e-02,6.28447e-02
1.94970e+03,1.74465e+01,-1.62897e+01,-2.14351e-02,3.33363e-02,6.15905e-02
1.94970e+03,1.71596e+01,-1.77706e+01,-2.14411e-02,3.25488e-02,6.03157e-02
1.94970e+03,1.68446e+01,-1.92515e+01,-2.13875e-02,3.17565e-02,5.90157e-02
1.94970e+03,1.65024e+01,-2.07324e+01,-2.12761e-02,3.09612e-02,5.76928e-02
1.94970e+03,1.61276e+01,-2.22132e+01,-2.10953e-02,3.01638e-02,5.63434e-02
1.94970e+03,1.57086e+01,-2.36941e+01,-2.08208e-02,2.93673e-02,5.49619e-02
1.94970e+03,1.52589e+01,-2.51750e+01,-2.04810e-02,2.85721e-02,5.35590e-02
1.94970e+03,1.47401e+01,-2.66559e+01,-1.99943e-02,2.77826e-02,5.21094e-02
1.94970e+03,1.41926e+01,-2.81368e+01,-1.94467e-02,2.70006e-02,5.06485e-02
1.94970e+03,1.35653e+01,-2.96177e+01,-1.87296e-02,2.62281e-02,4.91379e-02
1.94970e+03,1.28740e+01,-3.10985e+01,-1.78765e-02,2.54715e-02,4.76021e-02
1.94970e+03,1.21177e+01,-3.25794e+01,-1.68851e-02,2.47321e-02,4.60450e-02
1.94970e+03,1.12521e+01,-3.40603e+01,-1.56616e-02,2.40127e-02,4.44423e-02
1.94970e+03,1.02599e+01,-3.55412e+01,-1.41691e-02,2.33219e-02,4.28077e-02
1.94970e+03,9.12460e+00,-3.70221e+01,-1.23726e-02,2.26682e-02,4.11657e-02
1.94970e+03,7.78184e+00,-3.85029e+01,-1.01353e-02,2.20568e-02,3.95250e-02
1.94970e+03,6.05831e+00,-3.99838e+01,-7.08901e-03,2.15176e-02,3.79378e-02
1.94970e+03,3.72729e+00,-4.14647e+01,-2.75195e-03,2.11877e-02,3.68013e-02
1.94970e+03,-1.51027e+00,-4.29456e+01,7.76063e-03,2.13177e-02,3.77300e-02
1.94970e+03,-1.88827e+00,-4.29490e+01,8.56233e-03,2.17224e-02,3.85863e-02
1.94970e+03,-5.33209e+00,-4.14151e+01,1.65171e-02,2.24903e-02,4.23113e-02
1.94970e+03,-5.74905e+00,-3.98812e+01,1.80407e-02,2.30576e-02,4.38227e-02
1.94970e+03,-5.89293e+00,-3.83473e+01,1.89841e-02,2.36547e-02,4.51556e-02
1.94970e+03,-5.91477e+00,-3.68135e+01,1.96682e-02,2.42795e-02,4.64255e-02
1.94970e+03,-5.84465e+00,-3.52796e+01,2.01569e-02,2.49271e-02,4.76486e-02
1.94970e+03,-5.71682e+00,-3.37457e+01,2.05230e-02,2.55938e-02,4.88499e-02
1.94970e+03,-5.53106e+00,-3.22118e+01,2.07660e-02,2.62756e-02,5.00244e-02
1.94970e+03,-5.30995e+00,-3.06779e+01,2.09339e-02,2.69691e-02,5.11882e-02
1.94970e+03,-5.06834e+00,-2.91440e+01,2.10582e-02,2.76727e-02,5.23526e-02
1.94970e+03,-4.79584e+00,-2.76101e+01,2.11169e-02,2.83844e-02,5.35066e-02
1.94970e+03,-4.50405e+00,-2.60762e+01,2.11346e-02,2.91022e-02,5.46580e-02
1.94970e+03,-4.19345e+00,-2.45423e+01,2.11124e-02,2.98248e-02,5.58058e-02
1.94970e+03,-3.86414e+00,-2.30084e+01,2.10504e-02,3.05505e-02,5.69484e-02
1.94970e+03,-3.52308e+00,-2.14745e+01,2.09634e-02,3.12782e-02,5.80900e-02
1.94970e+03,-3.16699e+00,-1.99406e+01,2.08445e-02,3.20068e-02,5.92267e-02
1.94970e+03,-2.80126e+00,-1.84067e+01,2.07052e-02,3.27351e-02,6.03611e-02
1.94970e+03,-2.42690e+00,-1.68728e+01,2.05475e-02,3.34624e-02,6.14930e-02
1.94970e+03,-2.04484e+00,-1.53389e+01,2.03734e-02,3.41878e-02,6.26218e-02
1.94970e+03,-1.65951e+00,-1.38050e+01,2.01924e-02,3.49109e-02,6.37499e-02
1.94970e+03,-1.26912e+00,-1.22712e+01,2.00006e-02,3.56312e-02,6.48750e-02
1.94970e+03,-8.77888e-01,-1.07373e+01,1.98070e-02,3.63484e-02,6.59995e-02
1.94970e+03,-4.83637e-01,-9.20336e+00,1.96070e-02,3.70623e-02,6.71214e-02
1.94970e+03,-8.94260e-02,-7.66947e+00,1.94072e-02,3.77727e-02,6.82420e-02
1.94970e+03,3.03295e-01,-6.13558e+00,1.92104e-02,3.84796e-02,6.93620e-02
1.94970e+03,6.96016e-01,-4.60168e+00,1.90137e-02,3.91828e-02,7.04797e-02
1.94970e+03,1.07944e+00,-3.06779e+00,1.88367e-02,3.98826e-02,7.16008e-02
1.94970e+03,1.46113e+00,-1.53389e+00,1.86635e-02,4.05794e-02,7.27213e-02
1.98010e+03,1.80504e+01,0.00000e+00,-8.98692e-03,2.87770e-02,5.06470e-02
1.98010e+03,1.79595e+01,-1.37164e+00,-9.20042e-03,2.83597e-02,4.99746e-02
1.98010e+03,1.78386e+01,-2.74329e+00,-9.38110e-03,2.79322e-02,4.92810e-02
1.98010e+03,1.77165e+01,-4.11493e+00,-9.56047e-03,2.74949e-02,4.85727e-02
1.98010e+03,1.75678e+01,-5.48657e+00,-9.71086e-03,2.70487e-02,4.78455e-02
1.98010e+03,1.74130e+01,-6.85822e+00,-9.85452e-03,2.65942e-02,4.71048e-02
1.98010e+03,1.72378e+01,-8.22986e+00,-9.97593e-03,2.61321e-02,4.63484e-02
1.98010e+03,1.70528e+01,-9.60150e+00,-1.00866e-02,2.56630e-02,4.55797e-02
1.98010e+03,1.68514e+01,-1.09731e+01,-1.01793e-02,2.51876e-02,4.47981e-02
1.98010e+03,1.66366e+01,-1.23448e+01,-1.02574e-02,2.47065e-02,4.40052e-02
1.98010e+03,1.64070e+01,-1.37164e+01,-1.03193e-02,2.42203e-02,4.32014e-02
1.98010e+03,1.61595e+01,-1.50881e+01,-1.03616e-02,2.37297e-02,4.23871e-02
1.98010e+03,1.58938e+01,-1.64597e+01,-1.03840e-02,2.32353e-02,4.15628e-02
1.98010e+03,1.56020e+01,-1.78314e+01,-1.03780e-02,2.27379e-02,4.07276e-02
1.98010e+03,1.52851e+01,-1.92030e+01,-1.03444e-02,2.22386e-02,3.98832e-02
1.98010e+03,1.49379e+01,-2.05747e+01,-1.02778e-02,2.17379e-02,3.90288e-02
1.98010e+03,1.45498e+01,-2.19463e+01,-1.01664e-02,2.12379e-02,3.81641e-02
1.98010e+03,1.41333e+01,-2.33179e+01,-1.00240e-02,2.07387e-02,3.72929e-02
1.98010e+03,1.36527e+01,-2.46896e+01,-9.81162e-03,2.02430e-02,3.64089e-02
1.98010e+03,1.31457e+01,-2.60612e+01,-9.57021e-03,1.97521e-02,3.55250e-02
1.98010e+03,1.25646e+01,-2.74329e+01,-9.24799e-03,1.92671e-02,3.46293e-02
1.98010e+03,1.19244e+01,-2.88045e+01,-8.86100e-03,1.87922e-02,3.37336e-02
1.98010e+03,1.12238e+01,-3.01762e+01,-8.40810e-03,1.83280e-02,3.28397e-02
1.98010e+03,1.04220e+01,-3.15478e+01,-7.84457e-03,1.78764e-02,3.19411e-02
1.98010e+03,9.50303e+00,-3.29194e+01,-7.15290e-03,1.74428e-02,3.10470e-02
1.98010e+03,8.45151e+00,-3.42911e+01,-6.31638e-03,1.70324e-02,3.01696e-02
1.98010e+03,7.20780e+00,-3.56627e+01,-5.26978e-03,1.66486e-02,2.93139e-02
1.98010e+03,5.61141e+00,-3.70344e+01,-3.83767e-03,1.63103e-02,2.85097e-02
1.98010e+03,3.45234e+00,-3.84060e+01,-1.79051e-03,1.61033e-02,2.79492e-02
1.98010e+03,-1.39886e+00,-3.97777e+01,3.19938e-03,1.61850e-02,2.82152e-02
1.98010e+03,-1.74898e+00,-3.97808e+01,3.58135e-03,1.64392e-02,2.86978e-02
1.98010e+03,-4.93876e+00,-3.83601e+01,7.39212e-03,1.69213e-02,3.02264e-02
1.98010e+03,-5.32496e+00,-3.69394e+01,8.13835e-03,1.72775e-02,3.10125e-02
1.98010e+03,-5.45823e+00,-3.55186e+01,8.60810e-03,1.76524e-02,3.17636e-02
1.98010e+03,-5.47846e+00,-3.40979e+01,8.95428e-03,1.80447e-02,3.25117e-02
1.98010e+03,-5.41351e+00,-3.26771e+01,9.20736e-03,1.84513e-02,3.32585e-02
1.98010e+03,-5.29511e+00,-3.12564e+01,9.40202e-03,1.88698e-02,3.40089e-02
1.98010e+03,-5.12305e+00,-2.98356e+01,9.53802e-03,1.92978e-02,3.47591e-02
1.98010e+03,-4.91825e+00,-2.84149e+01,9.63823e-03,1.97332e-02,3.55119e-02
1.98010e+03,-4.69446e+00,-2.69941e+01,9.71769e-03,2.01749e-02,3.62701e-02
1.98010e+03,-4.44207e+00,-2.55734e+01,9.76587e-03,2.06217e-02,3.70289e-02
1.98010e+03,-4.17180e+00,-2.41527e+01,9.79452e-03,2.10723e-02,3.77897e-02
1.98010e+03,-3.88412e+00,-2.27319e+01,9.80414e-03,2.15259e-02,3.85515e-02
1.98010e+03,-3.57909e+00,-2.13112e+01,9.79480e-03,2.19815e-02,3.93128e-02
1.98010e+03,-3.26320e+00,-1.98904e+01,9.77357e-03,2.24383e-02,4.00743e-02
1.98010e+03,-2.93337e+00,-1.84697e+01,9.73712e-03,2.28956e-02,4.08343e-02
1.98010e+03,-2.59462e+00,-1.70489e+01,9.69091e-03,2.33528e-02,4.15929e-02
1.98010e+03,-2.24788e+00,-1.56282e+01,9.63597e-03,2.38093e-02,4.23497e-02
1.98010e+03,-1.89400e+00,-1.42074e+01,9.57322e-03,2.42646e-02,4.31041e-02
1.98010e+03,-1.53709e+00,-1.27867e+01,9.50717e-03,2.47185e-02,4.38565e-02
1.98010e+03,-1.17550e+00,-1.13660e+01,9.43600e-03,2.51706e-02,4.46062e-02
1.98010e+03,-8.13129e-01,-9.94521e+00,9.36397e-03,2.56207e-02,4.53536e-02
1.98010e+03,-4.47961e-01,-8.52447e+00,9.28889e-03,2.60688e-02,4.60981e-02
1.98010e+03,-8.28294e-02,-7.10372e+00,9.21384e-03,2.65147e-02,4.68399e-02
1.98010e+03,2.80922e-01,-5.68298e+00,9.14031e-03,2.69583e-02,4.75794e-02
1.98010e+03,6.44673e-01,-4.26223e+00,9.06677e-03,2.73996e-02,4.83159e-02
1.98010e+03,9.99811e-01,-2.84149e+00,9.00265e-03,2.78388e-02,4.90515e-02
1.98010e+03,1.35334e+00,-1.42074e+00,8.94029e-03,2.82762e-02,4.97851e-02
2.00520e+03,1.68635e+01,0.00000e+00,-3.46479e-03,1.83764e-02,3.20169e-02
2.00520e+03,1.67786e+01,-1.28145e+00,-3.55853e-03,1.81421e-02,3.16240e-02
2.00520e+03,1.66656e+01,-2.56290e+00,-3.63949e-03,1.79021e-02,3.12203e-02
2.00520e+03,1.65515e+01,-3.84435e+00,-3.71994e-03,1.76567e-02,3.08076e-02
2.00520e+03,1.64126e+01,-5.12580e+00,-3.78912e-03,1.74062e-02,3.03856e-02
2.00520e+03,1.62680e+01,-6.40725e+00,-3.85568e-03,1.71511e-02,2.99557e-02
2.00520e+03,1.61044e+01,-7.68870e+00,-3.91358e-03,1.68917e-02,2.95178e-02
2.00520e+03,1.59315e+01,-8.97015e+00,-3.96728e-03,1.66284e-02,2.90732e-02
2.00520e+03,1.57433e+01,-1.02516e+01,-4.01402e-03,1.63615e-02,2.86219e-02
2.00520e+03,1.55427e+01,-1.15330e+01,-4.05505e-03,1.60915e-02,2.81647e-02
2.00520e+03,1.53282e+01,-1.28145e+01,-4.08980e-03,1.58186e-02,2.77021e-02
2.00520e+03,1.50970e+01,-1.40959e+01,-4.11694e-03,1.55432e-02,2.72346e-02
2.00520e+03,1.48486e+01,-1.53774e+01,-4.13629e-03,1.52657e-02,2.67625e-02
2.00520e+03,1.45761e+01,-1.66588e+01,-4.14462e-03,1.49865e-02,2.62862e-02
2.00520e+03,1.42800e+01,-1.79403e+01,-4.14220e-03,1.47062e-02,2.58065e-02
2.00520e+03,1.39556e+01,-1.92217e+01,-4.12693e-03,1.44252e-02,2.53238e-02
2.00520e+03,1.35931e+01,-2.05032e+01,-4.09427e-03,1.41446e-02,2.48389e-02
2.00520e+03,1.32039e+01,-2.17846e+01,-4.04951e-03,1.38644e-02,2.43529e-02
2.00520e+03,1.27550e+01,-2.30661e+01,-3.97752e-03,1.35862e-02,2.38658e-02
2.00520e+03,1.22812e+01,-2.43475e+01,-3.89424e-03,1.33107e-02,2.33813e-02
2.00520e+03,1.17384e+01,-2.56290e+01,-3.77952e-03,1.30385e-02,2.28974e-02
2.00520e+03,1.11403e+01,-2.69104e+01,-3.63959e-03,1.27719e-02,2.24190e-02
2.00520e+03,1.04858e+01,-2.81919e+01,-3.47401e-03,1.25114e-02,2.19471e-02
2.00520e+03,9.73672e+00,-2.94733e+01,-3.26539e-03,1.22580e-02,2.14811e-02
2.00520e+03,8.87814e+00,-3.07548e+01,-3.00691e-03,1.20146e-02,2.10261e-02
2.00520e+03,7.89577e+00,-3.20362e+01,-2.69206e-03,1.17843e-02,2.05878e-02
2.00520e+03,6.73385e+00,-3.33177e+01,-2.29547e-03,1.15690e-02,2.01691e-02
2.00520e+03,5.24243e+00,-3.45991e+01,-1.74887e-03,1.13791e-02,1.97866e-02
2.00520e+03,3.22533e+00,-3.58806e+01,-9.62945e-04,1.12630e-02,1.95319e-02
2.00520e+03,-1.30688e+00,-3.71620e+01,9.68041e-04,1.13089e-02,1.96116e-02
2.00520e+03,-1.63397e+00,-3.71650e+01,1.11665e-03,1.14516e-02,1.98662e-02
2.00520e+03,-4.61400e+00,-3.58377e+01,2.61052e-03,1.17223e-02,2.04707e-02
2.00520e+03,-4.97481e+00,-3.45104e+01,2.91192e-03,1.19222e-02,2.08542e-02
2.00520e+03,-5.09932e+00,-3.31830e+01,3.10575e-03,1.21326e-02,2.12426e-02
2.00520e+03,-5.11821e+00,-3.18557e+01,3.25149e-03,1.23528e-02,2.16414e-02
2.00520e+03,-5.05754e+00,-3.05284e+01,3.36101e-03,1.25810e-02,2.20487e-02
2.00520e+03,-4.94693e+00,-2.92011e+01,3.44779e-03,1.28159e-02,2.24640e-02
2.00520e+03,-4.78618e+00,-2.78738e+01,3.51175e-03,1.30562e-02,2.28850e-02
2.00520e+03,-4.59485e+00,-2.65464e+01,3.56178e-03,1.33005e-02,2.33109e-02
2.00520e+03,-4.38577e+00,-2.52191e+01,3.60374e-03,1.35484e-02,2.37417e-02
2.00520e+03,-4.14998e+00,-2.38918e+01,3.63353e-03,1.37992e-02,2.41755e-02
2.00520e+03,-3.89748e+00,-2.25645e+01,3.65571e-03,1.40521e-02,2.46119e-02
2.00520e+03,-3.62871e+00,-2.12371e+01,3.67049e-03,1.43066e-02,2.50502e-02
2.00520e+03,-3.34375e+00,-1.99098e+01,3.67790e-03,1.45623e-02,2.54894e-02
2.00520e+03,-3.04862e+00,-1.85825e+01,3.68067e-03,1.48187e-02,2.59292e-02
2.00520e+03,-2.74048e+00,-1.72552e+01,3.67753e-03,1.50753e-02,2.63689e-02
2.00520e+03,-2.42401e+00,-1.59279e+01,3.67059e-03,1.53319e-02,2.68080e-02
2.00520e+03,-2.10007e+00,-1.46005e+01,3.66025e-03,1.55880e-02,2.72463e-02
2.00520e+03,-1.76946e+00,-1.32732e+01,3.64687e-03,1.58436e-02,2.76831e-02
2.00520e+03,-1.43602e+00,-1.19459e+01,3.63221e-03,1.60983e-02,2.81186e-02
2.00520e+03,-1.09820e+00,-1.06186e+01,3.61555e-03,1.63519e-02,2.85522e-02
2.00520e+03,-7.59661e-01,-9.29125e+00,3.59856e-03,1.66045e-02,2.89842e-02
2.00520e+03,-4.18505e-01,-7.96393e+00,3.58038e-03,1.68560e-02,2.94142e-02
2.00520e+03,-7.73829e-02,-6.63661e+00,3.56222e-03,1.71062e-02,2.98421e-02
2.00520e+03,2.62450e-01,-5.30929e+00,3.54465e-03,1.73551e-02,3.02682e-02
2.00520e+03,6.02282e-01,-3.98196e+00,3.52707e-03,1.76027e-02,3.06922e-02
2.00520e+03,9.34067e-01,-2.65464e+00,3.51316e-03,1.78492e-02,3.11147e-02
2.00520e+03,1.26435e+00,-1.32732e+00,3.49993e-03,1.80946e-02,3.15355e-02
2.02480e+03,1.59367e+01,0.00000e+00,-9.78089e-04,9.89907e-03,1.71736e-02
2.02480e+03,1.58564e+01,-1.21102e+00,-1.00879e-03,9.78941e-03,1.69857e-02
2.02480e+03,1.57496e+01,-2.42204e+00,-1.03584e-03,9.67707e-03,1.67932e-02
2.02480e+03,1.56418e+01,-3.63306e+00,-1.06275e-03,9.56218e-03,1.65962e-02
2.02480e+03,1.55106e+01,-4.84408e+00,-1.08644e-03,9.44495e-03,1.63952e-02
2.02480e+03,1.53739e+01,-6.05509e+00,-1.10939e-03,9.32555e-03,1.61904e-02
2.02480e+03,1.52192e+01,-7.26611e+00,-1.12986e-03,9.20415e-03,1.59820e-02
2.02480e+03,1.50559e+01,-8.47713e+00,-1.14913e-03,9.08092e-03,1.57705e-02
2.02480e+03,1.48781e+01,-9.68815e+00,-1.16642e-03,8.95603e-03,1.55561e-02
2.02480e+03,1.46884e+01,-1.08992e+01,-1.18208e-03,8.82965e-03,1.53390e-02
2.02480e+03,1.44857e+01,-1.21102e+01,-1.19594e-03,8.70193e-03,1.51196e-02
2.02480e+03,1.42672e+01,-1.33212e+01,-1.20763e-03,8.57306e-03,1.48980e-02
2.02480e+03,1.40325e+01,-1.45322e+01,-1.21710e-03,8.44318e-03,1.46746e-02
2.02480e+03,1.37750e+01,-1.57432e+01,-1.22343e-03,8.31253e-03,1.44496e-02
2.02480e+03,1.34951e+01,-1.69543e+01,-1.22668e-03,8.18137e-03,1.42235e-02
2.02480e+03,1.31886e+01,-1.81653e+01,-1.22627e-03,8.04988e-03,1.39966e-02
2.02480e+03,1.28460e+01,-1.93763e+01,-1.22090e-03,7.91853e-03,1.37695e-02
2.02480e+03,1.24782e+01,-2.05873e+01,-1.21207e-03,7.78741e-03,1.35425e-02
2.02480e+03,1.20540e+01,-2.17983e+01,-1.19546e-03,7.65723e-03,1.33165e-02
2.02480e+03,1.16063e+01,-2.30094e+01,-1.17564e-03,7.52829e-03,1.30923e-02
2.02480e+03,1.10933e+01,-2.42204e+01,-1.14684e-03,7.40092e-03,1.28700e-02
2.02480e+03,1.05280e+01,-2.54314e+01,-1.11085e-03,7.27619e-03,1.26516e-02
2.02480e+03,9.90946e+00,-2.66424e+01,-1.06754e-03,7.15429e-03,1.24375e-02
2.02480e+03,9.20158e+00,-2.78534e+01,-1.01194e-03,7.03569e-03,1.22281e-02
2.02480e+03,8.39019e+00,-2.90645e+01,-9.42105e-04,6.92183e-03,1.20259e-02
2.02480e+03,7.46181e+00,-3.02755e+01,-8.56187e-04,6.81406e-03,1.18333e-02
2.02480e+03,6.36374e+00,-3.14865e+01,-7.46938e-04,6.71330e-03,1.16517e-02
2.02480e+03,4.95429e+00,-3.26975e+01,-5.94872e-04,6.62445e-03,1.14893e-02
2.02480e+03,3.04806e+00,-3.39085e+01,-3.74496e-04,6.57017e-03,1.13860e-02
2.02480e+03,-1.23505e+00,-3.51195e+01,1.72705e-04,6.59167e-03,1.14184e-02
2.02480e+03,-1.54416e+00,-3.51224e+01,2.15112e-04,6.65846e-03,1.15348e-02
2.02480e+03,-4.36041e+00,-3.38680e+01,6.45583e-04,6.78512e-03,1.17699e-02
2.02480e+03,-4.70139e+00,-3.26136e+01,7.35699e-04,6.87870e-03,1.19370e-02
2.02480e+03,-4.81905e+00,-3.13592e+01,7.95109e-04,6.97718e-03,1.21110e-02
2.02480e+03,-4.83691e+00,-3.01049e+01,8.40794e-04,7.08022e-03,1.22921e-02
2.02480e+03,-4.77957e+00,-2.88505e+01,8.76140e-04,7.18701e-03,1.24791e-02
2.02480e+03,-4.67504e+00,-2.75961e+01,9.04997e-04,7.29694e-03,1.26710e-02
2.02480e+03,-4.52312e+00,-2.63418e+01,9.27339e-04,7.40936e-03,1.28668e-02
2.02480e+03,-4.34231e+00,-2.50874e+01,9.45707e-04,7.52372e-03,1.30657e-02
2.02480e+03,-4.14473e+00,-2.38330e+01,9.61770e-04,7.63973e-03,1.32673e-02
2.02480e+03,-3.92189e+00,-2.25787e+01,9.74360e-04,7.75706e-03,1.34709e-02
2.02480e+03,-3.68327e+00,-2.13243e+01,9.84780e-04,7.87540e-03,1.36761e-02
2.02480e+03,-3.42927e+00,-2.00699e+01,9.93085e-04,7.99452e-03,1.38825e-02
2.02480e+03,-3.15997e+00,-1.88155e+01,9.99286e-04,8.11416e-03,1.40896e-02
2.02480e+03,-2.88106e+00,-1.75612e+01,1.00417e-03,8.23411e-03,1.42972e-02
2.02480e+03,-2.58986e+00,-1.63068e+01,1.00736e-03,8.35421e-03,1.45049e-02
2.02480e+03,-2.29078e+00,-1.50524e+01,1.00946e-03,8.47425e-03,1.47125e-02
2.02480e+03,-1.98465e+00,-1.37981e+01,1.01060e-03,8.59413e-03,1.49197e-02
2.02480e+03,-1.67220e+00,-1.25437e+01,1.01087e-03,8.71369e-03,1.51264e-02
2.02480e+03,-1.35709e+00,-1.12893e+01,1.01077e-03,8.83286e-03,1.53323e-02
2.02480e+03,-1.03784e+00,-1.00350e+01,1.01010e-03,8.95156e-03,1.55374e-02
2.02480e+03,-7.17909e-01,-8.78059e+00,1.00934e-03,9.06976e-03,1.57417e-02
2.02480e+03,-3.95503e-01,-7.52622e+00,1.00824e-03,9.18740e-03,1.59450e-02
2.02480e+03,-7.31298e-02,-6.27185e+00,1.00714e-03,9.30446e-03,1.61472e-02
2.02480e+03,2.48025e-01,-5.01748e+00,1.00621e-03,9.42094e-03,1.63485e-02
2.02480e+03,5.69180e-01,-3.76311e+00,1.00529e-03,9.53679e-03,1.65488e-02
2.02480e+03,8.82730e-01,-2.50874e+00,1.00540e-03,9.65209e-03,1.67481e-02
2.02480e+03,1.19486e+00,-1.25437e+00,1.00571e-03,9.76690e-03,1.69466e-02
2.03880e+03,1.52746e+01,0.00000e+00,-1.66904e-04,3.85471e-03,6.67864e-03
2.03880e+03,1.51977e+01,-1.16071e+00,-1.73207e-04,3.81780e-03,6.61489e-03
2.03880e+03,1.50954e+01,-2.32142e+00,-1.78878e-04,3.77999e-03,6.54958e-03
2.03880e+03,1.49920e+01,-3.48213e+00,-1.84524e-04,3.74132e-03,6.48278e-03
2.03880e+03,1.48662e+01,-4.64285e+00,-1.89612e-04,3.70187e-03,6.41462e-03
2.03880e+03,1.47352e+01,-5.80356e+00,-1.94571e-04,3.66168e-03,6.34520e-03
2.03880e+03,1.45870e+01,-6.96427e+00,-1.99101e-04,3.62082e-03,6.27460e-03
2.03880e+03,1.44304e+01,-8.12498e+00,-2.03424e-04,3.57935e-03,6.20295e-03
2.03880e+03,1.42600e+01,-9.28569e+00,-2.07403e-04,3.53731e-03,6.13032e-03
2.03880e+03,1.40782e+01,-1.04464e+01,-2.11099e-04,3.49478e-03,6.05682e-03
2.03880e+03,1.38839e+01,-1.16071e+01,-2.14485e-04,3.45180e-03,5.98253e-03
2.03880e+03,1.36745e+01,-1.27678e+01,-2.17495e-04,3.40842e-03,5.90757e-03
2.03880e+03,1.34496e+01,-1.39285e+01,-2.20119e-04,3.36471e-03,5.83201e-03
2.03880e+03,1.32028e+01,-1.50892e+01,-2.22198e-04,3.32074e-03,5.75599e-03
2.03880e+03,1.29345e+01,-1.62500e+01,-2.23745e-04,3.27660e-03,5.67965e-03
2.03880e+03,1.26407e+01,-1.74107e+01,-2.24658e-04,3.23235e-03,5.60310e-03
2.03880e+03,1.23123e+01,-1.85714e+01,-2.24710e-04,3.18815e-03,5.52660e-03
2.03880e+03,1.19599e+01,-1.97321e+01,-2.24164e-04,3.14402e-03,5.45022e-03
2.03880e+03,1.15532e+01,-2.08928e+01,-2.22271e-04,3.10021e-03,5.37433e-03
2.03880e+03,1.11241e+01,-2.20535e+01,-2.19819e-04,3.05682e-03,5.29913e-03
2.03880e+03,1.06324e+01,-2.32142e+01,-2.15813e-04,3.01396e-03,5.22479e-03
2.03880e+03,1.00906e+01,-2.43749e+01,-2.10560e-04,2.97198e-03,5.15193e-03
2.03880e+03,9.49781e+00,-2.55357e+01,-2.04039e-04,2.93096e-03,5.08067e-03
2.03880e+03,8.81933e+00,-2.66964e+01,-1.95390e-04,2.89105e-03,5.01126e-03
2.03880e+03,8.04165e+00,-2.78571e+01,-1.84274e-04,2.85273e-03,4.94451e-03
2.03880e+03,7.15183e+00,-2.90178e+01,-1.70371e-04,2.81647e-03,4.88124e-03
2.03880e+03,6.09938e+00,-3.01785e+01,-1.52426e-04,2.78256e-03,4.82195e-03
2.03880e+03,4.74849e+00,-3.13392e+01,-1.27062e-04,2.75267e-03,4.76945e-03
2.03880e+03,2.92144e+00,-3.24999e+01,-8.98626e-05,2.73440e-03,4.73698e-03
2.03880e+03,-1.18374e+00,-3.36606e+01,3.96369e-06,2.74165e-03,4.74867e-03
2.03880e+03,-1.48002e+00,-3.36633e+01,1.13090e-05,2.76412e-03,4.78762e-03
2.03880e+03,-4.17927e+00,-3.24611e+01,8.69125e-05,2.80676e-03,4.86222e-03
2.03880e+03,-4.50609e+00,-3.12588e+01,1.03545e-04,2.83825e-03,4.91708e-03
2.03880e+03,-4.61886e+00,-3.00565e+01,1.14857e-04,2.87139e-03,4.97472e-03
2.03880e+03,-4.63598e+00,-2.88543e+01,1.23792e-04,2.90607e-03,5.03498e-03
2.03880e+03,-4.58102e+00,-2.76520e+01,1.30934e-04,2.94201e-03,5.09739e-03
2.03880e+03,-4.48083e+00,-2.64498e+01,1.36953e-04,2.97901e-03,5.16161e-03
2.03880e+03,-4.33523e+00,-2.52475e+01,1.41843e-04,3.01684e-03,5.22724e-03
2.03880e+03,-4.16192e+00,-2.40452e+01,1.46044e-04,3.05532e-03,5.29399e-03
2.03880e+03,-3.97255e+00,-2.28430e+01,1.49846e-04,3.09436e-03,5.36169e-03
2.03880e+03,-3.75897e+00,-2.16407e+01,1.53046e-04,3.13385e-03,5.43015e-03
2.03880e+03,-3.53026e+00,-2.04384e+01,1.55870e-04,3.17367e-03,5.49918e-03
2.03880e+03,-3.28682e+00,-1.92362e+01,1.58328e-04,3.21376e-03,5.56865e-03
2.03880e+03,-3.02870e+00,-1.80339e+01,1.60421e-04,3.25402e-03,5.63841e-03
2.03880e+03,-2.76138e+00,-1.68317e+01,1.62285e-04,3.29439e-03,5.70836e-03
2.03880e+03,-2.48228e+00,-1.56294e+01,1.63857e-04,3.33480e-03,5.77837e-03
2.03880e+03,-2.19562e+00,-1.44271e+01,1.65240e-04,3.37520e-03,5.84835e-03
2.03880e+03,-1.90220e+00,-1.32249e+01,1.66456e-04,3.41554e-03,5.91823e-03
2.03880e+03,-1.60274e+00,-1.20226e+01,1.67521e-04,3.45577e-03,5.98791e-03
2.03880e+03,-1.30072e+00,-1.08204e+01,1.68523e-04,3.49587e-03,6.05737e-03
2.03880e+03,-9.94731e-01,-9.61809e+00,1.69426e-04,3.53582e-03,6.12655e-03
2.03880e+03,-6.88086e-01,-8.41583e+00,1.70313e-04,3.57559e-03,6.19544e-03
2.03880e+03,-3.79073e-01,-7.21357e+00,1.71141e-04,3.61517e-03,6.26400e-03
2.03880e+03,-7.00919e-02,-6.01131e+00,1.71970e-04,3.65456e-03,6.33222e-03
2.03880e+03,2.37722e-01,-4.80905e+00,1.72828e-04,3.69376e-03,6.40011e-03
2.03880e+03,5.45535e-01,-3.60678e+00,1.73685e-04,3.73274e-03,6.46763e-03
2.03880e+03,8.46060e-01,-2.40452e+00,1.74724e-04,3.77154e-03,6.53483e-03
2.03880e+03,1.14523e+00,-1.20226e+00,1.75797e-04,3.81017e-03,6.60174e-03
2.04720e+03,1.48774e+01,0.00000e+00,-1.95809e-05,7.06716e-04,1.22422e-03
2.04720e+03,1.48025e+01,-1.13053e+00,-2.05089e-05,7.01207e-04,1.21470e-03
2.04720e+03,1.47028e+01,-2.26105e+00,-2.13611e-05,6.95565e-04,1.20494e-03
2.04720e+03,1.46021e+01,-3.39158e+00,-2.22102e-05,6.89794e-04,1.19496e-03
2.04720e+03,1.44796e+01,-4.52211e+00,-2.29925e-05,6.83905e-04,1.18478e-03
2.04720e+03,1.43520e+01,-5.65264e+00,-2.37592e-05,6.77908e-04,1.17441e-03
2.04720e+03,1.42077e+01,-6.78316e+00,-2.44746e-05,6.71810e-04,1.16387e-03
2.04720e+03,1.40552e+01,-7.91369e+00,-2.51651e-05,6.65621e-04,1.15316e-03
2.04720e+03,1.38892e+01,-9.04422e+00,-2.58143e-05,6.59348e-04,1.14232e-03
2.04720e+03,1.37121e+01,-1.01747e+01,-2.64296e-05,6.53001e-04,1.13134e-03
2.04720e+03,1.35229e+01,-1.13053e+01,-2.70077e-05,6.46586e-04,1.12025e-03
2.04720e+03,1.33189e+01,-1.24358e+01,-2.75406e-05,6.40113e-04,1.10905e-03
2.04720e+03,1.30998e+01,-1.35663e+01,-2.80273e-05,6.33590e-04,1.09777e-03
2.04720e+03,1.28594e+01,-1.46969e+01,-2.84486e-05,6.27028e-04,1.08642e-03
2.04720e+03,1.25982e+01,-1.58274e+01,-2.88062e-05,6.20441e-04,1.07502e-03
2.04720e+03,1.23120e+01,-1.69579e+01,-2.90875e-05,6.13837e-04,1.06360e-03
2.04720e+03,1.19922e+01,-1.80884e+01,-2.92657e-05,6.07241e-04,1.05218e-03
2.04720e+03,1.16489e+01,-1.92190e+01,-2.93721e-05,6.00656e-04,1.04078e-03
2.04720e+03,1.12528e+01,-2.03495e+01,-2.93169e-05,5.94118e-04,1.02946e-03
2.04720e+03,1.08348e+01,-2.14800e+01,-2.91948e-05,5.87643e-04,1.01825e-03
2.04720e+03,1.03559e+01,-2.26105e+01,-2.88862e-05,5.81246e-04,1.00716e-03
2.04720e+03,9.82823e+00,-2.37411e+01,-2.84280e-05,5.74982e-04,9.96304e-04
2.04720e+03,9.25081e+00,-2.48716e+01,-2.78177e-05,5.68861e-04,9.85688e-04
2.04720e+03,8.58998e+00,-2.60021e+01,-2.69521e-05,5.62905e-04,9.75353e-04
2.04720e+03,7.83252e+00,-2.71326e+01,-2.57906e-05,5.57187e-04,9.65421e-04
2.04720e+03,6.96585e+00,-2.82632e+01,-2.42948e-05,5.51776e-04,9.56012e-04
2.04720e+03,5.94077e+00,-2.93937e+01,-2.23141e-05,5.46716e-04,9.47202e-04
2.04720e+03,4.62500e+00,-3.05242e+01,-1.94435e-05,5.42255e-04,9.39415e-04
2.04720e+03,2.84547e+00,-3.16548e+01,-1.51532e-05,5.39530e-04,9.34617e-04
2.04720e+03,-1.15296e+00,-3.27853e+01,-4.07032e-06,5.40611e-04,9.36375e-04
2.04720e+03,-1.44153e+00,-3.27879e+01,-3.18962e-06,5.43966e-04,9.42183e-04
2.04720e+03,-4.07059e+00,-3.16169e+01,6.05740e-06,5.50329e-04,9.53216e-04
2.04720e+03,-4.38891e+00,-3.04459e+01,8.23061e-06,5.55029e-04,9.61373e-04
2.04720e+03,-4.49875e+00,-2.92749e+01,9.76564e-06,5.59975e-04,9.69954e-04
2.04720e+03,-4.51542e+00,-2.81039e+01,1.10154e-05,5.65150e-04,9.78930e-04
2.04720e+03,-4.46189e+00,-2.69329e+01,1.20503e-05,5.70513e-04,9.88232e-04
2.04720e+03,-4.36430e+00,-2.57619e+01,1.29504e-05,5.76034e-04,9.97804e-04
2.04720e+03,-4.22249e+00,-2.45909e+01,1.37150e-05,5.81680e-04,1.00759e-03
2.04720e+03,-4.05369e+00,-2.34199e+01,1.43970e-05,5.87423e-04,1.01755e-03
2.04720e+03,-3.86924e+00,-2.22489e+01,1.50311e-05,5.93249e-04,1.02765e-03
2.04720e+03,-3.66121e+00,-2.10779e+01,1.55931e-05,5.99142e-04,1.03786e-03
2.04720e+03,-3.43845e+00,-1.99069e+01,1.61099e-05,6.05085e-04,1.04816e-03
2.04720e+03,-3.20134e+00,-1.87359e+01,1.65828e-05,6.11067e-04,1.05853e-03
2.04720e+03,-2.94994e+00,-1.75649e+01,1.70119e-05,6.17074e-04,1.06894e-03
2.04720e+03,-2.68957e+00,-1.63940e+01,1.74137e-05,6.23098e-04,1.07938e-03
2.04720e+03,-2.41772e+00,-1.52230e+01,1.77802e-05,6.29129e-04,1.08983e-03
2.04720e+03,-2.13852e+00,-1.40520e+01,1.81243e-05,6.35157e-04,1.10027e-03
2.04720e+03,-1.85273e+00,-1.28810e+01,1.84482e-05,6.41177e-04,1.11070e-03
2.04720e+03,-1.56106e+00,-1.17100e+01,1.87540e-05,6.47181e-04,1.12111e-03
2.04720e+03,-1.26689e+00,-1.05390e+01,1.90523e-05,6.53165e-04,1.13147e-03
2.04720e+03,-9.68863e-01,-9.36797e+00,1.93387e-05,6.59125e-04,1.14180e-03
2.04720e+03,-6.70192e-01,-8.19698e+00,1.96231e-05,6.65060e-04,1.15208e-03
2.04720e+03,-3.69215e-01,-7.02598e+00,1.99005e-05,6.70967e-04,1.16232e-03
2.04720e+03,-6.82691e-02,-5.85498e+00,2.01780e-05,6.76845e-04,1.17250e-03
2.04720e+03,2.31540e-01,-4.68399e+00,2.04590e-05,6.82693e-04,1.18264e-03
2.04720e+03,5.31348e-01,-3.51299e+00,2.07400e-05,6.88510e-04,1.19271e-03
2.04720e+03,8.24058e-01,-2.34199e+00,2.10427e-05,6.94299e-04,1.20275e-03
2.04720e+03,1.11544e+00,-1.17100e+00,2.13494e-05,7.00063e-04,1.21273e-03
2.05000e+03,1.47450e+01,0.00000e+00,0.00000e+00,0.00000e+00,0.00000e+00
2.05000e+03,1.46708e+01,-1.12047e+00,0.00000e+00,0.00000e+00,0.00000e+00
2.05000e+03,1.45720e+01,-2.24093e+00,0.00000e+00,0.00000e+00,0.00000e+00
2.05000e+03,1.44722e+01,-3.36140e+00,0.00000e+00,0.00000e+00,0.00000e+00
2.05000e+03,1.43508e+01,-4.48186e+00,0.00000e+00,0.00000e+00,0.00000e+00
2.05000e+03,1.42243e+01,-5.60233e+00,0.00000e+00,0.00000e+00,0.00000e+00
2.05000e+03,1.40812e+01,-6.72279e+00,0.00000e+00,0.00000e+00,0.00000e+00
2.05000e+03,1.39301e+01,-7.84326e+00,0.00000e+00,0.00000e+00,0.00000e+00
2.05000e+03,1.37656e+01,-8.96372e+00,0.00000e+00,0.00000e+00,0.00000e+00
2.05000e+03,1.35901e+01,-1.00842e+01,0.00000e+00,0.00000e+00,0.00000e+00
2.05000e+03,1.34025e+01,-1.12047e+01,0.00000e+00,0.00000e+00,0.00000e+00
2.05000e+03,1.32004e+01,-1.23251e+01,0.00000e+00,0.00000e+00,0.00000e+00
2.05000e+03,1.29833e+01,-1.34456e+01,0.00000e+00,0.00000e+00,0.00000e+00
2.05000e+03,1.27450e+01,-1.45661e+01,0.00000e+00,0.00000e+00,0.00000e+00
2.05000e+03,1.24860e+01,-1.56865e+01,0.00000e+00,0.00000e+00,0.00000e+00
2.05000e+03,1.22024e+01,-1.68070e+01,0.00000e+00,0.00000e+00,0.00000e+00
2.05000e+03,1.18854e+01,-1.79274e+01,0.00000e+00,0.00000e+00,0.00000e+00
2.05000e+03,1.15452e+01,-1.90479e+01,0.00000e+00,0.00000e+00,0.00000e+00
2.05000e+03,1.11526e+01,-2.01684e+01,0.00000e+00,0.00000e+00,0.00000e+00
2.05000e+03,1.07384e+01,-2.12888e+01,0.00000e+00,0.00000e+00,0.00000e+00
2.05000e+03,1.02638e+01,-2.24093e+01,0.00000e+00,0.00000e+00,0.00000e+00
2.05000e+03,9.74076e+00,-2.35298e+01,0.00000e+00,0.00000e+00,0.00000e+00
2.05000e+03,9.16848e+00,-2.46502e+01,0.00000e+00,0.00000e+00,0.00000e+00
2.05000e+03,8.51353e+00,-2.57707e+01,0.00000e+00,0.00000e+00,0.00000e+00
2.05000e+03,7.76281e+00,-2.68912e+01,0.00000e+00,0.00000e+00,0.00000e+00
2.05000e+03,6.90385e+00,-2.80116e+01,0.00000e+00,0.00000e+00,0.00000e+00
2.05000e+03,5.88790e+00,-2.91321e+01,0.00000e+00,0.00000e+00,0.00000e+00
2.05000e+03,4.58384e+00,-3.02526e+01,0.00000e+00,0.00000e+00,0.00000e+00
2.05000e+03,2.82014e+00,-3.13730e+01,0.00000e+00,0.00000e+00,0.00000e+00
2.05000e+03,-1.14270e+00,-3.24935e+01,0.00000e+00,0.00000e+00,0.00000e+00
2.05000e+03,-1.42870e+00,-3.24961e+01,0.00000e+00,0.00000e+00,0.00000e+00
2.05000e+03,-4.03436e+00,-3.13355e+01,0.00000e+00,0.00000e+00,0.00000e+00
2.05000e+03,-4.34985e+00,-3.01749e+01,0.00000e+00,0.00000e+00,0.00000e+00
2.05000e+03,-4.45871e+00,-2.90144e+01,0.00000e+00,0.00000e+00,0.00000e+00
2.05000e+03,-4.47523e+00,-2.78538e+01,0.00000e+00,0.00000e+00,0.00000e+00
2.05000e+03,-4.42218e+00,-2.66932e+01,0.00000e+00,0.00000e+00,0.00000e+00
2.05000e+03,-4.32546e+00,-2.55327e+01,0.00000e+00,0.00000e+00,0.00000e+00
2.05000e+03,-4.18491e+00,-2.43721e+01,0.00000e+00,0.00000e+00,0.00000e+00
2.05000e+03,-4.01761e+00,-2.32115e+01,0.00000e+00,0.00000e+00,0.00000e+00
2.05000e+03,-3.83480e+00,-2.20509e+01,0.00000e+00,0.00000e+00,0.00000e+00
2.05000e+03,-3.62863e+00,-2.08903e+01,0.00000e+00,0.00000e+00,0.00000e+00
2.05000e+03,-3.40785e+00,-1.97298e+01,0.00000e+00,0.00000e+00,0.00000e+00
2.05000e+03,-3.17285e+00,-1.85692e+01,0.00000e+00,0.00000e+00,0.00000e+00
2.05000e+03,-2.92368e+00,-1.74086e+01,0.00000e+00,0.00000e+00,0.00000e+00
2.05000e+03,-2.66563e+00,-1.62480e+01,0.00000e+00,0.00000e+00,0.00000e+00
2.05000e+03,-2.39621e+00,-1.50875e+01,0.00000e+00,0.00000e+00,0.00000e+00
2.05000e+03,-2.11949e+00,-1.39269e+01,0.00000e+00,0.00000e+00,0.00000e+00
2.05000e+03,-1.83624e+00,-1.27663e+01,0.00000e+00,0.00000e+00,0.00000e+00
2.05000e+03,-1.54717e+00,-1.16057e+01,0.00000e+00,0.00000e+00,0.00000e+00
2.05000e+03,-1.25562e+00,-1.04452e+01,0.00000e+00,0.00000e+00,0.00000e+00
2.05000e+03,-9.60241e-01,-9.28460e+00,0.00000e+00,0.00000e+00,0.00000e+00
2.05000e+03,-6.64227e-01,-8.12402e+00,0.00000e+00,0.00000e+00,0.00000e+00
2.05000e+03,-3.65929e-01,-6.96345e+00,0.00000e+00,0.00000e+00,0.00000e+00
2.05000e+03,-6.76615e-02,-5.80287e+00,0.00000e+00,0.00000e+00,0.00000e+00
2.05000e+03,2.29479e-01,-4.64230e+00,0.00000e+00,0.00000e+00,0.00000e+00
2.05000e+03,5.26620e-01,-3.48173e+00,0.00000e+00,0.00000e+00,0.00000e+00
2.05000e+03,8.16724e-01,-2.32115e+00,0.00000e+00,0.00000e+00,0.00000e+00
2.05000e+03,1.10552e+00,-1.16058e+00,0.00000e+00,0.00000e+00,0.00000e+00
--------------------------------------------------------------------------------------------------------------------------------------------------------------------------------------------------------------------------------------------------------------------------------------------------------------------------------------------------------------------------------

LAMINADO 
--------------------------------------------------------------------------------------------------------------------------------------------------------------------------------------------------------------------------------------------------------------------------------------------------------------------------------------------------------------------------------
X,Y,Z,Sigma,Tau,Von Mises
0.00000e+00,4.31008e+01,0.00000e+00,0.00000e+00,0.00000e+00,0.00000e+00
0.00000e+00,4.28837e+01,-3.27521e+00,0.00000e+00,0.00000e+00,0.00000e+00
0.00000e+00,4.25950e+01,-6.55041e+00,0.00000e+00,0.00000e+00,0.00000e+00
0.00000e+00,4.23033e+01,-9.82562e+00,0.00000e+00,0.00000e+00,0.00000e+00
0.00000e+00,4.19484e+01,-1.31008e+01,0.00000e+00,0.00000e+00,0.00000e+00
0.00000e+00,4.15787e+01,-1.63760e+01,0.00000e+00,0.00000e+00,0.00000e+00
0.00000e+00,4.11605e+01,-1.96512e+01,0.00000e+00,0.00000e+00,0.00000e+00
0.00000e+00,4.07187e+01,-2.29264e+01,0.00000e+00,0.00000e+00,0.00000e+00
0.00000e+00,4.02378e+01,-2.62017e+01,0.00000e+00,0.00000e+00,0.00000e+00
0.00000e+00,3.97249e+01,-2.94769e+01,0.00000e+00,0.00000e+00,0.00000e+00
0.00000e+00,3.91766e+01,-3.27521e+01,0.00000e+00,0.00000e+00,0.00000e+00
0.00000e+00,3.85857e+01,-3.60273e+01,0.00000e+00,0.00000e+00,0.00000e+00
0.00000e+00,3.79511e+01,-3.93025e+01,0.00000e+00,0.00000e+00,0.00000e+00
0.00000e+00,3.72545e+01,-4.25777e+01,0.00000e+00,0.00000e+00,0.00000e+00
0.00000e+00,3.64976e+01,-4.58529e+01,0.00000e+00,0.00000e+00,0.00000e+00
0.00000e+00,3.56687e+01,-4.91281e+01,0.00000e+00,0.00000e+00,0.00000e+00
0.00000e+00,3.47420e+01,-5.24033e+01,0.00000e+00,0.00000e+00,0.00000e+00
0.00000e+00,3.37474e+01,-5.56785e+01,0.00000e+00,0.00000e+00,0.00000e+00
0.00000e+00,3.26000e+01,-5.89537e+01,0.00000e+00,0.00000e+00,0.00000e+00
0.00000e+00,3.13892e+01,-6.22289e+01,0.00000e+00,0.00000e+00,0.00000e+00
0.00000e+00,3.00018e+01,-6.55041e+01,0.00000e+00,0.00000e+00,0.00000e+00
0.00000e+00,2.84730e+01,-6.87793e+01,0.00000e+00,0.00000e+00,0.00000e+00
0.00000e+00,2.68002e+01,-7.20546e+01,0.00000e+00,0.00000e+00,0.00000e+00
0.00000e+00,2.48857e+01,-7.53298e+01,0.00000e+00,0.00000e+00,0.00000e+00
0.00000e+00,2.26913e+01,-7.86050e+01,0.00000e+00,0.00000e+00,0.00000e+00
0.00000e+00,2.01805e+01,-8.18802e+01,0.00000e+00,0.00000e+00,0.00000e+00
0.00000e+00,1.72108e+01,-8.51554e+01,0.00000e+00,0.00000e+00,0.00000e+00
0.00000e+00,1.33989e+01,-8.84306e+01,0.00000e+00,0.00000e+00,0.00000e+00
0.00000e+00,8.24350e+00,-9.17058e+01,0.00000e+00,0.00000e+00,0.00000e+00
0.00000e+00,-3.34020e+00,-9.49810e+01,0.00000e+00,0.00000e+00,0.00000e+00
0.00000e+00,-4.17620e+00,-9.49886e+01,0.00000e+00,0.00000e+00,0.00000e+00
0.00000e+00,-1.17928e+01,-9.15961e+01,0.00000e+00,0.00000e+00,0.00000e+00
0.00000e+00,-1.27149e+01,-8.82037e+01,0.00000e+00,0.00000e+00,0.00000e+00
0.00000e+00,-1.30332e+01,-8.48113e+01,0.00000e+00,0.00000e+00,0.00000e+00
0.00000e+00,-1.30814e+01,-8.14188e+01,0.00000e+00,0.00000e+00,0.00000e+00
0.00000e+00,-1.29264e+01,-7.80264e+01,0.00000e+00,0.00000e+00,0.00000e+00
0.00000e+00,-1.26437e+01,-7.46339e+01,0.00000e+00,0.00000e+00,0.00000e+00
0.00000e+00,-1.22328e+01,-7.12415e+01,0.00000e+00,0.00000e+00,0.00000e+00
0.00000e+00,-1.17438e+01,-6.78490e+01,0.00000e+00,0.00000e+00,0.00000e+00
0.00000e+00,-1.12094e+01,-6.44565e+01,0.00000e+00,0.00000e+00,0.00000e+00
0.00000e+00,-1.06068e+01,-6.10641e+01,0.00000e+00,0.00000e+00,0.00000e+00
0.00000e+00,-9.96142e+00,-5.76716e+01,0.00000e+00,0.00000e+00,0.00000e+00
0.00000e+00,-9.27449e+00,-5.42792e+01,0.00000e+00,0.00000e+00,0.00000e+00
0.00000e+00,-8.54615e+00,-5.08867e+01,0.00000e+00,0.00000e+00,0.00000e+00
0.00000e+00,-7.79185e+00,-4.74943e+01,0.00000e+00,0.00000e+00,0.00000e+00
0.00000e+00,-7.00429e+00,-4.41018e+01,0.00000e+00,0.00000e+00,0.00000e+00
0.00000e+00,-6.19544e+00,-4.07094e+01,0.00000e+00,0.00000e+00,0.00000e+00
0.00000e+00,-5.36748e+00,-3.73169e+01,0.00000e+00,0.00000e+00,0.00000e+00
0.00000e+00,-4.52248e+00,-3.39245e+01,0.00000e+00,0.00000e+00,0.00000e+00
0.00000e+00,-3.67026e+00,-3.05320e+01,0.00000e+00,0.00000e+00,0.00000e+00
0.00000e+00,-2.80686e+00,-2.71396e+01,0.00000e+00,0.00000e+00,0.00000e+00
0.00000e+00,-1.94159e+00,-2.37472e+01,0.00000e+00,0.00000e+00,0.00000e+00
0.00000e+00,-1.06964e+00,-2.03547e+01,0.00000e+00,0.00000e+00,0.00000e+00
0.00000e+00,-1.97780e-01,-1.69622e+01,0.00000e+00,0.00000e+00,0.00000e+00
0.00000e+00,6.70785e-01,-1.35698e+01,0.00000e+00,0.00000e+00,0.00000e+00
0.00000e+00,1.53935e+00,-1.01774e+01,0.00000e+00,0.00000e+00,0.00000e+00
0.00000e+00,2.38735e+00,-6.78490e+00,0.00000e+00,0.00000e+00,0.00000e+00
0.00000e+00,3.23151e+00,-3.39245e+00,0.00000e+00,0.00000e+00,0.00000e+00
1.07300e+02,4.26785e+01,0.00000e+00,0.00000e+00,0.00000e+00,0.00000e+00
1.07300e+02,4.24636e+01,-3.24312e+00,0.00000e+00,0.00000e+00,0.00000e+00
1.07300e+02,4.21777e+01,-6.48624e+00,0.00000e+00,0.00000e+00,0.00000e+00
1.07300e+02,4.18889e+01,-9.72936e+00,0.00000e+00,0.00000e+00,0.00000e+00
1.07300e+02,4.15374e+01,-1.29725e+01,0.00000e+00,0.00000e+00,0.00000e+00
1.07300e+02,4.11714e+01,-1.62156e+01,0.00000e+00,0.00000e+00,0.00000e+00
1.07300e+02,4.07572e+01,-1.94587e+01,0.00000e+00,0.00000e+00,0.00000e+00
1.07300e+02,4.03197e+01,-2.27018e+01,0.00000e+00,0.00000e+00,0.00000e+00
1.07300e+02,3.98436e+01,-2.59450e+01,0.00000e+00,0.00000e+00,0.00000e+00
1.07300e+02,3.93357e+01,-2.91881e+01,0.00000e+00,0.00000e+00,0.00000e+00
1.07300e+02,3.87928e+01,-3.24312e+01,0.00000e+00,0.00000e+00,0.00000e+00
1.07300e+02,3.82077e+01,-3.56743e+01,0.00000e+00,0.00000e+00,0.00000e+00
1.07300e+02,3.75793e+01,-3.89174e+01,0.00000e+00,0.00000e+00,0.00000e+00
1.07300e+02,3.68895e+01,-4.21606e+01,0.00000e+00,0.00000e+00,0.00000e+00
1.07300e+02,3.61401e+01,-4.54037e+01,0.00000e+00,0.00000e+00,0.00000e+00
1.07300e+02,3.53192e+01,-4.86468e+01,0.00000e+00,0.00000e+00,0.00000e+00
1.07300e+02,3.44016e+01,-5.18899e+01,0.00000e+00,0.00000e+00,0.00000e+00
1.07300e+02,3.34168e+01,-5.51330e+01,0.00000e+00,0.00000e+00,0.00000e+00
1.07300e+02,3.22806e+01,-5.83762e+01,0.00000e+00,0.00000e+00,0.00000e+00
1.07300e+02,3.10816e+01,-6.16193e+01,0.00000e+00,0.00000e+00,0.00000e+00
1.07300e+02,2.97079e+01,-6.48624e+01,0.00000e+00,0.00000e+00,0.00000e+00
1.07300e+02,2.81940e+01,-6.81055e+01,0.00000e+00,0.00000e+00,0.00000e+00
1.07300e+02,2.65376e+01,-7.13486e+01,0.00000e+00,0.00000e+00,0.00000e+00
1.07300e+02,2.46419e+01,-7.45918e+01,0.00000e+00,0.00000e+00,0.00000e+00
1.07300e+02,2.24690e+01,-7.78349e+01,0.00000e+00,0.00000e+00,0.00000e+00
1.07300e+02,1.99828e+01,-8.10780e+01,0.00000e+00,0.00000e+00,0.00000e+00
1.07300e+02,1.70422e+01,-8.43211e+01,0.00000e+00,0.00000e+00,0.00000e+00
1.07300e+02,1.32676e+01,-8.75642e+01,0.00000e+00,0.00000e+00,0.00000e+00
1.07300e+02,8.16273e+00,-9.08074e+01,0.00000e+00,0.00000e+00,0.00000e+00
1.07300e+02,-3.30748e+00,-9.40505e+01,0.00000e+00,0.00000e+00,0.00000e+00
1.07300e+02,-4.13529e+00,-9.40580e+01,0.00000e+00,0.00000e+00,0.00000e+00
1.07300e+02,-1.16772e+01,-9.06988e+01,0.00000e+00,0.00000e+00,0.00000e+00
1.07300e+02,-1.25904e+01,-8.73396e+01,0.00000e+00,0.00000e+00,0.00000e+00
1.07300e+02,-1.29055e+01,-8.39804e+01,0.00000e+00,0.00000e+00,0.00000e+00
1.07300e+02,-1.29533e+01,-8.06211e+01,0.00000e+00,0.00000e+00,0.00000e+00
1.07300e+02,-1.27997e+01,-7.72619e+01,0.00000e+00,0.00000e+00,0.00000e+00
1.07300e+02,-1.25198e+01,-7.39027e+01,0.00000e+00,0.00000e+00,0.00000e+00
1.07300e+02,-1.21130e+01,-7.05435e+01,0.00000e+00,0.00000e+00,0.00000e+00
1.07300e+02,-1.16287e+01,-6.71843e+01,0.00000e+00,0.00000e+00,0.00000e+00
1.07300e+02,-1.10996e+01,-6.38251e+01,0.00000e+00,0.00000e+00,0.00000e+00
1.07300e+02,-1.05029e+01,-6.04659e+01,0.00000e+00,0.00000e+00,0.00000e+00
1.07300e+02,-9.86382e+00,-5.71066e+01,0.00000e+00,0.00000e+00,0.00000e+00
1.07300e+02,-9.18363e+00,-5.37474e+01,0.00000e+00,0.00000e+00,0.00000e+00
1.07300e+02,-8.46243e+00,-5.03882e+01,0.00000e+00,0.00000e+00,0.00000e+00
1.07300e+02,-7.71552e+00,-4.70290e+01,0.00000e+00,0.00000e+00,0.00000e+00
1.07300e+02,-6.93567e+00,-4.36698e+01,0.00000e+00,0.00000e+00,0.00000e+00
1.07300e+02,-6.13474e+00,-4.03106e+01,0.00000e+00,0.00000e+00,0.00000e+00
1.07300e+02,-5.31490e+00,-3.69514e+01,0.00000e+00,0.00000e+00,0.00000e+00
1.07300e+02,-4.47818e+00,-3.35921e+01,0.00000e+00,0.00000e+00,0.00000e+00
1.07300e+02,-3.63431e+00,-3.02329e+01,0.00000e+00,0.00000e+00,0.00000e+00
1.07300e+02,-2.77936e+00,-2.68737e+01,0.00000e+00,0.00000e+00,0.00000e+00
1.07300e+02,-1.92257e+00,-2.35145e+01,0.00000e+00,0.00000e+00,0.00000e+00
1.07300e+02,-1.05916e+00,-2.01553e+01,0.00000e+00,0.00000e+00,0.00000e+00
1.07300e+02,-1.95842e-01,-1.67961e+01,0.00000e+00,0.00000e+00,0.00000e+00
1.07300e+02,6.64213e-01,-1.34369e+01,0.00000e+00,0.00000e+00,0.00000e+00
1.07300e+02,1.52427e+00,-1.00776e+01,0.00000e+00,0.00000e+00,0.00000e+00
1.07300e+02,2.36396e+00,-6.71843e+00,0.00000e+00,0.00000e+00,0.00000e+00
1.07300e+02,3.19985e+00,-3.35921e+00,0.00000e+00,0.00000e+00,0.00000e+00
2.14300e+02,4.22575e+01,0.00000e+00,0.00000e+00,0.00000e+00,0.00000e+00
2.14300e+02,4.20447e+01,-3.21112e+00,0.00000e+00,0.00000e+00,0.00000e+00
2.14300e+02,4.17615e+01,-6.42224e+00,0.00000e+00,0.00000e+00,0.00000e+00
2.14300e+02,4.14756e+01,-9.63337e+00,0.00000e+00,0.00000e+00,0.00000e+00
2.14300e+02,4.11276e+01,-1.28445e+01,0.00000e+00,0.00000e+00,0.00000e+00
2.14300e+02,4.07652e+01,-1.60556e+01,0.00000e+00,0.00000e+00,0.00000e+00
2.14300e+02,4.03551e+01,-1.92667e+01,0.00000e+00,0.00000e+00,0.00000e+00
2.14300e+02,3.99219e+01,-2.24779e+01,0.00000e+00,0.00000e+00,0.00000e+00
2.14300e+02,3.94505e+01,-2.56890e+01,0.00000e+00,0.00000e+00,0.00000e+00
2.14300e+02,3.89476e+01,-2.89001e+01,0.00000e+00,0.00000e+00,0.00000e+00
2.14300e+02,3.84101e+01,-3.21112e+01,0.00000e+00,0.00000e+00,0.00000e+00
2.14300e+02,3.78307e+01,-3.53223e+01,0.00000e+00,0.00000e+00,0.00000e+00
2.14300e+02,3.72085e+01,-3.85335e+01,0.00000e+00,0.00000e+00,0.00000e+00
2.14300e+02,3.65256e+01,-4.17446e+01,0.00000e+00,0.00000e+00,0.00000e+00
2.14300e+02,3.57835e+01,-4.49557e+01,0.00000e+00,0.00000e+00,0.00000e+00
2.14300e+02,3.49707e+01,-4.81668e+01,0.00000e+00,0.00000e+00,0.00000e+00
2.14300e+02,3.40622e+01,-5.13780e+01,0.00000e+00,0.00000e+00,0.00000e+00
2.14300e+02,3.30871e+01,-5.45891e+01,0.00000e+00,0.00000e+00,0.00000e+00
2.14300e+02,3.19621e+01,-5.78002e+01,0.00000e+00,0.00000e+00,0.00000e+00
2.14300e+02,3.07750e+01,-6.10113e+01,0.00000e+00,0.00000e+00,0.00000e+00
2.14300e+02,2.94148e+01,-6.42224e+01,0.00000e+00,0.00000e+00,0.00000e+00
2.14300e+02,2.79159e+01,-6.74336e+01,0.00000e+00,0.00000e+00,0.00000e+00
2.14300e+02,2.62758e+01,-7.06447e+01,0.00000e+00,0.00000e+00,0.00000e+00
2.14300e+02,2.43988e+01,-7.38558e+01,0.00000e+00,0.00000e+00,0.00000e+00
2.14300e+02,2.22473e+01,-7.70669e+01,0.00000e+00,0.00000e+00,0.00000e+00
2.14300e+02,1.97856e+01,-8.02781e+01,0.00000e+00,0.00000e+00,0.00000e+00
2.14300e+02,1.68740e+01,-8.34892e+01,0.00000e+00,0.00000e+00,0.00000e+00
2.14300e+02,1.31367e+01,-8.67003e+01,0.00000e+00,0.00000e+00,0.00000e+00
2.14300e+02,8.08220e+00,-8.99114e+01,0.00000e+00,0.00000e+00,0.00000e+00
2.14300e+02,-3.27484e+00,-9.31226e+01,0.00000e+00,0.00000e+00,0.00000e+00
2.14300e+02,-4.09449e+00,-9.31300e+01,0.00000e+00,0.00000e+00,0.00000e+00
2.14300e+02,-1.15620e+01,-8.98039e+01,0.00000e+00,0.00000e+00,0.00000e+00
2.14300e+02,-1.24661e+01,-8.64779e+01,0.00000e+00,0.00000e+00,0.00000e+00
2.14300e+02,-1.27781e+01,-8.31518e+01,0.00000e+00,0.00000e+00,0.00000e+00
2.14300e+02,-1.28255e+01,-7.98257e+01,0.00000e+00,0.00000e+00,0.00000e+00
2.14300e+02,-1.26734e+01,-7.64996e+01,0.00000e+00,0.00000e+00,0.00000e+00
2.14300e+02,-1.23963e+01,-7.31736e+01,0.00000e+00,0.00000e+00,0.00000e+00
2.14300e+02,-1.19935e+01,-6.98475e+01,0.00000e+00,0.00000e+00,0.00000e+00
2.14300e+02,-1.15140e+01,-6.65214e+01,0.00000e+00,0.00000e+00,0.00000e+00
2.14300e+02,-1.09901e+01,-6.31954e+01,0.00000e+00,0.00000e+00,0.00000e+00
2.14300e+02,-1.03992e+01,-5.98693e+01,0.00000e+00,0.00000e+00,0.00000e+00
2.14300e+02,-9.76651e+00,-5.65432e+01,0.00000e+00,0.00000e+00,0.00000e+00
2.14300e+02,-9.09302e+00,-5.32171e+01,0.00000e+00,0.00000e+00,0.00000e+00
2.14300e+02,-8.37893e+00,-4.98911e+01,0.00000e+00,0.00000e+00,0.00000e+00
2.14300e+02,-7.63939e+00,-4.65650e+01,0.00000e+00,0.00000e+00,0.00000e+00
2.14300e+02,-6.86724e+00,-4.32389e+01,0.00000e+00,0.00000e+00,0.00000e+00
2.14300e+02,-6.07421e+00,-3.99129e+01,0.00000e+00,0.00000e+00,0.00000e+00
2.14300e+02,-5.26246e+00,-3.65868e+01,0.00000e+00,0.00000e+00,0.00000e+00
2.14300e+02,-4.43399e+00,-3.32607e+01,0.00000e+00,0.00000e+00,0.00000e+00
2.14300e+02,-3.59845e+00,-2.99346e+01,0.00000e+00,0.00000e+00,0.00000e+00
2.14300e+02,-2.75194e+00,-2.66086e+01,0.00000e+00,0.00000e+00,0.00000e+00
2.14300e+02,-1.90360e+00,-2.32825e+01,0.00000e+00,0.00000e+00,0.00000e+00
2.14300e+02,-1.04871e+00,-1.99564e+01,0.00000e+00,0.00000e+00,0.00000e+00
2.14300e+02,-1.93910e-01,-1.66304e+01,0.00000e+00,0.00000e+00,0.00000e+00
2.14300e+02,6.57660e-01,-1.33043e+01,0.00000e+00,0.00000e+00,0.00000e+00
2.14300e+02,1.50923e+00,-9.97821e+00,0.00000e+00,0.00000e+00,0.00000e+00
2.14300e+02,2.34063e+00,-6.65214e+00,0.00000e+00,0.00000e+00,0.00000e+00
2.14300e+02,3.16828e+00,-3.32607e+00,0.00000e+00,0.00000e+00,0.00000e+00
3.20700e+02,4.18388e+01,0.00000e+00,0.00000e+00,0.00000e+00,0.00000e+00
3.20700e+02,4.16280e+01,-3.17930e+00,0.00000e+00,0.00000e+00,0.00000e+00
3.20700e+02,4.13477e+01,-6.35861e+00,0.00000e+00,0.00000e+00,0.00000e+00
3.20700e+02,4.10646e+01,-9.53791e+00,0.00000e+00,0.00000e+00,0.00000e+00
3.20700e+02,4.07201e+01,-1.27172e+01,0.00000e+00,0.00000e+00,0.00000e+00
3.20700e+02,4.03613e+01,-1.58965e+01,0.00000e+00,0.00000e+00,0.00000e+00
3.20700e+02,3.99553e+01,-1.90758e+01,0.00000e+00,0.00000e+00,0.00000e+00
3.20700e+02,3.95264e+01,-2.22551e+01,0.00000e+00,0.00000e+00,0.00000e+00
3.20700e+02,3.90596e+01,-2.54344e+01,0.00000e+00,0.00000e+00,0.00000e+00
3.20700e+02,3.85617e+01,-2.86137e+01,0.00000e+00,0.00000e+00,0.00000e+00
3.20700e+02,3.80295e+01,-3.17930e+01,0.00000e+00,0.00000e+00,0.00000e+00
3.20700e+02,3.74559e+01,-3.49724e+01,0.00000e+00,0.00000e+00,0.00000e+00
3.20700e+02,3.68398e+01,-3.81517e+01,0.00000e+00,0.00000e+00,0.00000e+00
3.20700e+02,3.61637e+01,-4.13310e+01,0.00000e+00,0.00000e+00,0.00000e+00
3.20700e+02,3.54289e+01,-4.45103e+01,0.00000e+00,0.00000e+00,0.00000e+00
3.20700e+02,3.46242e+01,-4.76896e+01,0.00000e+00,0.00000e+00,0.00000e+00
3.20700e+02,3.37247e+01,-5.08689e+01,0.00000e+00,0.00000e+00,0.00000e+00
3.20700e+02,3.27593e+01,-5.40482e+01,0.00000e+00,0.00000e+00,0.00000e+00
3.20700e+02,3.16454e+01,-5.72275e+01,0.00000e+00,0.00000e+00,0.00000e+00
3.20700e+02,3.04701e+01,-6.04068e+01,0.00000e+00,0.00000e+00,0.00000e+00
3.20700e+02,2.91233e+01,-6.35861e+01,0.00000e+00,0.00000e+00,0.00000e+00
3.20700e+02,2.76393e+01,-6.67654e+01,0.00000e+00,0.00000e+00,0.00000e+00
3.20700e+02,2.60154e+01,-6.99447e+01,0.00000e+00,0.00000e+00,0.00000e+00
3.20700e+02,2.41570e+01,-7.31240e+01,0.00000e+00,0.00000e+00,0.00000e+00
3.20700e+02,2.20269e+01,-7.63033e+01,0.00000e+00,0.00000e+00,0.00000e+00
3.20700e+02,1.95896e+01,-7.94826e+01,0.00000e+00,0.00000e+00,0.00000e+00
3.20700e+02,1.67068e+01,-8.26619e+01,0.00000e+00,0.00000e+00,0.00000e+00
3.20700e+02,1.30066e+01,-8.58412e+01,0.00000e+00,0.00000e+00,0.00000e+00
3.20700e+02,8.00212e+00,-8.90205e+01,0.00000e+00,0.00000e+00,0.00000e+00
3.20700e+02,-3.24239e+00,-9.21998e+01,0.00000e+00,0.00000e+00,0.00000e+00
3.20700e+02,-4.05392e+00,-9.22072e+01,0.00000e+00,0.00000e+00,0.00000e+00
3.20700e+02,-1.14474e+01,-8.89141e+01,0.00000e+00,0.00000e+00,0.00000e+00
3.20700e+02,-1.23426e+01,-8.56210e+01,0.00000e+00,0.00000e+00,0.00000e+00
3.20700e+02,-1.26515e+01,-8.23279e+01,0.00000e+00,0.00000e+00,0.00000e+00
3.20700e+02,-1.26984e+01,-7.90348e+01,0.00000e+00,0.00000e+00,0.00000e+00
3.20700e+02,-1.25479e+01,-7.57416e+01,0.00000e+00,0.00000e+00,0.00000e+00
3.20700e+02,-1.22734e+01,-7.24485e+01,0.00000e+00,0.00000e+00,0.00000e+00
3.20700e+02,-1.18746e+01,-6.91554e+01,0.00000e+00,0.00000e+00,0.00000e+00
3.20700e+02,-1.13999e+01,-6.58623e+01,0.00000e+00,0.00000e+00,0.00000e+00
3.20700e+02,-1.08812e+01,-6.25692e+01,0.00000e+00,0.00000e+00,0.00000e+00
3.20700e+02,-1.02962e+01,-5.92761e+01,0.00000e+00,0.00000e+00,0.00000e+00
3.20700e+02,-9.66973e+00,-5.59829e+01,0.00000e+00,0.00000e+00,0.00000e+00
3.20700e+02,-9.00292e+00,-5.26898e+01,0.00000e+00,0.00000e+00,0.00000e+00
3.20700e+02,-8.29591e+00,-4.93967e+01,0.00000e+00,0.00000e+00,0.00000e+00
3.20700e+02,-7.56370e+00,-4.61036e+01,0.00000e+00,0.00000e+00,0.00000e+00
3.20700e+02,-6.79920e+00,-4.28105e+01,0.00000e+00,0.00000e+00,0.00000e+00
3.20700e+02,-6.01403e+00,-3.95174e+01,0.00000e+00,0.00000e+00,0.00000e+00
3.20700e+02,-5.21032e+00,-3.62243e+01,0.00000e+00,0.00000e+00,0.00000e+00
3.20700e+02,-4.39006e+00,-3.29311e+01,0.00000e+00,0.00000e+00,0.00000e+00
3.20700e+02,-3.56279e+00,-2.96380e+01,0.00000e+00,0.00000e+00,0.00000e+00
3.20700e+02,-2.72467e+00,-2.63449e+01,0.00000e+00,0.00000e+00,0.00000e+00
3.20700e+02,-1.88474e+00,-2.30518e+01,0.00000e+00,0.00000e+00,0.00000e+00
3.20700e+02,-1.03832e+00,-1.97587e+01,0.00000e+00,0.00000e+00,0.00000e+00
3.20700e+02,-1.91989e-01,-1.64656e+01,0.00000e+00,0.00000e+00,0.00000e+00
3.20700e+02,6.51143e-01,-1.31725e+01,0.00000e+00,0.00000e+00,0.00000e+00
3.20700e+02,1.49428e+00,-9.87934e+00,0.00000e+00,0.00000e+00,0.00000e+00
3.20700e+02,2.31744e+00,-6.58623e+00,0.00000e+00,0.00000e+00,0.00000e+00
3.20700e+02,3.13689e+00,-3.29311e+00,0.00000e+00,0.00000e+00,0.00000e+00
4.26200e+02,4.14236e+01,0.00000e+00,0.00000e+00,0.00000e+00,0.00000e+00
4.26200e+02,4.12150e+01,-3.14776e+00,0.00000e+00,0.00000e+00,0.00000e+00
4.26200e+02,4.09374e+01,-6.29551e+00,0.00000e+00,0.00000e+00,0.00000e+00
4.26200e+02,4.06571e+01,-9.44327e+00,0.00000e+00,0.00000e+00,0.00000e+00
4.26200e+02,4.03160e+01,-1.25910e+01,0.00000e+00,0.00000e+00,0.00000e+00
4.26200e+02,3.99607e+01,-1.57388e+01,0.00000e+00,0.00000e+00,0.00000e+00
4.26200e+02,3.95588e+01,-1.88865e+01,0.00000e+00,0.00000e+00,0.00000e+00
4.26200e+02,3.91341e+01,-2.20343e+01,0.00000e+00,0.00000e+00,0.00000e+00
4.26200e+02,3.86720e+01,-2.51820e+01,0.00000e+00,0.00000e+00,0.00000e+00
4.26200e+02,3.81790e+01,-2.83298e+01,0.00000e+00,0.00000e+00,0.00000e+00
4.26200e+02,3.76521e+01,-3.14776e+01,0.00000e+00,0.00000e+00,0.00000e+00
4.26200e+02,3.70842e+01,-3.46253e+01,0.00000e+00,0.00000e+00,0.00000e+00
4.26200e+02,3.64743e+01,-3.77731e+01,0.00000e+00,0.00000e+00,0.00000e+00
4.26200e+02,3.58048e+01,-4.09208e+01,0.00000e+00,0.00000e+00,0.00000e+00
4.26200e+02,3.50774e+01,-4.40686e+01,0.00000e+00,0.00000e+00,0.00000e+00
4.26200e+02,3.42806e+01,-4.72163e+01,0.00000e+00,0.00000e+00,0.00000e+00
4.26200e+02,3.33901e+01,-5.03641e+01,0.00000e+00,0.00000e+00,0.00000e+00
4.26200e+02,3.24342e+01,-5.35118e+01,0.00000e+00,0.00000e+00,0.00000e+00
4.26200e+02,3.13314e+01,-5.66596e+01,0.00000e+00,0.00000e+00,0.00000e+00
4.26200e+02,3.01677e+01,-5.98074e+01,0.00000e+00,0.00000e+00,0.00000e+00
4.26200e+02,2.88343e+01,-6.29551e+01,0.00000e+00,0.00000e+00,0.00000e+00
4.26200e+02,2.73650e+01,-6.61029e+01,0.00000e+00,0.00000e+00,0.00000e+00
4.26200e+02,2.57573e+01,-6.92506e+01,0.00000e+00,0.00000e+00,0.00000e+00
4.26200e+02,2.39173e+01,-7.23984e+01,0.00000e+00,0.00000e+00,0.00000e+00
4.26200e+02,2.18083e+01,-7.55461e+01,0.00000e+00,0.00000e+00,0.00000e+00
4.26200e+02,1.93952e+01,-7.86939e+01,0.00000e+00,0.00000e+00,0.00000e+00
4.26200e+02,1.65410e+01,-8.18417e+01,0.00000e+00,0.00000e+00,0.00000e+00
4.26200e+02,1.28775e+01,-8.49894e+01,0.00000e+00,0.00000e+00,0.00000e+00
4.26200e+02,7.92271e+00,-8.81372e+01,0.00000e+00,0.00000e+00,0.00000e+00
4.26200e+02,-3.21022e+00,-9.12849e+01,0.00000e+00,0.00000e+00,0.00000e+00
4.26200e+02,-4.01369e+00,-9.12922e+01,0.00000e+00,0.00000e+00,0.00000e+00
4.26200e+02,-1.13339e+01,-8.80318e+01,0.00000e+00,0.00000e+00,0.00000e+00
4.26200e+02,-1.22201e+01,-8.47713e+01,0.00000e+00,0.00000e+00,0.00000e+00
4.26200e+02,-1.25260e+01,-8.15109e+01,0.00000e+00,0.00000e+00,0.00000e+00
4.26200e+02,-1.25724e+01,-7.82505e+01,0.00000e+00,0.00000e+00,0.00000e+00
4.26200e+02,-1.24233e+01,-7.49900e+01,0.00000e+00,0.00000e+00,0.00000e+00
4.26200e+02,-1.21516e+01,-7.17296e+01,0.00000e+00,0.00000e+00,0.00000e+00
4.26200e+02,-1.17568e+01,-6.84692e+01,0.00000e+00,0.00000e+00,0.00000e+00
4.26200e+02,-1.12868e+01,-6.52087e+01,0.00000e+00,0.00000e+00,0.00000e+00
4.26200e+02,-1.07732e+01,-6.19483e+01,0.00000e+00,0.00000e+00,0.00000e+00
4.26200e+02,-1.01940e+01,-5.86879e+01,0.00000e+00,0.00000e+00,0.00000e+00
4.26200e+02,-9.57378e+00,-5.54274e+01,0.00000e+00,0.00000e+00,0.00000e+00
4.26200e+02,-8.91358e+00,-5.21670e+01,0.00000e+00,0.00000e+00,0.00000e+00
4.26200e+02,-8.21359e+00,-4.89065e+01,0.00000e+00,0.00000e+00,0.00000e+00
4.26200e+02,-7.48864e+00,-4.56461e+01,0.00000e+00,0.00000e+00,0.00000e+00
4.26200e+02,-6.73173e+00,-4.23857e+01,0.00000e+00,0.00000e+00,0.00000e+00
4.26200e+02,-5.95435e+00,-3.91252e+01,0.00000e+00,0.00000e+00,0.00000e+00
4.26200e+02,-5.15861e+00,-3.58648e+01,0.00000e+00,0.00000e+00,0.00000e+00
4.26200e+02,-4.34650e+00,-3.26044e+01,0.00000e+00,0.00000e+00,0.00000e+00
4.26200e+02,-3.52744e+00,-2.93439e+01,0.00000e+00,0.00000e+00,0.00000e+00
4.26200e+02,-2.69763e+00,-2.60835e+01,0.00000e+00,0.00000e+00,0.00000e+00
4.26200e+02,-1.86603e+00,-2.28231e+01,0.00000e+00,0.00000e+00,0.00000e+00
4.26200e+02,-1.02802e+00,-1.95626e+01,0.00000e+00,0.00000e+00,0.00000e+00
4.26200e+02,-1.90083e-01,-1.63022e+01,0.00000e+00,0.00000e+00,0.00000e+00
4.26200e+02,6.44682e-01,-1.30417e+01,0.00000e+00,0.00000e+00,0.00000e+00
4.26200e+02,1.47945e+00,-9.78131e+00,0.00000e+00,0.00000e+00,0.00000e+00
4.26200e+02,2.29445e+00,-6.52087e+00,0.00000e+00,0.00000e+00,0.00000e+00
4.26200e+02,3.10576e+00,-3.26044e+00,0.00000e+00,0.00000e+00,0.00000e+00
5.30600e+02,4.10127e+01,0.00000e+00,0.00000e+00,0.00000e+00,0.00000e+00
5.30600e+02,4.08062e+01,-3.11654e+00,0.00000e+00,0.00000e+00,0.00000e+00
5.30600e+02,4.05314e+01,-6.23307e+00,0.00000e+00,0.00000e+00,0.00000e+00
5.30600e+02,4.02539e+01,-9.34961e+00,0.00000e+00,0.00000e+00,0.00000e+00
5.30600e+02,3.99161e+01,-1.24661e+01,0.00000e+00,0.00000e+00,0.00000e+00
5.30600e+02,3.95644e+01,-1.55827e+01,0.00000e+00,0.00000e+00,0.00000e+00
5.30600e+02,3.91664e+01,-1.86992e+01,0.00000e+00,0.00000e+00,0.00000e+00
5.30600e+02,3.87460e+01,-2.18158e+01,0.00000e+00,0.00000e+00,0.00000e+00
5.30600e+02,3.82884e+01,-2.49323e+01,0.00000e+00,0.00000e+00,0.00000e+00
5.30600e+02,3.78003e+01,-2.80488e+01,0.00000e+00,0.00000e+00,0.00000e+00
5.30600e+02,3.72787e+01,-3.11654e+01,0.00000e+00,0.00000e+00,0.00000e+00
5.30600e+02,3.67164e+01,-3.42819e+01,0.00000e+00,0.00000e+00,0.00000e+00
5.30600e+02,3.61125e+01,-3.73984e+01,0.00000e+00,0.00000e+00,0.00000e+00
5.30600e+02,3.54497e+01,-4.05150e+01,0.00000e+00,0.00000e+00,0.00000e+00
5.30600e+02,3.47295e+01,-4.36315e+01,0.00000e+00,0.00000e+00,0.00000e+00
5.30600e+02,3.39406e+01,-4.67480e+01,0.00000e+00,0.00000e+00,0.00000e+00
5.30600e+02,3.30589e+01,-4.98646e+01,0.00000e+00,0.00000e+00,0.00000e+00
5.30600e+02,3.21125e+01,-5.29811e+01,0.00000e+00,0.00000e+00,0.00000e+00
5.30600e+02,3.10206e+01,-5.60976e+01,0.00000e+00,0.00000e+00,0.00000e+00
5.30600e+02,2.98685e+01,-5.92142e+01,0.00000e+00,0.00000e+00,0.00000e+00
5.30600e+02,2.85484e+01,-6.23307e+01,0.00000e+00,0.00000e+00,0.00000e+00
5.30600e+02,2.70936e+01,-6.54473e+01,0.00000e+00,0.00000e+00,0.00000e+00
5.30600e+02,2.55018e+01,-6.85638e+01,0.00000e+00,0.00000e+00,0.00000e+00
5.30600e+02,2.36801e+01,-7.16803e+01,0.00000e+00,0.00000e+00,0.00000e+00
5.30600e+02,2.15920e+01,-7.47969e+01,0.00000e+00,0.00000e+00,0.00000e+00
5.30600e+02,1.92028e+01,-7.79134e+01,0.00000e+00,0.00000e+00,0.00000e+00
5.30600e+02,1.63770e+01,-8.10299e+01,0.00000e+00,0.00000e+00,0.00000e+00
5.30600e+02,1.27498e+01,-8.41465e+01,0.00000e+00,0.00000e+00,0.00000e+00
5.30600e+02,7.84413e+00,-8.72630e+01,0.00000e+00,0.00000e+00,0.00000e+00
5.30600e+02,-3.17838e+00,-9.03795e+01,0.00000e+00,0.00000e+00,0.00000e+00
5.30600e+02,-3.97388e+00,-9.03868e+01,0.00000e+00,0.00000e+00,0.00000e+00
5.30600e+02,-1.12214e+01,-8.71587e+01,0.00000e+00,0.00000e+00,0.00000e+00
5.30600e+02,-1.20989e+01,-8.39306e+01,0.00000e+00,0.00000e+00,0.00000e+00
5.30600e+02,-1.24018e+01,-8.07025e+01,0.00000e+00,0.00000e+00,0.00000e+00
5.30600e+02,-1.24477e+01,-7.74744e+01,0.00000e+00,0.00000e+00,0.00000e+00
5.30600e+02,-1.23001e+01,-7.42463e+01,0.00000e+00,0.00000e+00,0.00000e+00
5.30600e+02,-1.20311e+01,-7.10182e+01,0.00000e+00,0.00000e+00,0.00000e+00
5.30600e+02,-1.16402e+01,-6.77901e+01,0.00000e+00,0.00000e+00,0.00000e+00
5.30600e+02,-1.11748e+01,-6.45620e+01,0.00000e+00,0.00000e+00,0.00000e+00
5.30600e+02,-1.06664e+01,-6.13339e+01,0.00000e+00,0.00000e+00,0.00000e+00
5.30600e+02,-1.00929e+01,-5.81058e+01,0.00000e+00,0.00000e+00,0.00000e+00
5.30600e+02,-9.47882e+00,-5.48777e+01,0.00000e+00,0.00000e+00,0.00000e+00
5.30600e+02,-8.82518e+00,-5.16496e+01,0.00000e+00,0.00000e+00,0.00000e+00
5.30600e+02,-8.13212e+00,-4.84215e+01,0.00000e+00,0.00000e+00,0.00000e+00
5.30600e+02,-7.41437e+00,-4.51934e+01,0.00000e+00,0.00000e+00,0.00000e+00
5.30600e+02,-6.66496e+00,-4.19653e+01,0.00000e+00,0.00000e+00,0.00000e+00
5.30600e+02,-5.89529e+00,-3.87372e+01,0.00000e+00,0.00000e+00,0.00000e+00
5.30600e+02,-5.10745e+00,-3.55091e+01,0.00000e+00,0.00000e+00,0.00000e+00
5.30600e+02,-4.30339e+00,-3.22810e+01,0.00000e+00,0.00000e+00,0.00000e+00
5.30600e+02,-3.49245e+00,-2.90529e+01,0.00000e+00,0.00000e+00,0.00000e+00
5.30600e+02,-2.67088e+00,-2.58248e+01,0.00000e+00,0.00000e+00,0.00000e+00
5.30600e+02,-1.84753e+00,-2.25967e+01,0.00000e+00,0.00000e+00,0.00000e+00
5.30600e+02,-1.01782e+00,-1.93686e+01,0.00000e+00,0.00000e+00,0.00000e+00
5.30600e+02,-1.88198e-01,-1.61405e+01,0.00000e+00,0.00000e+00,0.00000e+00
5.30600e+02,6.38288e-01,-1.29124e+01,0.00000e+00,0.00000e+00,0.00000e+00
5.30600e+02,1.46477e+00,-9.68430e+00,0.00000e+00,0.00000e+00,0.00000e+00
5.30600e+02,2.27169e+00,-6.45620e+00,0.00000e+00,0.00000e+00,0.00000e+00
5.30600e+02,3.07496e+00,-3.22810e+00,0.00000e+00,0.00000e+00,0.00000e+00
6.33500e+02,4.06078e+01,0.00000e+00,0.00000e+00,0.00000e+00,0.00000e+00
6.33500e+02,4.04033e+01,-3.08576e+00,0.00000e+00,0.00000e+00,0.00000e+00
6.33500e+02,4.01312e+01,-6.17153e+00,0.00000e+00,0.00000e+00,0.00000e+00
6.33500e+02,3.98564e+01,-9.25729e+00,0.00000e+00,0.00000e+00,0.00000e+00
6.33500e+02,3.95220e+01,-1.23431e+01,0.00000e+00,0.00000e+00,0.00000e+00
6.33500e+02,3.91738e+01,-1.54288e+01,0.00000e+00,0.00000e+00,0.00000e+00
6.33500e+02,3.87797e+01,-1.85146e+01,0.00000e+00,0.00000e+00,0.00000e+00
6.33500e+02,3.83634e+01,-2.16004e+01,0.00000e+00,0.00000e+00,0.00000e+00
6.33500e+02,3.79104e+01,-2.46861e+01,0.00000e+00,0.00000e+00,0.00000e+00
6.33500e+02,3.74271e+01,-2.77719e+01,0.00000e+00,0.00000e+00,0.00000e+00
6.33500e+02,3.69106e+01,-3.08576e+01,0.00000e+00,0.00000e+00,0.00000e+00
6.33500e+02,3.63539e+01,-3.39434e+01,0.00000e+00,0.00000e+00,0.00000e+00
6.33500e+02,3.57559e+01,-3.70292e+01,0.00000e+00,0.00000e+00,0.00000e+00
6.33500e+02,3.50997e+01,-4.01149e+01,0.00000e+00,0.00000e+00,0.00000e+00
6.33500e+02,3.43866e+01,-4.32007e+01,0.00000e+00,0.00000e+00,0.00000e+00
6.33500e+02,3.36055e+01,-4.62865e+01,0.00000e+00,0.00000e+00,0.00000e+00
6.33500e+02,3.27325e+01,-4.93722e+01,0.00000e+00,0.00000e+00,0.00000e+00
6.33500e+02,3.17954e+01,-5.24580e+01,0.00000e+00,0.00000e+00,0.00000e+00
6.33500e+02,3.07144e+01,-5.55438e+01,0.00000e+00,0.00000e+00,0.00000e+00
6.33500e+02,2.95736e+01,-5.86295e+01,0.00000e+00,0.00000e+00,0.00000e+00
6.33500e+02,2.82665e+01,-6.17153e+01,0.00000e+00,0.00000e+00,0.00000e+00
6.33500e+02,2.68261e+01,-6.48011e+01,0.00000e+00,0.00000e+00,0.00000e+00
6.33500e+02,2.52500e+01,-6.78868e+01,0.00000e+00,0.00000e+00,0.00000e+00
6.33500e+02,2.34463e+01,-7.09726e+01,0.00000e+00,0.00000e+00,0.00000e+00
6.33500e+02,2.13788e+01,-7.40584e+01,0.00000e+00,0.00000e+00,0.00000e+00
6.33500e+02,1.90132e+01,-7.71441e+01,0.00000e+00,0.00000e+00,0.00000e+00
6.33500e+02,1.62153e+01,-8.02299e+01,0.00000e+00,0.00000e+00,0.00000e+00
6.33500e+02,1.26239e+01,-8.33156e+01,0.00000e+00,0.00000e+00,0.00000e+00
6.33500e+02,7.76668e+00,-8.64014e+01,0.00000e+00,0.00000e+00,0.00000e+00
6.33500e+02,-3.14700e+00,-8.94872e+01,0.00000e+00,0.00000e+00,0.00000e+00
6.33500e+02,-3.93464e+00,-8.94943e+01,0.00000e+00,0.00000e+00,0.00000e+00
6.33500e+02,-1.11106e+01,-8.62981e+01,0.00000e+00,0.00000e+00,0.00000e+00
6.33500e+02,-1.19795e+01,-8.31019e+01,0.00000e+00,0.00000e+00,0.00000e+00
6.33500e+02,-1.22793e+01,-7.99057e+01,0.00000e+00,0.00000e+00,0.00000e+00
6.33500e+02,-1.23248e+01,-7.67094e+01,0.00000e+00,0.00000e+00,0.00000e+00
6.33500e+02,-1.21787e+01,-7.35132e+01,0.00000e+00,0.00000e+00,0.00000e+00
6.33500e+02,-1.19123e+01,-7.03170e+01,0.00000e+00,0.00000e+00,0.00000e+00
6.33500e+02,-1.15252e+01,-6.71208e+01,0.00000e+00,0.00000e+00,0.00000e+00
6.33500e+02,-1.10645e+01,-6.39245e+01,0.00000e+00,0.00000e+00,0.00000e+00
6.33500e+02,-1.05611e+01,-6.07283e+01,0.00000e+00,0.00000e+00,0.00000e+00
6.33500e+02,-9.99326e+00,-5.75321e+01,0.00000e+00,0.00000e+00,0.00000e+00
6.33500e+02,-9.38524e+00,-5.43358e+01,0.00000e+00,0.00000e+00,0.00000e+00
6.33500e+02,-8.73804e+00,-5.11396e+01,0.00000e+00,0.00000e+00,0.00000e+00
6.33500e+02,-8.05183e+00,-4.79434e+01,0.00000e+00,0.00000e+00,0.00000e+00
6.33500e+02,-7.34116e+00,-4.47472e+01,0.00000e+00,0.00000e+00,0.00000e+00
6.33500e+02,-6.59916e+00,-4.15509e+01,0.00000e+00,0.00000e+00,0.00000e+00
6.33500e+02,-5.83709e+00,-3.83547e+01,0.00000e+00,0.00000e+00,0.00000e+00
6.33500e+02,-5.05702e+00,-3.51585e+01,0.00000e+00,0.00000e+00,0.00000e+00
6.33500e+02,-4.26090e+00,-3.19623e+01,0.00000e+00,0.00000e+00,0.00000e+00
6.33500e+02,-3.45797e+00,-2.87660e+01,0.00000e+00,0.00000e+00,0.00000e+00
6.33500e+02,-2.64450e+00,-2.55698e+01,0.00000e+00,0.00000e+00,0.00000e+00
6.33500e+02,-1.82928e+00,-2.23736e+01,0.00000e+00,0.00000e+00,0.00000e+00
6.33500e+02,-1.00777e+00,-1.91774e+01,0.00000e+00,0.00000e+00,0.00000e+00
6.33500e+02,-1.86340e-01,-1.59811e+01,0.00000e+00,0.00000e+00,0.00000e+00
6.33500e+02,6.31986e-01,-1.27849e+01,0.00000e+00,0.00000e+00,0.00000e+00
6.33500e+02,1.45031e+00,-9.58868e+00,0.00000e+00,0.00000e+00,0.00000e+00
6.33500e+02,2.24926e+00,-6.39245e+00,0.00000e+00,0.00000e+00,0.00000e+00
6.33500e+02,3.04460e+00,-3.19623e+00,0.00000e+00,0.00000e+00,0.00000e+00
7.34700e+02,4.02095e+01,0.00000e+00,0.00000e+00,0.00000e+00,0.00000e+00
7.34700e+02,4.00070e+01,-3.05550e+00,0.00000e+00,0.00000e+00,0.00000e+00
7.34700e+02,3.97376e+01,-6.11100e+00,0.00000e+00,0.00000e+00,0.00000e+00
7.34700e+02,3.94656e+01,-9.16651e+00,0.00000e+00,0.00000e+00,0.00000e+00
7.34700e+02,3.91344e+01,-1.22220e+01,0.00000e+00,0.00000e+00,0.00000e+00
7.34700e+02,3.87896e+01,-1.52775e+01,0.00000e+00,0.00000e+00,0.00000e+00
7.34700e+02,3.83994e+01,-1.83330e+01,0.00000e+00,0.00000e+00,0.00000e+00
7.34700e+02,3.79872e+01,-2.13885e+01,0.00000e+00,0.00000e+00,0.00000e+00
7.34700e+02,3.75386e+01,-2.44440e+01,0.00000e+00,0.00000e+00,0.00000e+00
7.34700e+02,3.70601e+01,-2.74995e+01,0.00000e+00,0.00000e+00,0.00000e+00
7.34700e+02,3.65486e+01,-3.05550e+01,0.00000e+00,0.00000e+00,0.00000e+00
7.34700e+02,3.59973e+01,-3.36105e+01,0.00000e+00,0.00000e+00,0.00000e+00
7.34700e+02,3.54053e+01,-3.66660e+01,0.00000e+00,0.00000e+00,0.00000e+00
7.34700e+02,3.47554e+01,-3.97215e+01,0.00000e+00,0.00000e+00,0.00000e+00
7.34700e+02,3.40493e+01,-4.27770e+01,0.00000e+00,0.00000e+00,0.00000e+00
7.34700e+02,3.32760e+01,-4.58325e+01,0.00000e+00,0.00000e+00,0.00000e+00
7.34700e+02,3.24115e+01,-4.88880e+01,0.00000e+00,0.00000e+00,0.00000e+00
7.34700e+02,3.14836e+01,-5.19435e+01,0.00000e+00,0.00000e+00,0.00000e+00
7.34700e+02,3.04131e+01,-5.49990e+01,0.00000e+00,0.00000e+00,0.00000e+00
7.34700e+02,2.92835e+01,-5.80545e+01,0.00000e+00,0.00000e+00,0.00000e+00
7.34700e+02,2.79893e+01,-6.11100e+01,0.00000e+00,0.00000e+00,0.00000e+00
7.34700e+02,2.65630e+01,-6.41655e+01,0.00000e+00,0.00000e+00,0.00000e+00
7.34700e+02,2.50024e+01,-6.72210e+01,0.00000e+00,0.00000e+00,0.00000e+00
7.34700e+02,2.32164e+01,-7.02765e+01,0.00000e+00,0.00000e+00,0.00000e+00
7.34700e+02,2.11691e+01,-7.33320e+01,0.00000e+00,0.00000e+00,0.00000e+00
7.34700e+02,1.88268e+01,-7.63875e+01,0.00000e+00,0.00000e+00,0.00000e+00
7.34700e+02,1.60563e+01,-7.94430e+01,0.00000e+00,0.00000e+00,0.00000e+00
7.34700e+02,1.25001e+01,-8.24985e+01,0.00000e+00,0.00000e+00,0.00000e+00
7.34700e+02,7.69051e+00,-8.55540e+01,0.00000e+00,0.00000e+00,0.00000e+00
7.34700e+02,-3.11614e+00,-8.86096e+01,0.00000e+00,0.00000e+00,0.00000e+00
7.34700e+02,-3.89606e+00,-8.86166e+01,0.00000e+00,0.00000e+00,0.00000e+00
7.34700e+02,-1.10017e+01,-8.54518e+01,0.00000e+00,0.00000e+00,0.00000e+00
7.34700e+02,-1.18620e+01,-8.22869e+01,0.00000e+00,0.00000e+00,0.00000e+00
7.34700e+02,-1.21589e+01,-7.91220e+01,0.00000e+00,0.00000e+00,0.00000e+00
7.34700e+02,-1.22039e+01,-7.59571e+01,0.00000e+00,0.00000e+00,0.00000e+00
7.34700e+02,-1.20592e+01,-7.27922e+01,0.00000e+00,0.00000e+00,0.00000e+00
7.34700e+02,-1.17955e+01,-6.96274e+01,0.00000e+00,0.00000e+00,0.00000e+00
7.34700e+02,-1.14122e+01,-6.64625e+01,0.00000e+00,0.00000e+00,0.00000e+00
7.34700e+02,-1.09560e+01,-6.32976e+01,0.00000e+00,0.00000e+00,0.00000e+00
7.34700e+02,-1.04575e+01,-6.01327e+01,0.00000e+00,0.00000e+00,0.00000e+00
7.34700e+02,-9.89525e+00,-5.69678e+01,0.00000e+00,0.00000e+00,0.00000e+00
7.34700e+02,-9.29319e+00,-5.38030e+01,0.00000e+00,0.00000e+00,0.00000e+00
7.34700e+02,-8.65235e+00,-5.06381e+01,0.00000e+00,0.00000e+00,0.00000e+00
7.34700e+02,-7.97287e+00,-4.74732e+01,0.00000e+00,0.00000e+00,0.00000e+00
7.34700e+02,-7.26917e+00,-4.43083e+01,0.00000e+00,0.00000e+00,0.00000e+00
7.34700e+02,-6.53444e+00,-4.11434e+01,0.00000e+00,0.00000e+00,0.00000e+00
7.34700e+02,-5.77984e+00,-3.79786e+01,0.00000e+00,0.00000e+00,0.00000e+00
7.34700e+02,-5.00742e+00,-3.48137e+01,0.00000e+00,0.00000e+00,0.00000e+00
7.34700e+02,-4.21911e+00,-3.16488e+01,0.00000e+00,0.00000e+00,0.00000e+00
7.34700e+02,-3.42406e+00,-2.84839e+01,0.00000e+00,0.00000e+00,0.00000e+00
7.34700e+02,-2.61857e+00,-2.53190e+01,0.00000e+00,0.00000e+00,0.00000e+00
7.34700e+02,-1.81134e+00,-2.21542e+01,0.00000e+00,0.00000e+00,0.00000e+00
7.34700e+02,-9.97887e-01,-1.89893e+01,0.00000e+00,0.00000e+00,0.00000e+00
7.34700e+02,-1.84513e-01,-1.58244e+01,0.00000e+00,0.00000e+00,0.00000e+00
7.34700e+02,6.25788e-01,-1.26595e+01,0.00000e+00,0.00000e+00,0.00000e+00
7.34700e+02,1.43609e+00,-9.49464e+00,0.00000e+00,0.00000e+00,0.00000e+00
7.34700e+02,2.22720e+00,-6.32976e+00,0.00000e+00,0.00000e+00,0.00000e+00
7.34700e+02,3.01474e+00,-3.16488e+00,0.00000e+00,0.00000e+00,0.00000e+00
8.33800e+02,3.98196e+01,0.00000e+00,0.00000e+00,0.00000e+00,0.00000e+00
8.33800e+02,3.96190e+01,-3.02587e+00,0.00000e+00,0.00000e+00,0.00000e+00
8.33800e+02,3.93522e+01,-6.05173e+00,0.00000e+00,0.00000e+00,0.00000e+00
8.33800e+02,3.90828e+01,-9.07760e+00,0.00000e+00,0.00000e+00,0.00000e+00
8.33800e+02,3.87549e+01,-1.21035e+01,0.00000e+00,0.00000e+00,0.00000e+00
8.33800e+02,3.84134e+01,-1.51293e+01,0.00000e+00,0.00000e+00,0.00000e+00
8.33800e+02,3.80270e+01,-1.81552e+01,0.00000e+00,0.00000e+00,0.00000e+00
8.33800e+02,3.76188e+01,-2.11811e+01,0.00000e+00,0.00000e+00,0.00000e+00
8.33800e+02,3.71745e+01,-2.42069e+01,0.00000e+00,0.00000e+00,0.00000e+00
8.33800e+02,3.67006e+01,-2.72328e+01,0.00000e+00,0.00000e+00,0.00000e+00
8.33800e+02,3.61941e+01,-3.02587e+01,0.00000e+00,0.00000e+00,0.00000e+00
8.33800e+02,3.56482e+01,-3.32845e+01,0.00000e+00,0.00000e+00,0.00000e+00
8.33800e+02,3.50619e+01,-3.63104e+01,0.00000e+00,0.00000e+00,0.00000e+00
8.33800e+02,3.44183e+01,-3.93363e+01,0.00000e+00,0.00000e+00,0.00000e+00
8.33800e+02,3.37191e+01,-4.23621e+01,0.00000e+00,0.00000e+00,0.00000e+00
8.33800e+02,3.29532e+01,-4.53880e+01,0.00000e+00,0.00000e+00,0.00000e+00
8.33800e+02,3.20971e+01,-4.84139e+01,0.00000e+00,0.00000e+00,0.00000e+00
8.33800e+02,3.11783e+01,-5.14397e+01,0.00000e+00,0.00000e+00,0.00000e+00
8.33800e+02,3.01182e+01,-5.44656e+01,0.00000e+00,0.00000e+00,0.00000e+00
8.33800e+02,2.89995e+01,-5.74915e+01,0.00000e+00,0.00000e+00,0.00000e+00
8.33800e+02,2.77178e+01,-6.05173e+01,0.00000e+00,0.00000e+00,0.00000e+00
8.33800e+02,2.63054e+01,-6.35432e+01,0.00000e+00,0.00000e+00,0.00000e+00
8.33800e+02,2.47599e+01,-6.65691e+01,0.00000e+00,0.00000e+00,0.00000e+00
8.33800e+02,2.29912e+01,-6.95949e+01,0.00000e+00,0.00000e+00,0.00000e+00
8.33800e+02,2.09638e+01,-7.26208e+01,0.00000e+00,0.00000e+00,0.00000e+00
8.33800e+02,1.86442e+01,-7.56467e+01,0.00000e+00,0.00000e+00,0.00000e+00
8.33800e+02,1.59005e+01,-7.86725e+01,0.00000e+00,0.00000e+00,0.00000e+00
8.33800e+02,1.23789e+01,-8.16984e+01,0.00000e+00,0.00000e+00,0.00000e+00
8.33800e+02,7.61592e+00,-8.47243e+01,0.00000e+00,0.00000e+00,0.00000e+00
8.33800e+02,-3.08591e+00,-8.77501e+01,0.00000e+00,0.00000e+00,0.00000e+00
8.33800e+02,-3.85827e+00,-8.77572e+01,0.00000e+00,0.00000e+00,0.00000e+00
8.33800e+02,-1.08950e+01,-8.46230e+01,0.00000e+00,0.00000e+00,0.00000e+00
8.33800e+02,-1.17470e+01,-8.14888e+01,0.00000e+00,0.00000e+00,0.00000e+00
8.33800e+02,-1.20409e+01,-7.83546e+01,0.00000e+00,0.00000e+00,0.00000e+00
8.33800e+02,-1.20856e+01,-7.52204e+01,0.00000e+00,0.00000e+00,0.00000e+00
8.33800e+02,-1.19423e+01,-7.20862e+01,0.00000e+00,0.00000e+00,0.00000e+00
8.33800e+02,-1.16811e+01,-6.89521e+01,0.00000e+00,0.00000e+00,0.00000e+00
8.33800e+02,-1.13015e+01,-6.58179e+01,0.00000e+00,0.00000e+00,0.00000e+00
8.33800e+02,-1.08497e+01,-6.26837e+01,0.00000e+00,0.00000e+00,0.00000e+00
8.33800e+02,-1.03561e+01,-5.95495e+01,0.00000e+00,0.00000e+00,0.00000e+00
8.33800e+02,-9.79928e+00,-5.64153e+01,0.00000e+00,0.00000e+00,0.00000e+00
8.33800e+02,-9.20306e+00,-5.32811e+01,0.00000e+00,0.00000e+00,0.00000e+00
8.33800e+02,-8.56843e+00,-5.01469e+01,0.00000e+00,0.00000e+00,0.00000e+00
8.33800e+02,-7.89554e+00,-4.70128e+01,0.00000e+00,0.00000e+00,0.00000e+00
8.33800e+02,-7.19866e+00,-4.38786e+01,0.00000e+00,0.00000e+00,0.00000e+00
8.33800e+02,-6.47106e+00,-4.07444e+01,0.00000e+00,0.00000e+00,0.00000e+00
8.33800e+02,-5.72378e+00,-3.76102e+01,0.00000e+00,0.00000e+00,0.00000e+00
8.33800e+02,-4.95886e+00,-3.44760e+01,0.00000e+00,0.00000e+00,0.00000e+00
8.33800e+02,-4.17819e+00,-3.13418e+01,0.00000e+00,0.00000e+00,0.00000e+00
8.33800e+02,-3.39085e+00,-2.82077e+01,0.00000e+00,0.00000e+00,0.00000e+00
8.33800e+02,-2.59317e+00,-2.50735e+01,0.00000e+00,0.00000e+00,0.00000e+00
8.33800e+02,-1.79378e+00,-2.19393e+01,0.00000e+00,0.00000e+00,0.00000e+00
8.33800e+02,-9.88209e-01,-1.88051e+01,0.00000e+00,0.00000e+00,0.00000e+00
8.33800e+02,-1.82723e-01,-1.56709e+01,0.00000e+00,0.00000e+00,0.00000e+00
8.33800e+02,6.19718e-01,-1.25367e+01,0.00000e+00,0.00000e+00,0.00000e+00
8.33800e+02,1.42216e+00,-9.40255e+00,0.00000e+00,0.00000e+00,0.00000e+00
8.33800e+02,2.20560e+00,-6.26837e+00,0.00000e+00,0.00000e+00,0.00000e+00
8.33800e+02,2.98550e+00,-3.13418e+00,0.00000e+00,0.00000e+00,0.00000e+00
9.30700e+02,3.94382e+01,0.00000e+00,0.00000e+00,0.00000e+00,0.00000e+00
9.30700e+02,3.92396e+01,-2.99689e+00,0.00000e+00,0.00000e+00,0.00000e+00
9.30700e+02,3.89754e+01,-5.99378e+00,0.00000e+00,0.00000e+00,0.00000e+00
9.30700e+02,3.87085e+01,-8.99067e+00,0.00000e+00,0.00000e+00,0.00000e+00
9.30700e+02,3.83837e+01,-1.19876e+01,0.00000e+00,0.00000e+00,0.00000e+00
9.30700e+02,3.80455e+01,-1.49844e+01,0.00000e+00,0.00000e+00,0.00000e+00
9.30700e+02,3.76628e+01,-1.79813e+01,0.00000e+00,0.00000e+00,0.00000e+00
9.30700e+02,3.72585e+01,-2.09782e+01,0.00000e+00,0.00000e+00,0.00000e+00
9.30700e+02,3.68185e+01,-2.39751e+01,0.00000e+00,0.00000e+00,0.00000e+00
9.30700e+02,3.63492e+01,-2.69720e+01,0.00000e+00,0.00000e+00,0.00000e+00
9.30700e+02,3.58475e+01,-2.99689e+01,0.00000e+00,0.00000e+00,0.00000e+00
9.30700e+02,3.53068e+01,-3.29658e+01,0.00000e+00,0.00000e+00,0.00000e+00
9.30700e+02,3.47261e+01,-3.59627e+01,0.00000e+00,0.00000e+00,0.00000e+00
9.30700e+02,3.40887e+01,-3.89596e+01,0.00000e+00,0.00000e+00,0.00000e+00
9.30700e+02,3.33962e+01,-4.19565e+01,0.00000e+00,0.00000e+00,0.00000e+00
9.30700e+02,3.26376e+01,-4.49533e+01,0.00000e+00,0.00000e+00,0.00000e+00
9.30700e+02,3.17897e+01,-4.79502e+01,0.00000e+00,0.00000e+00,0.00000e+00
9.30700e+02,3.08797e+01,-5.09471e+01,0.00000e+00,0.00000e+00,0.00000e+00
9.30700e+02,2.98297e+01,-5.39440e+01,0.00000e+00,0.00000e+00,0.00000e+00
9.30700e+02,2.87218e+01,-5.69409e+01,0.00000e+00,0.00000e+00,0.00000e+00
9.30700e+02,2.74524e+01,-5.99378e+01,0.00000e+00,0.00000e+00,0.00000e+00
9.30700e+02,2.60534e+01,-6.29347e+01,0.00000e+00,0.00000e+00,0.00000e+00
9.30700e+02,2.45228e+01,-6.59316e+01,0.00000e+00,0.00000e+00,0.00000e+00
9.30700e+02,2.27710e+01,-6.89285e+01,0.00000e+00,0.00000e+00,0.00000e+00
9.30700e+02,2.07631e+01,-7.19254e+01,0.00000e+00,0.00000e+00,0.00000e+00
9.30700e+02,1.84656e+01,-7.49222e+01,0.00000e+00,0.00000e+00,0.00000e+00
9.30700e+02,1.57483e+01,-7.79191e+01,0.00000e+00,0.00000e+00,0.00000e+00
9.30700e+02,1.22603e+01,-8.09160e+01,0.00000e+00,0.00000e+00,0.00000e+00
9.30700e+02,7.54299e+00,-8.39129e+01,0.00000e+00,0.00000e+00,0.00000e+00
9.30700e+02,-3.05636e+00,-8.69098e+01,0.00000e+00,0.00000e+00,0.00000e+00
9.30700e+02,-3.82132e+00,-8.69168e+01,0.00000e+00,0.00000e+00,0.00000e+00
9.30700e+02,-1.07906e+01,-8.38126e+01,0.00000e+00,0.00000e+00,0.00000e+00
9.30700e+02,-1.16345e+01,-8.07084e+01,0.00000e+00,0.00000e+00,0.00000e+00
9.30700e+02,-1.19256e+01,-7.76042e+01,0.00000e+00,0.00000e+00,0.00000e+00
9.30700e+02,-1.19698e+01,-7.45001e+01,0.00000e+00,0.00000e+00,0.00000e+00
9.30700e+02,-1.18279e+01,-7.13959e+01,0.00000e+00,0.00000e+00,0.00000e+00
9.30700e+02,-1.15692e+01,-6.82917e+01,0.00000e+00,0.00000e+00,0.00000e+00
9.30700e+02,-1.11933e+01,-6.51876e+01,0.00000e+00,0.00000e+00,0.00000e+00
9.30700e+02,-1.07458e+01,-6.20834e+01,0.00000e+00,0.00000e+00,0.00000e+00
9.30700e+02,-1.02569e+01,-5.89792e+01,0.00000e+00,0.00000e+00,0.00000e+00
9.30700e+02,-9.70544e+00,-5.58751e+01,0.00000e+00,0.00000e+00,0.00000e+00
9.30700e+02,-9.11493e+00,-5.27709e+01,0.00000e+00,0.00000e+00,0.00000e+00
9.30700e+02,-8.48637e+00,-4.96667e+01,0.00000e+00,0.00000e+00,0.00000e+00
9.30700e+02,-7.81993e+00,-4.65625e+01,0.00000e+00,0.00000e+00,0.00000e+00
9.30700e+02,-7.12973e+00,-4.34584e+01,0.00000e+00,0.00000e+00,0.00000e+00
9.30700e+02,-6.40909e+00,-4.03542e+01,0.00000e+00,0.00000e+00,0.00000e+00
9.30700e+02,-5.66897e+00,-3.72500e+01,0.00000e+00,0.00000e+00,0.00000e+00
9.30700e+02,-4.91137e+00,-3.41459e+01,0.00000e+00,0.00000e+00,0.00000e+00
9.30700e+02,-4.13818e+00,-3.10417e+01,0.00000e+00,0.00000e+00,0.00000e+00
9.30700e+02,-3.35837e+00,-2.79375e+01,0.00000e+00,0.00000e+00,0.00000e+00
9.30700e+02,-2.56834e+00,-2.48334e+01,0.00000e+00,0.00000e+00,0.00000e+00
9.30700e+02,-1.77660e+00,-2.17292e+01,0.00000e+00,0.00000e+00,0.00000e+00
9.30700e+02,-9.78745e-01,-1.86250e+01,0.00000e+00,0.00000e+00,0.00000e+00
9.30700e+02,-1.80973e-01,-1.55208e+01,0.00000e+00,0.00000e+00,0.00000e+00
9.30700e+02,6.13784e-01,-1.24167e+01,0.00000e+00,0.00000e+00,0.00000e+00
9.30700e+02,1.40854e+00,-9.31251e+00,0.00000e+00,0.00000e+00,0.00000e+00
9.30700e+02,2.18448e+00,-6.20834e+00,0.00000e+00,0.00000e+00,0.00000e+00
9.30700e+02,2.95691e+00,-3.10417e+00,0.00000e+00,0.00000e+00,0.00000e+00
1.02500e+03,3.90671e+01,0.00000e+00,0.00000e+00,0.00000e+00,0.00000e+00
1.02500e+03,3.88704e+01,-2.96869e+00,0.00000e+00,0.00000e+00,0.00000e+00
1.02500e+03,3.86086e+01,-5.93738e+00,0.00000e+00,0.00000e+00,0.00000e+00
1.02500e+03,3.83443e+01,-8.90607e+00,0.00000e+00,0.00000e+00,0.00000e+00
1.02500e+03,3.80226e+01,-1.18748e+01,0.00000e+00,0.00000e+00,0.00000e+00
1.02500e+03,3.76875e+01,-1.48435e+01,0.00000e+00,0.00000e+00,0.00000e+00
1.02500e+03,3.73084e+01,-1.78121e+01,0.00000e+00,0.00000e+00,0.00000e+00
1.02500e+03,3.69079e+01,-2.07808e+01,0.00000e+00,0.00000e+00,0.00000e+00
1.02500e+03,3.64721e+01,-2.37495e+01,0.00000e+00,0.00000e+00,0.00000e+00
1.02500e+03,3.60071e+01,-2.67182e+01,0.00000e+00,0.00000e+00,0.00000e+00
1.02500e+03,3.55102e+01,-2.96869e+01,0.00000e+00,0.00000e+00,0.00000e+00
1.02500e+03,3.49746e+01,-3.26556e+01,0.00000e+00,0.00000e+00,0.00000e+00
1.02500e+03,3.43994e+01,-3.56243e+01,0.00000e+00,0.00000e+00,0.00000e+00
1.02500e+03,3.37680e+01,-3.85930e+01,0.00000e+00,0.00000e+00,0.00000e+00
1.02500e+03,3.30819e+01,-4.15617e+01,0.00000e+00,0.00000e+00,0.00000e+00
1.02500e+03,3.23305e+01,-4.45304e+01,0.00000e+00,0.00000e+00,0.00000e+00
1.02500e+03,3.14906e+01,-4.74990e+01,0.00000e+00,0.00000e+00,0.00000e+00
1.02500e+03,3.05891e+01,-5.04677e+01,0.00000e+00,0.00000e+00,0.00000e+00
1.02500e+03,2.95491e+01,-5.34364e+01,0.00000e+00,0.00000e+00,0.00000e+00
1.02500e+03,2.84516e+01,-5.64051e+01,0.00000e+00,0.00000e+00,0.00000e+00
1.02500e+03,2.71940e+01,-5.93738e+01,0.00000e+00,0.00000e+00,0.00000e+00
1.02500e+03,2.58083e+01,-6.23425e+01,0.00000e+00,0.00000e+00,0.00000e+00
1.02500e+03,2.42920e+01,-6.53112e+01,0.00000e+00,0.00000e+00,0.00000e+00
1.02500e+03,2.25567e+01,-6.82799e+01,0.00000e+00,0.00000e+00,0.00000e+00
1.02500e+03,2.05677e+01,-7.12486e+01,0.00000e+00,0.00000e+00,0.00000e+00
1.02500e+03,1.82919e+01,-7.42173e+01,0.00000e+00,0.00000e+00,0.00000e+00
1.02500e+03,1.56001e+01,-7.71859e+01,0.00000e+00,0.00000e+00,0.00000e+00
1.02500e+03,1.21450e+01,-8.01546e+01,0.00000e+00,0.00000e+00,0.00000e+00
1.02500e+03,7.47201e+00,-8.31233e+01,0.00000e+00,0.00000e+00,0.00000e+00
1.02500e+03,-3.02760e+00,-8.60920e+01,0.00000e+00,0.00000e+00,0.00000e+00
1.02500e+03,-3.78536e+00,-8.60989e+01,0.00000e+00,0.00000e+00,0.00000e+00
1.02500e+03,-1.06891e+01,-8.30239e+01,0.00000e+00,0.00000e+00,0.00000e+00
1.02500e+03,-1.15250e+01,-7.99490e+01,0.00000e+00,0.00000e+00,0.00000e+00
1.02500e+03,-1.18134e+01,-7.68740e+01,0.00000e+00,0.00000e+00,0.00000e+00
1.02500e+03,-1.18572e+01,-7.37991e+01,0.00000e+00,0.00000e+00,0.00000e+00
1.02500e+03,-1.17166e+01,-7.07241e+01,0.00000e+00,0.00000e+00,0.00000e+00
1.02500e+03,-1.14604e+01,-6.76491e+01,0.00000e+00,0.00000e+00,0.00000e+00
1.02500e+03,-1.10880e+01,-6.45742e+01,0.00000e+00,0.00000e+00,0.00000e+00
1.02500e+03,-1.06447e+01,-6.14992e+01,0.00000e+00,0.00000e+00,0.00000e+00
1.02500e+03,-1.01604e+01,-5.84243e+01,0.00000e+00,0.00000e+00,0.00000e+00
1.02500e+03,-9.61411e+00,-5.53493e+01,0.00000e+00,0.00000e+00,0.00000e+00
1.02500e+03,-9.02916e+00,-5.22743e+01,0.00000e+00,0.00000e+00,0.00000e+00
1.02500e+03,-8.40652e+00,-4.91994e+01,0.00000e+00,0.00000e+00,0.00000e+00
1.02500e+03,-7.74634e+00,-4.61244e+01,0.00000e+00,0.00000e+00,0.00000e+00
1.02500e+03,-7.06264e+00,-4.30495e+01,0.00000e+00,0.00000e+00,0.00000e+00
1.02500e+03,-6.34878e+00,-3.99745e+01,0.00000e+00,0.00000e+00,0.00000e+00
1.02500e+03,-5.61563e+00,-3.68995e+01,0.00000e+00,0.00000e+00,0.00000e+00
1.02500e+03,-4.86516e+00,-3.38246e+01,0.00000e+00,0.00000e+00,0.00000e+00
1.02500e+03,-4.09924e+00,-3.07496e+01,0.00000e+00,0.00000e+00,0.00000e+00
1.02500e+03,-3.32677e+00,-2.76746e+01,0.00000e+00,0.00000e+00,0.00000e+00
1.02500e+03,-2.54417e+00,-2.45997e+01,0.00000e+00,0.00000e+00,0.00000e+00
1.02500e+03,-1.75988e+00,-2.15247e+01,0.00000e+00,0.00000e+00,0.00000e+00
1.02500e+03,-9.69535e-01,-1.84498e+01,0.00000e+00,0.00000e+00,0.00000e+00
1.02500e+03,-1.79270e-01,-1.53748e+01,0.00000e+00,0.00000e+00,0.00000e+00
1.02500e+03,6.08008e-01,-1.22998e+01,0.00000e+00,0.00000e+00,0.00000e+00
1.02500e+03,1.39529e+00,-9.22488e+00,0.00000e+00,0.00000e+00,0.00000e+00
1.02500e+03,2.16392e+00,-6.14992e+00,0.00000e+00,0.00000e+00,0.00000e+00
1.02500e+03,2.92908e+00,-3.07496e+00,0.00000e+00,0.00000e+00,0.00000e+00
1.11650e+03,3.87070e+01,0.00000e+00,0.00000e+00,0.00000e+00,0.00000e+00
1.11650e+03,3.85121e+01,-2.94133e+00,0.00000e+00,0.00000e+00,0.00000e+00
1.11650e+03,3.82528e+01,-5.88266e+00,0.00000e+00,0.00000e+00,0.00000e+00
1.11650e+03,3.79909e+01,-8.82398e+00,0.00000e+00,0.00000e+00,0.00000e+00
1.11650e+03,3.76721e+01,-1.17653e+01,0.00000e+00,0.00000e+00,0.00000e+00
1.11650e+03,3.73401e+01,-1.47066e+01,0.00000e+00,0.00000e+00,0.00000e+00
1.11650e+03,3.69645e+01,-1.76480e+01,0.00000e+00,0.00000e+00,0.00000e+00
1.11650e+03,3.65678e+01,-2.05893e+01,0.00000e+00,0.00000e+00,0.00000e+00
1.11650e+03,3.61359e+01,-2.35306e+01,0.00000e+00,0.00000e+00,0.00000e+00
1.11650e+03,3.56753e+01,-2.64720e+01,0.00000e+00,0.00000e+00,0.00000e+00
1.11650e+03,3.51829e+01,-2.94133e+01,0.00000e+00,0.00000e+00,0.00000e+00
1.11650e+03,3.46522e+01,-3.23546e+01,0.00000e+00,0.00000e+00,0.00000e+00
1.11650e+03,3.40823e+01,-3.52959e+01,0.00000e+00,0.00000e+00,0.00000e+00
1.11650e+03,3.34567e+01,-3.82373e+01,0.00000e+00,0.00000e+00,0.00000e+00
1.11650e+03,3.27770e+01,-4.11786e+01,0.00000e+00,0.00000e+00,0.00000e+00
1.11650e+03,3.20325e+01,-4.41199e+01,0.00000e+00,0.00000e+00,0.00000e+00
1.11650e+03,3.12004e+01,-4.70612e+01,0.00000e+00,0.00000e+00,0.00000e+00
1.11650e+03,3.03072e+01,-5.00026e+01,0.00000e+00,0.00000e+00,0.00000e+00
1.11650e+03,2.92767e+01,-5.29439e+01,0.00000e+00,0.00000e+00,0.00000e+00
1.11650e+03,2.81893e+01,-5.58852e+01,0.00000e+00,0.00000e+00,0.00000e+00
1.11650e+03,2.69434e+01,-5.88266e+01,0.00000e+00,0.00000e+00,0.00000e+00
1.11650e+03,2.55704e+01,-6.17679e+01,0.00000e+00,0.00000e+00,0.00000e+00
1.11650e+03,2.40681e+01,-6.47092e+01,0.00000e+00,0.00000e+00,0.00000e+00
1.11650e+03,2.23488e+01,-6.76505e+01,0.00000e+00,0.00000e+00,0.00000e+00
1.11650e+03,2.03781e+01,-7.05919e+01,0.00000e+00,0.00000e+00,0.00000e+00
1.11650e+03,1.81233e+01,-7.35332e+01,0.00000e+00,0.00000e+00,0.00000e+00
1.11650e+03,1.54563e+01,-7.64745e+01,0.00000e+00,0.00000e+00,0.00000e+00
1.11650e+03,1.20330e+01,-7.94159e+01,0.00000e+00,0.00000e+00,0.00000e+00
1.11650e+03,7.40314e+00,-8.23572e+01,0.00000e+00,0.00000e+00,0.00000e+00
1.11650e+03,-2.99970e+00,-8.52985e+01,0.00000e+00,0.00000e+00,0.00000e+00
1.11650e+03,-3.75047e+00,-8.53053e+01,0.00000e+00,0.00000e+00,0.00000e+00
1.11650e+03,-1.05906e+01,-8.22587e+01,0.00000e+00,0.00000e+00,0.00000e+00
1.11650e+03,-1.14188e+01,-7.92121e+01,0.00000e+00,0.00000e+00,0.00000e+00
1.11650e+03,-1.17045e+01,-7.61655e+01,0.00000e+00,0.00000e+00,0.00000e+00
1.11650e+03,-1.17479e+01,-7.31189e+01,0.00000e+00,0.00000e+00,0.00000e+00
1.11650e+03,-1.16086e+01,-7.00722e+01,0.00000e+00,0.00000e+00,0.00000e+00
1.11650e+03,-1.13547e+01,-6.70256e+01,0.00000e+00,0.00000e+00,0.00000e+00
1.11650e+03,-1.09858e+01,-6.39790e+01,0.00000e+00,0.00000e+00,0.00000e+00
1.11650e+03,-1.05466e+01,-6.09324e+01,0.00000e+00,0.00000e+00,0.00000e+00
1.11650e+03,-1.00667e+01,-5.78858e+01,0.00000e+00,0.00000e+00,0.00000e+00
1.11650e+03,-9.52550e+00,-5.48391e+01,0.00000e+00,0.00000e+00,0.00000e+00
1.11650e+03,-8.94594e+00,-5.17925e+01,0.00000e+00,0.00000e+00,0.00000e+00
1.11650e+03,-8.32904e+00,-4.87459e+01,0.00000e+00,0.00000e+00,0.00000e+00
1.11650e+03,-7.67495e+00,-4.56993e+01,0.00000e+00,0.00000e+00,0.00000e+00
1.11650e+03,-6.99754e+00,-4.26527e+01,0.00000e+00,0.00000e+00,0.00000e+00
1.11650e+03,-6.29027e+00,-3.96060e+01,0.00000e+00,0.00000e+00,0.00000e+00
1.11650e+03,-5.56387e+00,-3.65594e+01,0.00000e+00,0.00000e+00,0.00000e+00
1.11650e+03,-4.82031e+00,-3.35128e+01,0.00000e+00,0.00000e+00,0.00000e+00
1.11650e+03,-4.06146e+00,-3.04662e+01,0.00000e+00,0.00000e+00,0.00000e+00
1.11650e+03,-3.29611e+00,-2.74196e+01,0.00000e+00,0.00000e+00,0.00000e+00
1.11650e+03,-2.52072e+00,-2.43730e+01,0.00000e+00,0.00000e+00,0.00000e+00
1.11650e+03,-1.74366e+00,-2.13263e+01,0.00000e+00,0.00000e+00,0.00000e+00
1.11650e+03,-9.60599e-01,-1.82797e+01,0.00000e+00,0.00000e+00,0.00000e+00
1.11650e+03,-1.77618e-01,-1.52331e+01,0.00000e+00,0.00000e+00,0.00000e+00
1.11650e+03,6.02404e-01,-1.21865e+01,0.00000e+00,0.00000e+00,0.00000e+00
1.11650e+03,1.38243e+00,-9.13986e+00,0.00000e+00,0.00000e+00,0.00000e+00
1.11650e+03,2.14398e+00,-6.09324e+00,0.00000e+00,0.00000e+00,0.00000e+00
1.11650e+03,2.90209e+00,-3.04662e+00,0.00000e+00,0.00000e+00,0.00000e+00
1.20500e+03,3.76912e+01,0.00000e+00,0.00000e+00,0.00000e+00,0.00000e+00
1.20500e+03,3.75014e+01,-2.86413e+00,0.00000e+00,0.00000e+00,0.00000e+00
1.20500e+03,3.72488e+01,-5.72827e+00,0.00000e+00,0.00000e+00,0.00000e+00
1.20500e+03,3.69938e+01,-8.59240e+00,0.00000e+00,0.00000e+00,0.00000e+00
1.20500e+03,3.66834e+01,-1.14565e+01,0.00000e+00,0.00000e+00,0.00000e+00
1.20500e+03,3.63602e+01,-1.43207e+01,0.00000e+00,0.00000e+00,0.00000e+00
1.20500e+03,3.59944e+01,-1.71848e+01,0.00000e+00,0.00000e+00,0.00000e+00
1.20500e+03,3.56080e+01,-2.00489e+01,0.00000e+00,0.00000e+00,0.00000e+00
1.20500e+03,3.51875e+01,-2.29131e+01,0.00000e+00,0.00000e+00,0.00000e+00
1.20500e+03,3.47390e+01,-2.57772e+01,0.00000e+00,0.00000e+00,0.00000e+00
1.20500e+03,3.42596e+01,-2.86413e+01,0.00000e+00,0.00000e+00,0.00000e+00
1.20500e+03,3.37428e+01,-3.15055e+01,0.00000e+00,0.00000e+00,0.00000e+00
1.20500e+03,3.31878e+01,-3.43696e+01,0.00000e+00,0.00000e+00,0.00000e+00
1.20500e+03,3.25787e+01,-3.72337e+01,0.00000e+00,0.00000e+00,0.00000e+00
1.20500e+03,3.19168e+01,-4.00979e+01,0.00000e+00,0.00000e+00,0.00000e+00
1.20500e+03,3.11919e+01,-4.29620e+01,0.00000e+00,0.00000e+00,0.00000e+00
1.20500e+03,3.03815e+01,-4.58261e+01,0.00000e+00,0.00000e+00,0.00000e+00
1.20500e+03,2.95118e+01,-4.86903e+01,0.00000e+00,0.00000e+00,0.00000e+00
1.20500e+03,2.85084e+01,-5.15544e+01,0.00000e+00,0.00000e+00,0.00000e+00
1.20500e+03,2.74495e+01,-5.44186e+01,0.00000e+00,0.00000e+00,0.00000e+00
1.20500e+03,2.62363e+01,-5.72827e+01,0.00000e+00,0.00000e+00,0.00000e+00
1.20500e+03,2.48993e+01,-6.01468e+01,0.00000e+00,0.00000e+00,0.00000e+00
1.20500e+03,2.34365e+01,-6.30110e+01,0.00000e+00,0.00000e+00,0.00000e+00
1.20500e+03,2.17623e+01,-6.58751e+01,0.00000e+00,0.00000e+00,0.00000e+00
1.20500e+03,1.98433e+01,-6.87392e+01,0.00000e+00,0.00000e+00,0.00000e+00
1.20500e+03,1.76476e+01,-7.16034e+01,0.00000e+00,0.00000e+00,0.00000e+00
1.20500e+03,1.50506e+01,-7.44675e+01,0.00000e+00,0.00000e+00,0.00000e+00
1.20500e+03,1.17172e+01,-7.73316e+01,0.00000e+00,0.00000e+00,0.00000e+00
1.20500e+03,7.20885e+00,-8.01958e+01,0.00000e+00,0.00000e+00,0.00000e+00
1.20500e+03,-2.92097e+00,-8.30599e+01,0.00000e+00,0.00000e+00,0.00000e+00
1.20500e+03,-3.65204e+00,-8.30665e+01,0.00000e+00,0.00000e+00,0.00000e+00
1.20500e+03,-1.03126e+01,-8.00999e+01,0.00000e+00,0.00000e+00,0.00000e+00
1.20500e+03,-1.11191e+01,-7.71332e+01,0.00000e+00,0.00000e+00,0.00000e+00
1.20500e+03,-1.13974e+01,-7.41666e+01,0.00000e+00,0.00000e+00,0.00000e+00
1.20500e+03,-1.14396e+01,-7.11999e+01,0.00000e+00,0.00000e+00,0.00000e+00
1.20500e+03,-1.13040e+01,-6.82332e+01,0.00000e+00,0.00000e+00,0.00000e+00
1.20500e+03,-1.10567e+01,-6.52666e+01,0.00000e+00,0.00000e+00,0.00000e+00
1.20500e+03,-1.06975e+01,-6.22999e+01,0.00000e+00,0.00000e+00,0.00000e+00
1.20500e+03,-1.02698e+01,-5.93332e+01,0.00000e+00,0.00000e+00,0.00000e+00
1.20500e+03,-9.80253e+00,-5.63666e+01,0.00000e+00,0.00000e+00,0.00000e+00
1.20500e+03,-9.27551e+00,-5.33999e+01,0.00000e+00,0.00000e+00,0.00000e+00
1.20500e+03,-8.71115e+00,-5.04333e+01,0.00000e+00,0.00000e+00,0.00000e+00
1.20500e+03,-8.11045e+00,-4.74666e+01,0.00000e+00,0.00000e+00,0.00000e+00
1.20500e+03,-7.47352e+00,-4.44999e+01,0.00000e+00,0.00000e+00,0.00000e+00
1.20500e+03,-6.81389e+00,-4.15333e+01,0.00000e+00,0.00000e+00,0.00000e+00
1.20500e+03,-6.12518e+00,-3.85666e+01,0.00000e+00,0.00000e+00,0.00000e+00
1.20500e+03,-5.41785e+00,-3.55999e+01,0.00000e+00,0.00000e+00,0.00000e+00
1.20500e+03,-4.69381e+00,-3.26333e+01,0.00000e+00,0.00000e+00,0.00000e+00
1.20500e+03,-3.95486e+00,-2.96666e+01,0.00000e+00,0.00000e+00,0.00000e+00
1.20500e+03,-3.20961e+00,-2.67000e+01,0.00000e+00,0.00000e+00,0.00000e+00
1.20500e+03,-2.45457e+00,-2.37333e+01,0.00000e+00,0.00000e+00,0.00000e+00
1.20500e+03,-1.69790e+00,-2.07666e+01,0.00000e+00,0.00000e+00,0.00000e+00
1.20500e+03,-9.35389e-01,-1.78000e+01,0.00000e+00,0.00000e+00,0.00000e+00
1.20500e+03,-1.72956e-01,-1.48333e+01,0.00000e+00,0.00000e+00,0.00000e+00
1.20500e+03,5.86594e-01,-1.18666e+01,0.00000e+00,0.00000e+00,0.00000e+00
1.20500e+03,1.34615e+00,-8.89999e+00,0.00000e+00,0.00000e+00,0.00000e+00
1.20500e+03,2.08771e+00,-5.93332e+00,0.00000e+00,0.00000e+00,0.00000e+00
1.20500e+03,2.82592e+00,-2.96666e+00,0.00000e+00,0.00000e+00,0.00000e+00
1.29010e+03,3.63234e+01,0.00000e+00,0.00000e+00,0.00000e+00,0.00000e+00
1.29010e+03,3.61405e+01,-2.76019e+00,0.00000e+00,0.00000e+00,0.00000e+00
1.29010e+03,3.58971e+01,-5.52039e+00,0.00000e+00,0.00000e+00,0.00000e+00
1.29010e+03,3.56513e+01,-8.28058e+00,0.00000e+00,0.00000e+00,0.00000e+00
1.29010e+03,3.53522e+01,-1.10408e+01,0.00000e+00,0.00000e+00,0.00000e+00
1.29010e+03,3.50407e+01,-1.38010e+01,0.00000e+00,0.00000e+00,0.00000e+00
1.29010e+03,3.46882e+01,-1.65612e+01,0.00000e+00,0.00000e+00,0.00000e+00
1.29010e+03,3.43158e+01,-1.93214e+01,0.00000e+00,0.00000e+00,0.00000e+00
1.29010e+03,3.39106e+01,-2.20816e+01,0.00000e+00,0.00000e+00,0.00000e+00
1.29010e+03,3.34783e+01,-2.48418e+01,0.00000e+00,0.00000e+00,0.00000e+00
1.29010e+03,3.30163e+01,-2.76019e+01,0.00000e+00,0.00000e+00,0.00000e+00
1.29010e+03,3.25183e+01,-3.03621e+01,0.00000e+00,0.00000e+00,0.00000e+00
1.29010e+03,3.19834e+01,-3.31223e+01,0.00000e+00,0.00000e+00,0.00000e+00
1.29010e+03,3.13964e+01,-3.58825e+01,0.00000e+00,0.00000e+00,0.00000e+00
1.29010e+03,3.07585e+01,-3.86427e+01,0.00000e+00,0.00000e+00,0.00000e+00
1.29010e+03,3.00599e+01,-4.14029e+01,0.00000e+00,0.00000e+00,0.00000e+00
1.29010e+03,2.92790e+01,-4.41631e+01,0.00000e+00,0.00000e+00,0.00000e+00
1.29010e+03,2.84408e+01,-4.69233e+01,0.00000e+00,0.00000e+00,0.00000e+00
1.29010e+03,2.74738e+01,-4.96835e+01,0.00000e+00,0.00000e+00,0.00000e+00
1.29010e+03,2.64534e+01,-5.24437e+01,0.00000e+00,0.00000e+00,0.00000e+00
1.29010e+03,2.52842e+01,-5.52039e+01,0.00000e+00,0.00000e+00,0.00000e+00
1.29010e+03,2.39957e+01,-5.79641e+01,0.00000e+00,0.00000e+00,0.00000e+00
1.29010e+03,2.25860e+01,-6.07243e+01,0.00000e+00,0.00000e+00,0.00000e+00
1.29010e+03,2.09725e+01,-6.34845e+01,0.00000e+00,0.00000e+00,0.00000e+00
1.29010e+03,1.91232e+01,-6.62447e+01,0.00000e+00,0.00000e+00,0.00000e+00
1.29010e+03,1.70072e+01,-6.90049e+01,0.00000e+00,0.00000e+00,0.00000e+00
1.29010e+03,1.45045e+01,-7.17651e+01,0.00000e+00,0.00000e+00,0.00000e+00
1.29010e+03,1.12920e+01,-7.45253e+01,0.00000e+00,0.00000e+00,0.00000e+00
1.29010e+03,6.94724e+00,-7.72855e+01,0.00000e+00,0.00000e+00,0.00000e+00
1.29010e+03,-2.81497e+00,-8.00457e+01,0.00000e+00,0.00000e+00,0.00000e+00
1.29010e+03,-3.51951e+00,-8.00521e+01,0.00000e+00,0.00000e+00,0.00000e+00
1.29010e+03,-9.93839e+00,-7.71931e+01,0.00000e+00,0.00000e+00,0.00000e+00
1.29010e+03,-1.07156e+01,-7.43341e+01,0.00000e+00,0.00000e+00,0.00000e+00
1.29010e+03,-1.09838e+01,-7.14751e+01,0.00000e+00,0.00000e+00,0.00000e+00
1.29010e+03,-1.10244e+01,-6.86160e+01,0.00000e+00,0.00000e+00,0.00000e+00
1.29010e+03,-1.08937e+01,-6.57570e+01,0.00000e+00,0.00000e+00,0.00000e+00
1.29010e+03,-1.06555e+01,-6.28980e+01,0.00000e+00,0.00000e+00,0.00000e+00
1.29010e+03,-1.03093e+01,-6.00390e+01,0.00000e+00,0.00000e+00,0.00000e+00
1.29010e+03,-9.89713e+00,-5.71800e+01,0.00000e+00,0.00000e+00,0.00000e+00
1.29010e+03,-9.44680e+00,-5.43210e+01,0.00000e+00,0.00000e+00,0.00000e+00
1.29010e+03,-8.93890e+00,-5.14620e+01,0.00000e+00,0.00000e+00,0.00000e+00
1.29010e+03,-8.39503e+00,-4.86030e+01,0.00000e+00,0.00000e+00,0.00000e+00
1.29010e+03,-7.81612e+00,-4.57440e+01,0.00000e+00,0.00000e+00,0.00000e+00
1.29010e+03,-7.20231e+00,-4.28850e+01,0.00000e+00,0.00000e+00,0.00000e+00
1.29010e+03,-6.56662e+00,-4.00260e+01,0.00000e+00,0.00000e+00,0.00000e+00
1.29010e+03,-5.90290e+00,-3.71670e+01,0.00000e+00,0.00000e+00,0.00000e+00
1.29010e+03,-5.22123e+00,-3.43080e+01,0.00000e+00,0.00000e+00,0.00000e+00
1.29010e+03,-4.52347e+00,-3.14490e+01,0.00000e+00,0.00000e+00,0.00000e+00
1.29010e+03,-3.81134e+00,-2.85900e+01,0.00000e+00,0.00000e+00,0.00000e+00
1.29010e+03,-3.09313e+00,-2.57310e+01,0.00000e+00,0.00000e+00,0.00000e+00
1.29010e+03,-2.36549e+00,-2.28720e+01,0.00000e+00,0.00000e+00,0.00000e+00
1.29010e+03,-1.63628e+00,-2.00130e+01,0.00000e+00,0.00000e+00,0.00000e+00
1.29010e+03,-9.01444e-01,-1.71540e+01,0.00000e+00,0.00000e+00,0.00000e+00
1.29010e+03,-1.66680e-01,-1.42950e+01,0.00000e+00,0.00000e+00,0.00000e+00
1.29010e+03,5.65307e-01,-1.14360e+01,0.00000e+00,0.00000e+00,0.00000e+00
1.29010e+03,1.29729e+00,-8.57701e+00,0.00000e+00,0.00000e+00,0.00000e+00
1.29010e+03,2.01195e+00,-5.71800e+00,0.00000e+00,0.00000e+00,0.00000e+00
1.29010e+03,2.72337e+00,-2.85900e+00,0.00000e+00,0.00000e+00,0.00000e+00
1.37170e+03,3.50118e+01,0.00000e+00,0.00000e+00,0.00000e+00,0.00000e+00
1.37170e+03,3.48355e+01,-2.66053e+00,0.00000e+00,0.00000e+00,0.00000e+00
1.37170e+03,3.46009e+01,-5.32106e+00,0.00000e+00,0.00000e+00,0.00000e+00
1.37170e+03,3.43640e+01,-7.98159e+00,0.00000e+00,0.00000e+00,0.00000e+00
1.37170e+03,3.40757e+01,-1.06421e+01,0.00000e+00,0.00000e+00,0.00000e+00
1.37170e+03,3.37754e+01,-1.33027e+01,0.00000e+00,0.00000e+00,0.00000e+00
1.37170e+03,3.34357e+01,-1.59632e+01,0.00000e+00,0.00000e+00,0.00000e+00
1.37170e+03,3.30768e+01,-1.86237e+01,0.00000e+00,0.00000e+00,0.00000e+00
1.37170e+03,3.26861e+01,-2.12842e+01,0.00000e+00,0.00000e+00,0.00000e+00
1.37170e+03,3.22695e+01,-2.39448e+01,0.00000e+00,0.00000e+00,0.00000e+00
1.37170e+03,3.18241e+01,-2.66053e+01,0.00000e+00,0.00000e+00,0.00000e+00
1.37170e+03,3.13441e+01,-2.92658e+01,0.00000e+00,0.00000e+00,0.00000e+00
1.37170e+03,3.08286e+01,-3.19264e+01,0.00000e+00,0.00000e+00,0.00000e+00
1.37170e+03,3.02627e+01,-3.45869e+01,0.00000e+00,0.00000e+00,0.00000e+00
1.37170e+03,2.96479e+01,-3.72474e+01,0.00000e+00,0.00000e+00,0.00000e+00
1.37170e+03,2.89745e+01,-3.99080e+01,0.00000e+00,0.00000e+00,0.00000e+00
1.37170e+03,2.82218e+01,-4.25685e+01,0.00000e+00,0.00000e+00,0.00000e+00
1.37170e+03,2.74139e+01,-4.52290e+01,0.00000e+00,0.00000e+00,0.00000e+00
1.37170e+03,2.64818e+01,-4.78895e+01,0.00000e+00,0.00000e+00,0.00000e+00
1.37170e+03,2.54982e+01,-5.05501e+01,0.00000e+00,0.00000e+00,0.00000e+00
1.37170e+03,2.43712e+01,-5.32106e+01,0.00000e+00,0.00000e+00,0.00000e+00
1.37170e+03,2.31293e+01,-5.58711e+01,0.00000e+00,0.00000e+00,0.00000e+00
1.37170e+03,2.17704e+01,-5.85317e+01,0.00000e+00,0.00000e+00,0.00000e+00
1.37170e+03,2.02153e+01,-6.11922e+01,0.00000e+00,0.00000e+00,0.00000e+00
1.37170e+03,1.84327e+01,-6.38527e+01,0.00000e+00,0.00000e+00,0.00000e+00
1.37170e+03,1.63931e+01,-6.65133e+01,0.00000e+00,0.00000e+00,0.00000e+00
1.37170e+03,1.39807e+01,-6.91738e+01,0.00000e+00,0.00000e+00,0.00000e+00
1.37170e+03,1.08843e+01,-7.18343e+01,0.00000e+00,0.00000e+00,0.00000e+00
1.37170e+03,6.69639e+00,-7.44949e+01,0.00000e+00,0.00000e+00,0.00000e+00
1.37170e+03,-2.71333e+00,-7.71554e+01,0.00000e+00,0.00000e+00,0.00000e+00
1.37170e+03,-3.39243e+00,-7.71616e+01,0.00000e+00,0.00000e+00,0.00000e+00
1.37170e+03,-9.57954e+00,-7.44058e+01,0.00000e+00,0.00000e+00,0.00000e+00
1.37170e+03,-1.03287e+01,-7.16500e+01,0.00000e+00,0.00000e+00,0.00000e+00
1.37170e+03,-1.05872e+01,-6.88942e+01,0.00000e+00,0.00000e+00,0.00000e+00
1.37170e+03,-1.06264e+01,-6.61385e+01,0.00000e+00,0.00000e+00,0.00000e+00
1.37170e+03,-1.05004e+01,-6.33827e+01,0.00000e+00,0.00000e+00,0.00000e+00
1.37170e+03,-1.02708e+01,-6.06269e+01,0.00000e+00,0.00000e+00,0.00000e+00
1.37170e+03,-9.93701e+00,-5.78712e+01,0.00000e+00,0.00000e+00,0.00000e+00
1.37170e+03,-9.53977e+00,-5.51154e+01,0.00000e+00,0.00000e+00,0.00000e+00
1.37170e+03,-9.10569e+00,-5.23596e+01,0.00000e+00,0.00000e+00,0.00000e+00
1.37170e+03,-8.61613e+00,-4.96039e+01,0.00000e+00,0.00000e+00,0.00000e+00
1.37170e+03,-8.09190e+00,-4.68481e+01,0.00000e+00,0.00000e+00,0.00000e+00
1.37170e+03,-7.53389e+00,-4.40923e+01,0.00000e+00,0.00000e+00,0.00000e+00
1.37170e+03,-6.94225e+00,-4.13365e+01,0.00000e+00,0.00000e+00,0.00000e+00
1.37170e+03,-6.32951e+00,-3.85808e+01,0.00000e+00,0.00000e+00,0.00000e+00
1.37170e+03,-5.68976e+00,-3.58250e+01,0.00000e+00,0.00000e+00,0.00000e+00
1.37170e+03,-5.03271e+00,-3.30692e+01,0.00000e+00,0.00000e+00,0.00000e+00
1.37170e+03,-4.36014e+00,-3.03135e+01,0.00000e+00,0.00000e+00,0.00000e+00
1.37170e+03,-3.67372e+00,-2.75577e+01,0.00000e+00,0.00000e+00,0.00000e+00
1.37170e+03,-2.98144e+00,-2.48019e+01,0.00000e+00,0.00000e+00,0.00000e+00
1.37170e+03,-2.28008e+00,-2.20462e+01,0.00000e+00,0.00000e+00,0.00000e+00
1.37170e+03,-1.57720e+00,-1.92904e+01,0.00000e+00,0.00000e+00,0.00000e+00
1.37170e+03,-8.68894e-01,-1.65346e+01,0.00000e+00,0.00000e+00,0.00000e+00
1.37170e+03,-1.60661e-01,-1.37788e+01,0.00000e+00,0.00000e+00,0.00000e+00
1.37170e+03,5.44895e-01,-1.10231e+01,0.00000e+00,0.00000e+00,0.00000e+00
1.37170e+03,1.25045e+00,-8.26731e+00,0.00000e+00,0.00000e+00,0.00000e+00
1.37170e+03,1.93930e+00,-5.51154e+00,0.00000e+00,0.00000e+00,0.00000e+00
1.37170e+03,2.62503e+00,-2.75577e+00,0.00000e+00,0.00000e+00,0.00000e+00
1.44960e+03,3.37597e+01,0.00000e+00,0.00000e+00,0.00000e+00,0.00000e+00
1.44960e+03,3.35897e+01,-2.56538e+00,0.00000e+00,0.00000e+00,0.00000e+00
1.44960e+03,3.33635e+01,-5.13077e+00,0.00000e+00,0.00000e+00,0.00000e+00
1.44960e+03,3.31351e+01,-7.69615e+00,0.00000e+00,0.00000e+00,0.00000e+00
1.44960e+03,3.28571e+01,-1.02615e+01,0.00000e+00,0.00000e+00,0.00000e+00
1.44960e+03,3.25675e+01,-1.28269e+01,0.00000e+00,0.00000e+00,0.00000e+00
1.44960e+03,3.22399e+01,-1.53923e+01,0.00000e+00,0.00000e+00,0.00000e+00
1.44960e+03,3.18939e+01,-1.79577e+01,0.00000e+00,0.00000e+00,0.00000e+00
1.44960e+03,3.15172e+01,-2.05231e+01,0.00000e+00,0.00000e+00,0.00000e+00
1.44960e+03,3.11155e+01,-2.30885e+01,0.00000e+00,0.00000e+00,0.00000e+00
1.44960e+03,3.06860e+01,-2.56538e+01,0.00000e+00,0.00000e+00,0.00000e+00
1.44960e+03,3.02232e+01,-2.82192e+01,0.00000e+00,0.00000e+00,0.00000e+00
1.44960e+03,2.97261e+01,-3.07846e+01,0.00000e+00,0.00000e+00,0.00000e+00
1.44960e+03,2.91805e+01,-3.33500e+01,0.00000e+00,0.00000e+00,0.00000e+00
1.44960e+03,2.85877e+01,-3.59154e+01,0.00000e+00,0.00000e+00,0.00000e+00
1.44960e+03,2.79383e+01,-3.84808e+01,0.00000e+00,0.00000e+00,0.00000e+00
1.44960e+03,2.72125e+01,-4.10462e+01,0.00000e+00,0.00000e+00,0.00000e+00
1.44960e+03,2.64335e+01,-4.36115e+01,0.00000e+00,0.00000e+00,0.00000e+00
1.44960e+03,2.55347e+01,-4.61769e+01,0.00000e+00,0.00000e+00,0.00000e+00
1.44960e+03,2.45863e+01,-4.87423e+01,0.00000e+00,0.00000e+00,0.00000e+00
1.44960e+03,2.34997e+01,-5.13077e+01,0.00000e+00,0.00000e+00,0.00000e+00
1.44960e+03,2.23022e+01,-5.38731e+01,0.00000e+00,0.00000e+00,0.00000e+00
1.44960e+03,2.09919e+01,-5.64385e+01,0.00000e+00,0.00000e+00,0.00000e+00
1.44960e+03,1.94923e+01,-5.90039e+01,0.00000e+00,0.00000e+00,0.00000e+00
1.44960e+03,1.77735e+01,-6.15692e+01,0.00000e+00,0.00000e+00,0.00000e+00
1.44960e+03,1.58069e+01,-6.41346e+01,0.00000e+00,0.00000e+00,0.00000e+00
1.44960e+03,1.34808e+01,-6.67000e+01,0.00000e+00,0.00000e+00,0.00000e+00
1.44960e+03,1.04950e+01,-6.92654e+01,0.00000e+00,0.00000e+00,0.00000e+00
1.44960e+03,6.45692e+00,-7.18308e+01,0.00000e+00,0.00000e+00,0.00000e+00
1.44960e+03,-2.61629e+00,-7.43962e+01,0.00000e+00,0.00000e+00,0.00000e+00
1.44960e+03,-3.27111e+00,-7.44021e+01,0.00000e+00,0.00000e+00,0.00000e+00
1.44960e+03,-9.23696e+00,-7.17449e+01,0.00000e+00,0.00000e+00,0.00000e+00
1.44960e+03,-9.95928e+00,-6.90877e+01,0.00000e+00,0.00000e+00,0.00000e+00
1.44960e+03,-1.02085e+01,-6.64305e+01,0.00000e+00,0.00000e+00,0.00000e+00
1.44960e+03,-1.02464e+01,-6.37732e+01,0.00000e+00,0.00000e+00,0.00000e+00
1.44960e+03,-1.01249e+01,-6.11160e+01,0.00000e+00,0.00000e+00,0.00000e+00
1.44960e+03,-9.90345e+00,-5.84588e+01,0.00000e+00,0.00000e+00,0.00000e+00
1.44960e+03,-9.58164e+00,-5.58016e+01,0.00000e+00,0.00000e+00,0.00000e+00
1.44960e+03,-9.19861e+00,-5.31444e+01,0.00000e+00,0.00000e+00,0.00000e+00
1.44960e+03,-8.78006e+00,-5.04872e+01,0.00000e+00,0.00000e+00,0.00000e+00
1.44960e+03,-8.30801e+00,-4.78299e+01,0.00000e+00,0.00000e+00,0.00000e+00
1.44960e+03,-7.80252e+00,-4.51727e+01,0.00000e+00,0.00000e+00,0.00000e+00
1.44960e+03,-7.26447e+00,-4.25155e+01,0.00000e+00,0.00000e+00,0.00000e+00
1.44960e+03,-6.69398e+00,-3.98583e+01,0.00000e+00,0.00000e+00,0.00000e+00
1.44960e+03,-6.10316e+00,-3.72011e+01,0.00000e+00,0.00000e+00,0.00000e+00
1.44960e+03,-5.48628e+00,-3.45438e+01,0.00000e+00,0.00000e+00,0.00000e+00
1.44960e+03,-4.85273e+00,-3.18866e+01,0.00000e+00,0.00000e+00,0.00000e+00
1.44960e+03,-4.20421e+00,-2.92294e+01,0.00000e+00,0.00000e+00,0.00000e+00
1.44960e+03,-3.54234e+00,-2.65722e+01,0.00000e+00,0.00000e+00,0.00000e+00
1.44960e+03,-2.87482e+00,-2.39150e+01,0.00000e+00,0.00000e+00,0.00000e+00
1.44960e+03,-2.19854e+00,-2.12577e+01,0.00000e+00,0.00000e+00,0.00000e+00
1.44960e+03,-1.52080e+00,-1.86005e+01,0.00000e+00,0.00000e+00,0.00000e+00
1.44960e+03,-8.37821e-01,-1.59433e+01,0.00000e+00,0.00000e+00,0.00000e+00
1.44960e+03,-1.54916e-01,-1.32861e+01,0.00000e+00,0.00000e+00,0.00000e+00
1.44960e+03,5.25408e-01,-1.06289e+01,0.00000e+00,0.00000e+00,0.00000e+00
1.44960e+03,1.20573e+00,-7.97166e+00,0.00000e+00,0.00000e+00,0.00000e+00
1.44960e+03,1.86995e+00,-5.31444e+00,0.00000e+00,0.00000e+00,0.00000e+00
1.44960e+03,2.53116e+00,-2.65722e+00,0.00000e+00,0.00000e+00,0.00000e+00
1.52340e+03,3.25736e+01,0.00000e+00,0.00000e+00,0.00000e+00,0.00000e+00
1.52340e+03,3.24095e+01,-2.47525e+00,0.00000e+00,0.00000e+00,0.00000e+00
1.52340e+03,3.21913e+01,-4.95049e+00,0.00000e+00,0.00000e+00,0.00000e+00
1.52340e+03,3.19709e+01,-7.42574e+00,0.00000e+00,0.00000e+00,0.00000e+00
1.52340e+03,3.17026e+01,-9.90099e+00,0.00000e+00,0.00000e+00,0.00000e+00
1.52340e+03,3.14232e+01,-1.23762e+01,0.00000e+00,0.00000e+00,0.00000e+00
1.52340e+03,3.11072e+01,-1.48515e+01,0.00000e+00,0.00000e+00,0.00000e+00
1.52340e+03,3.07733e+01,-1.73267e+01,0.00000e+00,0.00000e+00,0.00000e+00
1.52340e+03,3.04098e+01,-1.98020e+01,0.00000e+00,0.00000e+00,0.00000e+00
1.52340e+03,3.00222e+01,-2.22772e+01,0.00000e+00,0.00000e+00,0.00000e+00
1.52340e+03,2.96079e+01,-2.47525e+01,0.00000e+00,0.00000e+00,0.00000e+00
1.52340e+03,2.91613e+01,-2.72277e+01,0.00000e+00,0.00000e+00,0.00000e+00
1.52340e+03,2.86816e+01,-2.97030e+01,0.00000e+00,0.00000e+00,0.00000e+00
1.52340e+03,2.81552e+01,-3.21782e+01,0.00000e+00,0.00000e+00,0.00000e+00
1.52340e+03,2.75832e+01,-3.46535e+01,0.00000e+00,0.00000e+00,0.00000e+00
1.52340e+03,2.69567e+01,-3.71287e+01,0.00000e+00,0.00000e+00,0.00000e+00
1.52340e+03,2.62564e+01,-3.96040e+01,0.00000e+00,0.00000e+00,0.00000e+00
1.52340e+03,2.55047e+01,-4.20792e+01,0.00000e+00,0.00000e+00,0.00000e+00
1.52340e+03,2.46375e+01,-4.45544e+01,0.00000e+00,0.00000e+00,0.00000e+00
1.52340e+03,2.37225e+01,-4.70297e+01,0.00000e+00,0.00000e+00,0.00000e+00
1.52340e+03,2.26740e+01,-4.95049e+01,0.00000e+00,0.00000e+00,0.00000e+00
1.52340e+03,2.15185e+01,-5.19802e+01,0.00000e+00,0.00000e+00,0.00000e+00
1.52340e+03,2.02543e+01,-5.44554e+01,0.00000e+00,0.00000e+00,0.00000e+00
1.52340e+03,1.88075e+01,-5.69307e+01,0.00000e+00,0.00000e+00,0.00000e+00
1.52340e+03,1.71490e+01,-5.94059e+01,0.00000e+00,0.00000e+00,0.00000e+00
1.52340e+03,1.52515e+01,-6.18812e+01,0.00000e+00,0.00000e+00,0.00000e+00
1.52340e+03,1.30071e+01,-6.43564e+01,0.00000e+00,0.00000e+00,0.00000e+00
1.52340e+03,1.01263e+01,-6.68317e+01,0.00000e+00,0.00000e+00,0.00000e+00
1.52340e+03,6.23005e+00,-6.93069e+01,0.00000e+00,0.00000e+00,0.00000e+00
1.52340e+03,-2.52437e+00,-7.17822e+01,0.00000e+00,0.00000e+00,0.00000e+00
1.52340e+03,-3.15618e+00,-7.17879e+01,0.00000e+00,0.00000e+00,0.00000e+00
1.52340e+03,-8.91241e+00,-6.92241e+01,0.00000e+00,0.00000e+00,0.00000e+00
1.52340e+03,-9.60935e+00,-6.66602e+01,0.00000e+00,0.00000e+00,0.00000e+00
1.52340e+03,-9.84985e+00,-6.40963e+01,0.00000e+00,0.00000e+00,0.00000e+00
1.52340e+03,-9.88634e+00,-6.15325e+01,0.00000e+00,0.00000e+00,0.00000e+00
1.52340e+03,-9.76914e+00,-5.89686e+01,0.00000e+00,0.00000e+00,0.00000e+00
1.52340e+03,-9.55548e+00,-5.64048e+01,0.00000e+00,0.00000e+00,0.00000e+00
1.52340e+03,-9.24498e+00,-5.38409e+01,0.00000e+00,0.00000e+00,0.00000e+00
1.52340e+03,-8.87540e+00,-5.12771e+01,0.00000e+00,0.00000e+00,0.00000e+00
1.52340e+03,-8.47156e+00,-4.87132e+01,0.00000e+00,0.00000e+00,0.00000e+00
1.52340e+03,-8.01609e+00,-4.61494e+01,0.00000e+00,0.00000e+00,0.00000e+00
1.52340e+03,-7.52837e+00,-4.35855e+01,0.00000e+00,0.00000e+00,0.00000e+00
1.52340e+03,-7.00922e+00,-4.10217e+01,0.00000e+00,0.00000e+00,0.00000e+00
1.52340e+03,-6.45878e+00,-3.84578e+01,0.00000e+00,0.00000e+00,0.00000e+00
1.52340e+03,-5.88872e+00,-3.58940e+01,0.00000e+00,0.00000e+00,0.00000e+00
1.52340e+03,-5.29352e+00,-3.33301e+01,0.00000e+00,0.00000e+00,0.00000e+00
1.52340e+03,-4.68222e+00,-3.07662e+01,0.00000e+00,0.00000e+00,0.00000e+00
1.52340e+03,-4.05649e+00,-2.82024e+01,0.00000e+00,0.00000e+00,0.00000e+00
1.52340e+03,-3.41788e+00,-2.56385e+01,0.00000e+00,0.00000e+00,0.00000e+00
1.52340e+03,-2.77381e+00,-2.30747e+01,0.00000e+00,0.00000e+00,0.00000e+00
1.52340e+03,-2.12129e+00,-2.05108e+01,0.00000e+00,0.00000e+00,0.00000e+00
1.52340e+03,-1.46736e+00,-1.79470e+01,0.00000e+00,0.00000e+00,0.00000e+00
1.52340e+03,-8.08383e-01,-1.53831e+01,0.00000e+00,0.00000e+00,0.00000e+00
1.52340e+03,-1.49473e-01,-1.28193e+01,0.00000e+00,0.00000e+00,0.00000e+00
1.52340e+03,5.06948e-01,-1.02554e+01,0.00000e+00,0.00000e+00,0.00000e+00
1.52340e+03,1.16337e+00,-7.69156e+00,0.00000e+00,0.00000e+00,0.00000e+00
1.52340e+03,1.80424e+00,-5.12771e+00,0.00000e+00,0.00000e+00,0.00000e+00
1.52340e+03,2.44222e+00,-2.56385e+00,0.00000e+00,0.00000e+00,0.00000e+00
1.59310e+03,3.14533e+01,0.00000e+00,0.00000e+00,0.00000e+00,0.00000e+00
1.59310e+03,3.12949e+01,-2.39012e+00,0.00000e+00,0.00000e+00,0.00000e+00
1.59310e+03,3.10841e+01,-4.78023e+00,0.00000e+00,0.00000e+00,0.00000e+00
1.59310e+03,3.08713e+01,-7.17035e+00,0.00000e+00,0.00000e+00,0.00000e+00
1.59310e+03,3.06123e+01,-9.56047e+00,0.00000e+00,0.00000e+00,0.00000e+00
1.59310e+03,3.03425e+01,-1.19506e+01,0.00000e+00,0.00000e+00,0.00000e+00
1.59310e+03,3.00373e+01,-1.43407e+01,0.00000e+00,0.00000e+00,0.00000e+00
1.59310e+03,2.97149e+01,-1.67308e+01,0.00000e+00,0.00000e+00,0.00000e+00
1.59310e+03,2.93640e+01,-1.91209e+01,0.00000e+00,0.00000e+00,0.00000e+00
1.59310e+03,2.89896e+01,-2.15111e+01,0.00000e+00,0.00000e+00,0.00000e+00
1.59310e+03,2.85896e+01,-2.39012e+01,0.00000e+00,0.00000e+00,0.00000e+00
1.59310e+03,2.81583e+01,-2.62913e+01,0.00000e+00,0.00000e+00,0.00000e+00
1.59310e+03,2.76952e+01,-2.86814e+01,0.00000e+00,0.00000e+00,0.00000e+00
1.59310e+03,2.71869e+01,-3.10715e+01,0.00000e+00,0.00000e+00,0.00000e+00
1.59310e+03,2.66345e+01,-3.34616e+01,0.00000e+00,0.00000e+00,0.00000e+00
1.59310e+03,2.60296e+01,-3.58518e+01,0.00000e+00,0.00000e+00,0.00000e+00
1.59310e+03,2.53533e+01,-3.82419e+01,0.00000e+00,0.00000e+00,0.00000e+00
1.59310e+03,2.46276e+01,-4.06320e+01,0.00000e+00,0.00000e+00,0.00000e+00
1.59310e+03,2.37902e+01,-4.30221e+01,0.00000e+00,0.00000e+00,0.00000e+00
1.59310e+03,2.29066e+01,-4.54122e+01,0.00000e+00,0.00000e+00,0.00000e+00
1.59310e+03,2.18941e+01,-4.78023e+01,0.00000e+00,0.00000e+00,0.00000e+00
1.59310e+03,2.07785e+01,-5.01925e+01,0.00000e+00,0.00000e+00,0.00000e+00
1.59310e+03,1.95577e+01,-5.25826e+01,0.00000e+00,0.00000e+00,0.00000e+00
1.59310e+03,1.81606e+01,-5.49727e+01,0.00000e+00,0.00000e+00,0.00000e+00
1.59310e+03,1.65592e+01,-5.73628e+01,0.00000e+00,0.00000e+00,0.00000e+00
1.59310e+03,1.47269e+01,-5.97529e+01,0.00000e+00,0.00000e+00,0.00000e+00
1.59310e+03,1.25597e+01,-6.21430e+01,0.00000e+00,0.00000e+00,0.00000e+00
1.59310e+03,9.77800e+00,-6.45332e+01,0.00000e+00,0.00000e+00,0.00000e+00
1.59310e+03,6.01578e+00,-6.69233e+01,0.00000e+00,0.00000e+00,0.00000e+00
1.59310e+03,-2.43755e+00,-6.93134e+01,0.00000e+00,0.00000e+00,0.00000e+00
1.59310e+03,-3.04763e+00,-6.93189e+01,0.00000e+00,0.00000e+00,0.00000e+00
1.59310e+03,-8.60589e+00,-6.68433e+01,0.00000e+00,0.00000e+00,0.00000e+00
1.59310e+03,-9.27886e+00,-6.43676e+01,0.00000e+00,0.00000e+00,0.00000e+00
1.59310e+03,-9.51109e+00,-6.18919e+01,0.00000e+00,0.00000e+00,0.00000e+00
1.59310e+03,-9.54632e+00,-5.94162e+01,0.00000e+00,0.00000e+00,0.00000e+00
1.59310e+03,-9.43315e+00,-5.69406e+01,0.00000e+00,0.00000e+00,0.00000e+00
1.59310e+03,-9.22684e+00,-5.44649e+01,0.00000e+00,0.00000e+00,0.00000e+00
1.59310e+03,-8.92702e+00,-5.19892e+01,0.00000e+00,0.00000e+00,0.00000e+00
1.59310e+03,-8.57016e+00,-4.95135e+01,0.00000e+00,0.00000e+00,0.00000e+00
1.59310e+03,-8.18020e+00,-4.70379e+01,0.00000e+00,0.00000e+00,0.00000e+00
1.59310e+03,-7.74040e+00,-4.45622e+01,0.00000e+00,0.00000e+00,0.00000e+00
1.59310e+03,-7.26945e+00,-4.20865e+01,0.00000e+00,0.00000e+00,0.00000e+00
1.59310e+03,-6.76816e+00,-3.96108e+01,0.00000e+00,0.00000e+00,0.00000e+00
1.59310e+03,-6.23665e+00,-3.71351e+01,0.00000e+00,0.00000e+00,0.00000e+00
1.59310e+03,-5.68619e+00,-3.46595e+01,0.00000e+00,0.00000e+00,0.00000e+00
1.59310e+03,-5.11146e+00,-3.21838e+01,0.00000e+00,0.00000e+00,0.00000e+00
1.59310e+03,-4.52119e+00,-2.97081e+01,0.00000e+00,0.00000e+00,0.00000e+00
1.59310e+03,-3.91698e+00,-2.72324e+01,0.00000e+00,0.00000e+00,0.00000e+00
1.59310e+03,-3.30033e+00,-2.47568e+01,0.00000e+00,0.00000e+00,0.00000e+00
1.59310e+03,-2.67841e+00,-2.22811e+01,0.00000e+00,0.00000e+00,0.00000e+00
1.59310e+03,-2.04833e+00,-1.98054e+01,0.00000e+00,0.00000e+00,0.00000e+00
1.59310e+03,-1.41689e+00,-1.73297e+01,0.00000e+00,0.00000e+00,0.00000e+00
1.59310e+03,-7.80581e-01,-1.48541e+01,0.00000e+00,0.00000e+00,0.00000e+00
1.59310e+03,-1.44332e-01,-1.23784e+01,0.00000e+00,0.00000e+00,0.00000e+00
1.59310e+03,4.89512e-01,-9.90271e+00,0.00000e+00,0.00000e+00,0.00000e+00
1.59310e+03,1.12336e+00,-7.42703e+00,0.00000e+00,0.00000e+00,0.00000e+00
1.59310e+03,1.74219e+00,-4.95135e+00,0.00000e+00,0.00000e+00,0.00000e+00
1.59310e+03,2.35823e+00,-2.47568e+00,0.00000e+00,0.00000e+00,0.00000e+00
1.65850e+03,3.04021e+01,0.00000e+00,0.00000e+00,0.00000e+00,0.00000e+00
1.65850e+03,3.02490e+01,-2.31024e+00,0.00000e+00,0.00000e+00,0.00000e+00
1.65850e+03,3.00453e+01,-4.62048e+00,0.00000e+00,0.00000e+00,0.00000e+00
1.65850e+03,2.98396e+01,-6.93072e+00,0.00000e+00,0.00000e+00,0.00000e+00
1.65850e+03,2.95892e+01,-9.24096e+00,0.00000e+00,0.00000e+00,0.00000e+00
1.65850e+03,2.93285e+01,-1.15512e+01,0.00000e+00,0.00000e+00,0.00000e+00
1.65850e+03,2.90335e+01,-1.38614e+01,0.00000e+00,0.00000e+00,0.00000e+00
1.65850e+03,2.87218e+01,-1.61717e+01,0.00000e+00,0.00000e+00,0.00000e+00
1.65850e+03,2.83826e+01,-1.84819e+01,0.00000e+00,0.00000e+00,0.00000e+00
1.65850e+03,2.80208e+01,-2.07921e+01,0.00000e+00,0.00000e+00,0.00000e+00
1.65850e+03,2.76341e+01,-2.31024e+01,0.00000e+00,0.00000e+00,0.00000e+00
1.65850e+03,2.72173e+01,-2.54126e+01,0.00000e+00,0.00000e+00,0.00000e+00
1.65850e+03,2.67696e+01,-2.77229e+01,0.00000e+00,0.00000e+00,0.00000e+00
1.65850e+03,2.62783e+01,-3.00331e+01,0.00000e+00,0.00000e+00,0.00000e+00
1.65850e+03,2.57444e+01,-3.23433e+01,0.00000e+00,0.00000e+00,0.00000e+00
1.65850e+03,2.51597e+01,-3.46536e+01,0.00000e+00,0.00000e+00,0.00000e+00
1.65850e+03,2.45060e+01,-3.69638e+01,0.00000e+00,0.00000e+00,0.00000e+00
1.65850e+03,2.38045e+01,-3.92741e+01,0.00000e+00,0.00000e+00,0.00000e+00
1.65850e+03,2.29951e+01,-4.15843e+01,0.00000e+00,0.00000e+00,0.00000e+00
1.65850e+03,2.21410e+01,-4.38945e+01,0.00000e+00,0.00000e+00,0.00000e+00
1.65850e+03,2.11624e+01,-4.62048e+01,0.00000e+00,0.00000e+00,0.00000e+00
1.65850e+03,2.00840e+01,-4.85150e+01,0.00000e+00,0.00000e+00,0.00000e+00
1.65850e+03,1.89041e+01,-5.08253e+01,0.00000e+00,0.00000e+00,0.00000e+00
1.65850e+03,1.75537e+01,-5.31355e+01,0.00000e+00,0.00000e+00,0.00000e+00
1.65850e+03,1.60058e+01,-5.54457e+01,0.00000e+00,0.00000e+00,0.00000e+00
1.65850e+03,1.42348e+01,-5.77560e+01,0.00000e+00,0.00000e+00,0.00000e+00
1.65850e+03,1.21400e+01,-6.00662e+01,0.00000e+00,0.00000e+00,0.00000e+00
1.65850e+03,9.45122e+00,-6.23764e+01,0.00000e+00,0.00000e+00,0.00000e+00
1.65850e+03,5.81473e+00,-6.46867e+01,0.00000e+00,0.00000e+00,0.00000e+00
1.65850e+03,-2.35608e+00,-6.69969e+01,0.00000e+00,0.00000e+00,0.00000e+00
1.65850e+03,-2.94577e+00,-6.70023e+01,0.00000e+00,0.00000e+00,0.00000e+00
1.65850e+03,-8.31828e+00,-6.46093e+01,0.00000e+00,0.00000e+00,0.00000e+00
1.65850e+03,-8.96876e+00,-6.22164e+01,0.00000e+00,0.00000e+00,0.00000e+00
1.65850e+03,-9.19322e+00,-5.98235e+01,0.00000e+00,0.00000e+00,0.00000e+00
1.65850e+03,-9.22728e+00,-5.74305e+01,0.00000e+00,0.00000e+00,0.00000e+00
1.65850e+03,-9.11789e+00,-5.50376e+01,0.00000e+00,0.00000e+00,0.00000e+00
1.65850e+03,-8.91848e+00,-5.26447e+01,0.00000e+00,0.00000e+00,0.00000e+00
1.65850e+03,-8.62868e+00,-5.02517e+01,0.00000e+00,0.00000e+00,0.00000e+00
1.65850e+03,-8.28374e+00,-4.78588e+01,0.00000e+00,0.00000e+00,0.00000e+00
1.65850e+03,-7.90682e+00,-4.54658e+01,0.00000e+00,0.00000e+00,0.00000e+00
1.65850e+03,-7.48171e+00,-4.30729e+01,0.00000e+00,0.00000e+00,0.00000e+00
1.65850e+03,-7.02650e+00,-4.06800e+01,0.00000e+00,0.00000e+00,0.00000e+00
1.65850e+03,-6.54196e+00,-3.82870e+01,0.00000e+00,0.00000e+00,0.00000e+00
1.65850e+03,-6.02822e+00,-3.58941e+01,0.00000e+00,0.00000e+00,0.00000e+00
1.65850e+03,-5.49615e+00,-3.35011e+01,0.00000e+00,0.00000e+00,0.00000e+00
1.65850e+03,-4.94063e+00,-3.11082e+01,0.00000e+00,0.00000e+00,0.00000e+00
1.65850e+03,-4.37009e+00,-2.87153e+01,0.00000e+00,0.00000e+00,0.00000e+00
1.65850e+03,-3.78607e+00,-2.63223e+01,0.00000e+00,0.00000e+00,0.00000e+00
1.65850e+03,-3.19003e+00,-2.39294e+01,0.00000e+00,0.00000e+00,0.00000e+00
1.65850e+03,-2.58890e+00,-2.15364e+01,0.00000e+00,0.00000e+00,0.00000e+00
1.65850e+03,-1.97988e+00,-1.91435e+01,0.00000e+00,0.00000e+00,0.00000e+00
1.65850e+03,-1.36954e+00,-1.67506e+01,0.00000e+00,0.00000e+00,0.00000e+00
1.65850e+03,-7.54494e-01,-1.43576e+01,0.00000e+00,0.00000e+00,0.00000e+00
1.65850e+03,-1.39508e-01,-1.19647e+01,0.00000e+00,0.00000e+00,0.00000e+00
1.65850e+03,4.73153e-01,-9.57176e+00,0.00000e+00,0.00000e+00,0.00000e+00
1.65850e+03,1.08581e+00,-7.17882e+00,0.00000e+00,0.00000e+00,0.00000e+00
1.65850e+03,1.68397e+00,-4.78588e+00,0.00000e+00,0.00000e+00,0.00000e+00
1.65850e+03,2.27942e+00,-2.39294e+00,0.00000e+00,0.00000e+00,0.00000e+00
1.71930e+03,2.94249e+01,0.00000e+00,0.00000e+00,0.00000e+00,0.00000e+00
1.71930e+03,2.92767e+01,-2.23598e+00,0.00000e+00,0.00000e+00,0.00000e+00
1.71930e+03,2.90795e+01,-4.47196e+00,0.00000e+00,0.00000e+00,0.00000e+00
1.71930e+03,2.88804e+01,-6.70794e+00,0.00000e+00,0.00000e+00,0.00000e+00
1.71930e+03,2.86381e+01,-8.94392e+00,0.00000e+00,0.00000e+00,0.00000e+00
1.71930e+03,2.83857e+01,-1.11799e+01,0.00000e+00,0.00000e+00,0.00000e+00
1.71930e+03,2.81002e+01,-1.34159e+01,0.00000e+00,0.00000e+00,0.00000e+00
1.71930e+03,2.77986e+01,-1.56519e+01,0.00000e+00,0.00000e+00,0.00000e+00
1.71930e+03,2.74703e+01,-1.78878e+01,0.00000e+00,0.00000e+00,0.00000e+00
1.71930e+03,2.71201e+01,-2.01238e+01,0.00000e+00,0.00000e+00,0.00000e+00
1.71930e+03,2.67458e+01,-2.23598e+01,0.00000e+00,0.00000e+00,0.00000e+00
1.71930e+03,2.63424e+01,-2.45958e+01,0.00000e+00,0.00000e+00,0.00000e+00
1.71930e+03,2.59091e+01,-2.68317e+01,0.00000e+00,0.00000e+00,0.00000e+00
1.71930e+03,2.54336e+01,-2.90677e+01,0.00000e+00,0.00000e+00,0.00000e+00
1.71930e+03,2.49169e+01,-3.13037e+01,0.00000e+00,0.00000e+00,0.00000e+00
1.71930e+03,2.43509e+01,-3.35397e+01,0.00000e+00,0.00000e+00,0.00000e+00
1.71930e+03,2.37183e+01,-3.57757e+01,0.00000e+00,0.00000e+00,0.00000e+00
1.71930e+03,2.30393e+01,-3.80116e+01,0.00000e+00,0.00000e+00,0.00000e+00
1.71930e+03,2.22560e+01,-4.02476e+01,0.00000e+00,0.00000e+00,0.00000e+00
1.71930e+03,2.14293e+01,-4.24836e+01,0.00000e+00,0.00000e+00,0.00000e+00
1.71930e+03,2.04822e+01,-4.47196e+01,0.00000e+00,0.00000e+00,0.00000e+00
1.71930e+03,1.94385e+01,-4.69556e+01,0.00000e+00,0.00000e+00,0.00000e+00
1.71930e+03,1.82964e+01,-4.91915e+01,0.00000e+00,0.00000e+00,0.00000e+00
1.71930e+03,1.69894e+01,-5.14275e+01,0.00000e+00,0.00000e+00,0.00000e+00
1.71930e+03,1.54913e+01,-5.36635e+01,0.00000e+00,0.00000e+00,0.00000e+00
1.71930e+03,1.37772e+01,-5.58995e+01,0.00000e+00,0.00000e+00,0.00000e+00
1.71930e+03,1.17498e+01,-5.81355e+01,0.00000e+00,0.00000e+00,0.00000e+00
1.71930e+03,9.14742e+00,-6.03714e+01,0.00000e+00,0.00000e+00,0.00000e+00
1.71930e+03,5.62782e+00,-6.26074e+01,0.00000e+00,0.00000e+00,0.00000e+00
1.71930e+03,-2.28035e+00,-6.48434e+01,0.00000e+00,0.00000e+00,0.00000e+00
1.71930e+03,-2.85109e+00,-6.48486e+01,0.00000e+00,0.00000e+00,0.00000e+00
1.71930e+03,-8.05090e+00,-6.25326e+01,0.00000e+00,0.00000e+00,0.00000e+00
1.71930e+03,-8.68047e+00,-6.02165e+01,0.00000e+00,0.00000e+00,0.00000e+00
1.71930e+03,-8.89772e+00,-5.79005e+01,0.00000e+00,0.00000e+00,0.00000e+00
1.71930e+03,-8.93068e+00,-5.55845e+01,0.00000e+00,0.00000e+00,0.00000e+00
1.71930e+03,-8.82481e+00,-5.32685e+01,0.00000e+00,0.00000e+00,0.00000e+00
1.71930e+03,-8.63181e+00,-5.09525e+01,0.00000e+00,0.00000e+00,0.00000e+00
1.71930e+03,-8.35132e+00,-4.86364e+01,0.00000e+00,0.00000e+00,0.00000e+00
1.71930e+03,-8.01747e+00,-4.63204e+01,0.00000e+00,0.00000e+00,0.00000e+00
1.71930e+03,-7.65266e+00,-4.40044e+01,0.00000e+00,0.00000e+00,0.00000e+00
1.71930e+03,-7.24122e+00,-4.16884e+01,0.00000e+00,0.00000e+00,0.00000e+00
1.71930e+03,-6.80064e+00,-3.93724e+01,0.00000e+00,0.00000e+00,0.00000e+00
1.71930e+03,-6.33168e+00,-3.70563e+01,0.00000e+00,0.00000e+00,0.00000e+00
1.71930e+03,-5.83445e+00,-3.47403e+01,0.00000e+00,0.00000e+00,0.00000e+00
1.71930e+03,-5.31949e+00,-3.24243e+01,0.00000e+00,0.00000e+00,0.00000e+00
1.71930e+03,-4.78182e+00,-3.01083e+01,0.00000e+00,0.00000e+00,0.00000e+00
1.71930e+03,-4.22962e+00,-2.77922e+01,0.00000e+00,0.00000e+00,0.00000e+00
1.71930e+03,-3.66437e+00,-2.54762e+01,0.00000e+00,0.00000e+00,0.00000e+00
1.71930e+03,-3.08749e+00,-2.31602e+01,0.00000e+00,0.00000e+00,0.00000e+00
1.71930e+03,-2.50568e+00,-2.08442e+01,0.00000e+00,0.00000e+00,0.00000e+00
1.71930e+03,-1.91624e+00,-1.85282e+01,0.00000e+00,0.00000e+00,0.00000e+00
1.71930e+03,-1.32552e+00,-1.62121e+01,0.00000e+00,0.00000e+00,0.00000e+00
1.71930e+03,-7.30242e-01,-1.38961e+01,0.00000e+00,0.00000e+00,0.00000e+00
1.71930e+03,-1.35024e-01,-1.15801e+01,0.00000e+00,0.00000e+00,0.00000e+00
1.71930e+03,4.57944e-01,-9.26408e+00,0.00000e+00,0.00000e+00,0.00000e+00
1.71930e+03,1.05091e+00,-6.94806e+00,0.00000e+00,0.00000e+00,0.00000e+00
1.71930e+03,1.62984e+00,-4.63204e+00,0.00000e+00,0.00000e+00,0.00000e+00
1.71930e+03,2.20615e+00,-2.31602e+00,0.00000e+00,0.00000e+00,0.00000e+00
1.77540e+03,2.77303e+01,0.00000e+00,0.00000e+00,0.00000e+00,0.00000e+00
1.77540e+03,2.75906e+01,-2.10721e+00,0.00000e+00,0.00000e+00,0.00000e+00
1.77540e+03,2.74048e+01,-4.21442e+00,0.00000e+00,0.00000e+00,0.00000e+00
1.77540e+03,2.72172e+01,-6.32163e+00,0.00000e+00,0.00000e+00,0.00000e+00
1.77540e+03,2.69888e+01,-8.42884e+00,0.00000e+00,0.00000e+00,0.00000e+00
1.77540e+03,2.67510e+01,-1.05361e+01,0.00000e+00,0.00000e+00,0.00000e+00
1.77540e+03,2.64819e+01,-1.26433e+01,0.00000e+00,0.00000e+00,0.00000e+00
1.77540e+03,2.61977e+01,-1.47505e+01,0.00000e+00,0.00000e+00,0.00000e+00
1.77540e+03,2.58883e+01,-1.68577e+01,0.00000e+00,0.00000e+00,0.00000e+00
1.77540e+03,2.55583e+01,-1.89649e+01,0.00000e+00,0.00000e+00,0.00000e+00
1.77540e+03,2.52056e+01,-2.10721e+01,0.00000e+00,0.00000e+00,0.00000e+00
1.77540e+03,2.48254e+01,-2.31793e+01,0.00000e+00,0.00000e+00,0.00000e+00
1.77540e+03,2.44171e+01,-2.52865e+01,0.00000e+00,0.00000e+00,0.00000e+00
1.77540e+03,2.39689e+01,-2.73937e+01,0.00000e+00,0.00000e+00,0.00000e+00
1.77540e+03,2.34819e+01,-2.95009e+01,0.00000e+00,0.00000e+00,0.00000e+00
1.77540e+03,2.29486e+01,-3.16082e+01,0.00000e+00,0.00000e+00,0.00000e+00
1.77540e+03,2.23524e+01,-3.37154e+01,0.00000e+00,0.00000e+00,0.00000e+00
1.77540e+03,2.17125e+01,-3.58226e+01,0.00000e+00,0.00000e+00,0.00000e+00
1.77540e+03,2.09743e+01,-3.79298e+01,0.00000e+00,0.00000e+00,0.00000e+00
1.77540e+03,2.01952e+01,-4.00370e+01,0.00000e+00,0.00000e+00,0.00000e+00
1.77540e+03,1.93026e+01,-4.21442e+01,0.00000e+00,0.00000e+00,0.00000e+00
1.77540e+03,1.83190e+01,-4.42514e+01,0.00000e+00,0.00000e+00,0.00000e+00
1.77540e+03,1.72428e+01,-4.63586e+01,0.00000e+00,0.00000e+00,0.00000e+00
1.77540e+03,1.60110e+01,-4.84658e+01,0.00000e+00,0.00000e+00,0.00000e+00
1.77540e+03,1.45992e+01,-5.05731e+01,0.00000e+00,0.00000e+00,0.00000e+00
1.77540e+03,1.29838e+01,-5.26803e+01,0.00000e+00,0.00000e+00,0.00000e+00
1.77540e+03,1.10731e+01,-5.47875e+01,0.00000e+00,0.00000e+00,0.00000e+00
1.77540e+03,8.62063e+00,-5.68947e+01,0.00000e+00,0.00000e+00,0.00000e+00
1.77540e+03,5.30372e+00,-5.90019e+01,0.00000e+00,0.00000e+00,0.00000e+00
1.77540e+03,-2.14903e+00,-6.11091e+01,0.00000e+00,0.00000e+00,0.00000e+00
1.77540e+03,-2.68689e+00,-6.11140e+01,0.00000e+00,0.00000e+00,0.00000e+00
1.77540e+03,-7.58725e+00,-5.89314e+01,0.00000e+00,0.00000e+00,0.00000e+00
1.77540e+03,-8.18057e+00,-5.67487e+01,0.00000e+00,0.00000e+00,0.00000e+00
1.77540e+03,-8.38530e+00,-5.45661e+01,0.00000e+00,0.00000e+00,0.00000e+00
1.77540e+03,-8.41637e+00,-5.23834e+01,0.00000e+00,0.00000e+00,0.00000e+00
1.77540e+03,-8.31659e+00,-5.02008e+01,0.00000e+00,0.00000e+00,0.00000e+00
1.77540e+03,-8.13471e+00,-4.80181e+01,0.00000e+00,0.00000e+00,0.00000e+00
1.77540e+03,-7.87037e+00,-4.58355e+01,0.00000e+00,0.00000e+00,0.00000e+00
1.77540e+03,-7.55575e+00,-4.36529e+01,0.00000e+00,0.00000e+00,0.00000e+00
1.77540e+03,-7.21195e+00,-4.14702e+01,0.00000e+00,0.00000e+00,0.00000e+00
1.77540e+03,-6.82421e+00,-3.92876e+01,0.00000e+00,0.00000e+00,0.00000e+00
1.77540e+03,-6.40900e+00,-3.71049e+01,0.00000e+00,0.00000e+00,0.00000e+00
1.77540e+03,-5.96704e+00,-3.49223e+01,0.00000e+00,0.00000e+00,0.00000e+00
1.77540e+03,-5.49844e+00,-3.27396e+01,0.00000e+00,0.00000e+00,0.00000e+00
1.77540e+03,-5.01314e+00,-3.05570e+01,0.00000e+00,0.00000e+00,0.00000e+00
1.77540e+03,-4.50644e+00,-2.83744e+01,0.00000e+00,0.00000e+00,0.00000e+00
1.77540e+03,-3.98604e+00,-2.61917e+01,0.00000e+00,0.00000e+00,0.00000e+00
1.77540e+03,-3.45334e+00,-2.40091e+01,0.00000e+00,0.00000e+00,0.00000e+00
1.77540e+03,-2.90969e+00,-2.18264e+01,0.00000e+00,0.00000e+00,0.00000e+00
1.77540e+03,-2.36138e+00,-1.96438e+01,0.00000e+00,0.00000e+00,0.00000e+00
1.77540e+03,-1.80588e+00,-1.74611e+01,0.00000e+00,0.00000e+00,0.00000e+00
1.77540e+03,-1.24918e+00,-1.52785e+01,0.00000e+00,0.00000e+00,0.00000e+00
1.77540e+03,-6.88187e-01,-1.30959e+01,0.00000e+00,0.00000e+00,0.00000e+00
1.77540e+03,-1.27248e-01,-1.09132e+01,0.00000e+00,0.00000e+00,0.00000e+00
1.77540e+03,4.31571e-01,-8.73057e+00,0.00000e+00,0.00000e+00,0.00000e+00
1.77540e+03,9.90390e-01,-6.54793e+00,0.00000e+00,0.00000e+00,0.00000e+00
1.77540e+03,1.53598e+00,-4.36529e+00,0.00000e+00,0.00000e+00,0.00000e+00
1.77540e+03,2.07910e+00,-2.18264e+00,0.00000e+00,0.00000e+00,0.00000e+00
1.82660e+03,2.53092e+01,0.00000e+00,0.00000e+00,0.00000e+00,0.00000e+00
1.82660e+03,2.51817e+01,-1.92323e+00,0.00000e+00,0.00000e+00,0.00000e+00
1.82660e+03,2.50121e+01,-3.84646e+00,0.00000e+00,0.00000e+00,0.00000e+00
1.82660e+03,2.48409e+01,-5.76969e+00,0.00000e+00,0.00000e+00,0.00000e+00
1.82660e+03,2.46324e+01,-7.69292e+00,0.00000e+00,0.00000e+00,0.00000e+00
1.82660e+03,2.44154e+01,-9.61614e+00,0.00000e+00,0.00000e+00,0.00000e+00
1.82660e+03,2.41698e+01,-1.15394e+01,0.00000e+00,0.00000e+00,0.00000e+00
1.82660e+03,2.39103e+01,-1.34626e+01,0.00000e+00,0.00000e+00,0.00000e+00
1.82660e+03,2.36280e+01,-1.53858e+01,0.00000e+00,0.00000e+00,0.00000e+00
1.82660e+03,2.33268e+01,-1.73091e+01,0.00000e+00,0.00000e+00,0.00000e+00
1.82660e+03,2.30049e+01,-1.92323e+01,0.00000e+00,0.00000e+00,0.00000e+00
1.82660e+03,2.26579e+01,-2.11555e+01,0.00000e+00,0.00000e+00,0.00000e+00
1.82660e+03,2.22852e+01,-2.30787e+01,0.00000e+00,0.00000e+00,0.00000e+00
1.82660e+03,2.18762e+01,-2.50020e+01,0.00000e+00,0.00000e+00,0.00000e+00
1.82660e+03,2.14317e+01,-2.69252e+01,0.00000e+00,0.00000e+00,0.00000e+00
1.82660e+03,2.09449e+01,-2.88484e+01,0.00000e+00,0.00000e+00,0.00000e+00
1.82660e+03,2.04008e+01,-3.07717e+01,0.00000e+00,0.00000e+00,0.00000e+00
1.82660e+03,1.98168e+01,-3.26949e+01,0.00000e+00,0.00000e+00,0.00000e+00
1.82660e+03,1.91430e+01,-3.46181e+01,0.00000e+00,0.00000e+00,0.00000e+00
1.82660e+03,1.84320e+01,-3.65413e+01,0.00000e+00,0.00000e+00,0.00000e+00
1.82660e+03,1.76173e+01,-3.84646e+01,0.00000e+00,0.00000e+00,0.00000e+00
1.82660e+03,1.67196e+01,-4.03878e+01,0.00000e+00,0.00000e+00,0.00000e+00
1.82660e+03,1.57373e+01,-4.23110e+01,0.00000e+00,0.00000e+00,0.00000e+00
1.82660e+03,1.46131e+01,-4.42343e+01,0.00000e+00,0.00000e+00,0.00000e+00
1.82660e+03,1.33245e+01,-4.61575e+01,0.00000e+00,0.00000e+00,0.00000e+00
1.82660e+03,1.18502e+01,-4.80807e+01,0.00000e+00,0.00000e+00,0.00000e+00
1.82660e+03,1.01063e+01,-5.00040e+01,0.00000e+00,0.00000e+00,0.00000e+00
1.82660e+03,7.86795e+00,-5.19272e+01,0.00000e+00,0.00000e+00,0.00000e+00
1.82660e+03,4.84065e+00,-5.38504e+01,0.00000e+00,0.00000e+00,0.00000e+00
1.82660e+03,-1.96139e+00,-5.57736e+01,0.00000e+00,0.00000e+00,0.00000e+00
1.82660e+03,-2.45230e+00,-5.57781e+01,0.00000e+00,0.00000e+00,0.00000e+00
1.82660e+03,-6.92480e+00,-5.37860e+01,0.00000e+00,0.00000e+00,0.00000e+00
1.82660e+03,-7.46632e+00,-5.17940e+01,0.00000e+00,0.00000e+00,0.00000e+00
1.82660e+03,-7.65318e+00,-4.98019e+01,0.00000e+00,0.00000e+00,0.00000e+00
1.82660e+03,-7.68153e+00,-4.78098e+01,0.00000e+00,0.00000e+00,0.00000e+00
1.82660e+03,-7.59047e+00,-4.58177e+01,0.00000e+00,0.00000e+00,0.00000e+00
1.82660e+03,-7.42446e+00,-4.38257e+01,0.00000e+00,0.00000e+00,0.00000e+00
1.82660e+03,-7.18321e+00,-4.18336e+01,0.00000e+00,0.00000e+00,0.00000e+00
1.82660e+03,-6.89605e+00,-3.98415e+01,0.00000e+00,0.00000e+00,0.00000e+00
1.82660e+03,-6.58227e+00,-3.78494e+01,0.00000e+00,0.00000e+00,0.00000e+00
1.82660e+03,-6.22838e+00,-3.58574e+01,0.00000e+00,0.00000e+00,0.00000e+00
1.82660e+03,-5.84943e+00,-3.38653e+01,0.00000e+00,0.00000e+00,0.00000e+00
1.82660e+03,-5.44606e+00,-3.18732e+01,0.00000e+00,0.00000e+00,0.00000e+00
1.82660e+03,-5.01837e+00,-2.98811e+01,0.00000e+00,0.00000e+00,0.00000e+00
1.82660e+03,-4.57544e+00,-2.78891e+01,0.00000e+00,0.00000e+00,0.00000e+00
1.82660e+03,-4.11298e+00,-2.58970e+01,0.00000e+00,0.00000e+00,0.00000e+00
1.82660e+03,-3.63801e+00,-2.39049e+01,0.00000e+00,0.00000e+00,0.00000e+00
1.82660e+03,-3.15183e+00,-2.19128e+01,0.00000e+00,0.00000e+00,0.00000e+00
1.82660e+03,-2.65564e+00,-1.99208e+01,0.00000e+00,0.00000e+00,0.00000e+00
1.82660e+03,-2.15521e+00,-1.79287e+01,0.00000e+00,0.00000e+00,0.00000e+00
1.82660e+03,-1.64821e+00,-1.59366e+01,0.00000e+00,0.00000e+00,0.00000e+00
1.82660e+03,-1.14012e+00,-1.39445e+01,0.00000e+00,0.00000e+00,0.00000e+00
1.82660e+03,-6.28101e-01,-1.19525e+01,0.00000e+00,0.00000e+00,0.00000e+00
1.82660e+03,-1.16138e-01,-9.96038e+00,0.00000e+00,0.00000e+00,0.00000e+00
1.82660e+03,3.93890e-01,-7.96830e+00,0.00000e+00,0.00000e+00,0.00000e+00
1.82660e+03,9.03919e-01,-5.97623e+00,0.00000e+00,0.00000e+00,0.00000e+00
1.82660e+03,1.40187e+00,-3.98415e+00,0.00000e+00,0.00000e+00,0.00000e+00
1.82660e+03,1.89757e+00,-1.99208e+00,0.00000e+00,0.00000e+00,0.00000e+00
1.87280e+03,2.31244e+01,0.00000e+00,0.00000e+00,0.00000e+00,0.00000e+00
1.87280e+03,2.30080e+01,-1.75721e+00,0.00000e+00,0.00000e+00,0.00000e+00
1.87280e+03,2.28531e+01,-3.51443e+00,0.00000e+00,0.00000e+00,0.00000e+00
1.87280e+03,2.26966e+01,-5.27164e+00,0.00000e+00,0.00000e+00,0.00000e+00
1.87280e+03,2.25061e+01,-7.02886e+00,0.00000e+00,0.00000e+00,0.00000e+00
1.87280e+03,2.23078e+01,-8.78607e+00,0.00000e+00,0.00000e+00,0.00000e+00
1.87280e+03,2.20834e+01,-1.05433e+01,0.00000e+00,0.00000e+00,0.00000e+00
1.87280e+03,2.18464e+01,-1.23005e+01,0.00000e+00,0.00000e+00,0.00000e+00
1.87280e+03,2.15884e+01,-1.40577e+01,0.00000e+00,0.00000e+00,0.00000e+00
1.87280e+03,2.13132e+01,-1.58149e+01,0.00000e+00,0.00000e+00,0.00000e+00
1.87280e+03,2.10191e+01,-1.75721e+01,0.00000e+00,0.00000e+00,0.00000e+00
1.87280e+03,2.07020e+01,-1.93294e+01,0.00000e+00,0.00000e+00,0.00000e+00
1.87280e+03,2.03615e+01,-2.10866e+01,0.00000e+00,0.00000e+00,0.00000e+00
1.87280e+03,1.99878e+01,-2.28438e+01,0.00000e+00,0.00000e+00,0.00000e+00
1.87280e+03,1.95817e+01,-2.46010e+01,0.00000e+00,0.00000e+00,0.00000e+00
1.87280e+03,1.91369e+01,-2.63582e+01,0.00000e+00,0.00000e+00,0.00000e+00
1.87280e+03,1.86398e+01,-2.81154e+01,0.00000e+00,0.00000e+00,0.00000e+00
1.87280e+03,1.81062e+01,-2.98726e+01,0.00000e+00,0.00000e+00,0.00000e+00
1.87280e+03,1.74905e+01,-3.16299e+01,0.00000e+00,0.00000e+00,0.00000e+00
1.87280e+03,1.68409e+01,-3.33871e+01,0.00000e+00,0.00000e+00,0.00000e+00
1.87280e+03,1.60966e+01,-3.51443e+01,0.00000e+00,0.00000e+00,0.00000e+00
1.87280e+03,1.52763e+01,-3.69015e+01,0.00000e+00,0.00000e+00,0.00000e+00
1.87280e+03,1.43788e+01,-3.86587e+01,0.00000e+00,0.00000e+00,0.00000e+00
1.87280e+03,1.33517e+01,-4.04159e+01,0.00000e+00,0.00000e+00,0.00000e+00
1.87280e+03,1.21743e+01,-4.21731e+01,0.00000e+00,0.00000e+00,0.00000e+00
1.87280e+03,1.08272e+01,-4.39304e+01,0.00000e+00,0.00000e+00,0.00000e+00
1.87280e+03,9.23393e+00,-4.56876e+01,0.00000e+00,0.00000e+00,0.00000e+00
1.87280e+03,7.18879e+00,-4.74448e+01,0.00000e+00,0.00000e+00,0.00000e+00
1.87280e+03,4.42280e+00,-4.92020e+01,0.00000e+00,0.00000e+00,0.00000e+00
1.87280e+03,-1.79208e+00,-5.09592e+01,0.00000e+00,0.00000e+00,0.00000e+00
1.87280e+03,-2.24062e+00,-5.09633e+01,0.00000e+00,0.00000e+00,0.00000e+00
1.87280e+03,-6.32705e+00,-4.91432e+01,0.00000e+00,0.00000e+00,0.00000e+00
1.87280e+03,-6.82182e+00,-4.73231e+01,0.00000e+00,0.00000e+00,0.00000e+00
1.87280e+03,-6.99255e+00,-4.55029e+01,0.00000e+00,0.00000e+00,0.00000e+00
1.87280e+03,-7.01846e+00,-4.36828e+01,0.00000e+00,0.00000e+00,0.00000e+00
1.87280e+03,-6.93525e+00,-4.18627e+01,0.00000e+00,0.00000e+00,0.00000e+00
1.87280e+03,-6.78358e+00,-4.00426e+01,0.00000e+00,0.00000e+00,0.00000e+00
1.87280e+03,-6.56315e+00,-3.82225e+01,0.00000e+00,0.00000e+00,0.00000e+00
1.87280e+03,-6.30078e+00,-3.64024e+01,0.00000e+00,0.00000e+00,0.00000e+00
1.87280e+03,-6.01408e+00,-3.45822e+01,0.00000e+00,0.00000e+00,0.00000e+00
1.87280e+03,-5.69074e+00,-3.27621e+01,0.00000e+00,0.00000e+00,0.00000e+00
1.87280e+03,-5.34450e+00,-3.09420e+01,0.00000e+00,0.00000e+00,0.00000e+00
1.87280e+03,-4.97595e+00,-2.91219e+01,0.00000e+00,0.00000e+00,0.00000e+00
1.87280e+03,-4.58518e+00,-2.73018e+01,0.00000e+00,0.00000e+00,0.00000e+00
1.87280e+03,-4.18049e+00,-2.54816e+01,0.00000e+00,0.00000e+00,0.00000e+00
1.87280e+03,-3.75794e+00,-2.36615e+01,0.00000e+00,0.00000e+00,0.00000e+00
1.87280e+03,-3.32398e+00,-2.18414e+01,0.00000e+00,0.00000e+00,0.00000e+00
1.87280e+03,-2.87976e+00,-2.00213e+01,0.00000e+00,0.00000e+00,0.00000e+00
1.87280e+03,-2.42640e+00,-1.82012e+01,0.00000e+00,0.00000e+00,0.00000e+00
1.87280e+03,-1.96917e+00,-1.63811e+01,0.00000e+00,0.00000e+00,0.00000e+00
1.87280e+03,-1.50594e+00,-1.45609e+01,0.00000e+00,0.00000e+00,0.00000e+00
1.87280e+03,-1.04170e+00,-1.27408e+01,0.00000e+00,0.00000e+00,0.00000e+00
1.87280e+03,-5.73883e-01,-1.09207e+01,0.00000e+00,0.00000e+00,0.00000e+00
1.87280e+03,-1.06113e-01,-9.10059e+00,0.00000e+00,0.00000e+00,0.00000e+00
1.87280e+03,3.59890e-01,-7.28047e+00,0.00000e+00,0.00000e+00,0.00000e+00
1.87280e+03,8.25892e-01,-5.46035e+00,0.00000e+00,0.00000e+00,0.00000e+00
1.87280e+03,1.28086e+00,-3.64024e+00,0.00000e+00,0.00000e+00,0.00000e+00
1.87280e+03,1.73377e+00,-1.82012e+00,0.00000e+00,0.00000e+00,0.00000e+00
1.91380e+03,2.11856e+01,0.00000e+00,0.00000e+00,0.00000e+00,0.00000e+00
1.91380e+03,2.10789e+01,-1.60989e+00,0.00000e+00,0.00000e+00,0.00000e+00
1.91380e+03,2.09370e+01,-3.21977e+00,0.00000e+00,0.00000e+00,0.00000e+00
1.91380e+03,2.07936e+01,-4.82966e+00,0.00000e+00,0.00000e+00,0.00000e+00
1.91380e+03,2.06192e+01,-6.43954e+00,0.00000e+00,0.00000e+00,0.00000e+00
1.91380e+03,2.04375e+01,-8.04943e+00,0.00000e+00,0.00000e+00,0.00000e+00
1.91380e+03,2.02319e+01,-9.65931e+00,0.00000e+00,0.00000e+00,0.00000e+00
1.91380e+03,2.00147e+01,-1.12692e+01,0.00000e+00,0.00000e+00,0.00000e+00
1.91380e+03,1.97784e+01,-1.28791e+01,0.00000e+00,0.00000e+00,0.00000e+00
1.91380e+03,1.95262e+01,-1.44890e+01,0.00000e+00,0.00000e+00,0.00000e+00
1.91380e+03,1.92568e+01,-1.60989e+01,0.00000e+00,0.00000e+00,0.00000e+00
1.91380e+03,1.89663e+01,-1.77087e+01,0.00000e+00,0.00000e+00,0.00000e+00
1.91380e+03,1.86544e+01,-1.93186e+01,0.00000e+00,0.00000e+00,0.00000e+00
1.91380e+03,1.83120e+01,-2.09285e+01,0.00000e+00,0.00000e+00,0.00000e+00
1.91380e+03,1.79399e+01,-2.25384e+01,0.00000e+00,0.00000e+00,0.00000e+00
1.91380e+03,1.75325e+01,-2.41483e+01,0.00000e+00,0.00000e+00,0.00000e+00
1.91380e+03,1.70770e+01,-2.57582e+01,0.00000e+00,0.00000e+00,0.00000e+00
1.91380e+03,1.65881e+01,-2.73680e+01,0.00000e+00,0.00000e+00,0.00000e+00
1.91380e+03,1.60241e+01,-2.89779e+01,0.00000e+00,0.00000e+00,0.00000e+00
1.91380e+03,1.54289e+01,-3.05878e+01,0.00000e+00,0.00000e+00,0.00000e+00
1.91380e+03,1.47470e+01,-3.21977e+01,0.00000e+00,0.00000e+00,0.00000e+00
1.91380e+03,1.39955e+01,-3.38076e+01,0.00000e+00,0.00000e+00,0.00000e+00
1.91380e+03,1.31733e+01,-3.54175e+01,0.00000e+00,0.00000e+00,0.00000e+00
1.91380e+03,1.22322e+01,-3.70274e+01,0.00000e+00,0.00000e+00,0.00000e+00
1.91380e+03,1.11536e+01,-3.86372e+01,0.00000e+00,0.00000e+00,0.00000e+00
1.91380e+03,9.91946e+00,-4.02471e+01,0.00000e+00,0.00000e+00,0.00000e+00
1.91380e+03,8.45973e+00,-4.18570e+01,0.00000e+00,0.00000e+00,0.00000e+00
1.91380e+03,6.58606e+00,-4.34669e+01,0.00000e+00,0.00000e+00,0.00000e+00
1.91380e+03,4.05198e+00,-4.50768e+01,0.00000e+00,0.00000e+00,0.00000e+00
1.91380e+03,-1.64183e+00,-4.66867e+01,0.00000e+00,0.00000e+00,0.00000e+00
1.91380e+03,-2.05276e+00,-4.66904e+01,0.00000e+00,0.00000e+00,0.00000e+00
1.91380e+03,-5.79657e+00,-4.50229e+01,0.00000e+00,0.00000e+00,0.00000e+00
1.91380e+03,-6.24986e+00,-4.33554e+01,0.00000e+00,0.00000e+00,0.00000e+00
1.91380e+03,-6.40628e+00,-4.16879e+01,0.00000e+00,0.00000e+00,0.00000e+00
1.91380e+03,-6.43001e+00,-4.00204e+01,0.00000e+00,0.00000e+00,0.00000e+00
1.91380e+03,-6.35378e+00,-3.83528e+01,0.00000e+00,0.00000e+00,0.00000e+00
1.91380e+03,-6.21483e+00,-3.66853e+01,0.00000e+00,0.00000e+00,0.00000e+00
1.91380e+03,-6.01288e+00,-3.50178e+01,0.00000e+00,0.00000e+00,0.00000e+00
1.91380e+03,-5.77251e+00,-3.33503e+01,0.00000e+00,0.00000e+00,0.00000e+00
1.91380e+03,-5.50985e+00,-3.16828e+01,0.00000e+00,0.00000e+00,0.00000e+00
1.91380e+03,-5.21362e+00,-3.00153e+01,0.00000e+00,0.00000e+00,0.00000e+00
1.91380e+03,-4.89640e+00,-2.83477e+01,0.00000e+00,0.00000e+00,0.00000e+00
1.91380e+03,-4.55876e+00,-2.66802e+01,0.00000e+00,0.00000e+00,0.00000e+00
1.91380e+03,-4.20075e+00,-2.50127e+01,0.00000e+00,0.00000e+00,0.00000e+00
1.91380e+03,-3.82998e+00,-2.33452e+01,0.00000e+00,0.00000e+00,0.00000e+00
1.91380e+03,-3.44287e+00,-2.16777e+01,0.00000e+00,0.00000e+00,0.00000e+00
1.91380e+03,-3.04529e+00,-2.00102e+01,0.00000e+00,0.00000e+00,0.00000e+00
1.91380e+03,-2.63832e+00,-1.83427e+01,0.00000e+00,0.00000e+00,0.00000e+00
1.91380e+03,-2.22297e+00,-1.66751e+01,0.00000e+00,0.00000e+00,0.00000e+00
1.91380e+03,-1.80407e+00,-1.50076e+01,0.00000e+00,0.00000e+00,0.00000e+00
1.91380e+03,-1.37967e+00,-1.33401e+01,0.00000e+00,0.00000e+00,0.00000e+00
1.91380e+03,-9.54362e-01,-1.16726e+01,0.00000e+00,0.00000e+00,0.00000e+00
1.91380e+03,-5.25768e-01,-1.00051e+01,0.00000e+00,0.00000e+00,0.00000e+00
1.91380e+03,-9.72161e-02,-8.33757e+00,0.00000e+00,0.00000e+00,0.00000e+00
1.91380e+03,3.29716e-01,-6.67006e+00,0.00000e+00,0.00000e+00,0.00000e+00
1.91380e+03,7.56647e-01,-5.00254e+00,0.00000e+00,0.00000e+00,0.00000e+00
1.91380e+03,1.17347e+00,-3.33503e+00,0.00000e+00,0.00000e+00,0.00000e+00
1.91380e+03,1.58841e+00,-1.66751e+00,0.00000e+00,0.00000e+00,0.00000e+00
1.94970e+03,1.94880e+01,0.00000e+00,0.00000e+00,0.00000e+00,0.00000e+00
1.94970e+03,1.93899e+01,-1.48088e+00,0.00000e+00,0.00000e+00,0.00000e+00
1.94970e+03,1.92593e+01,-2.96177e+00,0.00000e+00,0.00000e+00,0.00000e+00
1.94970e+03,1.91274e+01,-4.44265e+00,0.00000e+00,0.00000e+00,0.00000e+00
1.94970e+03,1.89669e+01,-5.92353e+00,0.00000e+00,0.00000e+00,0.00000e+00
1.94970e+03,1.87998e+01,-7.40441e+00,0.00000e+00,0.00000e+00,0.00000e+00
1.94970e+03,1.86107e+01,-8.88530e+00,0.00000e+00,0.00000e+00,0.00000e+00
1.94970e+03,1.84109e+01,-1.03662e+01,0.00000e+00,0.00000e+00,0.00000e+00
1.94970e+03,1.81935e+01,-1.18471e+01,0.00000e+00,0.00000e+00,0.00000e+00
1.94970e+03,1.79616e+01,-1.33279e+01,0.00000e+00,0.00000e+00,0.00000e+00
1.94970e+03,1.77137e+01,-1.48088e+01,0.00000e+00,0.00000e+00,0.00000e+00
1.94970e+03,1.74465e+01,-1.62897e+01,0.00000e+00,0.00000e+00,0.00000e+00
1.94970e+03,1.71596e+01,-1.77706e+01,0.00000e+00,0.00000e+00,0.00000e+00
1.94970e+03,1.68446e+01,-1.92515e+01,0.00000e+00,0.00000e+00,0.00000e+00
1.94970e+03,1.65024e+01,-2.07324e+01,0.00000e+00,0.00000e+00,0.00000e+00
1.94970e+03,1.61276e+01,-2.22132e+01,0.00000e+00,0.00000e+00,0.00000e+00
1.94970e+03,1.57086e+01,-2.36941e+01,0.00000e+00,0.00000e+00,0.00000e+00
1.94970e+03,1.52589e+01,-2.51750e+01,0.00000e+00,0.00000e+00,0.00000e+00
1.94970e+03,1.47401e+01,-2.66559e+01,0.00000e+00,0.00000e+00,0.00000e+00
1.94970e+03,1.41926e+01,-2.81368e+01,0.00000e+00,0.00000e+00,0.00000e+00
1.94970e+03,1.35653e+01,-2.96177e+01,0.00000e+00,0.00000e+00,0.00000e+00
1.94970e+03,1.28740e+01,-3.10985e+01,0.00000e+00,0.00000e+00,0.00000e+00
1.94970e+03,1.21177e+01,-3.25794e+01,0.00000e+00,0.00000e+00,0.00000e+00
1.94970e+03,1.12521e+01,-3.40603e+01,0.00000e+00,0.00000e+00,0.00000e+00
1.94970e+03,1.02599e+01,-3.55412e+01,0.00000e+00,0.00000e+00,0.00000e+00
1.94970e+03,9.12460e+00,-3.70221e+01,0.00000e+00,0.00000e+00,0.00000e+00
1.94970e+03,7.78184e+00,-3.85029e+01,0.00000e+00,0.00000e+00,0.00000e+00
1.94970e+03,6.05831e+00,-3.99838e+01,0.00000e+00,0.00000e+00,0.00000e+00
1.94970e+03,3.72729e+00,-4.14647e+01,0.00000e+00,0.00000e+00,0.00000e+00
1.94970e+03,-1.51027e+00,-4.29456e+01,0.00000e+00,0.00000e+00,0.00000e+00
1.94970e+03,-1.88827e+00,-4.29490e+01,0.00000e+00,0.00000e+00,0.00000e+00
1.94970e+03,-5.33209e+00,-4.14151e+01,0.00000e+00,0.00000e+00,0.00000e+00
1.94970e+03,-5.74905e+00,-3.98812e+01,0.00000e+00,0.00000e+00,0.00000e+00
1.94970e+03,-5.89293e+00,-3.83473e+01,0.00000e+00,0.00000e+00,0.00000e+00
1.94970e+03,-5.91477e+00,-3.68135e+01,0.00000e+00,0.00000e+00,0.00000e+00
1.94970e+03,-5.84465e+00,-3.52796e+01,0.00000e+00,0.00000e+00,0.00000e+00
1.94970e+03,-5.71682e+00,-3.37457e+01,0.00000e+00,0.00000e+00,0.00000e+00
1.94970e+03,-5.53106e+00,-3.22118e+01,0.00000e+00,0.00000e+00,0.00000e+00
1.94970e+03,-5.30995e+00,-3.06779e+01,0.00000e+00,0.00000e+00,0.00000e+00
1.94970e+03,-5.06834e+00,-2.91440e+01,0.00000e+00,0.00000e+00,0.00000e+00
1.94970e+03,-4.79584e+00,-2.76101e+01,0.00000e+00,0.00000e+00,0.00000e+00
1.94970e+03,-4.50405e+00,-2.60762e+01,0.00000e+00,0.00000e+00,0.00000e+00
1.94970e+03,-4.19345e+00,-2.45423e+01,0.00000e+00,0.00000e+00,0.00000e+00
1.94970e+03,-3.86414e+00,-2.30084e+01,0.00000e+00,0.00000e+00,0.00000e+00
1.94970e+03,-3.52308e+00,-2.14745e+01,0.00000e+00,0.00000e+00,0.00000e+00
1.94970e+03,-3.16699e+00,-1.99406e+01,0.00000e+00,0.00000e+00,0.00000e+00
1.94970e+03,-2.80126e+00,-1.84067e+01,0.00000e+00,0.00000e+00,0.00000e+00
1.94970e+03,-2.42690e+00,-1.68728e+01,0.00000e+00,0.00000e+00,0.00000e+00
1.94970e+03,-2.04484e+00,-1.53389e+01,0.00000e+00,0.00000e+00,0.00000e+00
1.94970e+03,-1.65951e+00,-1.38050e+01,0.00000e+00,0.00000e+00,0.00000e+00
1.94970e+03,-1.26912e+00,-1.22712e+01,0.00000e+00,0.00000e+00,0.00000e+00
1.94970e+03,-8.77888e-01,-1.07373e+01,0.00000e+00,0.00000e+00,0.00000e+00
1.94970e+03,-4.83637e-01,-9.20336e+00,0.00000e+00,0.00000e+00,0.00000e+00
1.94970e+03,-8.94260e-02,-7.66947e+00,0.00000e+00,0.00000e+00,0.00000e+00
1.94970e+03,3.03295e-01,-6.13558e+00,0.00000e+00,0.00000e+00,0.00000e+00
1.94970e+03,6.96016e-01,-4.60168e+00,0.00000e+00,0.00000e+00,0.00000e+00
1.94970e+03,1.07944e+00,-3.06779e+00,0.00000e+00,0.00000e+00,0.00000e+00
1.94970e+03,1.46113e+00,-1.53389e+00,0.00000e+00,0.00000e+00,0.00000e+00
1.98010e+03,1.80504e+01,0.00000e+00,0.00000e+00,0.00000e+00,0.00000e+00
1.98010e+03,1.79595e+01,-1.37164e+00,0.00000e+00,0.00000e+00,0.00000e+00
1.98010e+03,1.78386e+01,-2.74329e+00,0.00000e+00,0.00000e+00,0.00000e+00
1.98010e+03,1.77165e+01,-4.11493e+00,0.00000e+00,0.00000e+00,0.00000e+00
1.98010e+03,1.75678e+01,-5.48657e+00,0.00000e+00,0.00000e+00,0.00000e+00
1.98010e+03,1.74130e+01,-6.85822e+00,0.00000e+00,0.00000e+00,0.00000e+00
1.98010e+03,1.72378e+01,-8.22986e+00,0.00000e+00,0.00000e+00,0.00000e+00
1.98010e+03,1.70528e+01,-9.60150e+00,0.00000e+00,0.00000e+00,0.00000e+00
1.98010e+03,1.68514e+01,-1.09731e+01,0.00000e+00,0.00000e+00,0.00000e+00
1.98010e+03,1.66366e+01,-1.23448e+01,0.00000e+00,0.00000e+00,0.00000e+00
1.98010e+03,1.64070e+01,-1.37164e+01,0.00000e+00,0.00000e+00,0.00000e+00
1.98010e+03,1.61595e+01,-1.50881e+01,0.00000e+00,0.00000e+00,0.00000e+00
1.98010e+03,1.58938e+01,-1.64597e+01,0.00000e+00,0.00000e+00,0.00000e+00
1.98010e+03,1.56020e+01,-1.78314e+01,0.00000e+00,0.00000e+00,0.00000e+00
1.98010e+03,1.52851e+01,-1.92030e+01,0.00000e+00,0.00000e+00,0.00000e+00
1.98010e+03,1.49379e+01,-2.05747e+01,0.00000e+00,0.00000e+00,0.00000e+00
1.98010e+03,1.45498e+01,-2.19463e+01,0.00000e+00,0.00000e+00,0.00000e+00
1.98010e+03,1.41333e+01,-2.33179e+01,0.00000e+00,0.00000e+00,0.00000e+00
1.98010e+03,1.36527e+01,-2.46896e+01,0.00000e+00,0.00000e+00,0.00000e+00
1.98010e+03,1.31457e+01,-2.60612e+01,0.00000e+00,0.00000e+00,0.00000e+00
1.98010e+03,1.25646e+01,-2.74329e+01,0.00000e+00,0.00000e+00,0.00000e+00
1.98010e+03,1.19244e+01,-2.88045e+01,0.00000e+00,0.00000e+00,0.00000e+00
1.98010e+03,1.12238e+01,-3.01762e+01,0.00000e+00,0.00000e+00,0.00000e+00
1.98010e+03,1.04220e+01,-3.15478e+01,0.00000e+00,0.00000e+00,0.00000e+00
1.98010e+03,9.50303e+00,-3.29194e+01,0.00000e+00,0.00000e+00,0.00000e+00
1.98010e+03,8.45151e+00,-3.42911e+01,0.00000e+00,0.00000e+00,0.00000e+00
1.98010e+03,7.20780e+00,-3.56627e+01,0.00000e+00,0.00000e+00,0.00000e+00
1.98010e+03,5.61141e+00,-3.70344e+01,0.00000e+00,0.00000e+00,0.00000e+00
1.98010e+03,3.45234e+00,-3.84060e+01,0.00000e+00,0.00000e+00,0.00000e+00
1.98010e+03,-1.39886e+00,-3.97777e+01,0.00000e+00,0.00000e+00,0.00000e+00
1.98010e+03,-1.74898e+00,-3.97808e+01,0.00000e+00,0.00000e+00,0.00000e+00
1.98010e+03,-4.93876e+00,-3.83601e+01,0.00000e+00,0.00000e+00,0.00000e+00
1.98010e+03,-5.32496e+00,-3.69394e+01,0.00000e+00,0.00000e+00,0.00000e+00
1.98010e+03,-5.45823e+00,-3.55186e+01,0.00000e+00,0.00000e+00,0.00000e+00
1.98010e+03,-5.47846e+00,-3.40979e+01,0.00000e+00,0.00000e+00,0.00000e+00
1.98010e+03,-5.41351e+00,-3.26771e+01,0.00000e+00,0.00000e+00,0.00000e+00
1.98010e+03,-5.29511e+00,-3.12564e+01,0.00000e+00,0.00000e+00,0.00000e+00
1.98010e+03,-5.12305e+00,-2.98356e+01,0.00000e+00,0.00000e+00,0.00000e+00
1.98010e+03,-4.91825e+00,-2.84149e+01,0.00000e+00,0.00000e+00,0.00000e+00
1.98010e+03,-4.69446e+00,-2.69941e+01,0.00000e+00,0.00000e+00,0.00000e+00
1.98010e+03,-4.44207e+00,-2.55734e+01,0.00000e+00,0.00000e+00,0.00000e+00
1.98010e+03,-4.17180e+00,-2.41527e+01,0.00000e+00,0.00000e+00,0.00000e+00
1.98010e+03,-3.88412e+00,-2.27319e+01,0.00000e+00,0.00000e+00,0.00000e+00
1.98010e+03,-3.57909e+00,-2.13112e+01,0.00000e+00,0.00000e+00,0.00000e+00
1.98010e+03,-3.26320e+00,-1.98904e+01,0.00000e+00,0.00000e+00,0.00000e+00
1.98010e+03,-2.93337e+00,-1.84697e+01,0.00000e+00,0.00000e+00,0.00000e+00
1.98010e+03,-2.59462e+00,-1.70489e+01,0.00000e+00,0.00000e+00,0.00000e+00
1.98010e+03,-2.24788e+00,-1.56282e+01,0.00000e+00,0.00000e+00,0.00000e+00
1.98010e+03,-1.89400e+00,-1.42074e+01,0.00000e+00,0.00000e+00,0.00000e+00
1.98010e+03,-1.53709e+00,-1.27867e+01,0.00000e+00,0.00000e+00,0.00000e+00
1.98010e+03,-1.17550e+00,-1.13660e+01,0.00000e+00,0.00000e+00,0.00000e+00
1.98010e+03,-8.13129e-01,-9.94521e+00,0.00000e+00,0.00000e+00,0.00000e+00
1.98010e+03,-4.47961e-01,-8.52447e+00,0.00000e+00,0.00000e+00,0.00000e+00
1.98010e+03,-8.28294e-02,-7.10372e+00,0.00000e+00,0.00000e+00,0.00000e+00
1.98010e+03,2.80922e-01,-5.68298e+00,0.00000e+00,0.00000e+00,0.00000e+00
1.98010e+03,6.44673e-01,-4.26223e+00,0.00000e+00,0.00000e+00,0.00000e+00
1.98010e+03,9.99811e-01,-2.84149e+00,0.00000e+00,0.00000e+00,0.00000e+00
1.98010e+03,1.35334e+00,-1.42074e+00,0.00000e+00,0.00000e+00,0.00000e+00
2.00520e+03,1.68635e+01,0.00000e+00,0.00000e+00,0.00000e+00,0.00000e+00
2.00520e+03,1.67786e+01,-1.28145e+00,0.00000e+00,0.00000e+00,0.00000e+00
2.00520e+03,1.66656e+01,-2.56290e+00,0.00000e+00,0.00000e+00,0.00000e+00
2.00520e+03,1.65515e+01,-3.84435e+00,0.00000e+00,0.00000e+00,0.00000e+00
2.00520e+03,1.64126e+01,-5.12580e+00,0.00000e+00,0.00000e+00,0.00000e+00
2.00520e+03,1.62680e+01,-6.40725e+00,0.00000e+00,0.00000e+00,0.00000e+00
2.00520e+03,1.61044e+01,-7.68870e+00,0.00000e+00,0.00000e+00,0.00000e+00
2.00520e+03,1.59315e+01,-8.97015e+00,0.00000e+00,0.00000e+00,0.00000e+00
2.00520e+03,1.57433e+01,-1.02516e+01,0.00000e+00,0.00000e+00,0.00000e+00
2.00520e+03,1.55427e+01,-1.15330e+01,0.00000e+00,0.00000e+00,0.00000e+00
2.00520e+03,1.53282e+01,-1.28145e+01,0.00000e+00,0.00000e+00,0.00000e+00
2.00520e+03,1.50970e+01,-1.40959e+01,0.00000e+00,0.00000e+00,0.00000e+00
2.00520e+03,1.48486e+01,-1.53774e+01,0.00000e+00,0.00000e+00,0.00000e+00
2.00520e+03,1.45761e+01,-1.66588e+01,0.00000e+00,0.00000e+00,0.00000e+00
2.00520e+03,1.42800e+01,-1.79403e+01,0.00000e+00,0.00000e+00,0.00000e+00
2.00520e+03,1.39556e+01,-1.92217e+01,0.00000e+00,0.00000e+00,0.00000e+00
2.00520e+03,1.35931e+01,-2.05032e+01,0.00000e+00,0.00000e+00,0.00000e+00
2.00520e+03,1.32039e+01,-2.17846e+01,0.00000e+00,0.00000e+00,0.00000e+00
2.00520e+03,1.27550e+01,-2.30661e+01,0.00000e+00,0.00000e+00,0.00000e+00
2.00520e+03,1.22812e+01,-2.43475e+01,0.00000e+00,0.00000e+00,0.00000e+00
2.00520e+03,1.17384e+01,-2.56290e+01,0.00000e+00,0.00000e+00,0.00000e+00
2.00520e+03,1.11403e+01,-2.69104e+01,0.00000e+00,0.00000e+00,0.00000e+00
2.00520e+03,1.04858e+01,-2.81919e+01,0.00000e+00,0.00000e+00,0.00000e+00
2.00520e+03,9.73672e+00,-2.94733e+01,0.00000e+00,0.00000e+00,0.00000e+00
2.00520e+03,8.87814e+00,-3.07548e+01,0.00000e+00,0.00000e+00,0.00000e+00
2.00520e+03,7.89577e+00,-3.20362e+01,0.00000e+00,0.00000e+00,0.00000e+00
2.00520e+03,6.73385e+00,-3.33177e+01,0.00000e+00,0.00000e+00,0.00000e+00
2.00520e+03,5.24243e+00,-3.45991e+01,0.00000e+00,0.00000e+00,0.00000e+00
2.00520e+03,3.22533e+00,-3.58806e+01,0.00000e+00,0.00000e+00,0.00000e+00
2.00520e+03,-1.30688e+00,-3.71620e+01,0.00000e+00,0.00000e+00,0.00000e+00
2.00520e+03,-1.63397e+00,-3.71650e+01,0.00000e+00,0.00000e+00,0.00000e+00
2.00520e+03,-4.61400e+00,-3.58377e+01,0.00000e+00,0.00000e+00,0.00000e+00
2.00520e+03,-4.97481e+00,-3.45104e+01,0.00000e+00,0.00000e+00,0.00000e+00
2.00520e+03,-5.09932e+00,-3.31830e+01,0.00000e+00,0.00000e+00,0.00000e+00
2.00520e+03,-5.11821e+00,-3.18557e+01,0.00000e+00,0.00000e+00,0.00000e+00
2.00520e+03,-5.05754e+00,-3.05284e+01,0.00000e+00,0.00000e+00,0.00000e+00
2.00520e+03,-4.94693e+00,-2.92011e+01,0.00000e+00,0.00000e+00,0.00000e+00
2.00520e+03,-4.78618e+00,-2.78738e+01,0.00000e+00,0.00000e+00,0.00000e+00
2.00520e+03,-4.59485e+00,-2.65464e+01,0.00000e+00,0.00000e+00,0.00000e+00
2.00520e+03,-4.38577e+00,-2.52191e+01,0.00000e+00,0.00000e+00,0.00000e+00
2.00520e+03,-4.14998e+00,-2.38918e+01,0.00000e+00,0.00000e+00,0.00000e+00
2.00520e+03,-3.89748e+00,-2.25645e+01,0.00000e+00,0.00000e+00,0.00000e+00
2.00520e+03,-3.62871e+00,-2.12371e+01,0.00000e+00,0.00000e+00,0.00000e+00
2.00520e+03,-3.34375e+00,-1.99098e+01,0.00000e+00,0.00000e+00,0.00000e+00
2.00520e+03,-3.04862e+00,-1.85825e+01,0.00000e+00,0.00000e+00,0.00000e+00
2.00520e+03,-2.74048e+00,-1.72552e+01,0.00000e+00,0.00000e+00,0.00000e+00
2.00520e+03,-2.42401e+00,-1.59279e+01,0.00000e+00,0.00000e+00,0.00000e+00
2.00520e+03,-2.10007e+00,-1.46005e+01,0.00000e+00,0.00000e+00,0.00000e+00
2.00520e+03,-1.76946e+00,-1.32732e+01,0.00000e+00,0.00000e+00,0.00000e+00
2.00520e+03,-1.43602e+00,-1.19459e+01,0.00000e+00,0.00000e+00,0.00000e+00
2.00520e+03,-1.09820e+00,-1.06186e+01,0.00000e+00,0.00000e+00,0.00000e+00
2.00520e+03,-7.59661e-01,-9.29125e+00,0.00000e+00,0.00000e+00,0.00000e+00
2.00520e+03,-4.18505e-01,-7.96393e+00,0.00000e+00,0.00000e+00,0.00000e+00
2.00520e+03,-7.73829e-02,-6.63661e+00,0.00000e+00,0.00000e+00,0.00000e+00
2.00520e+03,2.62450e-01,-5.30929e+00,0.00000e+00,0.00000e+00,0.00000e+00
2.00520e+03,6.02282e-01,-3.98196e+00,0.00000e+00,0.00000e+00,0.00000e+00
2.00520e+03,9.34067e-01,-2.65464e+00,0.00000e+00,0.00000e+00,0.00000e+00
2.00520e+03,1.26435e+00,-1.32732e+00,0.00000e+00,0.00000e+00,0.00000e+00
2.02480e+03,1.59367e+01,0.00000e+00,0.00000e+00,0.00000e+00,0.00000e+00
2.02480e+03,1.58564e+01,-1.21102e+00,0.00000e+00,0.00000e+00,0.00000e+00
2.02480e+03,1.57496e+01,-2.42204e+00,0.00000e+00,0.00000e+00,0.00000e+00
2.02480e+03,1.56418e+01,-3.63306e+00,0.00000e+00,0.00000e+00,0.00000e+00
2.02480e+03,1.55106e+01,-4.84408e+00,0.00000e+00,0.00000e+00,0.00000e+00
2.02480e+03,1.53739e+01,-6.05509e+00,0.00000e+00,0.00000e+00,0.00000e+00
2.02480e+03,1.52192e+01,-7.26611e+00,0.00000e+00,0.00000e+00,0.00000e+00
2.02480e+03,1.50559e+01,-8.47713e+00,0.00000e+00,0.00000e+00,0.00000e+00
2.02480e+03,1.48781e+01,-9.68815e+00,0.00000e+00,0.00000e+00,0.00000e+00
2.02480e+03,1.46884e+01,-1.08992e+01,0.00000e+00,0.00000e+00,0.00000e+00
2.02480e+03,1.44857e+01,-1.21102e+01,0.00000e+00,0.00000e+00,0.00000e+00
2.02480e+03,1.42672e+01,-1.33212e+01,0.00000e+00,0.00000e+00,0.00000e+00
2.02480e+03,1.40325e+01,-1.45322e+01,0.00000e+00,0.00000e+00,0.00000e+00
2.02480e+03,1.37750e+01,-1.57432e+01,0.00000e+00,0.00000e+00,0.00000e+00
2.02480e+03,1.34951e+01,-1.69543e+01,0.00000e+00,0.00000e+00,0.00000e+00
2.02480e+03,1.31886e+01,-1.81653e+01,0.00000e+00,0.00000e+00,0.00000e+00
2.02480e+03,1.28460e+01,-1.93763e+01,0.00000e+00,0.00000e+00,0.00000e+00
2.02480e+03,1.24782e+01,-2.05873e+01,0.00000e+00,0.00000e+00,0.00000e+00
2.02480e+03,1.20540e+01,-2.17983e+01,0.00000e+00,0.00000e+00,0.00000e+00
2.02480e+03,1.16063e+01,-2.30094e+01,0.00000e+00,0.00000e+00,0.00000e+00
2.02480e+03,1.10933e+01,-2.42204e+01,0.00000e+00,0.00000e+00,0.00000e+00
2.02480e+03,1.05280e+01,-2.54314e+01,0.00000e+00,0.00000e+00,0.00000e+00
2.02480e+03,9.90946e+00,-2.66424e+01,0.00000e+00,0.00000e+00,0.00000e+00
2.02480e+03,9.20158e+00,-2.78534e+01,0.00000e+00,0.00000e+00,0.00000e+00
2.02480e+03,8.39019e+00,-2.90645e+01,0.00000e+00,0.00000e+00,0.00000e+00
2.02480e+03,7.46181e+00,-3.02755e+01,0.00000e+00,0.00000e+00,0.00000e+00
2.02480e+03,6.36374e+00,-3.14865e+01,0.00000e+00,0.00000e+00,0.00000e+00
2.02480e+03,4.95429e+00,-3.26975e+01,0.00000e+00,0.00000e+00,0.00000e+00
2.02480e+03,3.04806e+00,-3.39085e+01,0.00000e+00,0.00000e+00,0.00000e+00
2.02480e+03,-1.23505e+00,-3.51195e+01,0.00000e+00,0.00000e+00,0.00000e+00
2.02480e+03,-1.54416e+00,-3.51224e+01,0.00000e+00,0.00000e+00,0.00000e+00
2.02480e+03,-4.36041e+00,-3.38680e+01,0.00000e+00,0.00000e+00,0.00000e+00
2.02480e+03,-4.70139e+00,-3.26136e+01,0.00000e+00,0.00000e+00,0.00000e+00
2.02480e+03,-4.81905e+00,-3.13592e+01,0.00000e+00,0.00000e+00,0.00000e+00
2.02480e+03,-4.83691e+00,-3.01049e+01,0.00000e+00,0.00000e+00,0.00000e+00
2.02480e+03,-4.77957e+00,-2.88505e+01,0.00000e+00,0.00000e+00,0.00000e+00
2.02480e+03,-4.67504e+00,-2.75961e+01,0.00000e+00,0.00000e+00,0.00000e+00
2.02480e+03,-4.52312e+00,-2.63418e+01,0.00000e+00,0.00000e+00,0.00000e+00
2.02480e+03,-4.34231e+00,-2.50874e+01,0.00000e+00,0.00000e+00,0.00000e+00
2.02480e+03,-4.14473e+00,-2.38330e+01,0.00000e+00,0.00000e+00,0.00000e+00
2.02480e+03,-3.92189e+00,-2.25787e+01,0.00000e+00,0.00000e+00,0.00000e+00
2.02480e+03,-3.68327e+00,-2.13243e+01,0.00000e+00,0.00000e+00,0.00000e+00
2.02480e+03,-3.42927e+00,-2.00699e+01,0.00000e+00,0.00000e+00,0.00000e+00
2.02480e+03,-3.15997e+00,-1.88155e+01,0.00000e+00,0.00000e+00,0.00000e+00
2.02480e+03,-2.88106e+00,-1.75612e+01,0.00000e+00,0.00000e+00,0.00000e+00
2.02480e+03,-2.58986e+00,-1.63068e+01,0.00000e+00,0.00000e+00,0.00000e+00
2.02480e+03,-2.29078e+00,-1.50524e+01,0.00000e+00,0.00000e+00,0.00000e+00
2.02480e+03,-1.98465e+00,-1.37981e+01,0.00000e+00,0.00000e+00,0.00000e+00
2.02480e+03,-1.67220e+00,-1.25437e+01,0.00000e+00,0.00000e+00,0.00000e+00
2.02480e+03,-1.35709e+00,-1.12893e+01,0.00000e+00,0.00000e+00,0.00000e+00
2.02480e+03,-1.03784e+00,-1.00350e+01,0.00000e+00,0.00000e+00,0.00000e+00
2.02480e+03,-7.17909e-01,-8.78059e+00,0.00000e+00,0.00000e+00,0.00000e+00
2.02480e+03,-3.95503e-01,-7.52622e+00,0.00000e+00,0.00000e+00,0.00000e+00
2.02480e+03,-7.31298e-02,-6.27185e+00,0.00000e+00,0.00000e+00,0.00000e+00
2.02480e+03,2.48025e-01,-5.01748e+00,0.00000e+00,0.00000e+00,0.00000e+00
2.02480e+03,5.69180e-01,-3.76311e+00,0.00000e+00,0.00000e+00,0.00000e+00
2.02480e+03,8.82730e-01,-2.50874e+00,0.00000e+00,0.00000e+00,0.00000e+00
2.02480e+03,1.19486e+00,-1.25437e+00,0.00000e+00,0.00000e+00,0.00000e+00
2.03880e+03,1.52746e+01,0.00000e+00,0.00000e+00,0.00000e+00,0.00000e+00
2.03880e+03,1.51977e+01,-1.16071e+00,0.00000e+00,0.00000e+00,0.00000e+00
2.03880e+03,1.50954e+01,-2.32142e+00,0.00000e+00,0.00000e+00,0.00000e+00
2.03880e+03,1.49920e+01,-3.48213e+00,0.00000e+00,0.00000e+00,0.00000e+00
2.03880e+03,1.48662e+01,-4.64285e+00,0.00000e+00,0.00000e+00,0.00000e+00
2.03880e+03,1.47352e+01,-5.80356e+00,0.00000e+00,0.00000e+00,0.00000e+00
2.03880e+03,1.45870e+01,-6.96427e+00,0.00000e+00,0.00000e+00,0.00000e+00
2.03880e+03,1.44304e+01,-8.12498e+00,0.00000e+00,0.00000e+00,0.00000e+00
2.03880e+03,1.42600e+01,-9.28569e+00,0.00000e+00,0.00000e+00,0.00000e+00
2.03880e+03,1.40782e+01,-1.04464e+01,0.00000e+00,0.00000e+00,0.00000e+00
2.03880e+03,1.38839e+01,-1.16071e+01,0.00000e+00,0.00000e+00,0.00000e+00
2.03880e+03,1.36745e+01,-1.27678e+01,0.00000e+00,0.00000e+00,0.00000e+00
2.03880e+03,1.34496e+01,-1.39285e+01,0.00000e+00,0.00000e+00,0.00000e+00
2.03880e+03,1.32028e+01,-1.50892e+01,0.00000e+00,0.00000e+00,0.00000e+00
2.03880e+03,1.29345e+01,-1.62500e+01,0.00000e+00,0.00000e+00,0.00000e+00
2.03880e+03,1.26407e+01,-1.74107e+01,0.00000e+00,0.00000e+00,0.00000e+00
2.03880e+03,1.23123e+01,-1.85714e+01,0.00000e+00,0.00000e+00,0.00000e+00
2.03880e+03,1.19599e+01,-1.97321e+01,0.00000e+00,0.00000e+00,0.00000e+00
2.03880e+03,1.15532e+01,-2.08928e+01,0.00000e+00,0.00000e+00,0.00000e+00
2.03880e+03,1.11241e+01,-2.20535e+01,0.00000e+00,0.00000e+00,0.00000e+00
2.03880e+03,1.06324e+01,-2.32142e+01,0.00000e+00,0.00000e+00,0.00000e+00
2.03880e+03,1.00906e+01,-2.43749e+01,0.00000e+00,0.00000e+00,0.00000e+00
2.03880e+03,9.49781e+00,-2.55357e+01,0.00000e+00,0.00000e+00,0.00000e+00
2.03880e+03,8.81933e+00,-2.66964e+01,0.00000e+00,0.00000e+00,0.00000e+00
2.03880e+03,8.04165e+00,-2.78571e+01,0.00000e+00,0.00000e+00,0.00000e+00
2.03880e+03,7.15183e+00,-2.90178e+01,0.00000e+00,0.00000e+00,0.00000e+00
2.03880e+03,6.09938e+00,-3.01785e+01,0.00000e+00,0.00000e+00,0.00000e+00
2.03880e+03,4.74849e+00,-3.13392e+01,0.00000e+00,0.00000e+00,0.00000e+00
2.03880e+03,2.92144e+00,-3.24999e+01,0.00000e+00,0.00000e+00,0.00000e+00
2.03880e+03,-1.18374e+00,-3.36606e+01,0.00000e+00,0.00000e+00,0.00000e+00
2.03880e+03,-1.48002e+00,-3.36633e+01,0.00000e+00,0.00000e+00,0.00000e+00
2.03880e+03,-4.17927e+00,-3.24611e+01,0.00000e+00,0.00000e+00,0.00000e+00
2.03880e+03,-4.50609e+00,-3.12588e+01,0.00000e+00,0.00000e+00,0.00000e+00
2.03880e+03,-4.61886e+00,-3.00565e+01,0.00000e+00,0.00000e+00,0.00000e+00
2.03880e+03,-4.63598e+00,-2.88543e+01,0.00000e+00,0.00000e+00,0.00000e+00
2.03880e+03,-4.58102e+00,-2.76520e+01,0.00000e+00,0.00000e+00,0.00000e+00
2.03880e+03,-4.48083e+00,-2.64498e+01,0.00000e+00,0.00000e+00,0.00000e+00
2.03880e+03,-4.33523e+00,-2.52475e+01,0.00000e+00,0.00000e+00,0.00000e+00
2.03880e+03,-4.16192e+00,-2.40452e+01,0.00000e+00,0.00000e+00,0.00000e+00
2.03880e+03,-3.97255e+00,-2.28430e+01,0.00000e+00,0.00000e+00,0.00000e+00
2.03880e+03,-3.75897e+00,-2.16407e+01,0.00000e+00,0.00000e+00,0.00000e+00
2.03880e+03,-3.53026e+00,-2.04384e+01,0.00000e+00,0.00000e+00,0.00000e+00
2.03880e+03,-3.28682e+00,-1.92362e+01,0.00000e+00,0.00000e+00,0.00000e+00
2.03880e+03,-3.02870e+00,-1.80339e+01,0.00000e+00,0.00000e+00,0.00000e+00
2.03880e+03,-2.76138e+00,-1.68317e+01,0.00000e+00,0.00000e+00,0.00000e+00
2.03880e+03,-2.48228e+00,-1.56294e+01,0.00000e+00,0.00000e+00,0.00000e+00
2.03880e+03,-2.19562e+00,-1.44271e+01,0.00000e+00,0.00000e+00,0.00000e+00
2.03880e+03,-1.90220e+00,-1.32249e+01,0.00000e+00,0.00000e+00,0.00000e+00
2.03880e+03,-1.60274e+00,-1.20226e+01,0.00000e+00,0.00000e+00,0.00000e+00
2.03880e+03,-1.30072e+00,-1.08204e+01,0.00000e+00,0.00000e+00,0.00000e+00
2.03880e+03,-9.94731e-01,-9.61809e+00,0.00000e+00,0.00000e+00,0.00000e+00
2.03880e+03,-6.88086e-01,-8.41583e+00,0.00000e+00,0.00000e+00,0.00000e+00
2.03880e+03,-3.79073e-01,-7.21357e+00,0.00000e+00,0.00000e+00,0.00000e+00
2.03880e+03,-7.00919e-02,-6.01131e+00,0.00000e+00,0.00000e+00,0.00000e+00
2.03880e+03,2.37722e-01,-4.80905e+00,0.00000e+00,0.00000e+00,0.00000e+00
2.03880e+03,5.45535e-01,-3.60678e+00,0.00000e+00,0.00000e+00,0.00000e+00
2.03880e+03,8.46060e-01,-2.40452e+00,0.00000e+00,0.00000e+00,0.00000e+00
2.03880e+03,1.14523e+00,-1.20226e+00,0.00000e+00,0.00000e+00,0.00000e+00
2.04720e+03,1.48774e+01,0.00000e+00,0.00000e+00,0.00000e+00,0.00000e+00
2.04720e+03,1.48025e+01,-1.13053e+00,0.00000e+00,0.00000e+00,0.00000e+00
2.04720e+03,1.47028e+01,-2.26105e+00,0.00000e+00,0.00000e+00,0.00000e+00
2.04720e+03,1.46021e+01,-3.39158e+00,0.00000e+00,0.00000e+00,0.00000e+00
2.04720e+03,1.44796e+01,-4.52211e+00,0.00000e+00,0.00000e+00,0.00000e+00
2.04720e+03,1.43520e+01,-5.65264e+00,0.00000e+00,0.00000e+00,0.00000e+00
2.04720e+03,1.42077e+01,-6.78316e+00,0.00000e+00,0.00000e+00,0.00000e+00
2.04720e+03,1.40552e+01,-7.91369e+00,0.00000e+00,0.00000e+00,0.00000e+00
2.04720e+03,1.38892e+01,-9.04422e+00,0.00000e+00,0.00000e+00,0.00000e+00
2.04720e+03,1.37121e+01,-1.01747e+01,0.00000e+00,0.00000e+00,0.00000e+00
2.04720e+03,1.35229e+01,-1.13053e+01,0.00000e+00,0.00000e+00,0.00000e+00
2.04720e+03,1.33189e+01,-1.24358e+01,0.00000e+00,0.00000e+00,0.00000e+00
2.04720e+03,1.30998e+01,-1.35663e+01,0.00000e+00,0.00000e+00,0.00000e+00
2.04720e+03,1.28594e+01,-1.46969e+01,0.00000e+00,0.00000e+00,0.00000e+00
2.04720e+03,1.25982e+01,-1.58274e+01,0.00000e+00,0.00000e+00,0.00000e+00
2.04720e+03,1.23120e+01,-1.69579e+01,0.00000e+00,0.00000e+00,0.00000e+00
2.04720e+03,1.19922e+01,-1.80884e+01,0.00000e+00,0.00000e+00,0.00000e+00
2.04720e+03,1.16489e+01,-1.92190e+01,0.00000e+00,0.00000e+00,0.00000e+00
2.04720e+03,1.12528e+01,-2.03495e+01,0.00000e+00,0.00000e+00,0.00000e+00
2.04720e+03,1.08348e+01,-2.14800e+01,0.00000e+00,0.00000e+00,0.00000e+00
2.04720e+03,1.03559e+01,-2.26105e+01,0.00000e+00,0.00000e+00,0.00000e+00
2.04720e+03,9.82823e+00,-2.37411e+01,0.00000e+00,0.00000e+00,0.00000e+00
2.04720e+03,9.25081e+00,-2.48716e+01,0.00000e+00,0.00000e+00,0.00000e+00
2.04720e+03,8.58998e+00,-2.60021e+01,0.00000e+00,0.00000e+00,0.00000e+00
2.04720e+03,7.83252e+00,-2.71326e+01,0.00000e+00,0.00000e+00,0.00000e+00
2.04720e+03,6.96585e+00,-2.82632e+01,0.00000e+00,0.00000e+00,0.00000e+00
2.04720e+03,5.94077e+00,-2.93937e+01,0.00000e+00,0.00000e+00,0.00000e+00
2.04720e+03,4.62500e+00,-3.05242e+01,0.00000e+00,0.00000e+00,0.00000e+00
2.04720e+03,2.84547e+00,-3.16548e+01,0.00000e+00,0.00000e+00,0.00000e+00
2.04720e+03,-1.15296e+00,-3.27853e+01,0.00000e+00,0.00000e+00,0.00000e+00
2.04720e+03,-1.44153e+00,-3.27879e+01,0.00000e+00,0.00000e+00,0.00000e+00
2.04720e+03,-4.07059e+00,-3.16169e+01,0.00000e+00,0.00000e+00,0.00000e+00
2.04720e+03,-4.38891e+00,-3.04459e+01,0.00000e+00,0.00000e+00,0.00000e+00
2.04720e+03,-4.49875e+00,-2.92749e+01,0.00000e+00,0.00000e+00,0.00000e+00
2.04720e+03,-4.51542e+00,-2.81039e+01,0.00000e+00,0.00000e+00,0.00000e+00
2.04720e+03,-4.46189e+00,-2.69329e+01,0.00000e+00,0.00000e+00,0.00000e+00
2.04720e+03,-4.36430e+00,-2.57619e+01,0.00000e+00,0.00000e+00,0.00000e+00
2.04720e+03,-4.22249e+00,-2.45909e+01,0.00000e+00,0.00000e+00,0.00000e+00
2.04720e+03,-4.05369e+00,-2.34199e+01,0.00000e+00,0.00000e+00,0.00000e+00
2.04720e+03,-3.86924e+00,-2.22489e+01,0.00000e+00,0.00000e+00,0.00000e+00
2.04720e+03,-3.66121e+00,-2.10779e+01,0.00000e+00,0.00000e+00,0.00000e+00
2.04720e+03,-3.43845e+00,-1.99069e+01,0.00000e+00,0.00000e+00,0.00000e+00
2.04720e+03,-3.20134e+00,-1.87359e+01,0.00000e+00,0.00000e+00,0.00000e+00
2.04720e+03,-2.94994e+00,-1.75649e+01,0.00000e+00,0.00000e+00,0.00000e+00
2.04720e+03,-2.68957e+00,-1.63940e+01,0.00000e+00,0.00000e+00,0.00000e+00
2.04720e+03,-2.41772e+00,-1.52230e+01,0.00000e+00,0.00000e+00,0.00000e+00
2.04720e+03,-2.13852e+00,-1.40520e+01,0.00000e+00,0.00000e+00,0.00000e+00
2.04720e+03,-1.85273e+00,-1.28810e+01,0.00000e+00,0.00000e+00,0.00000e+00
2.04720e+03,-1.56106e+00,-1.17100e+01,0.00000e+00,0.00000e+00,0.00000e+00
2.04720e+03,-1.26689e+00,-1.05390e+01,0.00000e+00,0.00000e+00,0.00000e+00
2.04720e+03,-9.68863e-01,-9.36797e+00,0.00000e+00,0.00000e+00,0.00000e+00
2.04720e+03,-6.70192e-01,-8.19698e+00,0.00000e+00,0.00000e+00,0.00000e+00
2.04720e+03,-3.69215e-01,-7.02598e+00,0.00000e+00,0.00000e+00,0.00000e+00
2.04720e+03,-6.82691e-02,-5.85498e+00,0.00000e+00,0.00000e+00,0.00000e+00
2.04720e+03,2.31540e-01,-4.68399e+00,0.00000e+00,0.00000e+00,0.00000e+00
2.04720e+03,5.31348e-01,-3.51299e+00,0.00000e+00,0.00000e+00,0.00000e+00
2.04720e+03,8.24058e-01,-2.34199e+00,0.00000e+00,0.00000e+00,0.00000e+00
2.04720e+03,1.11544e+00,-1.17100e+00,0.00000e+00,0.00000e+00,0.00000e+00
2.05000e+03,1.47450e+01,0.00000e+00,0.00000e+00,0.00000e+00,0.00000e+00
2.05000e+03,1.46708e+01,-1.12047e+00,0.00000e+00,0.00000e+00,0.00000e+00
2.05000e+03,1.45720e+01,-2.24093e+00,0.00000e+00,0.00000e+00,0.00000e+00
2.05000e+03,1.44722e+01,-3.36140e+00,0.00000e+00,0.00000e+00,0.00000e+00
2.05000e+03,1.43508e+01,-4.48186e+00,0.00000e+00,0.00000e+00,0.00000e+00
2.05000e+03,1.42243e+01,-5.60233e+00,0.00000e+00,0.00000e+00,0.00000e+00
2.05000e+03,1.40812e+01,-6.72279e+00,0.00000e+00,0.00000e+00,0.00000e+00
2.05000e+03,1.39301e+01,-7.84326e+00,0.00000e+00,0.00000e+00,0.00000e+00
2.05000e+03,1.37656e+01,-8.96372e+00,0.00000e+00,0.00000e+00,0.00000e+00
2.05000e+03,1.35901e+01,-1.00842e+01,0.00000e+00,0.00000e+00,0.00000e+00
2.05000e+03,1.34025e+01,-1.12047e+01,0.00000e+00,0.00000e+00,0.00000e+00
2.05000e+03,1.32004e+01,-1.23251e+01,0.00000e+00,0.00000e+00,0.00000e+00
2.05000e+03,1.29833e+01,-1.34456e+01,0.00000e+00,0.00000e+00,0.00000e+00
2.05000e+03,1.27450e+01,-1.45661e+01,0.00000e+00,0.00000e+00,0.00000e+00
2.05000e+03,1.24860e+01,-1.56865e+01,0.00000e+00,0.00000e+00,0.00000e+00
2.05000e+03,1.22024e+01,-1.68070e+01,0.00000e+00,0.00000e+00,0.00000e+00
2.05000e+03,1.18854e+01,-1.79274e+01,0.00000e+00,0.00000e+00,0.00000e+00
2.05000e+03,1.15452e+01,-1.90479e+01,0.00000e+00,0.00000e+00,0.00000e+00
2.05000e+03,1.11526e+01,-2.01684e+01,0.00000e+00,0.00000e+00,0.00000e+00
2.05000e+03,1.07384e+01,-2.12888e+01,0.00000e+00,0.00000e+00,0.00000e+00
2.05000e+03,1.02638e+01,-2.24093e+01,0.00000e+00,0.00000e+00,0.00000e+00
2.05000e+03,9.74076e+00,-2.35298e+01,0.00000e+00,0.00000e+00,0.00000e+00
2.05000e+03,9.16848e+00,-2.46502e+01,0.00000e+00,0.00000e+00,0.00000e+00
2.05000e+03,8.51353e+00,-2.57707e+01,0.00000e+00,0.00000e+00,0.00000e+00
2.05000e+03,7.76281e+00,-2.68912e+01,0.00000e+00,0.00000e+00,0.00000e+00
2.05000e+03,6.90385e+00,-2.80116e+01,0.00000e+00,0.00000e+00,0.00000e+00
2.05000e+03,5.88790e+00,-2.91321e+01,0.00000e+00,0.00000e+00,0.00000e+00
2.05000e+03,4.58384e+00,-3.02526e+01,0.00000e+00,0.00000e+00,0.00000e+00
2.05000e+03,2.82014e+00,-3.13730e+01,0.00000e+00,0.00000e+00,0.00000e+00
2.05000e+03,-1.14270e+00,-3.24935e+01,0.00000e+00,0.00000e+00,0.00000e+00
2.05000e+03,-1.42870e+00,-3.24961e+01,0.00000e+00,0.00000e+00,0.00000e+00
2.05000e+03,-4.03436e+00,-3.13355e+01,0.00000e+00,0.00000e+00,0.00000e+00
2.05000e+03,-4.34985e+00,-3.01749e+01,0.00000e+00,0.00000e+00,0.00000e+00
2.05000e+03,-4.45871e+00,-2.90144e+01,0.00000e+00,0.00000e+00,0.00000e+00
2.05000e+03,-4.47523e+00,-2.78538e+01,0.00000e+00,0.00000e+00,0.00000e+00
2.05000e+03,-4.42218e+00,-2.66932e+01,0.00000e+00,0.00000e+00,0.00000e+00
2.05000e+03,-4.32546e+00,-2.55327e+01,0.00000e+00,0.00000e+00,0.00000e+00
2.05000e+03,-4.18491e+00,-2.43721e+01,0.00000e+00,0.00000e+00,0.00000e+00
2.05000e+03,-4.01761e+00,-2.32115e+01,0.00000e+00,0.00000e+00,0.00000e+00
2.05000e+03,-3.83480e+00,-2.20509e+01,0.00000e+00,0.00000e+00,0.00000e+00
2.05000e+03,-3.62863e+00,-2.08903e+01,0.00000e+00,0.00000e+00,0.00000e+00
2.05000e+03,-3.40785e+00,-1.97298e+01,0.00000e+00,0.00000e+00,0.00000e+00
2.05000e+03,-3.17285e+00,-1.85692e+01,0.00000e+00,0.00000e+00,0.00000e+00
2.05000e+03,-2.92368e+00,-1.74086e+01,0.00000e+00,0.00000e+00,0.00000e+00
2.05000e+03,-2.66563e+00,-1.62480e+01,0.00000e+00,0.00000e+00,0.00000e+00
2.05000e+03,-2.39621e+00,-1.50875e+01,0.00000e+00,0.00000e+00,0.00000e+00
2.05000e+03,-2.11949e+00,-1.39269e+01,0.00000e+00,0.00000e+00,0.00000e+00
2.05000e+03,-1.83624e+00,-1.27663e+01,0.00000e+00,0.00000e+00,0.00000e+00
2.05000e+03,-1.54717e+00,-1.16057e+01,0.00000e+00,0.00000e+00,0.00000e+00
2.05000e+03,-1.25562e+00,-1.04452e+01,0.00000e+00,0.00000e+00,0.00000e+00
2.05000e+03,-9.60241e-01,-9.28460e+00,0.00000e+00,0.00000e+00,0.00000e+00
2.05000e+03,-6.64227e-01,-8.12402e+00,0.00000e+00,0.00000e+00,0.00000e+00
2.05000e+03,-3.65929e-01,-6.96345e+00,0.00000e+00,0.00000e+00,0.00000e+00
2.05000e+03,-6.76615e-02,-5.80287e+00,0.00000e+00,0.00000e+00,0.00000e+00
2.05000e+03,2.29479e-01,-4.64230e+00,0.00000e+00,0.00000e+00,0.00000e+00
2.05000e+03,5.26620e-01,-3.48173e+00,0.00000e+00,0.00000e+00,0.00000e+00
2.05000e+03,8.16724e-01,-2.32115e+00,0.00000e+00,0.00000e+00,0.00000e+00
2.05000e+03,1.10552e+00,-1.16058e+00,0.00000e+00,0.00000e+00,0.00000e+00
--------------------------------------------------------------------------------------------------------------------------------------------------------------------------------------------------------------------------------------------------------------------------------------------------------------------------------------------------------------------------------

ALMA 
--------------------------------------------------------------------------------------------------------------------------------------------------------------------------------------------------------------------------------------------------------------------------------------------------------------------------------------------------------------------------------
X,Y,Z,Sigma,Tau,Von Mises
0.00000e+00,4.05613e+00,0.00000e+00,2.32509e-01,9.16522e-01,1.60440e+00
0.00000e+00,1.70710e+01,0.00000e+00,7.06168e-02,9.17732e-01,1.59113e+00
0.00000e+00,3.00859e+01,0.00000e+00,-9.12757e-02,9.17732e-01,1.59218e+00
0.00000e+00,4.31008e+01,0.00000e+00,-2.53168e-01,9.16547e-01,1.60757e+00
1.07300e+02,4.01639e+00,0.00000e+00,2.08377e-01,8.68066e-01,1.51790e+00
1.07300e+02,1.69038e+01,0.00000e+00,6.33377e-02,8.69202e-01,1.50683e+00
1.07300e+02,2.97912e+01,0.00000e+00,-8.17021e-02,8.69202e-01,1.50772e+00
1.07300e+02,4.26785e+01,0.00000e+00,-2.26742e-01,8.68089e-01,1.52057e+00
2.14300e+02,3.97676e+00,0.00000e+00,1.85477e-01,8.19599e-01,1.43165e+00
2.14300e+02,1.67370e+01,0.00000e+00,5.64271e-02,8.20662e-01,1.42255e+00
2.14300e+02,2.94972e+01,0.00000e+00,-7.26225e-02,8.20662e-01,1.42328e+00
2.14300e+02,4.22575e+01,0.00000e+00,-2.01672e-01,8.19621e-01,1.43388e+00
3.20700e+02,3.93736e+00,0.00000e+00,1.63888e-01,7.70126e-01,1.34393e+00
3.20700e+02,1.65712e+01,0.00000e+00,4.99080e-02,7.71116e-01,1.33654e+00
3.20700e+02,2.92050e+01,0.00000e+00,-6.40717e-02,7.71116e-01,1.33715e+00
3.20700e+02,4.18388e+01,0.00000e+00,-1.78051e-01,7.70146e-01,1.34576e+00
4.26200e+02,3.89829e+00,0.00000e+00,1.43687e-01,7.20421e-01,1.25605e+00
4.26200e+02,1.64067e+01,0.00000e+00,4.38026e-02,7.21338e-01,1.25016e+00
4.26200e+02,2.89151e+01,0.00000e+00,-5.60819e-02,7.21338e-01,1.25065e+00
4.26200e+02,4.14236e+01,0.00000e+00,-1.55966e-01,7.20439e-01,1.25755e+00
5.30600e+02,3.85963e+00,0.00000e+00,1.24908e-01,6.70598e-01,1.16821e+00
5.30600e+02,1.62440e+01,0.00000e+00,3.81207e-02,6.71444e-01,1.16360e+00
5.30600e+02,2.86284e+01,0.00000e+00,-4.86669e-02,6.71444e-01,1.16399e+00
5.30600e+02,4.10127e+01,0.00000e+00,-1.35455e-01,6.70615e-01,1.16941e+00
6.33500e+02,3.82152e+00,0.00000e+00,1.07608e-01,6.20839e-01,1.08070e+00
6.33500e+02,1.60836e+01,0.00000e+00,3.28796e-02,6.21615e-01,1.07717e+00
6.33500e+02,2.83457e+01,0.00000e+00,-4.18488e-02,6.21615e-01,1.07748e+00
6.33500e+02,4.06078e+01,0.00000e+00,-1.16577e-01,6.20854e-01,1.08165e+00
7.34700e+02,3.78404e+00,0.00000e+00,9.17933e-02,5.71228e-01,9.93644e-01
7.34700e+02,1.59259e+01,0.00000e+00,2.80820e-02,5.71935e-01,9.91019e-01
7.34700e+02,2.80677e+01,0.00000e+00,-3.56294e-02,5.71935e-01,9.91262e-01
7.34700e+02,4.02095e+01,0.00000e+00,-9.93407e-02,5.71241e-01,9.94394e-01
8.33800e+02,3.74734e+00,0.00000e+00,7.74880e-02,5.22097e-01,9.07613e-01
8.33800e+02,1.57714e+01,0.00000e+00,2.37359e-02,5.22739e-01,9.05721e-01
8.33800e+02,2.77955e+01,0.00000e+00,-3.00161e-02,5.22739e-01,9.05907e-01
8.33800e+02,3.98196e+01,0.00000e+00,-8.37682e-02,5.22110e-01,9.08192e-01
9.30700e+02,3.71145e+00,0.00000e+00,6.46551e-02,4.73596e-01,8.22836e-01
9.30700e+02,1.56204e+01,0.00000e+00,1.98312e-02,4.74173e-01,8.21531e-01
9.30700e+02,2.75293e+01,0.00000e+00,-2.49927e-02,4.74173e-01,8.21672e-01
9.30700e+02,3.94382e+01,0.00000e+00,-6.98166e-02,4.73607e-01,8.23277e-01
1.02500e+03,3.67653e+00,0.00000e+00,5.32789e-02,4.26416e-01,7.40494e-01
1.02500e+03,1.54734e+01,0.00000e+00,1.63642e-02,4.26932e-01,7.39649e-01
1.02500e+03,2.72703e+01,0.00000e+00,-2.05505e-02,4.26932e-01,7.39754e-01
1.02500e+03,3.90671e+01,0.00000e+00,-5.74653e-02,4.26426e-01,7.40824e-01
1.11650e+03,3.64264e+00,0.00000e+00,4.33095e-02,3.79879e-01,6.59393e-01
1.11650e+03,1.53308e+01,0.00000e+00,1.33212e-02,3.80335e-01,6.58895e-01
1.11650e+03,2.70189e+01,0.00000e+00,-1.66671e-02,3.80335e-01,6.58971e-01
1.11650e+03,3.87070e+01,0.00000e+00,-4.66554e-02,3.79887e-01,6.59636e-01
1.20500e+03,3.54704e+00,0.00000e+00,4.95597e-02,3.37271e-01,5.86269e-01
1.20500e+03,1.49284e+01,0.00000e+00,1.52535e-02,3.37836e-01,5.85348e-01
1.20500e+03,2.63098e+01,0.00000e+00,-1.90527e-02,3.37836e-01,5.85459e-01
1.20500e+03,3.76912e+01,0.00000e+00,-5.33589e-02,3.37286e-01,5.86629e-01
1.29010e+03,3.41832e+00,0.00000e+00,4.04262e-02,3.04929e-01,5.29698e-01
1.29010e+03,1.43867e+01,0.00000e+00,1.24672e-02,3.05423e-01,5.29155e-01
1.29010e+03,2.53550e+01,0.00000e+00,-1.54919e-02,3.05423e-01,5.29235e-01
1.29010e+03,3.63234e+01,0.00000e+00,-4.34509e-02,3.04942e-01,5.29959e-01
1.37170e+03,3.29489e+00,0.00000e+00,3.23774e-02,2.72930e-01,4.73837e-01
1.37170e+03,1.38672e+01,0.00000e+00,1.00071e-02,2.73357e-01,4.73575e-01
1.37170e+03,2.44395e+01,0.00000e+00,-1.23632e-02,2.73357e-01,4.73630e-01
1.37170e+03,3.50118e+01,0.00000e+00,-3.47335e-02,2.72941e-01,4.74022e-01
1.44960e+03,3.17706e+00,0.00000e+00,2.53858e-02,2.41699e-01,4.19405e-01
1.44960e+03,1.33713e+01,0.00000e+00,7.86452e-03,2.42065e-01,4.19343e-01
1.44960e+03,2.35655e+01,0.00000e+00,-9.65676e-03,2.42065e-01,4.19380e-01
1.44960e+03,3.37597e+01,0.00000e+00,-2.71780e-02,2.41708e-01,4.19532e-01
1.52340e+03,3.06543e+00,0.00000e+00,1.94333e-02,2.10897e-01,3.65801e-01
1.52340e+03,1.29015e+01,0.00000e+00,6.03463e-03,2.11205e-01,3.65868e-01
1.52340e+03,2.27375e+01,0.00000e+00,-7.36400e-03,2.11205e-01,3.65893e-01
1.52340e+03,3.25736e+01,0.00000e+00,-2.07626e-02,2.10904e-01,3.65886e-01
1.59310e+03,2.96000e+00,0.00000e+00,1.44619e-02,1.80816e-01,3.13516e-01
1.59310e+03,1.24578e+01,0.00000e+00,4.50082e-03,1.81072e-01,3.13658e-01
1.59310e+03,2.19555e+01,0.00000e+00,-5.46030e-03,1.81072e-01,3.13673e-01
1.59310e+03,3.14533e+01,0.00000e+00,-1.54214e-02,1.80822e-01,3.13572e-01
1.65850e+03,2.86108e+00,0.00000e+00,1.04162e-02,1.51659e-01,2.62887e-01
1.65850e+03,1.20414e+01,0.00000e+00,3.24791e-03,1.51867e-01,2.63061e-01
1.65850e+03,2.12218e+01,0.00000e+00,-3.92042e-03,1.51867e-01,2.63071e-01
1.65850e+03,3.04021e+01,0.00000e+00,-1.10888e-02,1.51663e-01,2.62923e-01
1.71930e+03,2.76911e+00,0.00000e+00,7.23273e-03,1.23645e-01,2.14282e-01
1.71930e+03,1.16544e+01,0.00000e+00,2.25883e-03,1.23811e-01,2.14458e-01
1.71930e+03,2.05396e+01,0.00000e+00,-2.71507e-03,1.23811e-01,2.14464e-01
1.71930e+03,2.94249e+01,0.00000e+00,-7.68897e-03,1.23649e-01,2.14304e-01
1.77540e+03,2.60964e+00,0.00000e+00,8.64055e-03,1.63398e-01,2.83145e-01
1.77540e+03,1.09832e+01,0.00000e+00,2.70199e-03,1.63622e-01,2.83414e-01
1.77540e+03,1.93567e+01,0.00000e+00,-3.23657e-03,1.63622e-01,2.83420e-01
1.77540e+03,2.77303e+01,0.00000e+00,-9.17513e-03,1.63406e-01,2.83176e-01
1.82660e+03,2.38179e+00,0.00000e+00,5.95980e-03,1.34595e-01,2.33202e-01
1.82660e+03,1.00242e+01,0.00000e+00,1.87192e-03,1.34767e-01,2.33430e-01
1.82660e+03,1.76667e+01,0.00000e+00,-2.21596e-03,1.34767e-01,2.33433e-01
1.82660e+03,2.53092e+01,0.00000e+00,-6.30383e-03,1.34601e-01,2.33222e-01
1.87280e+03,2.17619e+00,0.00000e+00,3.88518e-03,1.07959e-01,1.87030e-01
1.87280e+03,9.15894e+00,0.00000e+00,1.22957e-03,1.08085e-01,1.87214e-01
1.87280e+03,1.61417e+01,0.00000e+00,-1.42605e-03,1.08085e-01,1.87215e-01
1.87280e+03,2.31244e+01,0.00000e+00,-4.08166e-03,1.07963e-01,1.87041e-01
1.91380e+03,1.99374e+00,0.00000e+00,2.35841e-03,8.32288e-02,1.44176e-01
1.91380e+03,8.39104e+00,0.00000e+00,7.54609e-04,8.33190e-02,1.44315e-01
1.91380e+03,1.47883e+01,0.00000e+00,-8.49190e-04,8.33190e-02,1.44315e-01
1.91380e+03,2.11856e+01,0.00000e+00,-2.45299e-03,8.32315e-02,1.44182e-01
1.94970e+03,1.83398e+00,0.00000e+00,1.29563e-03,6.15623e-02,1.06637e-01
1.94970e+03,7.71865e+00,0.00000e+00,4.20405e-04,6.16233e-02,1.06736e-01
1.94970e+03,1.36033e+01,0.00000e+00,-4.54815e-04,6.16233e-02,1.06736e-01
1.94970e+03,1.94880e+01,0.00000e+00,-1.33004e-03,6.15640e-02,1.06640e-01
1.98010e+03,1.69869e+00,0.00000e+00,6.22081e-04,4.20902e-02,7.29051e-02
1.98010e+03,7.14927e+00,0.00000e+00,2.05026e-04,4.21285e-02,7.29689e-02
1.98010e+03,1.25999e+01,0.00000e+00,-2.12029e-04,4.21285e-02,7.29690e-02
1.98010e+03,1.80504e+01,0.00000e+00,-6.29084e-04,4.20912e-02,7.29069e-02
2.00520e+03,1.58699e+00,0.00000e+00,2.44313e-04,2.58287e-02,4.47373e-02
2.00520e+03,6.67917e+00,0.00000e+00,8.20300e-05,2.58501e-02,4.47738e-02
2.00520e+03,1.17713e+01,0.00000e+00,-8.02527e-05,2.58501e-02,4.47738e-02
2.00520e+03,1.68635e+01,0.00000e+00,-2.42535e-04,2.58292e-02,4.47382e-02
2.02480e+03,1.49977e+00,0.00000e+00,7.04913e-05,1.31890e-02,2.28442e-02
2.02480e+03,6.31207e+00,0.00000e+00,2.41722e-05,1.31990e-02,2.28614e-02
2.02480e+03,1.11244e+01,0.00000e+00,-2.21470e-05,1.31990e-02,2.28614e-02
2.02480e+03,1.59367e+01,0.00000e+00,-6.84662e-05,1.31892e-02,2.28445e-02
2.03880e+03,1.43746e+00,0.00000e+00,1.23929e-05,4.82025e-03,8.34893e-03
2.03880e+03,6.04986e+00,0.00000e+00,4.36754e-06,4.82363e-03,8.35477e-03
2.03880e+03,1.06622e+01,0.00000e+00,-3.65787e-06,4.82363e-03,8.35477e-03
2.03880e+03,1.52746e+01,0.00000e+00,-1.16833e-05,4.82033e-03,8.34906e-03
2.04720e+03,1.40008e+00,0.00000e+00,1.51738e-06,7.96581e-04,1.37972e-03
2.04720e+03,5.89253e+00,0.00000e+00,5.54697e-07,7.97084e-04,1.38059e-03
2.04720e+03,1.03850e+01,0.00000e+00,-4.07983e-07,7.97084e-04,1.38059e-03
2.04720e+03,1.48774e+01,0.00000e+00,-1.37066e-06,7.96592e-04,1.37974e-03
2.05000e+03,1.38762e+00,0.00000e+00,0.00000e+00,0.00000e+00,0.00000e+00
2.05000e+03,5.84009e+00,0.00000e+00,0.00000e+00,0.00000e+00,0.00000e+00
2.05000e+03,1.02925e+01,0.00000e+00,0.00000e+00,0.00000e+00,0.00000e+00
2.05000e+03,1.47450e+01,0.00000e+00,0.00000e+00,0.00000e+00,0.00000e+00
MESA INFERIOR 
--------------------------------------------------------------------------------------------------------------------------------------------------------------------------------------------------------------------------------------------------------------------------------------------------------------------------------------------------------------------------------
X,Y,Z,Sigma,Von Mises
0.00000e+00,4.05613e+00,0.00000e+00,0.00000e+00,0.00000e+00
1.07300e+02,4.01639e+00,0.00000e+00,0.00000e+00,0.00000e+00
2.14300e+02,3.97676e+00,0.00000e+00,0.00000e+00,0.00000e+00
3.20700e+02,3.93736e+00,0.00000e+00,0.00000e+00,0.00000e+00
4.26200e+02,3.89829e+00,0.00000e+00,0.00000e+00,0.00000e+00
5.30600e+02,3.85963e+00,0.00000e+00,0.00000e+00,0.00000e+00
6.33500e+02,3.82152e+00,0.00000e+00,0.00000e+00,0.00000e+00
7.34700e+02,3.78404e+00,0.00000e+00,0.00000e+00,0.00000e+00
8.33800e+02,3.74734e+00,0.00000e+00,0.00000e+00,0.00000e+00
9.30700e+02,3.71145e+00,0.00000e+00,0.00000e+00,0.00000e+00
1.02500e+03,3.67653e+00,0.00000e+00,0.00000e+00,0.00000e+00
1.11650e+03,3.64264e+00,0.00000e+00,0.00000e+00,0.00000e+00
1.20500e+03,3.54704e+00,0.00000e+00,0.00000e+00,0.00000e+00
1.29010e+03,3.41832e+00,0.00000e+00,0.00000e+00,0.00000e+00
1.37170e+03,3.29489e+00,0.00000e+00,0.00000e+00,0.00000e+00
1.44960e+03,3.17706e+00,0.00000e+00,0.00000e+00,0.00000e+00
1.52340e+03,3.06543e+00,0.00000e+00,0.00000e+00,0.00000e+00
1.59310e+03,2.96000e+00,0.00000e+00,0.00000e+00,0.00000e+00
1.65850e+03,2.86108e+00,0.00000e+00,0.00000e+00,0.00000e+00
1.71930e+03,2.76911e+00,0.00000e+00,0.00000e+00,0.00000e+00
1.77540e+03,2.60964e+00,0.00000e+00,0.00000e+00,0.00000e+00
1.82660e+03,2.38179e+00,0.00000e+00,0.00000e+00,0.00000e+00
1.87280e+03,2.17619e+00,0.00000e+00,0.00000e+00,0.00000e+00
1.91380e+03,1.99374e+00,0.00000e+00,0.00000e+00,0.00000e+00
1.94970e+03,1.83398e+00,0.00000e+00,0.00000e+00,0.00000e+00
1.98010e+03,1.69869e+00,0.00000e+00,0.00000e+00,0.00000e+00
2.00520e+03,1.58699e+00,0.00000e+00,0.00000e+00,0.00000e+00
2.02480e+03,1.49977e+00,0.00000e+00,0.00000e+00,0.00000e+00
2.03880e+03,1.43746e+00,0.00000e+00,0.00000e+00,0.00000e+00
2.04720e+03,1.40008e+00,0.00000e+00,0.00000e+00,0.00000e+00
2.05000e+03,1.38762e+00,0.00000e+00,0.00000e+00,0.00000e+00
--------------------------------------------------------------------------------------------------------------------------------------------------------------------------------------------------------------------------------------------------------------------------------------------------------------------------------------------------------------------------------

MESA SUPERIOR 
--------------------------------------------------------------------------------------------------------------------------------------------------------------------------------------------------------------------------------------------------------------------------------------------------------------------------------------------------------------------------------
X,Y,Z,Sigma,Von Mises
0.00000e+00,4.31008e+01,0.00000e+00,0.00000e+00,0.00000e+00
1.07300e+02,4.26785e+01,0.00000e+00,0.00000e+00,0.00000e+00
2.14300e+02,4.22575e+01,0.00000e+00,0.00000e+00,0.00000e+00
3.20700e+02,4.18388e+01,0.00000e+00,0.00000e+00,0.00000e+00
4.26200e+02,4.14236e+01,0.00000e+00,0.00000e+00,0.00000e+00
5.30600e+02,4.10127e+01,0.00000e+00,0.00000e+00,0.00000e+00
6.33500e+02,4.06078e+01,0.00000e+00,0.00000e+00,0.00000e+00
7.34700e+02,4.02095e+01,0.00000e+00,0.00000e+00,0.00000e+00
8.33800e+02,3.98196e+01,0.00000e+00,0.00000e+00,0.00000e+00
9.30700e+02,3.94382e+01,0.00000e+00,0.00000e+00,0.00000e+00
1.02500e+03,3.90671e+01,0.00000e+00,0.00000e+00,0.00000e+00
1.11650e+03,3.87070e+01,0.00000e+00,0.00000e+00,0.00000e+00
1.20500e+03,3.76912e+01,0.00000e+00,0.00000e+00,0.00000e+00
1.29010e+03,3.63234e+01,0.00000e+00,0.00000e+00,0.00000e+00
1.37170e+03,3.50118e+01,0.00000e+00,0.00000e+00,0.00000e+00
1.44960e+03,3.37597e+01,0.00000e+00,0.00000e+00,0.00000e+00
1.52340e+03,3.25736e+01,0.00000e+00,0.00000e+00,0.00000e+00
1.59310e+03,3.14533e+01,0.00000e+00,0.00000e+00,0.00000e+00
1.65850e+03,3.04021e+01,0.00000e+00,0.00000e+00,0.00000e+00
1.71930e+03,2.94249e+01,0.00000e+00,0.00000e+00,0.00000e+00
1.77540e+03,2.77303e+01,0.00000e+00,0.00000e+00,0.00000e+00
1.82660e+03,2.53092e+01,0.00000e+00,0.00000e+00,0.00000e+00
1.87280e+03,2.31244e+01,0.00000e+00,0.00000e+00,0.00000e+00
1.91380e+03,2.11856e+01,0.00000e+00,0.00000e+00,0.00000e+00
1.94970e+03,1.94880e+01,0.00000e+00,0.00000e+00,0.00000e+00
1.98010e+03,1.80504e+01,0.00000e+00,0.00000e+00,0.00000e+00
2.00520e+03,1.68635e+01,0.00000e+00,0.00000e+00,0.00000e+00
2.02480e+03,1.59367e+01,0.00000e+00,0.00000e+00,0.00000e+00
2.03880e+03,1.52746e+01,0.00000e+00,0.00000e+00,0.00000e+00
2.04720e+03,1.48774e+01,0.00000e+00,0.00000e+00,0.00000e+00
2.05000e+03,1.47450e+01,0.00000e+00,0.00000e+00,0.00000e+00
--------------------------------------------------------------------------------------------------------------------------------------------------------------------------------------------------------------------------------------------------------------------------------------------------------------------------------------------------------------------------------

