----------------------------------------------
LOG MATLAB Estruturas Copyright Charles 2020
----------------------------------------------

VISÃO GERAL POR SEÇÃO
--------------------------------------------------------------------------------------------------------------------------------------------------------------------------------------------------------------------------------------------------------------------------------------------------------------------------------------------------------------------------------
SEÇÃO,POSIÇÃO .25c,, ESFORÇOS,,,,,INÉRCIAS,,,,CENTROS GEOMÉTRICOS,,,DEFLEXÇOES,,,,,TENSÕES NORMAIS,,,,,,,,TENSÕES CISALHAMENTO,,,TENSÕES DE VON MISES
NUMERO,X,Y,MFz,MFy,MTx,Vz,Vy,EIzz,EIyy,EIzy,GJ,Zcg,Ycg,Zcc,Z,Y,Z´,Y´,Theta,Sigma_Chap+,Sigma_Chap-,Sigma_Lam+,Sigma_Lam-,Sigma_Mesa+,Sigma_Mesa-,Sigma_Alma+,Sigma_Alma-,  Tau_Alma,  Tau_Chap,  Tau_Lam, Von Mises_Alma,  Von Mises_Chap,  Von Mises_Lam
--------------------------------------------------------------------------------------------------------------------------------------------------------------------------------------------------------------------------------------------------------------------------------------------------------------------------------------------------------------------------------
01,0.00000e+00,0.00000e+00,1.05488e+05,4.04673e+04,-1.39382e+04,4.32060e+01,1.14287e+02,2.43720e+09,3.02407e+09,6.88619e+08,4.72838e+07,8.66395e+01,2.17434e+01,7.43235e+01,0.00000e+00,0.00000e+00,0.00000e+00,0.00000e+00,0.00000e+00,1.58179e+00,-2.75856e+00,0.00000e+00,0.00000e+00,9.21010e+01,-7.27401e+01,1.15217e-01,-9.09966e-02,4.67431e-01,7.34159e-01,0.00000e+00,8.16999e-01,2.95784e+00,0.00000e+00
02,1.07300e+02,0.00000e+00,9.35996e+04,3.59730e+04,-1.29577e+04,4.05642e+01,1.07310e+02,2.38487e+09,2.93941e+09,6.69313e+08,4.59158e+07,8.58583e+01,2.15452e+01,7.36225e+01,2.09974e-02,2.31634e-01,3.91378e-04,4.31750e-03,-3.09551e-02,1.41933e+00,-2.48700e+00,0.00000e+00,0.00000e+00,8.26729e+01,-6.52884e+01,1.03422e-01,-8.16746e-02,4.43323e-01,6.95258e-01,0.00000e+00,7.74065e-01,2.68506e+00,0.00000e+00
03,2.14300e+02,0.00000e+00,8.24822e+04,3.17710e+04,-1.19966e+04,3.79791e+01,1.00491e+02,2.33333e+09,2.85653e+09,6.50412e+08,4.45690e+07,8.50782e+01,2.13473e+01,7.29231e+01,8.23625e-02,9.01670e-01,7.55632e-04,8.20654e-03,-6.04537e-02,1.26498e+00,-2.22751e+00,0.00000e+00,0.00000e+00,7.37118e+01,-5.82020e+01,9.22122e-02,-7.28097e-02,4.19136e-01,6.55932e-01,0.00000e+00,7.31115e-01,2.42396e+00,0.00000e+00
04,3.20700e+02,0.00000e+00,7.21546e+04,2.78661e+04,-1.10589e+04,3.54210e+01,9.36359e+01,2.28273e+09,2.77562e+09,6.31961e+08,4.32607e+07,8.43013e+01,2.11503e+01,7.22271e+01,1.80637e-01,1.95939e+00,1.09163e-03,1.16754e-02,-8.83732e-02,1.11928e+00,-1.98109e+00,0.00000e+00,0.00000e+00,6.52492e+01,-5.15070e+01,8.16256e-02,-6.44344e-02,3.94421e-01,6.16146e-01,0.00000e+00,6.87379e-01,2.17555e+00,0.00000e+00
05,4.26200e+02,0.00000e+00,6.26316e+04,2.42615e+04,-1.01464e+04,3.29129e+01,8.68959e+01,2.23318e+09,2.69686e+09,6.14002e+08,4.19849e+07,8.35299e+01,2.09548e+01,7.15366e+01,3.11996e-01,3.35267e+00,1.39859e-03,1.47375e-02,-1.14606e-01,9.82747e-01,-1.74871e+00,0.00000e+00,0.00000e+00,5.73153e+01,-4.52288e+01,7.17004e-02,-5.65805e-02,3.69572e-01,5.76120e-01,0.00000e+00,6.43528e-01,1.94068e+00,0.00000e+00
06,5.30600e+02,0.00000e+00,5.39048e+04,2.09535e+04,-9.26061e+03,3.04577e+01,8.02842e+01,2.18477e+09,2.62035e+09,5.96558e+08,4.07425e+07,8.27655e+01,2.07610e+01,7.08528e+01,4.72512e-01,5.03093e+00,1.67642e-03,1.74133e-02,-1.39086e-01,8.55593e-01,-1.53088e+00,0.00000e+00,0.00000e+00,4.99226e+01,-3.93779e+01,6.24524e-02,-4.92611e-02,3.44642e-01,5.35938e-01,0.00000e+00,5.99647e-01,1.71980e+00,0.00000e+00
07,6.33500e+02,0.00000e+00,4.59763e+04,1.79428e+04,-8.40587e+03,2.80601e+01,7.38169e+01,2.13765e+09,2.54632e+09,5.79679e+08,3.95383e+07,8.20110e+01,2.05698e+01,7.01785e+01,6.57797e-01,6.94152e+00,1.92486e-03,1.97216e-02,-1.61719e-01,7.38189e-01,-1.32840e+00,0.00000e+00,0.00000e+00,4.30932e+01,-3.39723e+01,5.39089e-02,-4.24988e-02,3.19737e-01,4.95837e-01,0.00000e+00,5.55913e-01,1.51367e+00,0.00000e+00
08,7.34700e+02,0.00000e+00,3.88254e+04,1.52213e+04,-7.58250e+03,2.57233e+01,6.75039e+01,2.09189e+09,2.47483e+09,5.63383e+08,3.83722e+07,8.12680e+01,2.03815e+01,6.95148e+01,8.63712e-01,9.03694e+00,2.14460e-03,2.16897e-02,-1.82475e-01,6.30580e-01,-1.14177e+00,0.00000e+00,0.00000e+00,3.68302e+01,-2.90151e+01,4.60740e-02,-3.62974e-02,2.94905e-01,4.55881e-01,0.00000e+00,5.12400e-01,1.32244e+00,0.00000e+00
09,8.33800e+02,0.00000e+00,3.24394e+04,1.27845e+04,-6.79311e+03,2.34557e+01,6.13770e+01,2.04762e+09,2.40610e+09,5.47713e+08,3.72460e+07,8.05393e+01,2.01969e+01,6.88645e+01,1.08574e+00,1.12683e+01,2.33631e-03,2.33429e-02,-2.01303e-01,5.32927e-01,-9.71252e-01,0.00000e+00,0.00000e+00,3.11436e+01,-2.45146e+01,3.89601e-02,-3.06674e-02,2.70282e-01,4.16270e-01,0.00000e+00,4.69339e-01,1.14647e+00,0.00000e+00
10,9.30700e+02,0.00000e+00,2.67796e+04,1.06182e+04,-6.03617e+03,2.12571e+01,5.54403e+01,2.00486e+09,2.34009e+09,5.32666e+08,3.61568e+07,7.98259e+01,2.00162e+01,6.82283e+01,1.32014e+00,1.35966e+01,2.50158e-03,2.47135e-02,-2.18228e-01,4.44995e-01,-8.16550e-01,0.00000e+00,0.00000e+00,2.60200e+01,-2.04606e+01,3.25505e-02,-2.55959e-02,2.45891e-01,3.76999e-01,0.00000e+00,4.26756e-01,9.85363e-01,0.00000e+00
11,1.02500e+03,0.00000e+00,2.18177e+04,8.71322e+03,-5.31368e+03,1.91455e+01,4.97964e+01,1.96375e+09,2.27699e+09,5.18282e+08,3.50969e+07,7.91308e+01,1.98401e+01,6.76088e+01,1.56265e+00,1.59798e+01,2.64181e-03,2.58300e-02,-2.33238e-01,3.66688e-01,-6.77755e-01,0.00000e+00,0.00000e+00,2.14546e+01,-1.68491e+01,2.68393e-02,-2.10779e-02,2.22069e-01,3.38333e-01,0.00000e+00,3.85226e-01,8.39024e-01,0.00000e+00
12,1.11650e+03,0.00000e+00,1.75126e+04,7.05491e+03,-4.62581e+03,1.71016e+01,4.43027e+01,1.92432e+09,2.21681e+09,5.04566e+08,3.40782e+07,7.84554e+01,1.96691e+01,6.70073e+01,1.80974e+00,1.83841e+01,2.75903e-03,2.67238e-02,-2.46375e-01,2.97694e-01,-5.54549e-01,0.00000e+00,0.00000e+00,1.74298e+01,-1.36661e+01,2.18044e-02,-1.70960e-02,1.98478e-01,3.00234e-01,0.00000e+00,3.44158e-01,7.07075e-01,0.00000e+00
13,1.20500e+03,0.00000e+00,1.38221e+04,5.62746e+03,-3.97820e+03,1.51571e+01,3.90986e+01,1.32148e+09,1.95268e+09,4.45208e+08,3.12122e+07,7.39632e+01,1.86188e+01,6.42675e+01,2.05728e+00,2.07865e+01,2.83515e-03,2.75676e-02,-2.58022e-01,3.45910e-01,-5.53676e-01,0.00000e+00,0.00000e+00,2.00269e+01,-1.54569e+01,2.50533e-02,-1.93364e-02,1.78180e-01,2.86423e-01,0.00000e+00,3.09250e-01,6.84894e-01,0.00000e+00
14,1.29010e+03,0.00000e+00,1.07048e+04,4.41576e+03,-3.38179e+03,1.33202e+01,3.41647e+01,1.21619e+09,1.75686e+09,4.00479e+08,2.80015e+07,7.15330e+01,1.79989e+01,6.20379e+01,2.30052e+00,2.31667e+01,2.88139e-03,2.83718e-02,-2.68584e-01,2.80109e-01,-4.56011e-01,0.00000e+00,0.00000e+00,1.62392e+01,-1.25146e+01,2.03149e-02,-1.56556e-02,1.62334e-01,2.60321e-01,0.00000e+00,2.81568e-01,5.86533e-01,0.00000e+00
15,1.37170e+03,0.00000e+00,8.10887e+03,3.39953e+03,-2.84237e+03,1.15873e+01,2.94606e+01,1.12002e+09,1.58132e+09,3.60391e+08,2.51406e+07,6.91884e+01,1.74013e+01,5.98941e+01,2.53745e+00,2.55080e+01,2.92576e-03,2.90119e-02,-2.78124e-01,2.21862e-01,-3.68098e-01,0.00000e+00,0.00000e+00,1.28817e+01,-9.90450e+00,1.61148e-02,-1.23904e-02,1.46021e-01,2.33821e-01,0.00000e+00,2.53137e-01,4.96684e-01,0.00000e+00
16,1.44960e+03,0.00000e+00,5.98567e+03,2.55995e+03,-2.35715e+03,9.96804e+00,2.50501e+01,1.03251e+09,1.42458e+09,3.24609e+08,2.25959e+07,6.69366e+01,1.68278e+01,5.78421e+01,2.76696e+00,2.77873e+01,2.96673e-03,2.95066e-02,-2.86591e-01,1.71233e-01,-2.90022e-01,0.00000e+00,0.00000e+00,9.95905e+00,-7.63237e+00,1.24586e-02,-9.54797e-03,1.29482e-01,2.07115e-01,0.00000e+00,2.24365e-01,4.15537e-01,0.00000e+00
17,1.52340e+03,0.00000e+00,4.29151e+03,1.88091e+03,-1.91791e+03,8.43427e+00,2.08622e+01,9.53418e+08,1.28561e+09,2.92889e+08,2.03503e+07,6.47909e+01,1.62818e+01,5.58929e+01,2.98724e+00,2.99785e+01,3.00302e-03,2.98754e-02,-2.93918e-01,1.28334e-01,-2.22326e-01,0.00000e+00,0.00000e+00,7.47839e+00,-5.70570e+00,9.35534e-03,-7.13773e-03,1.12430e-01,1.79788e-01,0.00000e+00,1.94773e-01,3.42680e-01,0.00000e+00
18,1.59310e+03,0.00000e+00,2.97308e+03,1.34258e+03,-1.52807e+03,7.01278e+00,1.69693e+01,8.82075e+08,1.16263e+09,2.64824e+08,1.83738e+07,6.27531e+01,1.57637e+01,5.40474e+01,3.19763e+00,3.20700e+01,3.03389e-03,3.01403e-02,-3.00100e-01,9.29206e-02,-1.65126e-01,0.00000e+00,0.00000e+00,5.42674e+00,-4.11585e+00,6.78875e-03,-5.14886e-03,9.53432e-02,1.52589e-01,0.00000e+00,1.65163e-01,2.78021e-01,0.00000e+00
19,1.65850e+03,0.00000e+00,1.97965e+03,9.26694e+02,-1.18476e+03,5.70533e+00,1.34110e+01,8.18049e+08,1.05434e+09,2.40117e+08,1.66395e+07,6.08309e+01,1.52752e+01,5.23116e+01,3.39687e+00,3.40471e+01,3.05896e-03,3.03222e-02,-3.05148e-01,6.46471e-02,-1.18251e-01,0.00000e+00,0.00000e+00,3.78509e+00,-2.84879e+00,4.73508e-03,-3.56379e-03,7.84964e-02,1.25805e-01,0.00000e+00,1.35974e-01,2.25566e-01,0.00000e+00
20,1.71930e+03,0.00000e+00,1.26166e+03,6.16460e+02,-8.83053e+02,4.49974e+00,1.02068e+01,7.61023e+08,9.59670e+08,2.18523e+08,1.51208e+07,5.90349e+01,1.48192e+01,5.06943e+01,3.58344e+00,3.58943e+01,3.07826e-03,3.04406e-02,-3.09088e-01,4.30319e-02,-8.12708e-02,0.00000e+00,0.00000e+00,2.52688e+00,-1.88331e+00,3.16108e-03,-2.35599e-03,6.20743e-02,9.95286e-02,0.00000e+00,1.07524e-01,1.76343e-01,0.00000e+00
21,1.77540e+03,0.00000e+00,7.66691e+02,3.94772e+02,-6.24375e+02,3.40354e+00,7.43934e+00,3.98519e+08,7.29057e+08,1.66652e+08,1.11691e+07,5.21005e+01,1.31900e+01,4.07358e+01,3.75644e+00,3.76047e+01,3.08936e-03,3.05374e-02,-3.12294e-01,5.07538e-02,-7.57064e-02,0.00000e+00,0.00000e+00,2.93287e+00,-2.08016e+00,3.66897e-03,-2.60225e-03,7.94567e-02,8.61172e-02,0.00000e+00,1.37632e-01,1.55944e-01,0.00000e+00
22,1.82660e+03,0.00000e+00,4.42769e+02,2.43678e+02,-4.24143e+02,2.49857e+00,5.21386e+00,3.22692e+08,5.63581e+08,1.28741e+08,8.60421e+06,4.80842e+01,1.21552e+01,3.73499e+01,3.91478e+00,3.91704e+01,3.09559e-03,3.06193e-02,-3.14987e-01,3.31759e-02,-5.18702e-02,0.00000e+00,0.00000e+00,1.92452e+00,-1.34596e+00,2.40755e-03,-1.68378e-03,6.28210e-02,6.84374e-02,0.00000e+00,1.08814e-01,1.21907e-01,0.00000e+00
23,1.87280e+03,0.00000e+00,2.41018e+02,1.44132e+02,-2.83721e+02,1.81080e+00,3.51997e+00,2.62353e+08,4.36581e+08,9.96683e+07,6.66872e+06,4.43938e+01,1.12070e+01,3.42731e+01,4.05793e+00,4.05861e+01,3.10166e-03,3.06698e-02,-3.17109e-01,2.04621e-02,-3.38874e-02,0.00000e+00,0.00000e+00,1.19283e+00,-8.17314e-01,1.49221e-03,-1.02245e-03,4.82782e-02,5.33777e-02,0.00000e+00,8.36228e-02,9.38566e-02,0.00000e+00
24,1.91380e+03,0.00000e+00,1.22103e+02,8.06619e+01,-1.85655e+02,1.28528e+00,2.28075e+00,2.14932e+08,3.40501e+08,7.76906e+07,5.21779e+06,4.10625e+01,1.03532e+01,3.15244e+01,4.18520e+00,4.18442e+01,3.10676e-03,3.06984e-02,-3.18710e-01,1.17436e-02,-2.08601e-02,0.00000e+00,0.00000e+00,6.88795e-01,-4.58925e-01,8.61670e-04,-5.74108e-04,3.58359e-02,4.05383e-02,0.00000e+00,6.20707e-02,7.06918e-02,0.00000e+00
25,1.94970e+03,0.00000e+00,5.60676e+01,4.17455e+01,-1.17391e+02,8.82768e-01,1.39811e+00,1.77937e+08,2.68420e+08,6.12136e+07,4.13593e+06,3.80992e+01,9.59536e+00,2.91026e+01,4.29680e+00,4.29465e+01,3.11049e-03,3.07129e-02,-3.19859e-01,6.10946e-03,-1.18031e-02,0.00000e+00,0.00000e+00,3.61110e-01,-2.31571e-01,4.51743e-04,-2.89691e-04,2.53314e-02,2.95546e-02,0.00000e+00,4.38757e-02,5.13572e-02,0.00000e+00
26,1.98010e+03,0.00000e+00,2.26830e+01,1.95130e+01,-7.09650e+01,5.79896e-01,7.98249e-01,1.49784e+08,2.15653e+08,4.91590e+07,3.34861e+06,3.55543e+01,8.94582e+00,2.70403e+01,4.39140e+00,4.38803e+01,3.11279e-03,3.07192e-02,-3.20612e-01,2.79931e-03,-5.97780e-03,0.00000e+00,0.00000e+00,1.67075e-01,-1.01628e-01,2.09008e-04,-1.27135e-04,1.67824e-02,2.03588e-02,0.00000e+00,2.90681e-02,3.53092e-02,0.00000e+00
27,2.00520e+03,0.00000e+00,7.55094e+00,7.79205e+00,-3.97927e+01,3.54041e-01,4.07490e-01,1.28656e+08,1.77484e+08,4.04436e+07,2.78438e+06,3.34272e+01,8.40385e+00,2.53292e+01,4.46954e+00,4.46514e+01,3.11396e-03,3.07215e-02,-3.21057e-01,1.05973e-03,-2.55894e-03,0.00000e+00,0.00000e+00,6.40569e-02,-3.60660e-02,8.01341e-05,-4.51180e-05,1.00571e-02,1.28080e-02,0.00000e+00,1.74194e-02,2.21935e-02,0.00000e+00
28,2.02480e+03,0.00000e+00,1.85541e+00,2.44367e+00,-1.97133e+01,1.91713e-01,1.73687e-01,1.13447e+08,1.50904e+08,3.43767e+07,2.39950e+06,3.17493e+01,7.97693e+00,2.39876e+01,4.53058e+00,4.52535e+01,3.11441e-03,3.07221e-02,-3.21278e-01,3.00469e-04,-8.46884e-04,0.00000e+00,0.00000e+00,1.84813e-02,-9.19292e-03,2.31198e-05,-1.15002e-05,5.14672e-03,6.96567e-03,0.00000e+00,8.91438e-03,1.20660e-02,0.00000e+00
29,2.03880e+03,0.00000e+00,2.72091e-01,5.20657e-01,-7.76200e+00,8.30034e-02,5.25008e-02,1.03260e+08,1.33576e+08,3.04229e+07,2.16429e+06,3.05414e+01,7.66993e+00,2.30264e+01,4.57418e+00,4.56836e+01,3.11453e-03,3.07222e-02,-3.21361e-01,5.36044e-05,-1.86274e-04,0.00000e+00,0.00000e+00,3.38655e-03,-1.32359e-03,4.23652e-06,-1.65579e-06,1.99136e-03,2.92579e-03,0.00000e+00,3.44914e-03,5.06767e-03,0.00000e+00
30,2.04720e+03,0.00000e+00,2.57937e-02,8.60212e-02,-1.70711e+00,2.04812e-02,6.14135e-03,9.74134e+07,1.23821e+08,2.81976e+07,2.06682e+06,2.98129e+01,7.48488e+00,2.24484e+01,4.60035e+00,4.59417e+01,3.11455e-03,3.07222e-02,-3.21379e-01,6.95734e-06,-3.12973e-05,0.00000e+00,0.00000e+00,4.56835e-04,-1.07366e-04,5.71492e-07,-1.34314e-07,3.94502e-04,6.61524e-04,0.00000e+00,6.83298e-04,1.14579e-03,0.00000e+00
31,2.05000e+03,0.00000e+00,0.00000e+00,0.00000e+00,0.00000e+00,0.00000e+00,0.00000e+00,5.74754e+07,1.08343e+08,2.47732e+07,NaN,2.74871e+01,6.96602e+00,2.15905e+01,4.60907e+00,4.60277e+01,3.11455e-03,3.07222e-02,-3.21380e-01,0.00000e+00,0.00000e+00,0.00000e+00,0.00000e+00,0.00000e+00,0.00000e+00,0.00000e+00,0.00000e+00,0.00000e+00,0.00000e+00,0.00000e+00,0.00000e+00,0.00000e+00,0.00000e+00
--------------------------------------------------------------------------------------------------------------------------------------------------------------------------------------------------------------------------------------------------------------------------------------------------------------------------------------------------------------------------------

CHAPEADO 
--------------------------------------------------------------------------------------------------------------------------------------------------------------------------------------------------------------------------------------------------------------------------------------------------------------------------------------------------------------------------------
X,Y,Z,Sigma,Tau,Von Mises
0.00000e+00,4.31008e+01,0.00000e+00,-1.29995e+00,7.34159e-01,1.81847e+00
0.00000e+00,4.28837e+01,-3.27521e+00,-1.40559e+00,7.29227e-01,1.88971e+00
0.00000e+00,4.25950e+01,-6.55041e+00,-1.50581e+00,7.24175e-01,1.95978e+00
0.00000e+00,4.23033e+01,-9.82562e+00,-1.60582e+00,7.19008e-01,2.03214e+00
0.00000e+00,4.19484e+01,-1.31008e+01,-1.70105e+00,7.13736e-01,2.10282e+00
0.00000e+00,4.15787e+01,-1.63760e+01,-1.79518e+00,7.08366e-01,2.17440e+00
0.00000e+00,4.11605e+01,-1.96512e+01,-1.88563e+00,7.02906e-01,2.24451e+00
0.00000e+00,4.07187e+01,-2.29264e+01,-1.97431e+00,6.97365e-01,2.31449e+00
0.00000e+00,4.02378e+01,-2.62017e+01,-2.06004e+00,6.91749e-01,2.38313e+00
0.00000e+00,3.97249e+01,-2.94769e+01,-2.14335e+00,6.86066e-01,2.45072e+00
0.00000e+00,3.91766e+01,-3.27521e+01,-2.22400e+00,6.80323e-01,2.51688e+00
0.00000e+00,3.85857e+01,-3.60273e+01,-2.30143e+00,6.74527e-01,2.58100e+00
0.00000e+00,3.79511e+01,-3.93025e+01,-2.37556e+00,6.68687e-01,2.64286e+00
0.00000e+00,3.72545e+01,-4.25777e+01,-2.44502e+00,6.62812e-01,2.70113e+00
0.00000e+00,3.64976e+01,-4.58529e+01,-2.50993e+00,6.56915e-01,2.75578e+00
0.00000e+00,3.56687e+01,-4.91281e+01,-2.56939e+00,6.51002e-01,2.80592e+00
0.00000e+00,3.47420e+01,-5.24033e+01,-2.62149e+00,6.45096e-01,2.84968e+00
0.00000e+00,3.37474e+01,-5.56785e+01,-2.66846e+00,6.39201e-01,2.88902e+00
0.00000e+00,3.26000e+01,-5.89537e+01,-2.70390e+00,6.33348e-01,2.91796e+00
0.00000e+00,3.13892e+01,-6.22289e+01,-2.73456e+00,6.27550e-01,2.94266e+00
0.00000e+00,3.00018e+01,-6.55041e+01,-2.75190e+00,6.21823e-01,2.95515e+00
0.00000e+00,2.84730e+01,-6.87793e+01,-2.75856e+00,6.16215e-01,2.95784e+00
0.00000e+00,2.68002e+01,-7.20546e+01,-2.75436e+00,6.10735e-01,2.95051e+00
0.00000e+00,2.48857e+01,-7.53298e+01,-2.73193e+00,6.05402e-01,2.92625e+00
0.00000e+00,2.26913e+01,-7.86050e+01,-2.68837e+00,6.00283e-01,2.88242e+00
0.00000e+00,2.01805e+01,-8.18802e+01,-2.62094e+00,5.95438e-01,2.81656e+00
0.00000e+00,1.72108e+01,-8.51554e+01,-2.51889e+00,5.90908e-01,2.71889e+00
0.00000e+00,1.33989e+01,-8.84306e+01,-2.35330e+00,5.86914e-01,2.56348e+00
0.00000e+00,8.24350e+00,-9.17058e+01,-2.08634e+00,5.84474e-01,2.31898e+00
0.00000e+00,-3.34020e+00,-9.49810e+01,-1.33437e+00,5.85442e-01,1.67594e+00
0.00000e+00,-4.17620e+00,-9.49886e+01,-1.27157e+00,5.88445e-01,1.62963e+00
0.00000e+00,-1.17928e+01,-9.15961e+01,-5.70528e-01,5.94140e-01,1.17665e+00
0.00000e+00,-1.27149e+01,-8.82037e+01,-3.74569e-01,5.98348e-01,1.10198e+00
0.00000e+00,-1.30332e+01,-8.48113e+01,-2.24179e-01,6.02776e-01,1.06783e+00
0.00000e+00,-1.30814e+01,-8.14188e+01,-9.41550e-02,6.07408e-01,1.05627e+00
0.00000e+00,-1.29264e+01,-7.80264e+01,2.05245e-02,6.12210e-01,1.06058e+00
0.00000e+00,-1.26437e+01,-7.46339e+01,1.25575e-01,6.17152e-01,1.07629e+00
0.00000e+00,-1.22328e+01,-7.12415e+01,2.20957e-01,6.22206e-01,1.10011e+00
0.00000e+00,-1.17438e+01,-6.78490e+01,3.10442e-01,6.27347e-01,1.13007e+00
0.00000e+00,-1.12094e+01,-6.44565e+01,3.96505e-01,6.32563e-01,1.16517e+00
0.00000e+00,-1.06068e+01,-6.10641e+01,4.77415e-01,6.37838e-01,1.20351e+00
0.00000e+00,-9.96142e+00,-5.76716e+01,5.55104e-01,6.43158e-01,1.24463e+00
0.00000e+00,-9.27449e+00,-5.42792e+01,6.29656e-01,6.48513e-01,1.28770e+00
0.00000e+00,-8.54615e+00,-5.08867e+01,7.01084e-01,6.53891e-01,1.33201e+00
0.00000e+00,-7.79185e+00,-4.74943e+01,7.70553e-01,6.59283e-01,1.37758e+00
0.00000e+00,-7.00429e+00,-4.41018e+01,8.37512e-01,6.64682e-01,1.42367e+00
0.00000e+00,-6.19544e+00,-4.07094e+01,9.02865e-01,6.70078e-01,1.47043e+00
0.00000e+00,-5.36748e+00,-3.73169e+01,9.66777e-01,6.75466e-01,1.51770e+00
0.00000e+00,-4.52248e+00,-3.39245e+01,1.02940e+00,6.80841e-01,1.56534e+00
0.00000e+00,-3.67026e+00,-3.05320e+01,1.09148e+00,6.86198e-01,1.61367e+00
0.00000e+00,-2.80686e+00,-2.71396e+01,1.15272e+00,6.91533e-01,1.66235e+00
0.00000e+00,-1.94159e+00,-2.37472e+01,1.21382e+00,6.96846e-01,1.71176e+00
0.00000e+00,-1.06964e+00,-2.03547e+01,1.27441e+00,7.02134e-01,1.76156e+00
0.00000e+00,-1.97780e-01,-1.69622e+01,1.33501e+00,7.07395e-01,1.81203e+00
0.00000e+00,6.70785e-01,-1.35698e+01,1.39586e+00,7.12630e-01,1.86331e+00
0.00000e+00,1.53935e+00,-1.01774e+01,1.45670e+00,7.17837e-01,1.91516e+00
0.00000e+00,2.38735e+00,-6.78490e+00,1.51910e+00,7.23019e-01,1.96874e+00
0.00000e+00,3.23151e+00,-3.39245e+00,1.58179e+00,7.28179e-01,2.02307e+00
1.07300e+02,4.26785e+01,0.00000e+00,-1.16678e+00,6.95258e-01,1.67676e+00
1.07300e+02,4.24636e+01,-3.24312e+00,-1.26212e+00,6.90620e-01,1.73891e+00
1.07300e+02,4.21777e+01,-6.48624e+00,-1.35261e+00,6.85869e-01,1.80022e+00
1.07300e+02,4.18889e+01,-9.72936e+00,-1.44290e+00,6.81009e-01,1.86367e+00
1.07300e+02,4.15374e+01,-1.29725e+01,-1.52890e+00,6.76051e-01,1.92579e+00
1.07300e+02,4.11714e+01,-1.62156e+01,-1.61391e+00,6.71001e-01,1.98882e+00
1.07300e+02,4.07572e+01,-1.94587e+01,-1.69562e+00,6.65867e-01,2.05068e+00
1.07300e+02,4.03197e+01,-2.27018e+01,-1.77574e+00,6.60656e-01,2.11250e+00
1.07300e+02,3.98436e+01,-2.59450e+01,-1.85322e+00,6.55374e-01,2.17324e+00
1.07300e+02,3.93357e+01,-2.91881e+01,-1.92852e+00,6.50030e-01,2.23312e+00
1.07300e+02,3.87928e+01,-3.24312e+01,-2.00143e+00,6.44629e-01,2.29181e+00
1.07300e+02,3.82077e+01,-3.56743e+01,-2.07146e+00,6.39179e-01,2.34874e+00
1.07300e+02,3.75793e+01,-3.89174e+01,-2.13852e+00,6.33687e-01,2.40373e+00
1.07300e+02,3.68895e+01,-4.21606e+01,-2.20139e+00,6.28162e-01,2.45558e+00
1.07300e+02,3.61401e+01,-4.54037e+01,-2.26017e+00,6.22615e-01,2.50426e+00
1.07300e+02,3.53192e+01,-4.86468e+01,-2.31407e+00,6.17055e-01,2.54896e+00
1.07300e+02,3.44016e+01,-5.18899e+01,-2.36135e+00,6.11501e-01,2.58801e+00
1.07300e+02,3.34168e+01,-5.51330e+01,-2.40404e+00,6.05957e-01,2.62316e+00
1.07300e+02,3.22806e+01,-5.83762e+01,-2.43637e+00,6.00453e-01,2.64906e+00
1.07300e+02,3.10816e+01,-6.16193e+01,-2.46441e+00,5.95001e-01,2.67122e+00
1.07300e+02,2.97079e+01,-6.48624e+01,-2.48050e+00,5.89615e-01,2.68250e+00
1.07300e+02,2.81940e+01,-6.81055e+01,-2.48700e+00,5.84341e-01,2.68506e+00
1.07300e+02,2.65376e+01,-7.13486e+01,-2.48375e+00,5.79187e-01,2.67869e+00
1.07300e+02,2.46419e+01,-7.45918e+01,-2.46414e+00,5.74173e-01,2.65725e+00
1.07300e+02,2.24690e+01,-7.78349e+01,-2.42557e+00,5.69358e-01,2.61837e+00
1.07300e+02,1.99828e+01,-8.10780e+01,-2.36557e+00,5.64802e-01,2.55987e+00
1.07300e+02,1.70422e+01,-8.43211e+01,-2.27449e+00,5.60542e-01,2.47304e+00
1.07300e+02,1.32676e+01,-8.75642e+01,-2.12638e+00,5.56786e-01,2.33485e+00
1.07300e+02,8.16273e+00,-9.08074e+01,-1.88727e+00,5.54492e-01,2.11759e+00
1.07300e+02,-3.30748e+00,-9.40505e+01,-1.21283e+00,5.55402e-01,1.54802e+00
1.07300e+02,-4.13529e+00,-9.40580e+01,-1.15647e+00,5.58226e-01,1.50740e+00
1.07300e+02,-1.16772e+01,-9.06988e+01,-5.26665e-01,5.63583e-01,1.10917e+00
1.07300e+02,-1.25904e+01,-8.73396e+01,-3.50231e-01,5.67539e-01,1.04353e+00
1.07300e+02,-1.29055e+01,-8.39804e+01,-2.14700e-01,5.71703e-01,1.01323e+00
1.07300e+02,-1.29533e+01,-8.06211e+01,-9.74490e-02,5.76060e-01,1.00251e+00
1.07300e+02,-1.27997e+01,-7.72619e+01,6.02855e-03,5.80575e-01,1.00560e+00
1.07300e+02,-1.25198e+01,-7.39027e+01,1.00863e-01,5.85223e-01,1.01864e+00
1.07300e+02,-1.21130e+01,-7.05435e+01,1.87019e-01,5.89976e-01,1.03884e+00
1.07300e+02,-1.16287e+01,-6.71843e+01,2.67882e-01,5.94811e-01,1.06450e+00
1.07300e+02,-1.10996e+01,-6.38251e+01,3.45673e-01,5.99715e-01,1.09474e+00
1.07300e+02,-1.05029e+01,-6.04659e+01,4.18839e-01,6.04676e-01,1.12797e+00
1.07300e+02,-9.86382e+00,-5.71066e+01,4.89114e-01,6.09679e-01,1.16377e+00
1.07300e+02,-9.18363e+00,-5.37474e+01,5.56574e-01,6.14715e-01,1.20141e+00
1.07300e+02,-8.46243e+00,-5.03882e+01,6.21228e-01,6.19772e-01,1.24027e+00
1.07300e+02,-7.71552e+00,-4.70290e+01,6.84125e-01,6.24844e-01,1.28036e+00
1.07300e+02,-6.93567e+00,-4.36698e+01,7.44769e-01,6.29920e-01,1.32101e+00
1.07300e+02,-6.13474e+00,-4.03106e+01,8.03971e-01,6.34995e-01,1.36236e+00
1.07300e+02,-5.31490e+00,-3.69514e+01,8.61879e-01,6.40062e-01,1.40423e+00
1.07300e+02,-4.47818e+00,-3.35921e+01,9.18633e-01,6.45116e-01,1.44652e+00
1.07300e+02,-3.63431e+00,-3.02329e+01,9.74898e-01,6.50154e-01,1.48947e+00
1.07300e+02,-2.77936e+00,-2.68737e+01,1.03041e+00,6.55171e-01,1.53280e+00
1.07300e+02,-1.92257e+00,-2.35145e+01,1.08579e+00,6.60167e-01,1.57683e+00
1.07300e+02,-1.05916e+00,-2.01553e+01,1.14072e+00,6.65140e-01,1.62125e+00
1.07300e+02,-1.95842e-01,-1.67961e+01,1.19565e+00,6.70088e-01,1.66632e+00
1.07300e+02,6.64213e-01,-1.34369e+01,1.25081e+00,6.75011e-01,1.71215e+00
1.07300e+02,1.52427e+00,-1.00776e+01,1.30597e+00,6.79907e-01,1.75851e+00
1.07300e+02,2.36396e+00,-6.71843e+00,1.36252e+00,6.84781e-01,1.80644e+00
1.07300e+02,3.19985e+00,-3.35921e+00,1.41933e+00,6.89633e-01,1.85507e+00
2.14300e+02,4.22575e+01,0.00000e+00,-1.04014e+00,6.55932e-01,1.54033e+00
2.14300e+02,4.20447e+01,-3.21112e+00,-1.12563e+00,6.51581e-01,1.59396e+00
2.14300e+02,4.17615e+01,-6.42224e+00,-1.20679e+00,6.47125e-01,1.64702e+00
2.14300e+02,4.14756e+01,-9.63337e+00,-1.28778e+00,6.42567e-01,1.70208e+00
2.14300e+02,4.11276e+01,-1.28445e+01,-1.36495e+00,6.37917e-01,1.75611e+00
2.14300e+02,4.07652e+01,-1.60556e+01,-1.44123e+00,6.33181e-01,1.81105e+00
2.14300e+02,4.03551e+01,-1.92667e+01,-1.51458e+00,6.28365e-01,1.86507e+00
2.14300e+02,3.99219e+01,-2.24779e+01,-1.58650e+00,6.23477e-01,1.91916e+00
2.14300e+02,3.94505e+01,-2.56890e+01,-1.65607e+00,6.18524e-01,1.97238e+00
2.14300e+02,3.89476e+01,-2.89001e+01,-1.72369e+00,6.13511e-01,2.02492e+00
2.14300e+02,3.84101e+01,-3.21112e+01,-1.78919e+00,6.08445e-01,2.07649e+00
2.14300e+02,3.78307e+01,-3.53223e+01,-1.85211e+00,6.03334e-01,2.12658e+00
2.14300e+02,3.72085e+01,-3.85335e+01,-1.91239e+00,5.98182e-01,2.17502e+00
2.14300e+02,3.65256e+01,-4.17446e+01,-1.96893e+00,5.93001e-01,2.22073e+00
2.14300e+02,3.57835e+01,-4.49557e+01,-2.02183e+00,5.87799e-01,2.26370e+00
2.14300e+02,3.49707e+01,-4.81668e+01,-2.07038e+00,5.82584e-01,2.30319e+00
2.14300e+02,3.40622e+01,-5.13780e+01,-2.11303e+00,5.77374e-01,2.33773e+00
2.14300e+02,3.30871e+01,-5.45891e+01,-2.15158e+00,5.72175e-01,2.36885e+00
2.14300e+02,3.19621e+01,-5.78002e+01,-2.18090e+00,5.67012e-01,2.39182e+00
2.14300e+02,3.07750e+01,-6.10113e+01,-2.20639e+00,5.61898e-01,2.41150e+00
2.14300e+02,2.94148e+01,-6.42224e+01,-2.22122e+00,5.56847e-01,2.42158e+00
2.14300e+02,2.79159e+01,-6.74336e+01,-2.22751e+00,5.51901e-01,2.42396e+00
2.14300e+02,2.62758e+01,-7.06447e+01,-2.22511e+00,5.47067e-01,2.41846e+00
2.14300e+02,2.43988e+01,-7.38558e+01,-2.20812e+00,5.42364e-01,2.39964e+00
2.14300e+02,2.22473e+01,-7.70669e+01,-2.17422e+00,5.37848e-01,2.36539e+00
2.14300e+02,1.97856e+01,-8.02781e+01,-2.12122e+00,5.33575e-01,2.31380e+00
2.14300e+02,1.68740e+01,-8.34892e+01,-2.04051e+00,5.29580e-01,2.23720e+00
2.14300e+02,1.31367e+01,-8.67003e+01,-1.90896e+00,5.26057e-01,2.11526e+00
2.14300e+02,8.08220e+00,-8.99114e+01,-1.69628e+00,5.23906e-01,1.92375e+00
2.14300e+02,-3.27484e+00,-9.31226e+01,-1.09547e+00,5.24759e-01,1.42344e+00
2.14300e+02,-4.09449e+00,-9.31300e+01,-1.04523e+00,5.27408e-01,1.38816e+00
2.14300e+02,-1.15620e+01,-8.98039e+01,-4.83222e-01,5.32432e-01,1.04113e+00
2.14300e+02,-1.24661e+01,-8.64779e+01,-3.25414e-01,5.36143e-01,9.83993e-01
2.14300e+02,-1.27781e+01,-8.31518e+01,-2.04072e-01,5.40048e-01,9.57393e-01
2.14300e+02,-1.28255e+01,-7.98257e+01,-9.90276e-02,5.44135e-01,9.47657e-01
2.14300e+02,-1.26734e+01,-7.64996e+01,-6.26281e-03,5.48370e-01,9.49825e-01
2.14300e+02,-1.23963e+01,-7.31736e+01,7.87965e-02,5.52729e-01,9.60592e-01
2.14300e+02,-1.19935e+01,-6.98475e+01,1.56119e-01,5.57187e-01,9.77622e-01
2.14300e+02,-1.15140e+01,-6.65214e+01,2.28721e-01,5.61721e-01,9.99453e-01
2.14300e+02,-1.09901e+01,-6.31954e+01,2.98586e-01,5.66321e-01,1.02534e+00
2.14300e+02,-1.03992e+01,-5.98693e+01,3.64326e-01,5.70974e-01,1.05393e+00
2.14300e+02,-9.76651e+00,-5.65432e+01,4.27489e-01,5.75666e-01,1.08486e+00
2.14300e+02,-9.09302e+00,-5.32171e+01,4.88142e-01,5.80389e-01,1.11751e+00
2.14300e+02,-8.37893e+00,-4.98911e+01,5.46295e-01,5.85133e-01,1.15134e+00
2.14300e+02,-7.63939e+00,-4.65650e+01,6.02880e-01,5.89889e-01,1.18633e+00
2.14300e+02,-6.86724e+00,-4.32389e+01,6.57457e-01,5.94651e-01,1.22192e+00
2.14300e+02,-6.07421e+00,-3.99129e+01,7.10748e-01,5.99410e-01,1.25819e+00
2.14300e+02,-5.26246e+00,-3.65868e+01,7.62886e-01,6.04163e-01,1.29500e+00
2.14300e+02,-4.43399e+00,-3.32607e+01,8.13995e-01,6.08903e-01,1.33224e+00
2.14300e+02,-3.59845e+00,-2.99346e+01,8.64668e-01,6.13627e-01,1.37013e+00
2.14300e+02,-2.75194e+00,-2.66086e+01,9.14665e-01,6.18333e-01,1.40841e+00
2.14300e+02,-1.90360e+00,-2.32825e+01,9.64550e-01,6.23019e-01,1.44735e+00
2.14300e+02,-1.04871e+00,-1.99564e+01,1.01403e+00,6.27683e-01,1.48668e+00
2.14300e+02,-1.93910e-01,-1.66304e+01,1.06352e+00,6.32323e-01,1.52662e+00
2.14300e+02,6.57660e-01,-1.33043e+01,1.11320e+00,6.36940e-01,1.56726e+00
2.14300e+02,1.50923e+00,-9.97821e+00,1.16289e+00,6.41533e-01,1.60842e+00
2.14300e+02,2.34063e+00,-6.65214e+00,1.21382e+00,6.46103e-01,1.65097e+00
2.14300e+02,3.16828e+00,-3.32607e+00,1.26498e+00,6.50654e-01,1.69417e+00
3.20700e+02,4.18388e+01,0.00000e+00,-9.20492e-01,6.16146e-01,1.40933e+00
3.20700e+02,4.16280e+01,-3.17930e+00,-9.96621e-01,6.12086e-01,1.45506e+00
3.20700e+02,4.13477e+01,-6.35861e+00,-1.06892e+00,6.07927e-01,1.50044e+00
3.20700e+02,4.10646e+01,-9.53791e+00,-1.14106e+00,6.03674e-01,1.54767e+00
3.20700e+02,4.07201e+01,-1.27172e+01,-1.20982e+00,5.99334e-01,1.59414e+00
3.20700e+02,4.03613e+01,-1.58965e+01,-1.27780e+00,5.94914e-01,1.64150e+00
3.20700e+02,3.99553e+01,-1.90758e+01,-1.34318e+00,5.90420e-01,1.68817e+00
3.20700e+02,3.95264e+01,-2.22551e+01,-1.40730e+00,5.85858e-01,1.73498e+00
3.20700e+02,3.90596e+01,-2.54344e+01,-1.46933e+00,5.81235e-01,1.78113e+00
3.20700e+02,3.85617e+01,-2.86137e+01,-1.52965e+00,5.76557e-01,1.82676e+00
3.20700e+02,3.80295e+01,-3.17930e+01,-1.58808e+00,5.71829e-01,1.87162e+00
3.20700e+02,3.74559e+01,-3.49724e+01,-1.64423e+00,5.67059e-01,1.91524e+00
3.20700e+02,3.68398e+01,-3.81517e+01,-1.69804e+00,5.62252e-01,1.95748e+00
3.20700e+02,3.61637e+01,-4.13310e+01,-1.74855e+00,5.57416e-01,1.99739e+00
3.20700e+02,3.54289e+01,-4.45103e+01,-1.79583e+00,5.52561e-01,2.03494e+00
3.20700e+02,3.46242e+01,-4.76896e+01,-1.83926e+00,5.47695e-01,2.06949e+00
3.20700e+02,3.37247e+01,-5.08689e+01,-1.87747e+00,5.42833e-01,2.09973e+00
3.20700e+02,3.27593e+01,-5.40482e+01,-1.91205e+00,5.37981e-01,2.12701e+00
3.20700e+02,3.16454e+01,-5.72275e+01,-1.93845e+00,5.33163e-01,2.14718e+00
3.20700e+02,3.04701e+01,-6.04068e+01,-1.96148e+00,5.28391e-01,2.16448e+00
3.20700e+02,2.91233e+01,-6.35861e+01,-1.97507e+00,5.23677e-01,2.17338e+00
3.20700e+02,2.76393e+01,-6.67654e+01,-1.98109e+00,5.19061e-01,2.17555e+00
3.20700e+02,2.60154e+01,-6.99447e+01,-1.97943e+00,5.14550e-01,2.17081e+00
3.20700e+02,2.41570e+01,-7.31240e+01,-1.96485e+00,5.10161e-01,2.15439e+00
3.20700e+02,2.20269e+01,-7.63033e+01,-1.93531e+00,5.05947e-01,2.12447e+00
3.20700e+02,1.95896e+01,-7.94826e+01,-1.88886e+00,5.01959e-01,2.07934e+00
3.20700e+02,1.67068e+01,-8.26619e+01,-1.81788e+00,4.98230e-01,2.01231e+00
3.20700e+02,1.30066e+01,-8.58412e+01,-1.70190e+00,4.94943e-01,1.90562e+00
3.20700e+02,8.00212e+00,-8.90205e+01,-1.51412e+00,4.92936e-01,1.73825e+00
3.20700e+02,-3.24239e+00,-9.21998e+01,-9.82814e-01,4.93732e-01,1.30278e+00
3.20700e+02,-4.05392e+00,-9.22072e+01,-9.38342e-01,4.96204e-01,1.27245e+00
3.20700e+02,-1.14474e+01,-8.89141e+01,-4.40438e-01,5.00893e-01,9.72968e-01
3.20700e+02,-1.23426e+01,-8.56210e+01,-3.00286e-01,5.04356e-01,9.23741e-01
3.20700e+02,-1.26515e+01,-8.23279e+01,-1.92410e-01,5.08001e-01,9.00675e-01
3.20700e+02,-1.26984e+01,-7.90348e+01,-9.89594e-02,5.11814e-01,8.91994e-01
3.20700e+02,-1.25479e+01,-7.57416e+01,-1.63771e-02,5.15766e-01,8.93484e-01
3.20700e+02,-1.22734e+01,-7.24485e+01,5.93851e-02,5.19834e-01,9.02336e-01
3.20700e+02,-1.18746e+01,-6.91554e+01,1.28299e-01,5.23995e-01,9.16609e-01
3.20700e+02,-1.13999e+01,-6.58623e+01,1.93036e-01,5.28226e-01,9.35057e-01
3.20700e+02,-1.08812e+01,-6.25692e+01,2.55349e-01,5.32519e-01,9.57044e-01
3.20700e+02,-1.02962e+01,-5.92761e+01,3.14013e-01,5.36861e-01,9.81460e-01
3.20700e+02,-9.66973e+00,-5.59829e+01,3.70395e-01,5.41240e-01,1.00798e+00
3.20700e+02,-9.00292e+00,-5.26898e+01,4.24555e-01,5.45648e-01,1.03607e+00
3.20700e+02,-8.29591e+00,-4.93967e+01,4.76502e-01,5.50074e-01,1.06527e+00
3.20700e+02,-7.56370e+00,-4.61036e+01,5.27062e-01,5.54513e-01,1.09556e+00
3.20700e+02,-6.79920e+00,-4.28105e+01,5.75845e-01,5.58957e-01,1.12645e+00
3.20700e+02,-6.01403e+00,-3.95174e+01,6.23489e-01,5.63398e-01,1.15801e+00
3.20700e+02,-5.21032e+00,-3.62243e+01,6.70113e-01,5.67833e-01,1.19011e+00
3.20700e+02,-4.39006e+00,-3.29311e+01,7.15825e-01,5.72257e-01,1.22264e+00
3.20700e+02,-3.56279e+00,-2.96380e+01,7.61152e-01,5.76666e-01,1.25578e+00
3.20700e+02,-2.72467e+00,-2.63449e+01,8.05881e-01,5.81057e-01,1.28931e+00
3.20700e+02,-1.88474e+00,-2.30518e+01,8.50511e-01,5.85430e-01,1.32346e+00
3.20700e+02,-1.03832e+00,-1.97587e+01,8.94784e-01,5.89782e-01,1.35800e+00
3.20700e+02,-1.91989e-01,-1.64656e+01,9.39061e-01,5.94113e-01,1.39311e+00
3.20700e+02,6.51143e-01,-1.31725e+01,9.83514e-01,5.98422e-01,1.42885e+00
3.20700e+02,1.49428e+00,-9.87934e+00,1.02797e+00,6.02707e-01,1.46509e+00
3.20700e+02,2.31744e+00,-6.58623e+00,1.07352e+00,6.06972e-01,1.50256e+00
3.20700e+02,3.13689e+00,-3.29311e+00,1.11928e+00,6.11219e-01,1.54063e+00
4.26200e+02,4.14236e+01,0.00000e+00,-8.08292e-01,5.76120e-01,1.28416e+00
4.26200e+02,4.12150e+01,-3.14776e+00,-8.75580e-01,5.72346e-01,1.32264e+00
4.26200e+02,4.09374e+01,-6.29551e+00,-9.39502e-01,5.68481e-01,1.36095e+00
4.26200e+02,4.06571e+01,-9.44327e+00,-1.00329e+00,5.64527e-01,1.40095e+00
4.26200e+02,4.03160e+01,-1.25910e+01,-1.06410e+00,5.60494e-01,1.44041e+00
4.26200e+02,3.99607e+01,-1.57388e+01,-1.12423e+00,5.56385e-01,1.48074e+00
4.26200e+02,3.95588e+01,-1.88865e+01,-1.18208e+00,5.52208e-01,1.52056e+00
4.26200e+02,3.91341e+01,-2.20343e+01,-1.23881e+00,5.47969e-01,1.56060e+00
4.26200e+02,3.86720e+01,-2.51820e+01,-1.29372e+00,5.43672e-01,1.60014e+00
4.26200e+02,3.81790e+01,-2.83298e+01,-1.34712e+00,5.39324e-01,1.63931e+00
4.26200e+02,3.76521e+01,-3.14776e+01,-1.39887e+00,5.34930e-01,1.67788e+00
4.26200e+02,3.70842e+01,-3.46253e+01,-1.44861e+00,5.30496e-01,1.71544e+00
4.26200e+02,3.64743e+01,-3.77731e+01,-1.49629e+00,5.26028e-01,1.75186e+00
4.26200e+02,3.58048e+01,-4.09208e+01,-1.54108e+00,5.21533e-01,1.78631e+00
4.26200e+02,3.50774e+01,-4.40686e+01,-1.58303e+00,5.17021e-01,1.81877e+00
4.26200e+02,3.42806e+01,-4.72163e+01,-1.62159e+00,5.12497e-01,1.84866e+00
4.26200e+02,3.33901e+01,-5.03641e+01,-1.65558e+00,5.07979e-01,1.87485e+00
4.26200e+02,3.24342e+01,-5.35118e+01,-1.68637e+00,5.03469e-01,1.89850e+00
4.26200e+02,3.13314e+01,-5.66596e+01,-1.70999e+00,4.98991e-01,1.91600e+00
4.26200e+02,3.01677e+01,-5.98074e+01,-1.73064e+00,4.94556e-01,1.93102e+00
4.26200e+02,2.88343e+01,-6.29551e+01,-1.74300e+00,4.90174e-01,1.93877e+00
4.26200e+02,2.73650e+01,-6.61029e+01,-1.74871e+00,4.85884e-01,1.94068e+00
4.26200e+02,2.57573e+01,-6.92506e+01,-1.74768e+00,4.81691e-01,1.93661e+00
4.26200e+02,2.39173e+01,-7.23984e+01,-1.73530e+00,4.77612e-01,1.92239e+00
4.26200e+02,2.18083e+01,-7.55461e+01,-1.70977e+00,4.73695e-01,1.89644e+00
4.26200e+02,1.93952e+01,-7.86939e+01,-1.66940e+00,4.69989e-01,1.85730e+00
4.26200e+02,1.65410e+01,-8.18417e+01,-1.60749e+00,4.66523e-01,1.79916e+00
4.26200e+02,1.28775e+01,-8.49894e+01,-1.50606e+00,4.63468e-01,1.70664e+00
4.26200e+02,7.92271e+00,-8.81372e+01,-1.34156e+00,4.61602e-01,1.56173e+00
4.26200e+02,-3.21022e+00,-9.12849e+01,-8.75349e-01,4.62343e-01,1.18639e+00
4.26200e+02,-4.01369e+00,-9.12922e+01,-8.36291e-01,4.64641e-01,1.16063e+00
4.26200e+02,-1.13339e+01,-8.80318e+01,-3.98554e-01,4.68998e-01,9.04833e-01
4.26200e+02,-1.22201e+01,-8.47713e+01,-2.75022e-01,4.72217e-01,8.62905e-01
4.26200e+02,-1.25260e+01,-8.15109e+01,-1.79837e-01,4.75605e-01,8.43173e-01
4.26200e+02,-1.25724e+01,-7.82505e+01,-9.73218e-02,4.79149e-01,8.35597e-01
4.26200e+02,-1.24233e+01,-7.49900e+01,-2.43518e-02,4.82823e-01,8.36628e-01
4.26200e+02,-1.21516e+01,-7.17296e+01,4.26284e-02,4.86604e-01,8.43899e-01
4.26200e+02,-1.17568e+01,-6.84692e+01,1.03594e-01,4.90470e-01,8.55812e-01
4.26200e+02,-1.12868e+01,-6.52087e+01,1.60891e-01,4.94404e-01,8.71315e-01
4.26200e+02,-1.07732e+01,-6.19483e+01,2.16059e-01,4.98394e-01,8.89871e-01
4.26200e+02,-1.01940e+01,-5.86879e+01,2.68022e-01,5.02429e-01,9.10571e-01
4.26200e+02,-9.57378e+00,-5.54274e+01,3.17981e-01,5.06499e-01,9.33132e-01
4.26200e+02,-8.91358e+00,-5.21670e+01,3.65988e-01,5.10596e-01,9.57116e-01
4.26200e+02,-8.21359e+00,-4.89065e+01,4.12052e-01,5.14710e-01,9.82124e-01
4.26200e+02,-7.48864e+00,-4.56461e+01,4.56898e-01,5.18835e-01,1.00813e+00
4.26200e+02,-6.73173e+00,-4.23857e+01,5.00182e-01,5.22965e-01,1.03473e+00
4.26200e+02,-5.95435e+00,-3.91252e+01,5.42467e-01,5.27094e-01,1.06196e+00
4.26200e+02,-5.15861e+00,-3.58648e+01,5.83856e-01,5.31216e-01,1.08971e+00
4.26200e+02,-4.34650e+00,-3.26044e+01,6.24444e-01,5.35327e-01,1.11788e+00
4.26200e+02,-3.52744e+00,-2.93439e+01,6.64694e-01,5.39425e-01,1.14663e+00
4.26200e+02,-2.69763e+00,-2.60835e+01,7.04418e-01,5.43507e-01,1.17576e+00
4.26200e+02,-1.86603e+00,-2.28231e+01,7.44055e-01,5.47571e-01,1.20545e+00
4.26200e+02,-1.02802e+00,-1.95626e+01,7.83379e-01,5.51616e-01,1.23553e+00
4.26200e+02,-1.90083e-01,-1.63022e+01,8.22707e-01,5.55640e-01,1.26612e+00
4.26200e+02,6.44682e-01,-1.30417e+01,8.62189e-01,5.59645e-01,1.29730e+00
4.26200e+02,1.47945e+00,-9.78131e+00,9.01671e-01,5.63628e-01,1.32893e+00
4.26200e+02,2.29445e+00,-6.52087e+00,9.42119e-01,5.67592e-01,1.36164e+00
4.26200e+02,3.10576e+00,-3.26044e+00,9.82747e-01,5.71539e-01,1.39491e+00
5.30600e+02,4.10127e+01,0.00000e+00,-7.03730e-01,5.35938e-01,1.16487e+00
5.30600e+02,4.08062e+01,-3.11654e+00,-7.62717e-01,5.32446e-01,1.19676e+00
5.30600e+02,4.05314e+01,-6.23307e+00,-8.18773e-01,5.28869e-01,1.22862e+00
5.30600e+02,4.02539e+01,-9.34961e+00,-8.74712e-01,5.25211e-01,1.26201e+00
5.30600e+02,3.99161e+01,-1.24661e+01,-9.28063e-01,5.21478e-01,1.29504e+00
5.30600e+02,3.95644e+01,-1.55827e+01,-9.80814e-01,5.17676e-01,1.32890e+00
5.30600e+02,3.91664e+01,-1.86992e+01,-1.03158e+00,5.13811e-01,1.36241e+00
5.30600e+02,3.87460e+01,-2.18158e+01,-1.08138e+00,5.09888e-01,1.39619e+00
5.30600e+02,3.82884e+01,-2.49323e+01,-1.12958e+00,5.05912e-01,1.42961e+00
5.30600e+02,3.78003e+01,-2.80488e+01,-1.17648e+00,5.01889e-01,1.46280e+00
5.30600e+02,3.72787e+01,-3.11654e+01,-1.22193e+00,4.97823e-01,1.49552e+00
5.30600e+02,3.67164e+01,-3.42819e+01,-1.26563e+00,4.93720e-01,1.52745e+00
5.30600e+02,3.61125e+01,-3.73984e+01,-1.30755e+00,4.89586e-01,1.55845e+00
5.30600e+02,3.54497e+01,-4.05150e+01,-1.34694e+00,4.85427e-01,1.58782e+00
5.30600e+02,3.47295e+01,-4.36315e+01,-1.38386e+00,4.81251e-01,1.61551e+00
5.30600e+02,3.39406e+01,-4.67480e+01,-1.41784e+00,4.77066e-01,1.64105e+00
5.30600e+02,3.30589e+01,-4.98646e+01,-1.44782e+00,4.72885e-01,1.66345e+00
5.30600e+02,3.21125e+01,-5.29811e+01,-1.47503e+00,4.68711e-01,1.68368e+00
5.30600e+02,3.10206e+01,-5.60976e+01,-1.49599e+00,4.64568e-01,1.69866e+00
5.30600e+02,2.98685e+01,-5.92142e+01,-1.51436e+00,4.60464e-01,1.71154e+00
5.30600e+02,2.85484e+01,-6.23307e+01,-1.52551e+00,4.56410e-01,1.71817e+00
5.30600e+02,2.70936e+01,-6.54473e+01,-1.53088e+00,4.52439e-01,1.71980e+00
5.30600e+02,2.55018e+01,-6.85638e+01,-1.53037e+00,4.48560e-01,1.71629e+00
5.30600e+02,2.36801e+01,-7.16803e+01,-1.51997e+00,4.44785e-01,1.70406e+00
5.30600e+02,2.15920e+01,-7.47969e+01,-1.49814e+00,4.41161e-01,1.68175e+00
5.30600e+02,1.92028e+01,-7.79134e+01,-1.46337e+00,4.37732e-01,1.64812e+00
5.30600e+02,1.63770e+01,-8.10299e+01,-1.40985e+00,4.34525e-01,1.59816e+00
5.30600e+02,1.27498e+01,-8.41465e+01,-1.32190e+00,4.31698e-01,1.51872e+00
5.30600e+02,7.84413e+00,-8.72630e+01,-1.17904e+00,4.29972e-01,1.39455e+00
5.30600e+02,-3.17838e+00,-9.03795e+01,-7.73428e-01,4.30657e-01,1.07452e+00
5.30600e+02,-3.97388e+00,-9.03868e+01,-7.39415e-01,4.32784e-01,1.05292e+00
5.30600e+02,-1.12214e+01,-8.71587e+01,-3.57808e-01,4.36816e-01,8.36929e-01
5.30600e+02,-1.20989e+01,-8.39306e+01,-2.49827e-01,4.39794e-01,8.01668e-01
5.30600e+02,-1.24018e+01,-8.07025e+01,-1.66531e-01,4.42929e-01,7.85042e-01
5.30600e+02,-1.24477e+01,-7.74744e+01,-9.42691e-02,4.46209e-01,7.78584e-01
5.30600e+02,-1.23001e+01,-7.42463e+01,-3.03195e-02,4.49608e-01,7.79334e-01
5.30600e+02,-1.20311e+01,-7.10182e+01,2.84139e-02,4.53106e-01,7.85318e-01
5.30600e+02,-1.16402e+01,-6.77901e+01,8.19094e-02,4.56684e-01,7.95230e-01
5.30600e+02,-1.11748e+01,-6.45620e+01,1.32210e-01,4.60324e-01,8.08192e-01
5.30600e+02,-1.06664e+01,-6.13339e+01,1.80657e-01,4.64016e-01,8.23753e-01
5.30600e+02,-1.00929e+01,-5.81058e+01,2.26312e-01,4.67750e-01,8.41182e-01
5.30600e+02,-9.47882e+00,-5.48777e+01,2.70223e-01,4.71516e-01,8.60234e-01
5.30600e+02,-8.82518e+00,-5.16496e+01,3.12434e-01,4.75307e-01,8.80548e-01
5.30600e+02,-8.13212e+00,-4.84215e+01,3.52953e-01,4.79114e-01,9.01790e-01
5.30600e+02,-7.41437e+00,-4.51934e+01,3.92410e-01,4.82931e-01,9.23933e-01
5.30600e+02,-6.66496e+00,-4.19653e+01,4.30508e-01,4.86752e-01,9.46637e-01
5.30600e+02,-5.89529e+00,-3.87372e+01,4.67735e-01,4.90572e-01,9.69928e-01
5.30600e+02,-5.10745e+00,-3.55091e+01,5.04182e-01,4.94387e-01,9.93707e-01
5.30600e+02,-4.30339e+00,-3.22810e+01,5.39932e-01,4.98191e-01,1.01789e+00
5.30600e+02,-3.49245e+00,-2.90529e+01,5.75387e-01,5.01983e-01,1.04261e+00
5.30600e+02,-2.67088e+00,-2.58248e+01,6.10385e-01,5.05759e-01,1.06768e+00
5.30600e+02,-1.84753e+00,-2.25967e+01,6.45307e-01,5.09520e-01,1.09328e+00
5.30600e+02,-1.01782e+00,-1.93686e+01,6.79955e-01,5.13263e-01,1.11922e+00
5.30600e+02,-1.88198e-01,-1.61405e+01,7.14608e-01,5.16987e-01,1.14564e+00
5.30600e+02,6.38288e-01,-1.29124e+01,7.49395e-01,5.20692e-01,1.17258e+00
5.30600e+02,1.46477e+00,-9.68430e+00,7.84181e-01,5.24378e-01,1.19994e+00
5.30600e+02,2.27169e+00,-6.45620e+00,8.19809e-01,5.28046e-01,1.22824e+00
5.30600e+02,3.07496e+00,-3.22810e+00,8.55593e-01,5.31698e-01,1.25704e+00
6.33500e+02,4.06078e+01,0.00000e+00,-6.07126e-01,4.95837e-01,1.05174e+00
6.33500e+02,4.04033e+01,-3.08576e+00,-6.58386e-01,4.92622e-01,1.07773e+00
6.33500e+02,4.01312e+01,-6.17153e+00,-7.07116e-01,4.89328e-01,1.10378e+00
6.33500e+02,3.98564e+01,-9.25729e+00,-7.55746e-01,4.85959e-01,1.13120e+00
6.33500e+02,3.95220e+01,-1.23431e+01,-8.02142e-01,4.82522e-01,1.15841e+00
6.33500e+02,3.91738e+01,-1.54288e+01,-8.48020e-01,4.79021e-01,1.18639e+00
6.33500e+02,3.87797e+01,-1.85146e+01,-8.92184e-01,4.75462e-01,1.21416e+00
6.33500e+02,3.83634e+01,-2.16004e+01,-9.35516e-01,4.71850e-01,1.24222e+00
6.33500e+02,3.79104e+01,-2.46861e+01,-9.77470e-01,4.68188e-01,1.27006e+00
6.33500e+02,3.74271e+01,-2.77719e+01,-1.01829e+00,4.64483e-01,1.29775e+00
6.33500e+02,3.69106e+01,-3.08576e+01,-1.05787e+00,4.60739e-01,1.32512e+00
6.33500e+02,3.63539e+01,-3.39434e+01,-1.09595e+00,4.56961e-01,1.35186e+00
6.33500e+02,3.57559e+01,-3.70292e+01,-1.13248e+00,4.53154e-01,1.37788e+00
6.33500e+02,3.50997e+01,-4.01149e+01,-1.16682e+00,4.49325e-01,1.40255e+00
6.33500e+02,3.43866e+01,-4.32007e+01,-1.19904e+00,4.45480e-01,1.42585e+00
6.33500e+02,3.36055e+01,-4.62865e+01,-1.22872e+00,4.41626e-01,1.44736e+00
6.33500e+02,3.27325e+01,-4.93722e+01,-1.25495e+00,4.37776e-01,1.46623e+00
6.33500e+02,3.17954e+01,-5.24580e+01,-1.27878e+00,4.33933e-01,1.48330e+00
6.33500e+02,3.07144e+01,-5.55438e+01,-1.29722e+00,4.30117e-01,1.49592e+00
6.33500e+02,2.95736e+01,-5.86295e+01,-1.31343e+00,4.26338e-01,1.50678e+00
6.33500e+02,2.82665e+01,-6.17153e+01,-1.32341e+00,4.22605e-01,1.51235e+00
6.33500e+02,2.68261e+01,-6.48011e+01,-1.32840e+00,4.18949e-01,1.51367e+00
6.33500e+02,2.52500e+01,-6.78868e+01,-1.32831e+00,4.15377e-01,1.51063e+00
6.33500e+02,2.34463e+01,-7.09726e+01,-1.31969e+00,4.11901e-01,1.50019e+00
6.33500e+02,2.13788e+01,-7.40584e+01,-1.30121e+00,4.08564e-01,1.48119e+00
6.33500e+02,1.90132e+01,-7.71441e+01,-1.27156e+00,4.05406e-01,1.45256e+00
6.33500e+02,1.62153e+01,-8.02299e+01,-1.22572e+00,4.02453e-01,1.41007e+00
6.33500e+02,1.26239e+01,-8.33156e+01,-1.15018e+00,3.99850e-01,1.34259e+00
6.33500e+02,7.76668e+00,-8.64014e+01,-1.02724e+00,3.98261e-01,1.23736e+00
6.33500e+02,-3.14700e+00,-8.94872e+01,-6.77560e-01,3.98892e-01,9.67694e-01
6.33500e+02,-3.93464e+00,-8.94943e+01,-6.48208e-01,4.00850e-01,9.49850e-01
6.33500e+02,-1.11106e+01,-8.62981e+01,-3.18518e-01,4.04563e-01,7.69719e-01
6.33500e+02,-1.19795e+01,-8.31019e+01,-2.24963e-01,4.07306e-01,7.40475e-01
6.33500e+02,-1.22793e+01,-7.99057e+01,-1.52713e-01,4.10192e-01,7.26701e-01
6.33500e+02,-1.23248e+01,-7.67094e+01,-8.99836e-02,4.13212e-01,7.21339e-01
6.33500e+02,-1.21787e+01,-7.35132e+01,-3.44282e-02,4.16342e-01,7.21947e-01
6.33500e+02,-1.19123e+01,-7.03170e+01,1.66255e-02,4.19564e-01,7.26896e-01
6.33500e+02,-1.15252e+01,-6.71208e+01,6.31590e-02,4.22859e-01,7.35131e-01
6.33500e+02,-1.10645e+01,-6.39245e+01,1.06935e-01,4.26210e-01,7.45922e-01
6.33500e+02,-1.05611e+01,-6.07283e+01,1.49112e-01,4.29610e-01,7.58899e-01
6.33500e+02,-9.99326e+00,-5.75321e+01,1.88880e-01,4.33048e-01,7.73478e-01
6.33500e+02,-9.38524e+00,-5.43358e+01,2.27141e-01,4.36516e-01,7.89450e-01
6.33500e+02,-8.73804e+00,-5.11396e+01,2.63937e-01,4.40007e-01,8.06523e-01
6.33500e+02,-8.05183e+00,-4.79434e+01,2.99271e-01,4.43512e-01,8.24422e-01
6.33500e+02,-7.34116e+00,-4.47472e+01,3.33690e-01,4.47027e-01,8.43118e-01
6.33500e+02,-6.59916e+00,-4.15509e+01,3.66935e-01,4.50546e-01,8.62332e-01
6.33500e+02,-5.83709e+00,-3.83547e+01,3.99430e-01,4.54063e-01,8.82080e-01
6.33500e+02,-5.05702e+00,-3.51585e+01,4.31250e-01,4.57576e-01,9.02277e-01
6.33500e+02,-4.26090e+00,-3.19623e+01,4.62470e-01,4.61079e-01,9.22854e-01
6.33500e+02,-3.45797e+00,-2.87660e+01,4.93435e-01,4.64570e-01,9.43903e-01
6.33500e+02,-2.64450e+00,-2.55698e+01,5.24005e-01,4.68048e-01,9.65291e-01
6.33500e+02,-1.82928e+00,-2.23736e+01,5.54509e-01,4.71510e-01,9.87141e-01
6.33500e+02,-1.00777e+00,-1.91774e+01,5.84778e-01,4.74957e-01,1.00932e+00
6.33500e+02,-1.86340e-01,-1.59811e+01,6.15050e-01,4.78386e-01,1.03191e+00
6.33500e+02,6.31986e-01,-1.27849e+01,6.45438e-01,4.81798e-01,1.05498e+00
6.33500e+02,1.45031e+00,-9.58868e+00,6.75826e-01,4.85192e-01,1.07841e+00
6.33500e+02,2.24926e+00,-6.39245e+00,7.06940e-01,4.88569e-01,1.10266e+00
6.33500e+02,3.04460e+00,-3.19623e+00,7.38189e-01,4.91932e-01,1.12735e+00
7.34700e+02,4.02095e+01,0.00000e+00,-5.18535e-01,4.55881e-01,9.44649e-01
7.34700e+02,4.00070e+01,-3.05550e+00,-5.62653e-01,4.52936e-01,9.65418e-01
7.34700e+02,3.97376e+01,-6.11100e+00,-6.04609e-01,4.49920e-01,9.86324e-01
7.34700e+02,3.94656e+01,-9.16651e+00,-6.46479e-01,4.46835e-01,1.00842e+00
7.34700e+02,3.91344e+01,-1.22220e+01,-6.86441e-01,4.43687e-01,1.03042e+00
7.34700e+02,3.87896e+01,-1.52775e+01,-7.25961e-01,4.40481e-01,1.05313e+00
7.34700e+02,3.83994e+01,-1.83330e+01,-7.64015e-01,4.37221e-01,1.07573e+00
7.34700e+02,3.79872e+01,-2.13885e+01,-8.01359e-01,4.33912e-01,1.09864e+00
7.34700e+02,3.75386e+01,-2.44440e+01,-8.37526e-01,4.30559e-01,1.12142e+00
7.34700e+02,3.70601e+01,-2.74995e+01,-8.72726e-01,4.27166e-01,1.14414e+00
7.34700e+02,3.65486e+01,-3.05550e+01,-9.06864e-01,4.23737e-01,1.16665e+00
7.34700e+02,3.59973e+01,-3.36105e+01,-9.39714e-01,4.20277e-01,1.18868e+00
7.34700e+02,3.54053e+01,-3.66660e+01,-9.71247e-01,4.16790e-01,1.21015e+00
7.34700e+02,3.47554e+01,-3.97215e+01,-1.00091e+00,4.13283e-01,1.23054e+00
7.34700e+02,3.40493e+01,-4.27770e+01,-1.02876e+00,4.09762e-01,1.24983e+00
7.34700e+02,3.32760e+01,-4.58325e+01,-1.05444e+00,4.06232e-01,1.26764e+00
7.34700e+02,3.24115e+01,-4.88880e+01,-1.07717e+00,4.02706e-01,1.28328e+00
7.34700e+02,3.14836e+01,-5.19435e+01,-1.09785e+00,3.99186e-01,1.29743e+00
7.34700e+02,3.04131e+01,-5.49990e+01,-1.11393e+00,3.95692e-01,1.30788e+00
7.34700e+02,2.92835e+01,-5.80545e+01,-1.12810e+00,3.92231e-01,1.31687e+00
7.34700e+02,2.79893e+01,-6.11100e+01,-1.13695e+00,3.88812e-01,1.32143e+00
7.34700e+02,2.65630e+01,-6.41655e+01,-1.14153e+00,3.85464e-01,1.32244e+00
7.34700e+02,2.50024e+01,-6.72210e+01,-1.14177e+00,3.82192e-01,1.31980e+00
7.34700e+02,2.32164e+01,-7.02765e+01,-1.13474e+00,3.79009e-01,1.31094e+00
7.34700e+02,2.11691e+01,-7.33320e+01,-1.11926e+00,3.75953e-01,1.29490e+00
7.34700e+02,1.88268e+01,-7.63875e+01,-1.09425e+00,3.73061e-01,1.27079e+00
7.34700e+02,1.60563e+01,-7.94430e+01,-1.05541e+00,3.70357e-01,1.23506e+00
7.34700e+02,1.25001e+01,-8.24985e+01,-9.91183e-01,3.67973e-01,1.17841e+00
7.34700e+02,7.69051e+00,-8.55540e+01,-8.86468e-01,3.66517e-01,1.09033e+00
7.34700e+02,-3.11614e+00,-8.86096e+01,-5.88016e-01,3.67095e-01,8.66048e-01
7.34700e+02,-3.89606e+00,-8.86166e+01,-5.62938e-01,3.68889e-01,8.51549e-01
7.34700e+02,-1.10017e+01,-8.54518e+01,-2.80916e-01,3.72289e-01,7.03357e-01
7.34700e+02,-1.18620e+01,-8.22869e+01,-2.00650e-01,3.74801e-01,6.79477e-01
7.34700e+02,-1.21589e+01,-7.91220e+01,-1.38586e-01,3.77445e-01,6.68281e-01
7.34700e+02,-1.22039e+01,-7.59571e+01,-8.46578e-02,3.80211e-01,6.63963e-01
7.34700e+02,-1.20592e+01,-7.27922e+01,-3.68587e-02,3.83077e-01,6.64532e-01
7.34700e+02,-1.17955e+01,-6.96274e+01,7.09420e-03,3.86028e-01,6.68657e-01
7.34700e+02,-1.14122e+01,-6.64625e+01,4.71850e-02,3.89045e-01,6.75496e-01
7.34700e+02,-1.09560e+01,-6.32976e+01,8.49199e-02,3.92114e-01,6.84451e-01
7.34700e+02,-1.04575e+01,-6.01327e+01,1.21288e-01,3.95228e-01,6.95217e-01
7.34700e+02,-9.89525e+00,-5.69678e+01,1.55598e-01,3.98377e-01,7.07335e-01
7.34700e+02,-9.29319e+00,-5.38030e+01,1.88622e-01,4.01553e-01,7.20633e-01
7.34700e+02,-8.65235e+00,-5.06381e+01,2.20392e-01,4.04750e-01,7.34874e-01
7.34700e+02,-7.97287e+00,-4.74732e+01,2.50914e-01,4.07960e-01,7.49835e-01
7.34700e+02,-7.26917e+00,-4.43083e+01,2.80654e-01,4.11179e-01,7.65488e-01
7.34700e+02,-6.53444e+00,-4.11434e+01,3.09391e-01,4.14402e-01,7.81607e-01
7.34700e+02,-5.77984e+00,-3.79786e+01,3.37487e-01,4.17623e-01,7.98201e-01
7.34700e+02,-5.00742e+00,-3.48137e+01,3.65007e-01,4.20840e-01,8.15198e-01
7.34700e+02,-4.21911e+00,-3.16488e+01,3.92013e-01,4.24048e-01,8.32541e-01
7.34700e+02,-3.42406e+00,-2.84839e+01,4.18802e-01,4.27245e-01,8.50301e-01
7.34700e+02,-2.61857e+00,-2.53190e+01,4.45254e-01,4.30430e-01,8.68367e-01
7.34700e+02,-1.81134e+00,-2.21542e+01,4.71649e-01,4.33601e-01,8.86839e-01
7.34700e+02,-9.97887e-01,-1.89893e+01,4.97843e-01,4.36758e-01,9.05605e-01
7.34700e+02,-1.84513e-01,-1.58244e+01,5.24040e-01,4.39898e-01,9.24743e-01
7.34700e+02,6.25788e-01,-1.26595e+01,5.50336e-01,4.43023e-01,9.44287e-01
7.34700e+02,1.43609e+00,-9.49464e+00,5.76632e-01,4.46131e-01,9.64159e-01
7.34700e+02,2.22720e+00,-6.32976e+00,6.03548e-01,4.49224e-01,9.84722e-01
7.34700e+02,3.01474e+00,-3.16488e+00,6.30580e-01,4.52304e-01,1.00567e+00
8.33800e+02,3.98196e+01,0.00000e+00,-4.38105e-01,4.16270e-01,8.43670e-01
8.33800e+02,3.96190e+01,-3.02587e+00,-4.75685e-01,4.13588e-01,8.59908e-01
8.33800e+02,3.93522e+01,-6.05173e+00,-5.11438e-01,4.10841e-01,8.76323e-01
8.33800e+02,3.90828e+01,-9.07760e+00,-5.47118e-01,4.08032e-01,8.93761e-01
8.33800e+02,3.87549e+01,-1.21035e+01,-5.81185e-01,4.05166e-01,9.11183e-01
8.33800e+02,3.84134e+01,-1.51293e+01,-6.14878e-01,4.02246e-01,9.29237e-01
8.33800e+02,3.80270e+01,-1.81552e+01,-6.47333e-01,3.99278e-01,9.47264e-01
8.33800e+02,3.76188e+01,-2.11811e+01,-6.79187e-01,3.96265e-01,9.65595e-01
8.33800e+02,3.71745e+01,-2.42069e+01,-7.10046e-01,3.93212e-01,9.83877e-01
8.33800e+02,3.67006e+01,-2.72328e+01,-7.40089e-01,3.90122e-01,1.00216e+00
8.33800e+02,3.61941e+01,-3.02587e+01,-7.69232e-01,3.87000e-01,1.02031e+00
8.33800e+02,3.56482e+01,-3.32845e+01,-7.97288e-01,3.83850e-01,1.03812e+00
8.33800e+02,3.50619e+01,-3.63104e+01,-8.24230e-01,3.80675e-01,1.05551e+00
8.33800e+02,3.44183e+01,-3.93363e+01,-8.49594e-01,3.77481e-01,1.07205e+00
8.33800e+02,3.37191e+01,-4.23621e+01,-8.73422e-01,3.74275e-01,1.08771e+00
8.33800e+02,3.29532e+01,-4.53880e+01,-8.95413e-01,3.71061e-01,1.10219e+00
8.33800e+02,3.20971e+01,-4.84139e+01,-9.14916e-01,3.67850e-01,1.11490e+00
8.33800e+02,3.11783e+01,-5.14397e+01,-9.32688e-01,3.64645e-01,1.12641e+00
8.33800e+02,3.01182e+01,-5.44656e+01,-9.46566e-01,3.61464e-01,1.13488e+00
8.33800e+02,2.89995e+01,-5.74915e+01,-9.58830e-01,3.58312e-01,1.14215e+00
8.33800e+02,2.77178e+01,-6.05173e+01,-9.66596e-01,3.55199e-01,1.14578e+00
8.33800e+02,2.63054e+01,-6.35432e+01,-9.70758e-01,3.52150e-01,1.14647e+00
8.33800e+02,2.47599e+01,-6.65691e+01,-9.71252e-01,3.49171e-01,1.14416e+00
8.33800e+02,2.29912e+01,-6.95949e+01,-9.65590e-01,3.46273e-01,1.13670e+00
8.33800e+02,2.09638e+01,-7.26208e+01,-9.52796e-01,3.43490e-01,1.12329e+00
8.33800e+02,1.86442e+01,-7.56467e+01,-9.31942e-01,3.40857e-01,1.10321e+00
8.33800e+02,1.59005e+01,-7.86725e+01,-8.99397e-01,3.38395e-01,1.07352e+00
8.33800e+02,1.23789e+01,-8.16984e+01,-8.45398e-01,3.36224e-01,1.02657e+00
8.33800e+02,7.61592e+00,-8.47243e+01,-7.57172e-01,3.34899e-01,9.53824e-01
8.33800e+02,-3.08591e+00,-8.77501e+01,-5.05182e-01,3.35425e-01,7.69895e-01
8.33800e+02,-3.85827e+00,-8.77572e+01,-4.83985e-01,3.37058e-01,7.58331e-01
8.33800e+02,-1.08950e+01,-8.46230e+01,-2.45297e-01,3.40154e-01,6.38190e-01
8.33800e+02,-1.17470e+01,-8.14888e+01,-1.77152e-01,3.42442e-01,6.19017e-01
8.33800e+02,-1.20409e+01,-7.83546e+01,-1.24392e-01,3.44849e-01,6.10111e-01
8.33800e+02,-1.20856e+01,-7.52204e+01,-7.85091e-02,3.47367e-01,6.06759e-01
8.33800e+02,-1.19423e+01,-7.20862e+01,-3.78071e-02,3.49978e-01,6.07357e-01
8.33800e+02,-1.16811e+01,-6.89521e+01,-3.56237e-04,3.52664e-01,6.10832e-01
8.33800e+02,-1.13015e+01,-6.58179e+01,3.38300e-02,3.55412e-01,6.16520e-01
8.33800e+02,-1.08497e+01,-6.26837e+01,6.60249e-02,3.58206e-01,6.23935e-01
8.33800e+02,-1.03561e+01,-5.95495e+01,9.70647e-02,3.61041e-01,6.32830e-01
8.33800e+02,-9.79928e+00,-5.64153e+01,1.26364e-01,3.63909e-01,6.42851e-01
8.33800e+02,-9.20306e+00,-5.32811e+01,1.54577e-01,3.66801e-01,6.53852e-01
8.33800e+02,-8.56843e+00,-5.01469e+01,1.81730e-01,3.69712e-01,6.65647e-01
8.33800e+02,-7.89554e+00,-4.70128e+01,2.07828e-01,3.72635e-01,6.78058e-01
8.33800e+02,-7.19866e+00,-4.38786e+01,2.33265e-01,3.75566e-01,6.91058e-01
8.33800e+02,-6.47106e+00,-4.07444e+01,2.57854e-01,3.78500e-01,7.04469e-01
8.33800e+02,-5.72378e+00,-3.76102e+01,2.81901e-01,3.81433e-01,7.18291e-01
8.33800e+02,-4.95886e+00,-3.44760e+01,3.05461e-01,3.84362e-01,7.32468e-01
8.33800e+02,-4.17819e+00,-3.13418e+01,3.28587e-01,3.87283e-01,7.46951e-01
8.33800e+02,-3.39085e+00,-2.82077e+01,3.51530e-01,3.90195e-01,7.61793e-01
8.33800e+02,-2.59317e+00,-2.50735e+01,3.74187e-01,3.93095e-01,7.76908e-01
8.33800e+02,-1.79378e+00,-2.19393e+01,3.96797e-01,3.95982e-01,7.92372e-01
8.33800e+02,-9.88209e-01,-1.88051e+01,4.19236e-01,3.98856e-01,8.08095e-01
8.33800e+02,-1.82723e-01,-1.56709e+01,4.41678e-01,4.01716e-01,8.24140e-01
8.33800e+02,6.19718e-01,-1.25367e+01,4.64204e-01,4.04561e-01,8.40532e-01
8.33800e+02,1.42216e+00,-9.40255e+00,4.86730e-01,4.07391e-01,8.57209e-01
8.33800e+02,2.20560e+00,-6.26837e+00,5.09779e-01,4.10207e-01,8.74463e-01
8.33800e+02,2.98550e+00,-3.13418e+00,5.32927e-01,4.13011e-01,8.92046e-01
9.30700e+02,3.94382e+01,0.00000e+00,-3.65656e-01,3.76999e-01,7.48391e-01
9.30700e+02,3.92396e+01,-2.99689e+00,-3.97296e-01,3.74573e-01,7.60763e-01
9.30700e+02,3.89754e+01,-5.99378e+00,-4.27411e-01,3.72089e-01,7.73324e-01
9.30700e+02,3.87085e+01,-8.99067e+00,-4.57465e-01,3.69547e-01,7.86746e-01
9.30700e+02,3.83837e+01,-1.19876e+01,-4.86172e-01,3.66955e-01,8.00206e-01
9.30700e+02,3.80455e+01,-1.49844e+01,-5.14566e-01,3.64314e-01,8.14218e-01
9.30700e+02,3.76628e+01,-1.79813e+01,-5.41926e-01,3.61629e-01,8.28257e-01
9.30700e+02,3.72585e+01,-2.09782e+01,-5.68785e-01,3.58904e-01,8.42587e-01
9.30700e+02,3.68185e+01,-2.39751e+01,-5.94813e-01,3.56142e-01,8.56921e-01
9.30700e+02,3.63492e+01,-2.69720e+01,-6.20159e-01,3.53347e-01,8.71297e-01
9.30700e+02,3.58475e+01,-2.99689e+01,-6.44754e-01,3.50523e-01,8.85611e-01
9.30700e+02,3.53068e+01,-3.29658e+01,-6.68441e-01,3.47673e-01,8.99690e-01
9.30700e+02,3.47261e+01,-3.59627e+01,-6.91198e-01,3.44801e-01,9.13464e-01
9.30700e+02,3.40887e+01,-3.89596e+01,-7.12637e-01,3.41912e-01,9.26586e-01
9.30700e+02,3.33962e+01,-4.19565e+01,-7.32793e-01,3.39012e-01,9.39027e-01
9.30700e+02,3.26376e+01,-4.49533e+01,-7.51415e-01,3.36104e-01,9.50538e-01
9.30700e+02,3.17897e+01,-4.79502e+01,-7.67959e-01,3.33200e-01,9.60640e-01
9.30700e+02,3.08797e+01,-5.09471e+01,-7.83059e-01,3.30301e-01,9.69782e-01
9.30700e+02,2.98297e+01,-5.39440e+01,-7.94905e-01,3.27423e-01,9.76469e-01
9.30700e+02,2.87218e+01,-5.69409e+01,-8.05404e-01,3.24572e-01,9.82200e-01
9.30700e+02,2.74524e+01,-5.99378e+01,-8.12147e-01,3.21756e-01,9.84969e-01
9.30700e+02,2.60534e+01,-6.29347e+01,-8.15880e-01,3.18999e-01,9.85363e-01
9.30700e+02,2.45228e+01,-6.59316e+01,-8.16550e-01,3.16304e-01,9.83310e-01
9.30700e+02,2.27710e+01,-6.89285e+01,-8.12079e-01,3.13682e-01,9.77068e-01
9.30700e+02,2.07631e+01,-7.19254e+01,-8.01652e-01,3.11165e-01,9.65980e-01
9.30700e+02,1.84656e+01,-7.49222e+01,-7.84493e-01,3.08783e-01,9.49458e-01
9.30700e+02,1.57483e+01,-7.79191e+01,-7.57572e-01,3.06556e-01,9.25119e-01
9.30700e+02,1.22603e+01,-8.09160e+01,-7.12734e-01,3.04593e-01,8.86747e-01
9.30700e+02,7.54299e+00,-8.39129e+01,-6.39313e-01,3.03394e-01,8.27565e-01
9.30700e+02,-3.05636e+00,-8.69098e+01,-4.29131e-01,3.03870e-01,6.79091e-01
9.30700e+02,-3.82132e+00,-8.69168e+01,-4.11430e-01,3.05347e-01,6.70064e-01
9.30700e+02,-1.07906e+01,-8.38126e+01,-2.11834e-01,3.08148e-01,5.74230e-01
9.30700e+02,-1.16345e+01,-8.07084e+01,-1.54658e-01,3.10217e-01,5.59128e-01
9.30700e+02,-1.19256e+01,-7.76042e+01,-1.10332e-01,3.12395e-01,5.52218e-01
9.30700e+02,-1.19698e+01,-7.45001e+01,-7.17484e-02,3.14673e-01,5.49731e-01
9.30700e+02,-1.18279e+01,-7.13959e+01,-3.74914e-02,3.17034e-01,5.50397e-01
9.30700e+02,-1.15692e+01,-6.82917e+01,-5.94945e-03,3.19464e-01,5.53360e-01
9.30700e+02,-1.11933e+01,-6.51876e+01,2.28662e-02,3.21949e-01,5.58101e-01
9.30700e+02,-1.07458e+01,-6.20834e+01,5.00188e-02,3.24477e-01,5.64233e-01
9.30700e+02,-1.02569e+01,-5.89792e+01,7.62068e-02,3.27042e-01,5.71556e-01
9.30700e+02,-9.70544e+00,-5.58751e+01,1.00942e-01,3.29635e-01,5.79800e-01
9.30700e+02,-9.11493e+00,-5.27709e+01,1.24768e-01,3.32251e-01,5.88846e-01
9.30700e+02,-8.48637e+00,-4.96667e+01,1.47711e-01,3.34884e-01,5.98549e-01
9.30700e+02,-7.81993e+00,-4.65625e+01,1.69772e-01,3.37529e-01,6.08769e-01
9.30700e+02,-7.12973e+00,-4.34584e+01,1.91281e-01,3.40180e-01,6.19480e-01
9.30700e+02,-6.40909e+00,-4.03542e+01,2.12082e-01,3.42834e-01,6.30543e-01
9.30700e+02,-5.66897e+00,-3.72500e+01,2.32430e-01,3.45487e-01,6.41957e-01
9.30700e+02,-4.91137e+00,-3.41459e+01,2.52372e-01,3.48137e-01,6.53673e-01
9.30700e+02,-4.13818e+00,-3.10417e+01,2.71951e-01,3.50779e-01,6.65654e-01
9.30700e+02,-3.35837e+00,-2.79375e+01,2.91377e-01,3.53412e-01,6.77939e-01
9.30700e+02,-2.56834e+00,-2.48334e+01,3.10564e-01,3.56036e-01,6.90460e-01
9.30700e+02,-1.77660e+00,-2.17292e+01,3.29712e-01,3.58647e-01,7.03274e-01
9.30700e+02,-9.78745e-01,-1.86250e+01,3.48718e-01,3.61247e-01,7.16312e-01
9.30700e+02,-1.80973e-01,-1.55208e+01,3.67726e-01,3.63834e-01,7.29621e-01
9.30700e+02,6.13784e-01,-1.24167e+01,3.86804e-01,3.66407e-01,7.43223e-01
9.30700e+02,1.40854e+00,-9.31251e+00,4.05882e-01,3.68967e-01,7.57067e-01
9.30700e+02,2.18448e+00,-6.20834e+00,4.25397e-01,3.71514e-01,7.71383e-01
9.30700e+02,2.95691e+00,-3.10417e+00,4.44995e-01,3.74051e-01,7.85978e-01
1.02500e+03,3.90671e+01,0.00000e+00,-3.01113e-01,3.38333e-01,6.58846e-01
1.02500e+03,3.88704e+01,-2.96869e+00,-3.27418e-01,3.36151e-01,6.67979e-01
1.02500e+03,3.86086e+01,-5.93738e+00,-3.52465e-01,3.33916e-01,6.77298e-01
1.02500e+03,3.83443e+01,-8.90607e+00,-3.77462e-01,3.31631e-01,6.87324e-01
1.02500e+03,3.80226e+01,-1.18748e+01,-4.01350e-01,3.29299e-01,6.97420e-01
1.02500e+03,3.76875e+01,-1.48435e+01,-4.24979e-01,3.26923e-01,7.07986e-01
1.02500e+03,3.73084e+01,-1.78121e+01,-4.47757e-01,3.24508e-01,7.18612e-01
1.02500e+03,3.69079e+01,-2.07808e+01,-4.70121e-01,3.22057e-01,7.29504e-01
1.02500e+03,3.64721e+01,-2.37495e+01,-4.91801e-01,3.19573e-01,7.40438e-01
1.02500e+03,3.60071e+01,-2.67182e+01,-5.12918e-01,3.17059e-01,7.51441e-01
1.02500e+03,3.55102e+01,-2.96869e+01,-5.33417e-01,3.14519e-01,7.62430e-01
1.02500e+03,3.49746e+01,-3.26556e+01,-5.53167e-01,3.11955e-01,7.73267e-01
1.02500e+03,3.43994e+01,-3.56243e+01,-5.72150e-01,3.09372e-01,7.83894e-01
1.02500e+03,3.37680e+01,-3.85930e+01,-5.90049e-01,3.06774e-01,7.94032e-01
1.02500e+03,3.30819e+01,-4.15617e+01,-6.06889e-01,3.04165e-01,8.03656e-01
1.02500e+03,3.23305e+01,-4.45304e+01,-6.22466e-01,3.01550e-01,8.12564e-01
1.02500e+03,3.14906e+01,-4.74990e+01,-6.36330e-01,2.98938e-01,8.20370e-01
1.02500e+03,3.05891e+01,-5.04677e+01,-6.49003e-01,2.96331e-01,8.27430e-01
1.02500e+03,2.95491e+01,-5.34364e+01,-6.58996e-01,2.93742e-01,8.32544e-01
1.02500e+03,2.84516e+01,-5.64051e+01,-6.67878e-01,2.91178e-01,8.36908e-01
1.02500e+03,2.71940e+01,-5.93738e+01,-6.73666e-01,2.88645e-01,8.38912e-01
1.02500e+03,2.58083e+01,-6.23425e+01,-6.76972e-01,2.86165e-01,8.39024e-01
1.02500e+03,2.42920e+01,-6.53112e+01,-6.77755e-01,2.83741e-01,8.37185e-01
1.02500e+03,2.25567e+01,-6.82799e+01,-6.74300e-01,2.81383e-01,8.31992e-01
1.02500e+03,2.05677e+01,-7.12486e+01,-6.65938e-01,2.79119e-01,8.22919e-01
1.02500e+03,1.82919e+01,-7.42173e+01,-6.52029e-01,2.76976e-01,8.09499e-01
1.02500e+03,1.56001e+01,-7.71859e+01,-6.30074e-01,2.74973e-01,7.89825e-01
1.02500e+03,1.21450e+01,-8.01546e+01,-5.93354e-01,2.73207e-01,7.58944e-01
1.02500e+03,7.47201e+00,-8.31233e+01,-5.33080e-01,2.72129e-01,7.11573e-01
1.02500e+03,-3.02760e+00,-8.60920e+01,-3.60104e-01,2.72558e-01,5.93749e-01
1.02500e+03,-3.78536e+00,-8.60989e+01,-3.45517e-01,2.73886e-01,5.86876e-01
1.02500e+03,-1.06891e+01,-8.30239e+01,-1.80796e-01,2.76406e-01,5.11749e-01
1.02500e+03,-1.15250e+01,-7.99490e+01,-1.33440e-01,2.78267e-01,5.00103e-01
1.02500e+03,-1.18134e+01,-7.68740e+01,-9.66727e-02,2.80225e-01,4.94898e-01
1.02500e+03,-1.18572e+01,-7.37991e+01,-6.46381e-02,2.82274e-01,4.93167e-01
1.02500e+03,-1.17166e+01,-7.07241e+01,-3.61690e-02,2.84398e-01,4.93917e-01
1.02500e+03,-1.14604e+01,-6.76491e+01,-9.93728e-03,2.86584e-01,4.96477e-01
1.02500e+03,-1.10880e+01,-6.45742e+01,1.40477e-02,2.88819e-01,5.00446e-01
1.02500e+03,-1.06447e+01,-6.14992e+01,3.66623e-02,2.91093e-01,5.05519e-01
1.02500e+03,-1.01604e+01,-5.84243e+01,5.84820e-02,2.93399e-01,5.11537e-01
1.02500e+03,-9.61411e+00,-5.53493e+01,7.91041e-02,2.95732e-01,5.18295e-01
1.02500e+03,-9.02916e+00,-5.22743e+01,9.89779e-02,2.98085e-01,5.25700e-01
1.02500e+03,-8.40652e+00,-4.91994e+01,1.18123e-01,3.00453e-01,5.33638e-01
1.02500e+03,-7.74634e+00,-4.61244e+01,1.36542e-01,3.02832e-01,5.42000e-01
1.02500e+03,-7.06264e+00,-4.30495e+01,1.54505e-01,3.05216e-01,5.50766e-01
1.02500e+03,-6.34878e+00,-3.99745e+01,1.71886e-01,3.07604e-01,5.59826e-01
1.02500e+03,-5.61563e+00,-3.68995e+01,1.88893e-01,3.09990e-01,5.69177e-01
1.02500e+03,-4.86516e+00,-3.38246e+01,2.05565e-01,3.12373e-01,5.78781e-01
1.02500e+03,-4.09924e+00,-3.07496e+01,2.21939e-01,3.14749e-01,5.88607e-01
1.02500e+03,-3.32677e+00,-2.76746e+01,2.38186e-01,3.17118e-01,5.98685e-01
1.02500e+03,-2.54417e+00,-2.45997e+01,2.54236e-01,3.19477e-01,6.08961e-01
1.02500e+03,-1.75988e+00,-2.15247e+01,2.70255e-01,3.21826e-01,6.19479e-01
1.02500e+03,-9.69535e-01,-1.84498e+01,2.86156e-01,3.24165e-01,6.30185e-01
1.02500e+03,-1.79270e-01,-1.53748e+01,3.02058e-01,3.26491e-01,6.41115e-01
1.02500e+03,6.08008e-01,-1.22998e+01,3.18019e-01,3.28806e-01,6.52285e-01
1.02500e+03,1.39529e+00,-9.22488e+00,3.33979e-01,3.31108e-01,6.63656e-01
1.02500e+03,2.16392e+00,-6.14992e+00,3.50300e-01,3.33399e-01,6.75408e-01
1.02500e+03,2.92908e+00,-3.07496e+00,3.66688e-01,3.35681e-01,6.87390e-01
1.11650e+03,3.87070e+01,0.00000e+00,-2.44229e-01,3.00234e-01,5.74516e-01
1.11650e+03,3.85121e+01,-2.94133e+00,-2.65791e-01,2.98290e-01,5.81012e-01
1.11650e+03,3.82528e+01,-5.88266e+00,-2.86332e-01,2.96299e-01,5.87677e-01
1.11650e+03,3.79909e+01,-8.82398e+00,-3.06832e-01,2.94262e-01,5.94909e-01
1.11650e+03,3.76721e+01,-1.17653e+01,-3.26431e-01,2.92185e-01,6.02223e-01
1.11650e+03,3.73401e+01,-1.47066e+01,-3.45821e-01,2.90068e-01,6.09927e-01
1.11650e+03,3.69645e+01,-1.76480e+01,-3.64520e-01,2.87917e-01,6.17708e-01
1.11650e+03,3.65678e+01,-2.05893e+01,-3.82882e-01,2.85733e-01,6.25723e-01
1.11650e+03,3.61359e+01,-2.35306e+01,-4.00689e-01,2.83520e-01,6.33800e-01
1.11650e+03,3.56753e+01,-2.64720e+01,-4.18040e-01,2.81280e-01,6.41961e-01
1.11650e+03,3.51829e+01,-2.94133e+01,-4.34888e-01,2.79017e-01,6.50138e-01
1.11650e+03,3.46522e+01,-3.23546e+01,-4.51129e-01,2.76734e-01,6.58226e-01
1.11650e+03,3.40823e+01,-3.52959e+01,-4.66747e-01,2.74432e-01,6.66177e-01
1.11650e+03,3.34567e+01,-3.82373e+01,-4.81484e-01,2.72118e-01,6.73773e-01
1.11650e+03,3.27770e+01,-4.11786e+01,-4.95363e-01,2.69794e-01,6.80992e-01
1.11650e+03,3.20325e+01,-4.41199e+01,-5.08215e-01,2.67464e-01,6.87672e-01
1.11650e+03,3.12004e+01,-4.70612e+01,-5.19677e-01,2.65137e-01,6.93511e-01
1.11650e+03,3.03072e+01,-5.00026e+01,-5.30173e-01,2.62814e-01,6.98782e-01
1.11650e+03,2.92767e+01,-5.29439e+01,-5.38492e-01,2.60508e-01,7.02543e-01
1.11650e+03,2.81893e+01,-5.58852e+01,-5.45910e-01,2.58224e-01,7.05731e-01
1.11650e+03,2.69434e+01,-5.88266e+01,-5.50815e-01,2.55967e-01,7.07075e-01
1.11650e+03,2.55704e+01,-6.17679e+01,-5.53706e-01,2.53758e-01,7.06944e-01
1.11650e+03,2.40681e+01,-6.47092e+01,-5.54549e-01,2.51598e-01,7.05287e-01
1.11650e+03,2.23488e+01,-6.76505e+01,-5.51951e-01,2.49498e-01,7.00997e-01
1.11650e+03,2.03781e+01,-7.05919e+01,-5.45369e-01,2.47481e-01,6.93663e-01
1.11650e+03,1.81233e+01,-7.35332e+01,-5.34284e-01,2.45572e-01,6.82918e-01
1.11650e+03,1.54563e+01,-7.64745e+01,-5.16668e-01,2.43787e-01,6.67265e-01
1.11650e+03,1.20330e+01,-7.94159e+01,-4.87065e-01,2.42214e-01,6.42834e-01
1.11650e+03,7.40314e+00,-8.23572e+01,-4.38339e-01,2.41254e-01,6.05600e-01
1.11650e+03,-2.99970e+00,-8.52985e+01,-2.98121e-01,2.41636e-01,5.13847e-01
1.11650e+03,-3.75047e+00,-8.53053e+01,-2.86279e-01,2.42819e-01,5.08763e-01
1.11650e+03,-1.05906e+01,-8.22587e+01,-1.52340e-01,2.45064e-01,4.50972e-01
1.11650e+03,-1.14188e+01,-7.92121e+01,-1.13681e-01,2.46722e-01,4.42197e-01
1.11650e+03,-1.17045e+01,-7.61655e+01,-8.36181e-02,2.48466e-01,4.38405e-01
1.11650e+03,-1.17479e+01,-7.31189e+01,-5.73973e-02,2.50292e-01,4.37301e-01
1.11650e+03,-1.16086e+01,-7.00722e+01,-3.40710e-02,2.52184e-01,4.38122e-01
1.11650e+03,-1.13547e+01,-6.70256e+01,-1.25611e-02,2.54131e-01,4.40347e-01
1.11650e+03,-1.09858e+01,-6.39790e+01,7.12485e-03,2.56123e-01,4.43674e-01
1.11650e+03,-1.05466e+01,-6.09324e+01,2.56983e-02,2.58148e-01,4.47864e-01
1.11650e+03,-1.00667e+01,-5.78858e+01,4.36263e-02,2.60203e-01,4.52792e-01
1.11650e+03,-9.52550e+00,-5.48391e+01,6.05822e-02,2.62281e-01,4.58306e-01
1.11650e+03,-8.94594e+00,-5.17925e+01,7.69306e-02,2.64377e-01,4.64332e-01
1.11650e+03,-8.32904e+00,-4.87459e+01,9.26872e-02,2.66487e-01,4.70784e-01
1.11650e+03,-7.67495e+00,-4.56993e+01,1.07854e-01,2.68606e-01,4.77577e-01
1.11650e+03,-6.99754e+00,-4.26527e+01,1.22652e-01,2.70730e-01,4.84694e-01
1.11650e+03,-6.29027e+00,-3.96060e+01,1.36976e-01,2.72857e-01,4.92053e-01
1.11650e+03,-5.56387e+00,-3.65594e+01,1.50998e-01,2.74983e-01,4.99647e-01
1.11650e+03,-4.82031e+00,-3.35128e+01,1.64747e-01,2.77106e-01,5.07449e-01
1.11650e+03,-4.06146e+00,-3.04662e+01,1.78254e-01,2.79223e-01,5.15433e-01
1.11650e+03,-3.29611e+00,-2.74196e+01,1.91658e-01,2.81333e-01,5.23620e-01
1.11650e+03,-2.52072e+00,-2.43730e+01,2.04902e-01,2.83435e-01,5.31969e-01
1.11650e+03,-1.74366e+00,-2.13263e+01,2.18121e-01,2.85528e-01,5.40514e-01
1.11650e+03,-9.60599e-01,-1.82797e+01,2.31244e-01,2.87611e-01,5.49212e-01
1.11650e+03,-1.77618e-01,-1.52331e+01,2.44368e-01,2.89683e-01,5.58090e-01
1.11650e+03,6.02404e-01,-1.21865e+01,2.57540e-01,2.91745e-01,5.67162e-01
1.11650e+03,1.38243e+00,-9.13986e+00,2.70711e-01,2.93796e-01,5.76397e-01
1.11650e+03,2.14398e+00,-6.09324e+00,2.84175e-01,2.95837e-01,5.85931e-01
1.11650e+03,2.90209e+00,-3.04662e+00,2.97694e-01,2.97870e-01,5.95652e-01
1.20500e+03,3.76912e+01,0.00000e+00,-2.76234e-01,2.86423e-01,5.67820e-01
1.20500e+03,3.75014e+01,-2.86413e+00,-2.97218e-01,2.84014e-01,5.74743e-01
1.20500e+03,3.72488e+01,-5.72827e+00,-3.17037e-01,2.81545e-01,5.81649e-01
1.20500e+03,3.69938e+01,-8.59240e+00,-3.36810e-01,2.79020e-01,5.89065e-01
1.20500e+03,3.66834e+01,-1.14565e+01,-3.55554e-01,2.76444e-01,5.96392e-01
1.20500e+03,3.63602e+01,-1.43207e+01,-3.74060e-01,2.73820e-01,6.04031e-01
1.20500e+03,3.59944e+01,-1.71848e+01,-3.91777e-01,2.71152e-01,6.11604e-01
1.20500e+03,3.56080e+01,-2.00489e+01,-4.09110e-01,2.68444e-01,6.19320e-01
1.20500e+03,3.51875e+01,-2.29131e+01,-4.25810e-01,2.65699e-01,6.26978e-01
1.20500e+03,3.47390e+01,-2.57772e+01,-4.41988e-01,2.62921e-01,6.34615e-01
1.20500e+03,3.42596e+01,-2.86413e+01,-4.57594e-01,2.60114e-01,6.42160e-01
1.20500e+03,3.37428e+01,-3.15055e+01,-4.72506e-01,2.57281e-01,6.49494e-01
1.20500e+03,3.31878e+01,-3.43696e+01,-4.86708e-01,2.54426e-01,6.56568e-01
1.20500e+03,3.25787e+01,-3.72337e+01,-4.99904e-01,2.51554e-01,6.63131e-01
1.20500e+03,3.19168e+01,-4.00979e+01,-5.12121e-01,2.48671e-01,6.69163e-01
1.20500e+03,3.11919e+01,-4.29620e+01,-5.23166e-01,2.45780e-01,6.74482e-01
1.20500e+03,3.03815e+01,-4.58261e+01,-5.32626e-01,2.42893e-01,6.78734e-01
1.20500e+03,2.95118e+01,-4.86903e+01,-5.40982e-01,2.40010e-01,6.82258e-01
1.20500e+03,2.85084e+01,-5.15544e+01,-5.46855e-01,2.37148e-01,6.83936e-01
1.20500e+03,2.74495e+01,-5.44186e+01,-5.51699e-01,2.34313e-01,6.84894e-01
1.20500e+03,2.62363e+01,-5.72827e+01,-5.53676e-01,2.31513e-01,6.83631e-01
1.20500e+03,2.48993e+01,-6.01468e+01,-5.53355e-01,2.28770e-01,6.80595e-01
1.20500e+03,2.34365e+01,-6.30110e+01,-5.50696e-01,2.26090e-01,6.75734e-01
1.20500e+03,2.17623e+01,-6.58751e+01,-5.44112e-01,2.23482e-01,6.67750e-01
1.20500e+03,1.98433e+01,-6.87392e+01,-5.32981e-01,2.20978e-01,6.56173e-01
1.20500e+03,1.76476e+01,-7.16034e+01,-5.16711e-01,2.18609e-01,6.40593e-01
1.20500e+03,1.50506e+01,-7.44675e+01,-4.92989e-01,2.16392e-01,6.19286e-01
1.20500e+03,1.17172e+01,-7.73316e+01,-4.55588e-01,2.14438e-01,5.87803e-01
1.20500e+03,7.20885e+00,-8.01958e+01,-3.96367e-01,2.13243e-01,5.41779e-01
1.20500e+03,-2.92097e+00,-8.30599e+01,-2.32741e-01,2.13715e-01,4.37253e-01
1.20500e+03,-3.65204e+00,-8.30665e+01,-2.19220e-01,2.15182e-01,4.32397e-01
1.20500e+03,-1.03126e+01,-8.00999e+01,-7.01306e-02,2.17966e-01,3.83987e-01
1.20500e+03,-1.11191e+01,-7.71332e+01,-2.97663e-02,2.20023e-01,3.82251e-01
1.20500e+03,-1.13974e+01,-7.41666e+01,7.88781e-04,2.22187e-01,3.84841e-01
1.20500e+03,-1.14396e+01,-7.11999e+01,2.69598e-02,2.24453e-01,3.89697e-01
1.20500e+03,-1.13040e+01,-6.82332e+01,4.98277e-02,2.26800e-01,3.95977e-01
1.20500e+03,-1.10567e+01,-6.52666e+01,7.06230e-02,2.29217e-01,4.03248e-01
1.20500e+03,-1.06975e+01,-6.22999e+01,8.93370e-02,2.31688e-01,4.11120e-01
1.20500e+03,-1.02698e+01,-5.93332e+01,1.06781e-01,2.34203e-01,4.19470e-01
1.20500e+03,-9.80253e+00,-5.63666e+01,1.23489e-01,2.36753e-01,4.28259e-01
1.20500e+03,-9.27551e+00,-5.33999e+01,1.39088e-01,2.39333e-01,4.37249e-01
1.20500e+03,-8.71115e+00,-5.04333e+01,1.53993e-01,2.41935e-01,4.46444e-01
1.20500e+03,-8.11045e+00,-4.74666e+01,1.68224e-01,2.44555e-01,4.55763e-01
1.20500e+03,-7.47352e+00,-4.44999e+01,1.81781e-01,2.47185e-01,4.65130e-01
1.20500e+03,-6.81389e+00,-4.15333e+01,1.94917e-01,2.49823e-01,4.74582e-01
1.20500e+03,-6.12518e+00,-3.85666e+01,2.07513e-01,2.52464e-01,4.84021e-01
1.20500e+03,-5.41785e+00,-3.55999e+01,2.19763e-01,2.55104e-01,4.93488e-01
1.20500e+03,-4.69381e+00,-3.26333e+01,2.31702e-01,2.57741e-01,5.02968e-01
1.20500e+03,-3.95486e+00,-2.96666e+01,2.43365e-01,2.60370e-01,5.12449e-01
1.20500e+03,-3.20961e+00,-2.67000e+01,2.54911e-01,2.62991e-01,5.21989e-01
1.20500e+03,-2.45457e+00,-2.37333e+01,2.66274e-01,2.65602e-01,5.31540e-01
1.20500e+03,-1.69790e+00,-2.07666e+01,2.77608e-01,2.68202e-01,5.41168e-01
1.20500e+03,-9.35389e-01,-1.78000e+01,2.88833e-01,2.70789e-01,5.50822e-01
1.20500e+03,-1.72956e-01,-1.48333e+01,3.00060e-01,2.73364e-01,5.60553e-01
1.20500e+03,5.86594e-01,-1.18666e+01,3.11340e-01,2.75926e-01,5.70385e-01
1.20500e+03,1.34615e+00,-8.89999e+00,3.22620e-01,2.78475e-01,5.80283e-01
1.20500e+03,2.08771e+00,-5.93332e+00,3.34234e-01,2.81011e-01,5.90436e-01
1.20500e+03,2.82592e+00,-2.96666e+00,3.45910e-01,2.83537e-01,6.00695e-01
1.29010e+03,3.63234e+01,0.00000e+00,-2.23651e-01,2.60321e-01,5.03309e-01
1.29010e+03,3.61405e+01,-2.76019e+00,-2.41027e-01,2.58200e-01,5.08030e-01
1.29010e+03,3.58971e+01,-5.52039e+00,-2.57458e-01,2.56027e-01,5.12771e-01
1.29010e+03,3.56513e+01,-8.28058e+00,-2.73852e-01,2.53804e-01,5.17924e-01
1.29010e+03,3.53522e+01,-1.10408e+01,-2.89413e-01,2.51537e-01,5.23041e-01
1.29010e+03,3.50407e+01,-1.38010e+01,-3.04780e-01,2.49227e-01,5.28425e-01
1.29010e+03,3.46882e+01,-1.65612e+01,-3.19508e-01,2.46878e-01,5.33790e-01
1.29010e+03,3.43158e+01,-1.93214e+01,-3.33925e-01,2.44495e-01,5.39295e-01
1.29010e+03,3.39106e+01,-2.20816e+01,-3.47829e-01,2.42079e-01,5.44785e-01
1.29010e+03,3.34783e+01,-2.48418e+01,-3.61310e-01,2.39634e-01,5.50289e-01
1.29010e+03,3.30163e+01,-2.76019e+01,-3.74327e-01,2.37163e-01,5.55751e-01
1.29010e+03,3.25183e+01,-3.03621e+01,-3.86782e-01,2.34669e-01,5.61079e-01
1.29010e+03,3.19834e+01,-3.31223e+01,-3.98662e-01,2.32156e-01,5.66234e-01
1.29010e+03,3.13964e+01,-3.58825e+01,-4.09727e-01,2.29629e-01,5.71020e-01
1.29010e+03,3.07585e+01,-3.86427e+01,-4.19997e-01,2.27091e-01,5.75420e-01
1.29010e+03,3.00599e+01,-4.14029e+01,-4.29319e-01,2.24547e-01,5.79292e-01
1.29010e+03,2.92790e+01,-4.41631e+01,-4.37356e-01,2.22005e-01,5.82357e-01
1.29010e+03,2.84408e+01,-4.69233e+01,-4.44499e-01,2.19468e-01,5.84874e-01
1.29010e+03,2.74738e+01,-4.96835e+01,-4.49629e-01,2.16949e-01,5.85976e-01
1.29010e+03,2.64534e+01,-5.24437e+01,-4.53926e-01,2.14454e-01,5.86533e-01
1.29010e+03,2.52842e+01,-5.52039e+01,-4.55899e-01,2.11989e-01,5.85374e-01
1.29010e+03,2.39957e+01,-5.79641e+01,-4.56011e-01,2.09576e-01,5.82848e-01
1.29010e+03,2.25860e+01,-6.07243e+01,-4.54227e-01,2.07217e-01,5.78912e-01
1.29010e+03,2.09725e+01,-6.34845e+01,-4.49263e-01,2.04922e-01,5.72552e-01
1.29010e+03,1.91232e+01,-6.62447e+01,-4.40615e-01,2.02718e-01,5.63405e-01
1.29010e+03,1.70072e+01,-6.90049e+01,-4.27802e-01,2.00632e-01,5.51158e-01
1.29010e+03,1.45045e+01,-7.17651e+01,-4.08950e-01,1.98682e-01,5.34475e-01
1.29010e+03,1.12920e+01,-7.45253e+01,-3.79015e-01,1.96962e-01,5.09936e-01
1.29010e+03,6.94724e+00,-7.72855e+01,-3.31397e-01,1.95911e-01,4.74307e-01
1.29010e+03,-2.81497e+00,-8.00457e+01,-1.99177e-01,1.96326e-01,3.94085e-01
1.29010e+03,-3.51951e+00,-8.00521e+01,-1.88221e-01,1.97618e-01,3.90622e-01
1.29010e+03,-9.93839e+00,-7.71931e+01,-6.70237e-02,2.00068e-01,3.52950e-01
1.29010e+03,-1.07156e+01,-7.43341e+01,-3.39306e-02,2.01879e-01,3.51306e-01
1.29010e+03,-1.09838e+01,-7.14751e+01,-8.78606e-03,2.03784e-01,3.53073e-01
1.29010e+03,-1.10244e+01,-6.86160e+01,1.28058e-02,2.05777e-01,3.56647e-01
1.29010e+03,-1.08937e+01,-6.57570e+01,3.17212e-02,2.07844e-01,3.61391e-01
1.29010e+03,-1.06555e+01,-6.28980e+01,4.89570e-02,2.09971e-01,3.66961e-01
1.29010e+03,-1.03093e+01,-6.00390e+01,6.45062e-02,2.12146e-01,3.73067e-01
1.29010e+03,-9.89713e+00,-5.71800e+01,7.90267e-02,2.14359e-01,3.79598e-01
1.29010e+03,-9.44680e+00,-5.43210e+01,9.29504e-02,2.16604e-01,3.86512e-01
1.29010e+03,-8.93890e+00,-5.14620e+01,1.05975e-01,2.18875e-01,3.93636e-01
1.29010e+03,-8.39503e+00,-4.86030e+01,1.18438e-01,2.21165e-01,4.00960e-01
1.29010e+03,-7.81612e+00,-4.57440e+01,1.30354e-01,2.23470e-01,4.08422e-01
1.29010e+03,-7.20231e+00,-4.28850e+01,1.41725e-01,2.25785e-01,4.15960e-01
1.29010e+03,-6.56662e+00,-4.00260e+01,1.52754e-01,2.28107e-01,4.23594e-01
1.29010e+03,-5.90290e+00,-3.71670e+01,1.63345e-01,2.30431e-01,4.31251e-01
1.29010e+03,-5.22123e+00,-3.43080e+01,1.73656e-01,2.32755e-01,4.38954e-01
1.29010e+03,-4.52347e+00,-3.14490e+01,1.83716e-01,2.35075e-01,4.46690e-01
1.29010e+03,-3.81134e+00,-2.85900e+01,1.93552e-01,2.37389e-01,4.54448e-01
1.29010e+03,-3.09313e+00,-2.57310e+01,2.03292e-01,2.39696e-01,4.62266e-01
1.29010e+03,-2.36549e+00,-2.28720e+01,2.12885e-01,2.41993e-01,4.70109e-01
1.29010e+03,-1.63628e+00,-2.00130e+01,2.22454e-01,2.44281e-01,4.78022e-01
1.29010e+03,-9.01444e-01,-1.71540e+01,2.31934e-01,2.46558e-01,4.85970e-01
1.29010e+03,-1.66680e-01,-1.42950e+01,2.41416e-01,2.48824e-01,4.93986e-01
1.29010e+03,5.65307e-01,-1.14360e+01,2.50942e-01,2.51079e-01,5.02090e-01
1.29010e+03,1.29729e+00,-8.57701e+00,2.60467e-01,2.53322e-01,5.10254e-01
1.29010e+03,2.01195e+00,-5.71800e+00,2.70263e-01,2.55554e-01,5.18619e-01
1.29010e+03,2.72337e+00,-2.85900e+00,2.80109e-01,2.57777e-01,5.27075e-01
1.37170e+03,3.50118e+01,0.00000e+00,-1.77005e-01,2.33821e-01,4.41982e-01
1.37170e+03,3.48355e+01,-2.66053e+00,-1.91106e-01,2.31979e-01,4.44932e-01
1.37170e+03,3.46009e+01,-5.32106e+00,-2.04458e-01,2.30092e-01,4.47918e-01
1.37170e+03,3.43640e+01,-7.98159e+00,-2.17781e-01,2.28162e-01,4.51224e-01
1.37170e+03,3.40757e+01,-1.06421e+01,-2.30444e-01,2.26193e-01,4.54526e-01
1.37170e+03,3.37754e+01,-1.33027e+01,-2.42953e-01,2.24187e-01,4.58046e-01
1.37170e+03,3.34357e+01,-1.59632e+01,-2.54955e-01,2.22148e-01,4.61575e-01
1.37170e+03,3.30768e+01,-1.86237e+01,-2.66712e-01,2.20078e-01,4.65229e-01
1.37170e+03,3.26861e+01,-2.12842e+01,-2.78061e-01,2.17979e-01,4.68896e-01
1.37170e+03,3.22695e+01,-2.39448e+01,-2.89076e-01,2.15856e-01,4.72596e-01
1.37170e+03,3.18241e+01,-2.66053e+01,-2.99723e-01,2.13711e-01,4.76288e-01
1.37170e+03,3.13441e+01,-2.92658e+01,-3.09924e-01,2.11545e-01,4.79903e-01
1.37170e+03,3.08286e+01,-3.19264e+01,-3.19670e-01,2.09363e-01,4.83412e-01
1.37170e+03,3.02627e+01,-3.45869e+01,-3.28769e-01,2.07168e-01,4.86667e-01
1.37170e+03,2.96479e+01,-3.72474e+01,-3.37240e-01,2.04964e-01,4.89655e-01
1.37170e+03,2.89745e+01,-3.99080e+01,-3.44958e-01,2.02755e-01,4.92265e-01
1.37170e+03,2.82218e+01,-4.25685e+01,-3.51658e-01,2.00548e-01,4.94290e-01
1.37170e+03,2.74139e+01,-4.52290e+01,-3.57650e-01,1.98345e-01,4.95919e-01
1.37170e+03,2.64818e+01,-4.78895e+01,-3.62047e-01,1.96158e-01,4.96500e-01
1.37170e+03,2.54982e+01,-5.05501e+01,-3.65783e-01,1.93991e-01,4.96684e-01
1.37170e+03,2.43712e+01,-5.32106e+01,-3.67678e-01,1.91851e-01,4.95589e-01
1.37170e+03,2.31293e+01,-5.58711e+01,-3.68098e-01,1.89755e-01,4.93475e-01
1.37170e+03,2.17704e+01,-5.85317e+01,-3.67016e-01,1.87707e-01,4.90308e-01
1.37170e+03,2.02153e+01,-6.11922e+01,-3.63413e-01,1.85714e-01,4.85323e-01
1.37170e+03,1.84327e+01,-6.38527e+01,-3.56891e-01,1.83801e-01,4.78246e-01
1.37170e+03,1.63931e+01,-6.65133e+01,-3.47069e-01,1.81990e-01,4.68847e-01
1.37170e+03,1.39807e+01,-6.91738e+01,-3.32461e-01,1.80296e-01,4.56125e-01
1.37170e+03,1.08843e+01,-7.18343e+01,-3.09069e-01,1.78803e-01,4.37533e-01
1.37170e+03,6.69639e+00,-7.44949e+01,-2.71665e-01,1.77890e-01,4.10776e-01
1.37170e+03,-2.71333e+00,-7.71554e+01,-1.67217e-01,1.78251e-01,3.51115e-01
1.37170e+03,-3.39243e+00,-7.71616e+01,-1.58536e-01,1.79373e-01,3.48795e-01
1.37170e+03,-9.57954e+00,-7.44058e+01,-6.21489e-02,1.81501e-01,3.20453e-01
1.37170e+03,-1.03287e+01,-7.16500e+01,-3.55807e-02,1.83073e-01,3.19082e-01
1.37170e+03,-1.05872e+01,-6.88942e+01,-1.53115e-02,1.84728e-01,3.20324e-01
1.37170e+03,-1.06264e+01,-6.61385e+01,2.14233e-03,1.86459e-01,3.22963e-01
1.37170e+03,-1.05004e+01,-6.33827e+01,1.74751e-02,1.88253e-01,3.26532e-01
1.37170e+03,-1.02708e+01,-6.06269e+01,3.14769e-02,1.90100e-01,3.30765e-01
1.37170e+03,-9.93701e+00,-5.78712e+01,4.41422e-02,1.91989e-01,3.35452e-01
1.37170e+03,-9.53977e+00,-5.51154e+01,5.59923e-02,1.93911e-01,3.40499e-01
1.37170e+03,-9.10569e+00,-5.23596e+01,6.73694e-02,1.95860e-01,3.45865e-01
1.37170e+03,-8.61613e+00,-4.96039e+01,7.80342e-02,1.97832e-01,3.51428e-01
1.37170e+03,-8.09190e+00,-4.68481e+01,8.82537e-02,1.99820e-01,3.57174e-01
1.37170e+03,-7.53389e+00,-4.40923e+01,9.80397e-02,2.01822e-01,3.63054e-01
1.37170e+03,-6.94225e+00,-4.13365e+01,1.07394e-01,2.03832e-01,3.69021e-01
1.37170e+03,-6.32951e+00,-3.85808e+01,1.16477e-01,2.05848e-01,3.75083e-01
1.37170e+03,-5.68976e+00,-3.58250e+01,1.25213e-01,2.07866e-01,3.81187e-01
1.37170e+03,-5.03271e+00,-3.30692e+01,1.33728e-01,2.09884e-01,3.87346e-01
1.37170e+03,-4.36014e+00,-3.03135e+01,1.42043e-01,2.11898e-01,3.93547e-01
1.37170e+03,-3.67372e+00,-2.75577e+01,1.50180e-01,2.13908e-01,3.99779e-01
1.37170e+03,-2.98144e+00,-2.48019e+01,1.58242e-01,2.15910e-01,4.06070e-01
1.37170e+03,-2.28008e+00,-2.20462e+01,1.66187e-01,2.17905e-01,4.12391e-01
1.37170e+03,-1.57720e+00,-1.92904e+01,1.74113e-01,2.19892e-01,4.18775e-01
1.37170e+03,-8.68894e-01,-1.65346e+01,1.81970e-01,2.21869e-01,4.25195e-01
1.37170e+03,-1.60661e-01,-1.37788e+01,1.89827e-01,2.23837e-01,4.31674e-01
1.37170e+03,5.44895e-01,-1.10231e+01,1.97718e-01,2.25794e-01,4.38226e-01
1.37170e+03,1.25045e+00,-8.26731e+00,2.05610e-01,2.27741e-01,4.44830e-01
1.37170e+03,1.93930e+00,-5.51154e+00,2.13716e-01,2.29679e-01,4.51589e-01
1.37170e+03,2.62503e+00,-2.75577e+00,2.21862e-01,2.31609e-01,4.58422e-01
1.44960e+03,3.37597e+01,0.00000e+00,-1.36400e-01,2.07115e-01,3.83790e-01
1.44960e+03,3.35897e+01,-2.56538e+00,-1.47576e-01,2.05538e-01,3.85378e-01
1.44960e+03,3.33635e+01,-5.13077e+00,-1.58175e-01,2.03923e-01,3.87004e-01
1.44960e+03,3.31351e+01,-7.69615e+00,-1.68750e-01,2.02270e-01,3.88866e-01
1.44960e+03,3.28571e+01,-1.02615e+01,-1.78816e-01,2.00584e-01,3.90740e-01
1.44960e+03,3.25675e+01,-1.28269e+01,-1.88764e-01,1.98867e-01,3.92780e-01
1.44960e+03,3.22399e+01,-1.53923e+01,-1.98320e-01,1.97121e-01,3.94843e-01
1.44960e+03,3.18939e+01,-1.79577e+01,-2.07687e-01,1.95349e-01,3.97011e-01
1.44960e+03,3.15172e+01,-2.05231e+01,-2.16739e-01,1.93553e-01,3.99204e-01
1.44960e+03,3.11155e+01,-2.30885e+01,-2.25533e-01,1.91735e-01,4.01438e-01
1.44960e+03,3.06860e+01,-2.56538e+01,-2.34042e-01,1.89899e-01,4.03683e-01
1.44960e+03,3.02232e+01,-2.82192e+01,-2.42208e-01,1.88045e-01,4.05891e-01
1.44960e+03,2.97261e+01,-3.07846e+01,-2.50022e-01,1.86177e-01,4.08040e-01
1.44960e+03,2.91805e+01,-3.33500e+01,-2.57338e-01,1.84298e-01,4.10024e-01
1.44960e+03,2.85877e+01,-3.59154e+01,-2.64167e-01,1.82412e-01,4.11833e-01
1.44960e+03,2.79383e+01,-3.84808e+01,-2.70417e-01,1.80520e-01,4.13386e-01
1.44960e+03,2.72125e+01,-4.10462e+01,-2.75879e-01,1.78631e-01,4.14532e-01
1.44960e+03,2.64335e+01,-4.36115e+01,-2.80795e-01,1.76745e-01,4.15407e-01
1.44960e+03,2.55347e+01,-4.61769e+01,-2.84480e-01,1.74873e-01,4.15537e-01
1.44960e+03,2.45863e+01,-4.87423e+01,-2.87655e-01,1.73019e-01,4.15393e-01
1.44960e+03,2.34997e+01,-5.13077e+01,-2.89408e-01,1.71187e-01,4.14333e-01
1.44960e+03,2.23022e+01,-5.38731e+01,-2.90022e-01,1.69392e-01,4.12546e-01
1.44960e+03,2.09919e+01,-5.64385e+01,-2.89477e-01,1.67639e-01,4.10007e-01
1.44960e+03,1.94923e+01,-5.90039e+01,-2.86986e-01,1.65933e-01,4.06156e-01
1.44960e+03,1.77735e+01,-6.15692e+01,-2.82241e-01,1.64295e-01,4.00798e-01
1.44960e+03,1.58069e+01,-6.41346e+01,-2.74948e-01,1.62745e-01,3.93770e-01
1.44960e+03,1.34808e+01,-6.67000e+01,-2.63961e-01,1.61296e-01,3.84349e-01
1.44960e+03,1.04950e+01,-6.92654e+01,-2.46192e-01,1.60018e-01,3.70713e-01
1.44960e+03,6.45692e+00,-7.18308e+01,-2.17606e-01,1.59237e-01,3.51314e-01
1.44960e+03,-2.61629e+00,-7.43962e+01,-1.37260e-01,1.59546e-01,3.08553e-01
1.44960e+03,-3.27111e+00,-7.44021e+01,-1.30559e-01,1.60506e-01,3.07136e-01
1.44960e+03,-9.23696e+00,-7.17449e+01,-5.58457e-02,1.62328e-01,2.86653e-01
1.44960e+03,-9.95928e+00,-6.90877e+01,-3.50339e-02,1.63674e-01,2.85648e-01
1.44960e+03,-1.02085e+01,-6.64305e+01,-1.90850e-02,1.65090e-01,2.86581e-01
1.44960e+03,-1.02464e+01,-6.37732e+01,-5.30963e-03,1.66572e-01,2.88561e-01
1.44960e+03,-1.01249e+01,-6.11160e+01,6.82824e-03,1.68108e-01,2.91252e-01
1.44960e+03,-9.90345e+00,-5.84588e+01,1.79386e-02,1.69689e-01,2.94458e-01
1.44960e+03,-9.58164e+00,-5.58016e+01,2.80171e-02,1.71306e-01,2.98031e-01
1.44960e+03,-9.19861e+00,-5.31444e+01,3.74662e-02,1.72951e-01,3.01894e-01
1.44960e+03,-8.78006e+00,-5.04872e+01,4.65502e-02,1.74620e-01,3.06012e-01
1.44960e+03,-8.30801e+00,-4.78299e+01,5.50842e-02,1.76308e-01,3.10302e-01
1.44960e+03,-7.80252e+00,-4.51727e+01,6.32746e-02,1.78010e-01,3.14748e-01
1.44960e+03,-7.26447e+00,-4.25155e+01,7.11302e-02,1.79723e-01,3.19313e-01
1.44960e+03,-6.69398e+00,-3.98583e+01,7.86523e-02,1.81444e-01,3.23963e-01
1.44960e+03,-6.10316e+00,-3.72011e+01,8.59655e-02,1.83169e-01,3.28699e-01
1.44960e+03,-5.48628e+00,-3.45438e+01,9.30108e-02,1.84897e-01,3.33484e-01
1.44960e+03,-4.85273e+00,-3.18866e+01,9.98846e-02,1.86624e-01,3.38323e-01
1.44960e+03,-4.20421e+00,-2.92294e+01,1.06605e-01,1.88348e-01,3.43205e-01
1.44960e+03,-3.54234e+00,-2.65722e+01,1.13187e-01,1.90068e-01,3.48122e-01
1.44960e+03,-2.87482e+00,-2.39150e+01,1.19712e-01,1.91782e-01,3.53090e-01
1.44960e+03,-2.19854e+00,-2.12577e+01,1.26147e-01,1.93490e-01,3.58089e-01
1.44960e+03,-1.52080e+00,-1.86005e+01,1.32566e-01,1.95190e-01,3.63141e-01
1.44960e+03,-8.37821e-01,-1.59433e+01,1.38932e-01,1.96882e-01,3.68226e-01
1.44960e+03,-1.54916e-01,-1.32861e+01,1.45299e-01,1.98566e-01,3.73360e-01
1.44960e+03,5.25408e-01,-1.06289e+01,1.51692e-01,2.00242e-01,3.78551e-01
1.44960e+03,1.20573e+00,-7.97166e+00,1.58085e-01,2.01909e-01,3.83786e-01
1.44960e+03,1.86995e+00,-5.31444e+00,1.64644e-01,2.03567e-01,3.89135e-01
1.44960e+03,2.53116e+00,-2.65722e+00,1.71233e-01,2.05219e-01,3.94544e-01
1.52340e+03,3.25736e+01,0.00000e+00,-1.01968e-01,1.79788e-01,3.27671e-01
1.52340e+03,3.24095e+01,-2.47525e+00,-1.10593e-01,1.78466e-01,3.28300e-01
1.52340e+03,3.21913e+01,-4.95049e+00,-1.18785e-01,1.77112e-01,3.28961e-01
1.52340e+03,3.19709e+01,-7.42574e+00,-1.26960e-01,1.75727e-01,3.29785e-01
1.52340e+03,3.17026e+01,-9.90099e+00,-1.34752e-01,1.74314e-01,3.30626e-01
1.52340e+03,3.14232e+01,-1.23762e+01,-1.42457e-01,1.72874e-01,3.31588e-01
1.52340e+03,3.11072e+01,-1.48515e+01,-1.49867e-01,1.71411e-01,3.32574e-01
1.52340e+03,3.07733e+01,-1.73267e+01,-1.57136e-01,1.69925e-01,3.33640e-01
1.52340e+03,3.04098e+01,-1.98020e+01,-1.64169e-01,1.68420e-01,3.34734e-01
1.52340e+03,3.00222e+01,-2.22772e+01,-1.71009e-01,1.66896e-01,3.35867e-01
1.52340e+03,2.96079e+01,-2.47525e+01,-1.77635e-01,1.65357e-01,3.37020e-01
1.52340e+03,2.91613e+01,-2.72277e+01,-1.84004e-01,1.63803e-01,3.38159e-01
1.52340e+03,2.86816e+01,-2.97030e+01,-1.90109e-01,1.62237e-01,3.39270e-01
1.52340e+03,2.81552e+01,-3.21782e+01,-1.95840e-01,1.60662e-01,3.40280e-01
1.52340e+03,2.75832e+01,-3.46535e+01,-2.01208e-01,1.59081e-01,3.41182e-01
1.52340e+03,2.69567e+01,-3.71287e+01,-2.06140e-01,1.57496e-01,3.41919e-01
1.52340e+03,2.62564e+01,-3.96040e+01,-2.10483e-01,1.55913e-01,3.42388e-01
1.52340e+03,2.55047e+01,-4.20792e+01,-2.14416e-01,1.54332e-01,3.42680e-01
1.52340e+03,2.46375e+01,-4.45544e+01,-2.17426e-01,1.52763e-01,3.42467e-01
1.52340e+03,2.37225e+01,-4.70297e+01,-2.20055e-01,1.51208e-01,3.42076e-01
1.52340e+03,2.26740e+01,-4.95049e+01,-2.21617e-01,1.49673e-01,3.41057e-01
1.52340e+03,2.15185e+01,-5.19802e+01,-2.22326e-01,1.48169e-01,3.39546e-01
1.52340e+03,2.02543e+01,-5.44554e+01,-2.22167e-01,1.46700e-01,3.37521e-01
1.52340e+03,1.88075e+01,-5.69307e+01,-2.20549e-01,1.45270e-01,3.34592e-01
1.52340e+03,1.71490e+01,-5.94059e+01,-2.17241e-01,1.43897e-01,3.30625e-01
1.52340e+03,1.52515e+01,-6.18812e+01,-2.12024e-01,1.42598e-01,3.25510e-01
1.52340e+03,1.30071e+01,-6.43564e+01,-2.04038e-01,1.41383e-01,3.18747e-01
1.52340e+03,1.01263e+01,-6.68317e+01,-1.90970e-01,1.40312e-01,3.09083e-01
1.52340e+03,6.23005e+00,-6.93069e+01,-1.69795e-01,1.39658e-01,2.95539e-01
1.52340e+03,-2.52437e+00,-7.17822e+01,-1.09828e-01,1.39917e-01,2.66068e-01
1.52340e+03,-3.15618e+00,-7.17879e+01,-1.04806e-01,1.40722e-01,2.65316e-01
1.52340e+03,-8.91241e+00,-6.92241e+01,-4.85533e-02,1.42249e-01,2.51121e-01
1.52340e+03,-9.60935e+00,-6.66602e+01,-3.26980e-02,1.43377e-01,2.50480e-01
1.52340e+03,-9.84985e+00,-6.40963e+01,-2.04873e-02,1.44564e-01,2.51230e-01
1.52340e+03,-9.88634e+00,-6.15325e+01,-9.90545e-03,1.45807e-01,2.52739e-01
1.52340e+03,-9.76914e+00,-5.89686e+01,-5.50884e-04,1.47094e-01,2.54775e-01
1.52340e+03,-9.55548e+00,-5.64048e+01,8.03356e-03,1.48419e-01,2.57195e-01
1.52340e+03,-9.24498e+00,-5.38409e+01,1.58447e-02,1.49775e-01,2.59901e-01
1.52340e+03,-8.87540e+00,-5.12771e+01,2.31841e-02,1.51153e-01,2.62830e-01
1.52340e+03,-8.47156e+00,-4.87132e+01,3.02500e-02,1.52552e-01,2.65953e-01
1.52340e+03,-8.01609e+00,-4.61494e+01,3.69036e-02,1.53966e-01,2.69219e-01
1.52340e+03,-7.52837e+00,-4.35855e+01,4.32996e-02,1.55393e-01,2.72609e-01
1.52340e+03,-7.00922e+00,-4.10217e+01,4.94448e-02,1.56829e-01,2.76099e-01
1.52340e+03,-6.45878e+00,-3.84578e+01,5.53401e-02,1.58271e-01,2.79664e-01
1.52340e+03,-5.88872e+00,-3.58940e+01,6.10787e-02,1.59717e-01,2.83301e-01
1.52340e+03,-5.29352e+00,-3.33301e+01,6.66165e-02,1.61165e-01,2.86985e-01
1.52340e+03,-4.68222e+00,-3.07662e+01,7.20259e-02,1.62612e-01,2.90717e-01
1.52340e+03,-4.05649e+00,-2.82024e+01,7.73200e-02,1.64058e-01,2.94488e-01
1.52340e+03,-3.41788e+00,-2.56385e+01,8.25113e-02,1.65499e-01,2.98292e-01
1.52340e+03,-2.77381e+00,-2.30747e+01,8.76590e-02,1.66936e-01,3.02137e-01
1.52340e+03,-2.12129e+00,-2.05108e+01,9.27392e-02,1.68367e-01,3.06011e-01
1.52340e+03,-1.46736e+00,-1.79470e+01,9.78081e-02,1.69792e-01,3.09926e-01
1.52340e+03,-8.08383e-01,-1.53831e+01,1.02837e-01,1.71210e-01,3.13870e-01
1.52340e+03,-1.49473e-01,-1.28193e+01,1.07866e-01,1.72621e-01,3.17851e-01
1.52340e+03,5.06948e-01,-1.02554e+01,1.12915e-01,1.74026e-01,3.21876e-01
1.52340e+03,1.16337e+00,-7.69156e+00,1.17964e-01,1.75422e-01,3.25936e-01
1.52340e+03,1.80424e+00,-5.12771e+00,1.23137e-01,1.76812e-01,3.30077e-01
1.52340e+03,2.44222e+00,-2.56385e+00,1.28334e-01,1.78196e-01,3.34263e-01
1.59310e+03,3.14533e+01,0.00000e+00,-7.35552e-02,1.52589e-01,2.74336e-01
1.59310e+03,3.12949e+01,-2.39012e+00,-8.00056e-02,1.51507e-01,2.74342e-01
1.59310e+03,3.10841e+01,-4.78023e+00,-8.61429e-02,1.50398e-01,2.74371e-01
1.59310e+03,3.08713e+01,-7.17035e+00,-9.22676e-02,1.49265e-01,2.74506e-01
1.59310e+03,3.06123e+01,-9.56047e+00,-9.81158e-02,1.48108e-01,2.74654e-01
1.59310e+03,3.03425e+01,-1.19506e+01,-1.03900e-01,1.46930e-01,2.74883e-01
1.59310e+03,3.00373e+01,-1.43407e+01,-1.09472e-01,1.45733e-01,2.75133e-01
1.59310e+03,2.97149e+01,-1.67308e+01,-1.14940e-01,1.44517e-01,2.75439e-01
1.59310e+03,2.93640e+01,-1.91209e+01,-1.20239e-01,1.43285e-01,2.75770e-01
1.59310e+03,2.89896e+01,-2.15111e+01,-1.25397e-01,1.42038e-01,2.76132e-01
1.59310e+03,2.85896e+01,-2.39012e+01,-1.30401e-01,1.40778e-01,2.76513e-01
1.59310e+03,2.81583e+01,-2.62913e+01,-1.35218e-01,1.39507e-01,2.76894e-01
1.59310e+03,2.76952e+01,-2.86814e+01,-1.39845e-01,1.38225e-01,2.77264e-01
1.59310e+03,2.71869e+01,-3.10715e+01,-1.44201e-01,1.36936e-01,2.77576e-01
1.59310e+03,2.66345e+01,-3.34616e+01,-1.48294e-01,1.35642e-01,2.77826e-01
1.59310e+03,2.60296e+01,-3.58518e+01,-1.52071e-01,1.34345e-01,2.77978e-01
1.59310e+03,2.53533e+01,-3.82419e+01,-1.55423e-01,1.33049e-01,2.77961e-01
1.59310e+03,2.46276e+01,-4.06320e+01,-1.58477e-01,1.31756e-01,2.77838e-01
1.59310e+03,2.37902e+01,-4.30221e+01,-1.60864e-01,1.30472e-01,2.77391e-01
1.59310e+03,2.29066e+01,-4.54122e+01,-1.62974e-01,1.29200e-01,2.76836e-01
1.59310e+03,2.18941e+01,-4.78023e+01,-1.64313e-01,1.27943e-01,2.75875e-01
1.59310e+03,2.07785e+01,-5.01925e+01,-1.65034e-01,1.26712e-01,2.74598e-01
1.59310e+03,1.95577e+01,-5.25826e+01,-1.65126e-01,1.25510e-01,2.72992e-01
1.59310e+03,1.81606e+01,-5.49727e+01,-1.64163e-01,1.24340e-01,2.70796e-01
1.59310e+03,1.65592e+01,-5.73628e+01,-1.61976e-01,1.23217e-01,2.67924e-01
1.59310e+03,1.47269e+01,-5.97529e+01,-1.58408e-01,1.22154e-01,2.64306e-01
1.59310e+03,1.25597e+01,-6.21430e+01,-1.52836e-01,1.21160e-01,2.59611e-01
1.59310e+03,9.77800e+00,-6.45332e+01,-1.43585e-01,1.20283e-01,2.53023e-01
1.59310e+03,6.01578e+00,-6.69233e+01,-1.28466e-01,1.19748e-01,2.43972e-01
1.59310e+03,-2.43755e+00,-6.93134e+01,-8.52700e-02,1.19960e-01,2.24593e-01
1.59310e+03,-3.04763e+00,-6.93189e+01,-8.16358e-02,1.20619e-01,2.24302e-01
1.59310e+03,-8.60589e+00,-6.68433e+01,-4.07052e-02,1.21869e-01,2.14972e-01
1.59310e+03,-9.27886e+00,-6.43676e+01,-2.90139e-02,1.22792e-01,2.14652e-01
1.59310e+03,-9.51109e+00,-6.18919e+01,-1.99606e-02,1.23763e-01,2.15292e-01
1.59310e+03,-9.54632e+00,-5.94162e+01,-1.20863e-02,1.24780e-01,2.16463e-01
1.59310e+03,-9.43315e+00,-5.69406e+01,-5.10033e-03,1.25834e-01,2.18010e-01
1.59310e+03,-9.22684e+00,-5.44649e+01,1.32828e-03,1.26918e-01,2.19833e-01
1.59310e+03,-8.92702e+00,-5.19892e+01,7.19717e-03,1.28027e-01,2.21867e-01
1.59310e+03,-8.57016e+00,-4.95135e+01,1.27246e-02,1.29155e-01,2.24065e-01
1.59310e+03,-8.18020e+00,-4.70379e+01,1.80541e-02,1.30300e-01,2.26407e-01
1.59310e+03,-7.74040e+00,-4.45622e+01,2.30852e-02,1.31458e-01,2.28858e-01
1.59310e+03,-7.26945e+00,-4.20865e+01,2.79298e-02,1.32625e-01,2.31405e-01
1.59310e+03,-6.76816e+00,-3.96108e+01,3.25929e-02,1.33800e-01,2.34030e-01
1.59310e+03,-6.23665e+00,-3.71351e+01,3.70751e-02,1.34980e-01,2.36714e-01
1.59310e+03,-5.68619e+00,-3.46595e+01,4.14439e-02,1.36164e-01,2.39457e-01
1.59310e+03,-5.11146e+00,-3.21838e+01,4.56674e-02,1.37349e-01,2.42238e-01
1.59310e+03,-4.52119e+00,-2.97081e+01,4.97979e-02,1.38533e-01,2.45059e-01
1.59310e+03,-3.91698e+00,-2.72324e+01,5.38450e-02,1.39716e-01,2.47912e-01
1.59310e+03,-3.30033e+00,-2.47568e+01,5.78176e-02,1.40895e-01,2.50793e-01
1.59310e+03,-2.67841e+00,-2.22811e+01,6.17587e-02,1.42071e-01,2.53705e-01
1.59310e+03,-2.04833e+00,-1.98054e+01,6.56510e-02,1.43242e-01,2.56641e-01
1.59310e+03,-1.41689e+00,-1.73297e+01,6.95351e-02,1.44408e-01,2.59607e-01
1.59310e+03,-7.80581e-01,-1.48541e+01,7.33900e-02,1.45568e-01,2.62596e-01
1.59310e+03,-1.44332e-01,-1.23784e+01,7.72453e-02,1.46723e-01,2.65612e-01
1.59310e+03,4.89512e-01,-9.90271e+00,8.11150e-02,1.47872e-01,2.68660e-01
1.59310e+03,1.12336e+00,-7.42703e+00,8.49847e-02,1.49015e-01,2.71733e-01
1.59310e+03,1.74219e+00,-4.95135e+00,8.89443e-02,1.50152e-01,2.74861e-01
1.59310e+03,2.35823e+00,-2.47568e+00,9.29206e-02,1.51285e-01,2.78021e-01
1.65850e+03,3.04021e+01,0.00000e+00,-5.09113e-02,1.25805e-01,2.23769e-01
1.65850e+03,3.02490e+01,-2.31024e+00,-5.55629e-02,1.24945e-01,2.23430e-01
1.65850e+03,3.00453e+01,-4.62048e+00,-5.99967e-02,1.24064e-01,2.23103e-01
1.65850e+03,2.98396e+01,-6.93072e+00,-6.44219e-02,1.23163e-01,2.22839e-01
1.65850e+03,2.95892e+01,-9.24096e+00,-6.86548e-02,1.22243e-01,2.22584e-01
1.65850e+03,2.93285e+01,-1.15512e+01,-7.28431e-02,1.21307e-01,2.22378e-01
1.65850e+03,2.90335e+01,-1.38614e+01,-7.68838e-02,1.20355e-01,2.22187e-01
1.65850e+03,2.87218e+01,-1.61717e+01,-8.08530e-02,1.19388e-01,2.22032e-01
1.65850e+03,2.83826e+01,-1.84819e+01,-8.47035e-02,1.18409e-01,2.21894e-01
1.65850e+03,2.80208e+01,-2.07921e+01,-8.84567e-02,1.17418e-01,2.21778e-01
1.65850e+03,2.76341e+01,-2.31024e+01,-9.21028e-02,1.16416e-01,2.21678e-01
1.65850e+03,2.72173e+01,-2.54126e+01,-9.56192e-02,1.15406e-01,2.21582e-01
1.65850e+03,2.67696e+01,-2.77229e+01,-9.90029e-02,1.14387e-01,2.21483e-01
1.65850e+03,2.62783e+01,-3.00331e+01,-1.02199e-01,1.13363e-01,2.21355e-01
1.65850e+03,2.57444e+01,-3.23433e+01,-1.05211e-01,1.12334e-01,2.21193e-01
1.65850e+03,2.51597e+01,-3.46536e+01,-1.08005e-01,1.11303e-01,2.20975e-01
1.65850e+03,2.45060e+01,-3.69638e+01,-1.10502e-01,1.10273e-01,2.20660e-01
1.65850e+03,2.38045e+01,-3.92741e+01,-1.12792e-01,1.09245e-01,2.20285e-01
1.65850e+03,2.29951e+01,-4.15843e+01,-1.14619e-01,1.08224e-01,2.19715e-01
1.65850e+03,2.21410e+01,-4.38945e+01,-1.16253e-01,1.07213e-01,2.19086e-01
1.65850e+03,2.11624e+01,-4.62048e+01,-1.17351e-01,1.06214e-01,2.18210e-01
1.65850e+03,2.00840e+01,-4.85150e+01,-1.18020e-01,1.05236e-01,2.17147e-01
1.65850e+03,1.89041e+01,-5.08253e+01,-1.18251e-01,1.04280e-01,2.15885e-01
1.65850e+03,1.75537e+01,-5.31355e+01,-1.17749e-01,1.03350e-01,2.14263e-01
1.65850e+03,1.60058e+01,-5.54457e+01,-1.16396e-01,1.02458e-01,2.12228e-01
1.65850e+03,1.42348e+01,-5.77560e+01,-1.14083e-01,1.01613e-01,2.09739e-01
1.65850e+03,1.21400e+01,-6.00662e+01,-1.10377e-01,1.00823e-01,2.06588e-01
1.65850e+03,9.45122e+00,-6.23764e+01,-1.04113e-01,1.00126e-01,2.02275e-01
1.65850e+03,5.81473e+00,-6.46867e+01,-9.37697e-02,9.97007e-02,1.96503e-01
1.65850e+03,-2.35608e+00,-6.69969e+01,-6.39077e-02,9.98695e-02,1.84407e-01
1.65850e+03,-2.94577e+00,-6.70023e+01,-6.13816e-02,1.00393e-01,1.84402e-01
1.65850e+03,-8.31828e+00,-6.46093e+01,-3.27539e-02,1.01387e-01,1.78636e-01
1.65850e+03,-8.96876e+00,-6.22164e+01,-2.44530e-02,1.02121e-01,1.78560e-01
1.65850e+03,-9.19322e+00,-5.98235e+01,-1.79859e-02,1.02893e-01,1.79121e-01
1.65850e+03,-9.22728e+00,-5.74305e+01,-1.23385e-02,1.03701e-01,1.80039e-01
1.65850e+03,-9.11789e+00,-5.50376e+01,-7.30860e-03,1.04538e-01,1.81213e-01
1.65850e+03,-8.91848e+00,-5.26447e+01,-2.66621e-03,1.05401e-01,1.82579e-01
1.65850e+03,-8.62868e+00,-5.02517e+01,1.58708e-03,1.06282e-01,1.84093e-01
1.65850e+03,-8.28374e+00,-4.78588e+01,5.60302e-03,1.07179e-01,1.85724e-01
1.65850e+03,-7.90682e+00,-4.54658e+01,9.48128e-03,1.08089e-01,1.87455e-01
1.65850e+03,-7.48171e+00,-4.30729e+01,1.31521e-02,1.09009e-01,1.89266e-01
1.65850e+03,-7.02650e+00,-4.06800e+01,1.66934e-02,1.09937e-01,1.91146e-01
1.65850e+03,-6.54196e+00,-3.82870e+01,2.01084e-02,1.10871e-01,1.93084e-01
1.65850e+03,-6.02822e+00,-3.58941e+01,2.33977e-02,1.11809e-01,1.95067e-01
1.65850e+03,-5.49615e+00,-3.35011e+01,2.66081e-02,1.12749e-01,1.97092e-01
1.65850e+03,-4.94063e+00,-3.11082e+01,2.97176e-02,1.13691e-01,1.99148e-01
1.65850e+03,-4.37009e+00,-2.87153e+01,3.27623e-02,1.14632e-01,2.01234e-01
1.65850e+03,-3.78607e+00,-2.63223e+01,3.57491e-02,1.15572e-01,2.03344e-01
1.65850e+03,-3.19003e+00,-2.39294e+01,3.86842e-02,1.16510e-01,2.05475e-01
1.65850e+03,-2.58890e+00,-2.15364e+01,4.15973e-02,1.17444e-01,2.07629e-01
1.65850e+03,-1.97988e+00,-1.91435e+01,4.44764e-02,1.18375e-01,2.09800e-01
1.65850e+03,-1.36954e+00,-1.67506e+01,4.73499e-02,1.19302e-01,2.11992e-01
1.65850e+03,-7.54494e-01,-1.43576e+01,5.02031e-02,1.20224e-01,2.14200e-01
1.65850e+03,-1.39508e-01,-1.19647e+01,5.30566e-02,1.21142e-01,2.16428e-01
1.65850e+03,4.73153e-01,-9.57176e+00,5.59201e-02,1.22055e-01,2.18676e-01
1.65850e+03,1.08581e+00,-7.17882e+00,5.87836e-02,1.22963e-01,2.20942e-01
1.65850e+03,1.68397e+00,-4.78588e+00,6.17095e-02,1.23867e-01,2.23243e-01
1.65850e+03,2.27942e+00,-2.39294e+00,6.46471e-02,1.24767e-01,2.25566e-01
1.71930e+03,2.94249e+01,0.00000e+00,-3.36571e-02,9.95286e-02,1.75643e-01
1.71930e+03,2.92767e+01,-2.23598e+00,-3.68788e-02,9.88704e-02,1.75175e-01
1.71930e+03,2.90795e+01,-4.47196e+00,-3.99558e-02,9.81962e-02,1.74711e-01
1.71930e+03,2.88804e+01,-6.70794e+00,-4.30270e-02,9.75067e-02,1.74281e-01
1.71930e+03,2.86381e+01,-8.94392e+00,-4.59704e-02,9.68032e-02,1.73856e-01
1.71930e+03,2.83857e+01,-1.11799e+01,-4.88842e-02,9.60866e-02,1.73458e-01
1.71930e+03,2.81002e+01,-1.34159e+01,-5.16998e-02,9.53581e-02,1.73068e-01
1.71930e+03,2.77986e+01,-1.56519e+01,-5.44679e-02,9.46187e-02,1.72699e-01
1.71930e+03,2.74703e+01,-1.78878e+01,-5.71571e-02,9.38692e-02,1.72340e-01
1.71930e+03,2.71201e+01,-2.01238e+01,-5.97816e-02,9.31108e-02,1.71996e-01
1.71930e+03,2.67458e+01,-2.23598e+01,-6.23349e-02,9.23444e-02,1.71663e-01
1.71930e+03,2.63424e+01,-2.45958e+01,-6.48020e-02,9.15711e-02,1.71333e-01
1.71930e+03,2.59091e+01,-2.68317e+01,-6.71808e-02,9.07918e-02,1.71005e-01
1.71930e+03,2.54336e+01,-2.90677e+01,-6.94346e-02,9.00078e-02,1.70662e-01
1.71930e+03,2.49169e+01,-3.13037e+01,-7.15667e-02,8.92208e-02,1.70302e-01
1.71930e+03,2.43509e+01,-3.35397e+01,-7.35532e-02,8.84318e-02,1.69914e-01
1.71930e+03,2.37183e+01,-3.57757e+01,-7.53426e-02,8.76437e-02,1.69472e-01
1.71930e+03,2.30393e+01,-3.80116e+01,-7.69949e-02,8.68570e-02,1.68999e-01
1.71930e+03,2.22560e+01,-4.02476e+01,-7.83386e-02,8.60760e-02,1.68417e-01
1.71930e+03,2.14293e+01,-4.24836e+01,-7.95544e-02,8.53023e-02,1.67805e-01
1.71930e+03,2.04822e+01,-4.47196e+01,-8.04138e-02,8.45381e-02,1.67052e-01
1.71930e+03,1.94385e+01,-4.69556e+01,-8.09876e-02,8.37897e-02,1.66196e-01
1.71930e+03,1.82964e+01,-4.91915e+01,-8.12708e-02,8.30584e-02,1.65230e-01
1.71930e+03,1.69894e+01,-5.14275e+01,-8.10662e-02,8.23469e-02,1.64057e-01
1.71930e+03,1.54913e+01,-5.36635e+01,-8.02965e-02,8.16638e-02,1.62648e-01
1.71930e+03,1.37772e+01,-5.58995e+01,-7.88881e-02,8.10173e-02,1.60981e-01
1.71930e+03,1.17498e+01,-5.81355e+01,-7.65533e-02,8.04128e-02,1.58931e-01
1.71930e+03,9.14742e+00,-6.03714e+01,-7.25186e-02,7.98800e-02,1.56209e-01
1.71930e+03,5.62782e+00,-6.26074e+01,-6.57719e-02,7.95545e-02,1.52685e-01
1.71930e+03,-2.28035e+00,-6.48434e+01,-4.60490e-02,7.96838e-02,1.45496e-01
1.71930e+03,-2.85109e+00,-6.48486e+01,-4.43699e-02,8.00846e-02,1.45634e-01
1.71930e+03,-8.05090e+00,-6.25326e+01,-2.52043e-02,8.08448e-02,1.42278e-01
1.71930e+03,-8.68047e+00,-6.02165e+01,-1.95519e-02,8.14064e-02,1.42349e-01
1.71930e+03,-8.89772e+00,-5.79005e+01,-1.51186e-02,8.19973e-02,1.42826e-01
1.71930e+03,-8.93068e+00,-5.55845e+01,-1.12302e-02,8.26156e-02,1.43534e-01
1.71930e+03,-8.82481e+00,-5.32685e+01,-7.75229e-03,8.32565e-02,1.44413e-01
1.71930e+03,-8.63181e+00,-5.09525e+01,-4.53203e-03,8.39161e-02,1.45418e-01
1.71930e+03,-8.35132e+00,-4.86364e+01,-1.57044e-03,8.45906e-02,1.46524e-01
1.71930e+03,-8.01747e+00,-4.63204e+01,1.23335e-03,8.52768e-02,1.47709e-01
1.71930e+03,-7.65266e+00,-4.40044e+01,3.94563e-03,8.59729e-02,1.48962e-01
1.71930e+03,-7.24122e+00,-4.16884e+01,6.52002e-03,8.66769e-02,1.50270e-01
1.71930e+03,-6.80064e+00,-3.93724e+01,9.00825e-03,8.73869e-02,1.51626e-01
1.71930e+03,-6.33168e+00,-3.70563e+01,1.14125e-02,8.81016e-02,1.53023e-01
1.71930e+03,-5.83445e+00,-3.47403e+01,1.37333e-02,8.88194e-02,1.54451e-01
1.71930e+03,-5.31949e+00,-3.24243e+01,1.60016e-02,8.95391e-02,1.55910e-01
1.71930e+03,-4.78182e+00,-3.01083e+01,1.82027e-02,9.02596e-02,1.57390e-01
1.71930e+03,-4.22962e+00,-2.77922e+01,2.03609e-02,9.09798e-02,1.58892e-01
1.71930e+03,-3.66437e+00,-2.54762e+01,2.24805e-02,9.16990e-02,1.60410e-01
1.71930e+03,-3.08749e+00,-2.31602e+01,2.45657e-02,9.24162e-02,1.61944e-01
1.71930e+03,-2.50568e+00,-2.08442e+01,2.66364e-02,9.31311e-02,1.63492e-01
1.71930e+03,-1.91624e+00,-1.85282e+01,2.86844e-02,9.38433e-02,1.65053e-01
1.71930e+03,-1.32552e+00,-1.62121e+01,3.07287e-02,9.45523e-02,1.66627e-01
1.71930e+03,-7.30242e-01,-1.38961e+01,3.27596e-02,9.52580e-02,1.68213e-01
1.71930e+03,-1.35024e-01,-1.15801e+01,3.47906e-02,9.59602e-02,1.69810e-01
1.71930e+03,4.57944e-01,-9.26408e+00,3.68282e-02,9.66589e-02,1.71421e-01
1.71930e+03,1.05091e+00,-6.94806e+00,3.88658e-02,9.73539e-02,1.73043e-01
1.71930e+03,1.62984e+00,-4.63204e+00,4.09450e-02,9.80455e-02,1.74686e-01
1.71930e+03,2.20615e+00,-2.31602e+00,4.30319e-02,9.87341e-02,1.76343e-01
1.77540e+03,2.77303e+01,0.00000e+00,-3.71750e-02,8.61172e-02,1.53722e-01
1.77540e+03,2.75906e+01,-2.10721e+00,-4.01063e-02,8.52788e-02,1.53055e-01
1.77540e+03,2.74048e+01,-4.21442e+00,-4.28730e-02,8.44197e-02,1.52375e-01
1.77540e+03,2.72172e+01,-6.32163e+00,-4.56332e-02,8.35410e-02,1.51722e-01
1.77540e+03,2.69888e+01,-8.42884e+00,-4.82482e-02,8.26442e-02,1.51057e-01
1.77540e+03,2.67510e+01,-1.05361e+01,-5.08294e-02,8.17307e-02,1.50411e-01
1.77540e+03,2.64819e+01,-1.26433e+01,-5.32991e-02,8.08017e-02,1.49758e-01
1.77540e+03,2.61977e+01,-1.47505e+01,-5.57147e-02,7.98587e-02,1.49119e-01
1.77540e+03,2.58883e+01,-1.68577e+01,-5.80407e-02,7.89028e-02,1.48478e-01
1.77540e+03,2.55583e+01,-1.89649e+01,-6.02931e-02,7.79353e-02,1.47841e-01
1.77540e+03,2.52056e+01,-2.10721e+01,-6.24645e-02,7.69575e-02,1.47205e-01
1.77540e+03,2.48254e+01,-2.31793e+01,-6.45380e-02,7.59707e-02,1.46560e-01
1.77540e+03,2.44171e+01,-2.52865e+01,-6.65112e-02,7.49761e-02,1.45904e-01
1.77540e+03,2.39689e+01,-2.73937e+01,-6.83423e-02,7.39755e-02,1.45216e-01
1.77540e+03,2.34819e+01,-2.95009e+01,-7.00350e-02,7.29709e-02,1.44496e-01
1.77540e+03,2.29486e+01,-3.16082e+01,-7.15622e-02,7.19637e-02,1.43727e-01
1.77540e+03,2.23524e+01,-3.37154e+01,-7.28654e-02,7.09574e-02,1.42878e-01
1.77540e+03,2.17125e+01,-3.58226e+01,-7.40127e-02,6.99528e-02,1.41979e-01
1.77540e+03,2.09743e+01,-3.79298e+01,-7.48092e-02,6.89553e-02,1.40929e-01
1.77540e+03,2.01952e+01,-4.00370e+01,-7.54603e-02,6.79671e-02,1.39832e-01
1.77540e+03,1.93026e+01,-4.21442e+01,-7.57064e-02,6.69909e-02,1.38545e-01
1.77540e+03,1.83190e+01,-4.42514e+01,-7.56278e-02,6.60347e-02,1.37118e-01
1.77540e+03,1.72428e+01,-4.63586e+01,-7.52189e-02,6.51002e-02,1.35543e-01
1.77540e+03,1.60110e+01,-4.84658e+01,-7.42554e-02,6.41909e-02,1.33698e-01
1.77540e+03,1.45992e+01,-5.05731e+01,-7.26497e-02,6.33176e-02,1.31550e-01
1.77540e+03,1.29838e+01,-5.26803e+01,-7.03179e-02,6.24909e-02,1.29073e-01
1.77540e+03,1.10731e+01,-5.47875e+01,-6.69332e-02,6.17177e-02,1.26124e-01
1.77540e+03,8.62063e+00,-5.68947e+01,-6.16162e-02,6.10355e-02,1.22362e-01
1.77540e+03,5.30372e+00,-5.90019e+01,-5.32163e-02,6.06171e-02,1.17708e-01
1.77540e+03,-2.14903e+00,-6.11091e+01,-3.00667e-02,6.07801e-02,1.09484e-01
1.77540e+03,-2.68689e+00,-6.11140e+01,-2.81564e-02,6.12907e-02,1.09829e-01
1.77540e+03,-7.58725e+00,-5.89314e+01,-7.12794e-03,6.22600e-02,1.08073e-01
1.77540e+03,-8.18057e+00,-5.67487e+01,-1.45985e-03,6.29765e-02,1.09088e-01
1.77540e+03,-8.38530e+00,-5.45661e+01,2.82245e-03,6.37306e-02,1.10421e-01
1.77540e+03,-8.41637e+00,-5.23834e+01,6.48537e-03,6.45198e-02,1.11940e-01
1.77540e+03,-8.31659e+00,-5.02008e+01,9.68165e-03,6.53380e-02,1.13582e-01
1.77540e+03,-8.13471e+00,-4.80181e+01,1.25851e-02,6.61802e-02,1.15316e-01
1.77540e+03,-7.87037e+00,-4.58355e+01,1.51945e-02,6.70417e-02,1.17110e-01
1.77540e+03,-7.55575e+00,-4.36529e+01,1.76246e-02,6.79182e-02,1.18951e-01
1.77540e+03,-7.21195e+00,-4.14702e+01,1.99506e-02,6.88074e-02,1.20836e-01
1.77540e+03,-6.82421e+00,-3.92876e+01,2.21199e-02,6.97069e-02,1.22745e-01
1.77540e+03,-6.40900e+00,-3.71049e+01,2.41913e-02,7.06142e-02,1.24677e-01
1.77540e+03,-5.96704e+00,-3.49223e+01,2.61672e-02,7.15276e-02,1.26623e-01
1.77540e+03,-5.49844e+00,-3.27396e+01,2.80482e-02,7.24451e-02,1.28575e-01
1.77540e+03,-5.01314e+00,-3.05570e+01,2.98695e-02,7.33652e-02,1.30536e-01
1.77540e+03,-4.50644e+00,-2.83744e+01,3.16146e-02,7.42864e-02,1.32495e-01
1.77540e+03,-3.98604e+00,-2.61917e+01,3.33108e-02,7.52074e-02,1.34455e-01
1.77540e+03,-3.45334e+00,-2.40091e+01,3.49631e-02,7.61272e-02,1.36413e-01
1.77540e+03,-2.90969e+00,-2.18264e+01,3.65764e-02,7.70447e-02,1.38367e-01
1.77540e+03,-2.36138e+00,-1.96438e+01,3.81731e-02,7.79594e-02,1.40322e-01
1.77540e+03,-1.80588e+00,-1.74611e+01,3.97441e-02,7.88706e-02,1.42272e-01
1.77540e+03,-1.24918e+00,-1.52785e+01,4.13109e-02,7.97779e-02,1.44223e-01
1.77540e+03,-6.88187e-01,-1.30959e+01,4.28623e-02,8.06813e-02,1.46170e-01
1.77540e+03,-1.27248e-01,-1.09132e+01,4.44139e-02,8.15802e-02,1.48117e-01
1.77540e+03,4.31571e-01,-8.73057e+00,4.59731e-02,8.24748e-02,1.50066e-01
1.77540e+03,9.90390e-01,-6.54793e+00,4.75323e-02,8.33647e-02,1.52014e-01
1.77540e+03,1.53598e+00,-4.36529e+00,4.91387e-02,8.42505e-02,1.53977e-01
1.77540e+03,2.07910e+00,-2.18264e+00,5.07538e-02,8.51326e-02,1.55944e-01
1.82660e+03,2.53092e+01,0.00000e+00,-2.40539e-02,6.84374e-02,1.20953e-01
1.82660e+03,2.51817e+01,-1.92323e+00,-2.60963e-02,6.78356e-02,1.20358e-01
1.82660e+03,2.50121e+01,-3.84646e+00,-2.80313e-02,6.72190e-02,1.19754e-01
1.82660e+03,2.48409e+01,-5.76969e+00,-2.99620e-02,6.65882e-02,1.19163e-01
1.82660e+03,2.46324e+01,-7.69292e+00,-3.17980e-02,6.59446e-02,1.18563e-01
1.82660e+03,2.44154e+01,-9.61614e+00,-3.36120e-02,6.52889e-02,1.17973e-01
1.82660e+03,2.41698e+01,-1.15394e+01,-3.53532e-02,6.46222e-02,1.17379e-01
1.82660e+03,2.39103e+01,-1.34626e+01,-3.70591e-02,6.39454e-02,1.16792e-01
1.82660e+03,2.36280e+01,-1.53858e+01,-3.87066e-02,6.32594e-02,1.16204e-01
1.82660e+03,2.33268e+01,-1.73091e+01,-4.03060e-02,6.25651e-02,1.15619e-01
1.82660e+03,2.30049e+01,-1.92323e+01,-4.18526e-02,6.18634e-02,1.15034e-01
1.82660e+03,2.26579e+01,-2.11555e+01,-4.33354e-02,6.11553e-02,1.14446e-01
1.82660e+03,2.22852e+01,-2.30787e+01,-4.47526e-02,6.04416e-02,1.13852e-01
1.82660e+03,2.18762e+01,-2.50020e+01,-4.60772e-02,5.97236e-02,1.13242e-01
1.82660e+03,2.14317e+01,-2.69252e+01,-4.73115e-02,5.90027e-02,1.12616e-01
1.82660e+03,2.09449e+01,-2.88484e+01,-4.84379e-02,5.82799e-02,1.11964e-01
1.82660e+03,2.04008e+01,-3.07717e+01,-4.94180e-02,5.75579e-02,1.11269e-01
1.82660e+03,1.98168e+01,-3.26949e+01,-5.02965e-02,5.68371e-02,1.10549e-01
1.82660e+03,1.91430e+01,-3.46181e+01,-5.09461e-02,5.61214e-02,1.09747e-01
1.82660e+03,1.84320e+01,-3.65413e+01,-5.15009e-02,5.54124e-02,1.08922e-01
1.82660e+03,1.76173e+01,-3.84646e+01,-5.17914e-02,5.47120e-02,1.07993e-01
1.82660e+03,1.67196e+01,-4.03878e+01,-5.18702e-02,5.40260e-02,1.06990e-01
1.82660e+03,1.57373e+01,-4.23110e+01,-5.17334e-02,5.33555e-02,1.05909e-01
1.82660e+03,1.46131e+01,-4.42343e+01,-5.12348e-02,5.27031e-02,1.04680e-01
1.82660e+03,1.33245e+01,-4.61575e+01,-5.03172e-02,5.20767e-02,1.03285e-01
1.82660e+03,1.18502e+01,-4.80807e+01,-4.89260e-02,5.14837e-02,1.01713e-01
1.82660e+03,1.01063e+01,-5.00040e+01,-4.68478e-02,5.09290e-02,9.98800e-02
1.82660e+03,7.86795e+00,-5.19272e+01,-4.35089e-02,5.04398e-02,9.75989e-02
1.82660e+03,4.84065e+00,-5.38504e+01,-3.81589e-02,5.01399e-02,9.48584e-02
1.82660e+03,-1.96139e+00,-5.57736e+01,-2.31861e-02,5.02570e-02,9.00828e-02
1.82660e+03,-2.45230e+00,-5.57781e+01,-2.19402e-02,5.06236e-02,9.03859e-02
1.82660e+03,-6.92480e+00,-5.37860e+01,-8.08661e-03,5.13192e-02,8.92546e-02
1.82660e+03,-7.46632e+00,-5.17940e+01,-4.25412e-03,5.18334e-02,8.98787e-02
1.82660e+03,-7.65318e+00,-4.98019e+01,-1.32573e-03,5.23745e-02,9.07250e-02
1.82660e+03,-7.68153e+00,-4.78098e+01,1.19859e-03,5.29408e-02,9.17040e-02
1.82660e+03,-7.59047e+00,-4.58177e+01,3.41847e-03,5.35279e-02,9.27760e-02
1.82660e+03,-7.42446e+00,-4.38257e+01,5.44732e-03,5.41322e-02,9.39178e-02
1.82660e+03,-7.18321e+00,-4.18336e+01,7.28434e-03,5.47503e-02,9.51096e-02
1.82660e+03,-6.89605e+00,-3.98415e+01,9.00434e-03,5.53791e-02,9.63411e-02
1.82660e+03,-6.58227e+00,-3.78494e+01,1.06565e-02,5.60171e-02,9.76079e-02
1.82660e+03,-6.22838e+00,-3.58574e+01,1.22064e-02,5.66624e-02,9.88983e-02
1.82660e+03,-5.84943e+00,-3.38653e+01,1.36923e-02,5.73133e-02,1.00209e-01
1.82660e+03,-5.44606e+00,-3.18732e+01,1.51161e-02,5.79686e-02,1.01536e-01
1.82660e+03,-5.01837e+00,-2.98811e+01,1.64778e-02,5.86268e-02,1.02873e-01
1.82660e+03,-4.57544e+00,-2.78891e+01,1.78007e-02,5.92868e-02,1.04219e-01
1.82660e+03,-4.11298e+00,-2.58970e+01,1.90739e-02,5.99476e-02,1.05570e-01
1.82660e+03,-3.63801e+00,-2.39049e+01,2.03151e-02,6.06083e-02,1.06924e-01
1.82660e+03,-3.15183e+00,-2.19128e+01,2.15277e-02,6.12681e-02,1.08281e-01
1.82660e+03,-2.65564e+00,-1.99208e+01,2.27148e-02,6.19262e-02,1.09638e-01
1.82660e+03,-2.15521e+00,-1.79287e+01,2.38912e-02,6.25822e-02,1.10997e-01
1.82660e+03,-1.64821e+00,-1.59366e+01,2.50507e-02,6.32358e-02,1.12356e-01
1.82660e+03,-1.14012e+00,-1.39445e+01,2.62075e-02,6.38866e-02,1.13716e-01
1.82660e+03,-6.28101e-01,-1.19525e+01,2.73543e-02,6.45344e-02,1.15075e-01
1.82660e+03,-1.16138e-01,-9.96038e+00,2.85012e-02,6.51791e-02,1.16436e-01
1.82660e+03,3.93890e-01,-7.96830e+00,2.96530e-02,6.58207e-02,1.17798e-01
1.82660e+03,9.03919e-01,-5.97623e+00,3.08049e-02,6.64589e-02,1.19161e-01
1.82660e+03,1.40187e+00,-3.98415e+00,3.19875e-02,6.70941e-02,1.20532e-01
1.82660e+03,1.89757e+00,-1.99208e+00,3.31759e-02,6.77267e-02,1.21907e-01
1.87280e+03,2.31244e+01,0.00000e+00,-1.46064e-02,5.33777e-02,9.35995e-02
1.87280e+03,2.30080e+01,-1.75721e+00,-1.59648e-02,5.29623e-02,9.31122e-02
1.87280e+03,2.28531e+01,-3.51443e+00,-1.72572e-02,5.25367e-02,9.26182e-02
1.87280e+03,2.26966e+01,-5.27164e+00,-1.85470e-02,5.21014e-02,9.21285e-02
1.87280e+03,2.25061e+01,-7.02886e+00,-1.97785e-02,5.16572e-02,9.16330e-02
1.87280e+03,2.23078e+01,-8.78607e+00,-2.09966e-02,5.12048e-02,9.11408e-02
1.87280e+03,2.20834e+01,-1.05433e+01,-2.21699e-02,5.07447e-02,9.06453e-02
1.87280e+03,2.18464e+01,-1.23005e+01,-2.33215e-02,5.02776e-02,9.01522e-02
1.87280e+03,2.15884e+01,-1.40577e+01,-2.44372e-02,4.98043e-02,8.96581e-02
1.87280e+03,2.13132e+01,-1.58149e+01,-2.55234e-02,4.93252e-02,8.91648e-02
1.87280e+03,2.10191e+01,-1.75721e+01,-2.65771e-02,4.88410e-02,8.86717e-02
1.87280e+03,2.07020e+01,-1.93294e+01,-2.75915e-02,4.83524e-02,8.81768e-02
1.87280e+03,2.03615e+01,-2.10866e+01,-2.85657e-02,4.78599e-02,8.76797e-02
1.87280e+03,1.99878e+01,-2.28438e+01,-2.94830e-02,4.73645e-02,8.71748e-02
1.87280e+03,1.95817e+01,-2.46010e+01,-3.03447e-02,4.68672e-02,8.66625e-02
1.87280e+03,1.91369e+01,-2.63582e+01,-3.11401e-02,4.63685e-02,8.61384e-02
1.87280e+03,1.86398e+01,-2.81154e+01,-3.18457e-02,4.58703e-02,8.55945e-02
1.87280e+03,1.81062e+01,-2.98726e+01,-3.24887e-02,4.53730e-02,8.50391e-02
1.87280e+03,1.74905e+01,-3.16299e+01,-3.29911e-02,4.48793e-02,8.44444e-02
1.87280e+03,1.68409e+01,-3.33871e+01,-3.34352e-02,4.43901e-02,8.38413e-02
1.87280e+03,1.60966e+01,-3.51443e+01,-3.37169e-02,4.39069e-02,8.31883e-02
1.87280e+03,1.52763e+01,-3.69015e+01,-3.38684e-02,4.34337e-02,8.25017e-02
1.87280e+03,1.43788e+01,-3.86587e+01,-3.38874e-02,4.29712e-02,8.17797e-02
1.87280e+03,1.33517e+01,-4.04159e+01,-3.36841e-02,4.25212e-02,8.09862e-02
1.87280e+03,1.21743e+01,-4.21731e+01,-3.32232e-02,4.20890e-02,8.01139e-02
1.87280e+03,1.08272e+01,-4.39304e+01,-3.24712e-02,4.16800e-02,7.91583e-02
1.87280e+03,9.23393e+00,-4.56876e+01,-3.12970e-02,4.12974e-02,7.80764e-02
1.87280e+03,7.18879e+00,-4.74448e+01,-2.93479e-02,4.09600e-02,7.67754e-02
1.87280e+03,4.42280e+00,-4.92020e+01,-2.61627e-02,4.07533e-02,7.52794e-02
1.87280e+03,-1.79208e+00,-5.09592e+01,-1.70631e-02,4.08343e-02,7.27562e-02
1.87280e+03,-2.24062e+00,-5.09633e+01,-1.62975e-02,4.10873e-02,7.30075e-02
1.87280e+03,-6.32705e+00,-4.91432e+01,-7.67589e-03,4.15673e-02,7.24047e-02
1.87280e+03,-6.82182e+00,-4.73231e+01,-5.21352e-03,4.19221e-02,7.27981e-02
1.87280e+03,-6.99255e+00,-4.55029e+01,-3.30683e-03,4.22955e-02,7.33325e-02
1.87280e+03,-7.01846e+00,-4.36828e+01,-1.64851e-03,4.26862e-02,7.39530e-02
1.87280e+03,-6.93525e+00,-4.18627e+01,-1.77297e-04,4.30912e-02,7.46364e-02
1.87280e+03,-6.78358e+00,-4.00426e+01,1.17650e-03,4.35081e-02,7.53675e-02
1.87280e+03,-6.56315e+00,-3.82225e+01,2.41238e-03,4.39345e-02,7.61351e-02
1.87280e+03,-6.30078e+00,-3.64024e+01,3.57635e-03,4.43684e-02,7.69314e-02
1.87280e+03,-6.01408e+00,-3.45822e+01,4.69860e-03,4.48085e-02,7.77526e-02
1.87280e+03,-5.69074e+00,-3.27621e+01,5.75801e-03,4.52536e-02,7.85928e-02
1.87280e+03,-5.34450e+00,-3.09420e+01,6.77814e-03,4.57027e-02,7.94490e-02
1.87280e+03,-4.97595e+00,-2.91219e+01,7.76002e-03,4.61547e-02,8.03180e-02
1.87280e+03,-4.58518e+00,-2.73018e+01,8.70380e-03,4.66087e-02,8.11965e-02
1.87280e+03,-4.18049e+00,-2.54816e+01,9.62370e-03,4.70640e-02,8.20833e-02
1.87280e+03,-3.75794e+00,-2.36615e+01,1.05130e-02,4.75198e-02,8.29754e-02
1.87280e+03,-3.32398e+00,-2.18414e+01,1.13827e-02,4.79755e-02,8.38720e-02
1.87280e+03,-2.87976e+00,-2.00213e+01,1.22348e-02,4.84305e-02,8.47717e-02
1.87280e+03,-2.42640e+00,-1.82012e+01,1.30712e-02,4.88845e-02,8.56734e-02
1.87280e+03,-1.96917e+00,-1.63811e+01,1.39010e-02,4.93369e-02,8.65773e-02
1.87280e+03,-1.50594e+00,-1.45609e+01,1.47206e-02,4.97877e-02,8.74822e-02
1.87280e+03,-1.04170e+00,-1.27408e+01,1.55383e-02,5.02365e-02,8.83887e-02
1.87280e+03,-5.73883e-01,-1.09207e+01,1.63500e-02,5.06833e-02,8.92956e-02
1.87280e+03,-1.06113e-01,-9.10059e+00,1.71617e-02,5.11279e-02,9.02037e-02
1.87280e+03,3.59890e-01,-7.28047e+00,1.79765e-02,5.15703e-02,9.11134e-02
1.87280e+03,8.25892e-01,-5.46035e+00,1.87912e-02,5.20104e-02,9.20237e-02
1.87280e+03,1.28086e+00,-3.64024e+00,1.96249e-02,5.24485e-02,9.29391e-02
1.87280e+03,1.73377e+00,-1.82012e+00,2.04621e-02,5.28847e-02,9.38566e-02
1.91380e+03,2.11856e+01,0.00000e+00,-8.20154e-03,4.05383e-02,7.06918e-02
1.91380e+03,2.10789e+01,-1.60989e+00,-9.05213e-03,4.02637e-02,7.03239e-02
1.91380e+03,2.09370e+01,-3.21977e+00,-9.86505e-03,3.99824e-02,6.99507e-02
1.91380e+03,2.07936e+01,-4.82966e+00,-1.06765e-02,3.96947e-02,6.95773e-02
1.91380e+03,2.06192e+01,-6.43954e+00,-1.14546e-02,3.94011e-02,6.91994e-02
1.91380e+03,2.04375e+01,-8.04943e+00,-1.22251e-02,3.91020e-02,6.88212e-02
1.91380e+03,2.02319e+01,-9.65931e+00,-1.29700e-02,3.87980e-02,6.84402e-02
1.91380e+03,2.00147e+01,-1.12692e+01,-1.37025e-02,3.84893e-02,6.80590e-02
1.91380e+03,1.97784e+01,-1.28791e+01,-1.44145e-02,3.81764e-02,6.76764e-02
1.91380e+03,1.95262e+01,-1.44890e+01,-1.51097e-02,3.78598e-02,6.72933e-02
1.91380e+03,1.92568e+01,-1.60989e+01,-1.57863e-02,3.75398e-02,6.69098e-02
1.91380e+03,1.89663e+01,-1.77087e+01,-1.64405e-02,3.72169e-02,6.65250e-02
1.91380e+03,1.86544e+01,-1.93186e+01,-1.70717e-02,3.68914e-02,6.61391e-02
1.91380e+03,1.83120e+01,-2.09285e+01,-1.76704e-02,3.65641e-02,6.57498e-02
1.91380e+03,1.79399e+01,-2.25384e+01,-1.82374e-02,3.62354e-02,6.53576e-02
1.91380e+03,1.75325e+01,-2.41483e+01,-1.87666e-02,3.59058e-02,6.49606e-02
1.91380e+03,1.70770e+01,-2.57582e+01,-1.92444e-02,3.55767e-02,6.45557e-02
1.91380e+03,1.65881e+01,-2.73680e+01,-1.96866e-02,3.52480e-02,6.41470e-02
1.91380e+03,1.60241e+01,-2.89779e+01,-2.00484e-02,3.49218e-02,6.37223e-02
1.91380e+03,1.54289e+01,-3.05878e+01,-2.03770e-02,3.45986e-02,6.32961e-02
1.91380e+03,1.47470e+01,-3.21977e+01,-2.06128e-02,3.42793e-02,6.28498e-02
1.91380e+03,1.39955e+01,-3.38076e+01,-2.07743e-02,3.39666e-02,6.23919e-02
1.91380e+03,1.31733e+01,-3.54175e+01,-2.08601e-02,3.36610e-02,6.19220e-02
1.91380e+03,1.22322e+01,-3.70274e+01,-2.08190e-02,3.33636e-02,6.14234e-02
1.91380e+03,1.11536e+01,-3.86372e+01,-2.06309e-02,3.30781e-02,6.08943e-02
1.91380e+03,9.91946e+00,-4.02471e+01,-2.02765e-02,3.28079e-02,6.03341e-02
1.91380e+03,8.45973e+00,-4.18570e+01,-1.96811e-02,3.25551e-02,5.97232e-02
1.91380e+03,6.58606e+00,-4.34669e+01,-1.86432e-02,3.23323e-02,5.90228e-02
1.91380e+03,4.05198e+00,-4.50768e+01,-1.68996e-02,3.21958e-02,5.82692e-02
1.91380e+03,-1.64183e+00,-4.66867e+01,-1.17790e-02,3.22494e-02,5.70861e-02
1.91380e+03,-2.05276e+00,-4.66904e+01,-1.13421e-02,3.24166e-02,5.72814e-02
1.91380e+03,-5.79657e+00,-4.50229e+01,-6.34175e-03,3.27339e-02,5.70504e-02
1.91380e+03,-6.24986e+00,-4.33554e+01,-4.85815e-03,3.29684e-02,5.73092e-02
1.91380e+03,-6.40628e+00,-4.16879e+01,-3.69183e-03,3.32151e-02,5.76486e-02
1.91380e+03,-6.43001e+00,-4.00204e+01,-2.66731e-03,3.34733e-02,5.80388e-02
1.91380e+03,-6.35378e+00,-3.83528e+01,-1.74963e-03,3.37410e-02,5.84672e-02
1.91380e+03,-6.21483e+00,-3.66853e+01,-8.98985e-04,3.40165e-02,5.89251e-02
1.91380e+03,-6.01288e+00,-3.50178e+01,-1.15662e-04,3.42982e-02,5.94064e-02
1.91380e+03,-5.77251e+00,-3.33503e+01,6.26598e-04,3.45849e-02,5.99061e-02
1.91380e+03,-5.50985e+00,-3.16828e+01,1.34504e-03,3.48757e-02,6.04214e-02
1.91380e+03,-5.21362e+00,-3.00153e+01,2.02760e-03,3.51698e-02,6.09497e-02
1.91380e+03,-4.89640e+00,-2.83477e+01,2.68773e-03,3.54665e-02,6.14886e-02
1.91380e+03,-4.55876e+00,-2.66802e+01,3.32603e-03,3.57652e-02,6.20363e-02
1.91380e+03,-4.20075e+00,-2.50127e+01,3.94257e-03,3.60651e-02,6.25909e-02
1.91380e+03,-3.82998e+00,-2.33452e+01,4.54547e-03,3.63659e-02,6.31514e-02
1.91380e+03,-3.44287e+00,-2.16777e+01,5.13090e-03,3.66671e-02,6.37162e-02
1.91380e+03,-3.04529e+00,-2.00102e+01,5.70514e-03,3.69681e-02,6.42843e-02
1.91380e+03,-2.63832e+00,-1.83427e+01,6.26935e-03,3.72688e-02,6.48551e-02
1.91380e+03,-2.22297e+00,-1.66751e+01,6.82460e-03,3.75686e-02,6.54277e-02
1.91380e+03,-1.80407e+00,-1.50076e+01,7.37606e-03,3.78675e-02,6.60020e-02
1.91380e+03,-1.37967e+00,-1.33401e+01,7.92165e-03,3.81653e-02,6.65772e-02
1.91380e+03,-9.54362e-01,-1.16726e+01,8.46625e-03,3.84618e-02,6.71536e-02
1.91380e+03,-5.25768e-01,-1.00051e+01,9.00735e-03,3.87569e-02,6.77306e-02
1.91380e+03,-9.72161e-02,-8.33757e+00,9.54849e-03,3.90506e-02,6.83083e-02
1.91380e+03,3.29716e-01,-6.67006e+00,1.00914e-02,3.93429e-02,6.88870e-02
1.91380e+03,7.56647e-01,-5.00254e+00,1.06342e-02,3.96336e-02,6.94662e-02
1.91380e+03,1.17347e+00,-3.33503e+00,1.11879e-02,3.99229e-02,7.00477e-02
1.91380e+03,1.58841e+00,-1.66751e+00,1.17436e-02,4.02110e-02,7.06306e-02
1.94970e+03,1.94880e+01,0.00000e+00,-4.13844e-03,2.95546e-02,5.13572e-02
1.94970e+03,1.93899e+01,-1.48088e+00,-4.62764e-03,2.93833e-02,5.11033e-02
1.94970e+03,1.92593e+01,-2.96177e+00,-5.09739e-03,2.92078e-02,5.08455e-02
1.94970e+03,1.91274e+01,-4.44265e+00,-5.56637e-03,2.90282e-02,5.05856e-02
1.94970e+03,1.89669e+01,-5.92353e+00,-6.01816e-03,2.88450e-02,5.03222e-02
1.94970e+03,1.87998e+01,-7.40441e+00,-6.46598e-03,2.86584e-02,5.00572e-02
1.94970e+03,1.86107e+01,-8.88530e+00,-6.90061e-03,2.84687e-02,4.97897e-02
1.94970e+03,1.84109e+01,-1.03662e+01,-7.32884e-03,2.82761e-02,4.95209e-02
1.94970e+03,1.81935e+01,-1.18471e+01,-7.74648e-03,2.80809e-02,4.92505e-02
1.94970e+03,1.79616e+01,-1.33279e+01,-8.15542e-03,2.78833e-02,4.89791e-02
1.94970e+03,1.77137e+01,-1.48088e+01,-8.55479e-03,2.76837e-02,4.87067e-02
1.94970e+03,1.74465e+01,-1.62897e+01,-8.94257e-03,2.74822e-02,4.84333e-02
1.94970e+03,1.71596e+01,-1.77706e+01,-9.31850e-03,2.72792e-02,4.81591e-02
1.94970e+03,1.68446e+01,-1.92515e+01,-9.67762e-03,2.70749e-02,4.78833e-02
1.94970e+03,1.65024e+01,-2.07324e+01,-1.00204e-02,2.68699e-02,4.76065e-02
1.94970e+03,1.61276e+01,-2.22132e+01,-1.03436e-02,2.66643e-02,4.73280e-02
1.94970e+03,1.57086e+01,-2.36941e+01,-1.06403e-02,2.64589e-02,4.70472e-02
1.94970e+03,1.52589e+01,-2.51750e+01,-1.09186e-02,2.62539e-02,4.67656e-02
1.94970e+03,1.47401e+01,-2.66559e+01,-1.11554e-02,2.60504e-02,4.64791e-02
1.94970e+03,1.41926e+01,-2.81368e+01,-1.13750e-02,2.58488e-02,4.61938e-02
1.94970e+03,1.35653e+01,-2.96177e+01,-1.15468e-02,2.56496e-02,4.59024e-02
1.94970e+03,1.28740e+01,-3.10985e+01,-1.16801e-02,2.54545e-02,4.56095e-02
1.94970e+03,1.21177e+01,-3.25794e+01,-1.17744e-02,2.52639e-02,4.53148e-02
1.94970e+03,1.12521e+01,-3.40603e+01,-1.18031e-02,2.50784e-02,4.50122e-02
1.94970e+03,1.02599e+01,-3.55412e+01,-1.17559e-02,2.49003e-02,4.47021e-02
1.94970e+03,9.12460e+00,-3.70221e+01,-1.16229e-02,2.47318e-02,4.43855e-02
1.94970e+03,7.78184e+00,-3.85029e+01,-1.13654e-02,2.45741e-02,4.40549e-02
1.94970e+03,6.05831e+00,-3.99838e+01,-1.08794e-02,2.44351e-02,4.36988e-02
1.94970e+03,3.72729e+00,-4.14647e+01,-1.00289e-02,2.43501e-02,4.33516e-02
1.94970e+03,-1.51027e+00,-4.29456e+01,-7.43464e-03,2.43836e-02,4.28830e-02
1.94970e+03,-1.88827e+00,-4.29490e+01,-7.20912e-03,2.44879e-02,4.30227e-02
1.94970e+03,-5.33209e+00,-4.14151e+01,-4.57522e-03,2.46859e-02,4.30013e-02
1.94970e+03,-5.74905e+00,-3.98812e+01,-3.75735e-03,2.48322e-02,4.31744e-02
1.94970e+03,-5.89293e+00,-3.83473e+01,-3.10331e-03,2.49861e-02,4.33884e-02
1.94970e+03,-5.91477e+00,-3.68135e+01,-2.52251e-03,2.51472e-02,4.36292e-02
1.94970e+03,-5.84465e+00,-3.52796e+01,-1.99687e-03,2.53142e-02,4.38909e-02
1.94970e+03,-5.71682e+00,-3.37457e+01,-1.50585e-03,2.54861e-02,4.41688e-02
1.94970e+03,-5.53106e+00,-3.22118e+01,-1.04960e-03,2.56618e-02,4.44600e-02
1.94970e+03,-5.30995e+00,-3.06779e+01,-6.14549e-04,2.58406e-02,4.47615e-02
1.94970e+03,-5.06834e+00,-2.91440e+01,-1.91800e-04,2.60220e-02,4.50719e-02
1.94970e+03,-4.79584e+00,-2.76101e+01,2.12419e-04,2.62055e-02,4.53898e-02
1.94970e+03,-4.50405e+00,-2.60762e+01,6.05059e-04,2.63906e-02,4.57139e-02
1.94970e+03,-4.19345e+00,-2.45423e+01,9.86420e-04,2.65769e-02,4.60431e-02
1.94970e+03,-3.86414e+00,-2.30084e+01,1.35655e-03,2.67640e-02,4.63764e-02
1.94970e+03,-3.52308e+00,-2.14745e+01,1.71963e-03,2.69516e-02,4.67132e-02
1.94970e+03,-3.16699e+00,-1.99406e+01,2.07369e-03,2.71395e-02,4.70526e-02
1.94970e+03,-2.80126e+00,-1.84067e+01,2.42198e-03,2.73272e-02,4.73941e-02
1.94970e+03,-2.42690e+00,-1.68728e+01,2.76508e-03,2.75147e-02,4.77371e-02
1.94970e+03,-2.04484e+00,-1.53389e+01,3.10356e-03,2.77018e-02,4.80811e-02
1.94970e+03,-1.65951e+00,-1.38050e+01,3.44008e-03,2.78882e-02,4.84261e-02
1.94970e+03,-1.26912e+00,-1.22712e+01,3.77357e-03,2.80739e-02,4.87716e-02
1.94970e+03,-8.77888e-01,-1.07373e+01,4.10655e-03,2.82588e-02,4.91176e-02
1.94970e+03,-4.83637e-01,-9.20336e+00,4.43772e-03,2.84429e-02,4.94640e-02
1.94970e+03,-8.94260e-02,-7.66947e+00,4.76891e-03,2.86260e-02,4.98105e-02
1.94970e+03,3.03295e-01,-6.13558e+00,5.10100e-03,2.88083e-02,5.01574e-02
1.94970e+03,6.96016e-01,-4.60168e+00,5.43308e-03,2.89896e-02,5.05045e-02
1.94970e+03,1.07944e+00,-3.06779e+00,5.77075e-03,2.91700e-02,5.08524e-02
1.94970e+03,1.46113e+00,-1.53389e+00,6.10946e-03,2.93496e-02,5.12009e-02
1.98010e+03,1.80504e+01,0.00000e+00,-1.81622e-03,2.03588e-02,3.53092e-02
1.98010e+03,1.79595e+01,-1.37164e+00,-2.06751e-03,2.02595e-02,3.51513e-02
1.98010e+03,1.78386e+01,-2.74329e+00,-2.30998e-03,2.01577e-02,3.49905e-02
1.98010e+03,1.77165e+01,-4.11493e+00,-2.55210e-03,2.00536e-02,3.48275e-02
1.98010e+03,1.75678e+01,-5.48657e+00,-2.78644e-03,1.99474e-02,3.46621e-02
1.98010e+03,1.74130e+01,-6.85822e+00,-3.01896e-03,1.98392e-02,3.44949e-02
1.98010e+03,1.72378e+01,-8.22986e+00,-3.24551e-03,1.97292e-02,3.43258e-02
1.98010e+03,1.70528e+01,-9.60150e+00,-3.46916e-03,1.96176e-02,3.41553e-02
1.98010e+03,1.68514e+01,-1.09731e+01,-3.68801e-03,1.95044e-02,3.39834e-02
1.98010e+03,1.66366e+01,-1.23448e+01,-3.90291e-03,1.93899e-02,3.38103e-02
1.98010e+03,1.64070e+01,-1.37164e+01,-4.11348e-03,1.92742e-02,3.36363e-02
1.98010e+03,1.61595e+01,-1.50881e+01,-4.31879e-03,1.91574e-02,3.34615e-02
1.98010e+03,1.58938e+01,-1.64597e+01,-4.51872e-03,1.90397e-02,3.32859e-02
1.98010e+03,1.56020e+01,-1.78314e+01,-4.71104e-03,1.89213e-02,3.31095e-02
1.98010e+03,1.52851e+01,-1.92030e+01,-4.89594e-03,1.88024e-02,3.29327e-02
1.98010e+03,1.49379e+01,-2.05747e+01,-5.07197e-03,1.86833e-02,3.27555e-02
1.98010e+03,1.45498e+01,-2.19463e+01,-5.23600e-03,1.85642e-02,3.25777e-02
1.98010e+03,1.41333e+01,-2.33179e+01,-5.39166e-03,1.84454e-02,3.24002e-02
1.98010e+03,1.36527e+01,-2.46896e+01,-5.52853e-03,1.83274e-02,3.22219e-02
1.98010e+03,1.31457e+01,-2.60612e+01,-5.65760e-03,1.82106e-02,3.20450e-02
1.98010e+03,1.25646e+01,-2.74329e+01,-5.76496e-03,1.80951e-02,3.18675e-02
1.98010e+03,1.19244e+01,-2.88045e+01,-5.85492e-03,1.79821e-02,3.16914e-02
1.98010e+03,1.12238e+01,-3.01762e+01,-5.92717e-03,1.78716e-02,3.15169e-02
1.98010e+03,1.04220e+01,-3.15478e+01,-5.96970e-03,1.77641e-02,3.13421e-02
1.98010e+03,9.50303e+00,-3.29194e+01,-5.97780e-03,1.76609e-02,3.11682e-02
1.98010e+03,8.45151e+00,-3.42911e+01,-5.94699e-03,1.75632e-02,3.09962e-02
1.98010e+03,7.20780e+00,-3.56627e+01,-5.85974e-03,1.74719e-02,3.08243e-02
1.98010e+03,5.61141e+00,-3.70344e+01,-5.66891e-03,1.73913e-02,3.06514e-02
1.98010e+03,3.45234e+00,-3.84060e+01,-5.31284e-03,1.73421e-02,3.05036e-02
1.98010e+03,-1.39886e+00,-3.97777e+01,-4.16617e-03,1.73615e-02,3.03582e-02
1.98010e+03,-1.74898e+00,-3.97808e+01,-4.06399e-03,1.74220e-02,3.04482e-02
1.98010e+03,-4.93876e+00,-3.83601e+01,-2.83930e-03,1.75368e-02,3.05070e-02
1.98010e+03,-5.32496e+00,-3.69394e+01,-2.43795e-03,1.76216e-02,3.06187e-02
1.98010e+03,-5.45823e+00,-3.55186e+01,-2.11087e-03,1.77108e-02,3.07485e-02
1.98010e+03,-5.47846e+00,-3.40979e+01,-1.81699e-03,1.78042e-02,3.08912e-02
1.98010e+03,-5.41351e+00,-3.26771e+01,-1.54812e-03,1.79010e-02,3.10440e-02
1.98010e+03,-5.29511e+00,-3.12564e+01,-1.29495e-03,1.80006e-02,3.12048e-02
1.98010e+03,-5.12305e+00,-2.98356e+01,-1.05754e-03,1.81025e-02,3.13722e-02
1.98010e+03,-4.91825e+00,-2.84149e+01,-8.29749e-04,1.82061e-02,3.15448e-02
1.98010e+03,-4.69446e+00,-2.69941e+01,-6.07529e-04,1.83112e-02,3.17218e-02
1.98010e+03,-4.44207e+00,-2.55734e+01,-3.93711e-04,1.84176e-02,3.19026e-02
1.98010e+03,-4.17180e+00,-2.41527e+01,-1.85142e-04,1.85248e-02,3.20865e-02
1.98010e+03,-3.88412e+00,-2.27319e+01,1.83136e-05,1.86328e-02,3.22730e-02
1.98010e+03,-3.57909e+00,-2.13112e+01,2.16676e-04,1.87413e-02,3.24615e-02
1.98010e+03,-3.26320e+00,-1.98904e+01,4.11845e-04,1.88500e-02,3.26517e-02
1.98010e+03,-2.93337e+00,-1.84697e+01,6.02924e-04,1.89588e-02,3.28432e-02
1.98010e+03,-2.59462e+00,-1.70489e+01,7.91383e-04,1.90677e-02,3.30356e-02
1.98010e+03,-2.24788e+00,-1.56282e+01,9.77494e-04,1.91763e-02,3.32288e-02
1.98010e+03,-1.89400e+00,-1.42074e+01,1.16151e-03,1.92847e-02,3.34223e-02
1.98010e+03,-1.53709e+00,-1.27867e+01,1.34463e-03,1.93927e-02,3.36161e-02
1.98010e+03,-1.17550e+00,-1.13660e+01,1.52638e-03,1.95004e-02,3.38101e-02
1.98010e+03,-8.13129e-01,-9.94521e+00,1.70791e-03,1.96075e-02,3.40041e-02
1.98010e+03,-4.47961e-01,-8.52447e+00,1.88861e-03,1.97142e-02,3.41981e-02
1.98010e+03,-8.28294e-02,-7.10372e+00,2.06932e-03,1.98203e-02,3.43921e-02
1.98010e+03,2.80922e-01,-5.68298e+00,2.25043e-03,1.99259e-02,3.45860e-02
1.98010e+03,6.44673e-01,-4.26223e+00,2.43155e-03,2.00309e-02,3.47797e-02
1.98010e+03,9.99811e-01,-2.84149e+00,2.61519e-03,2.01355e-02,3.49736e-02
1.98010e+03,1.35334e+00,-1.42074e+00,2.79931e-03,2.02396e-02,3.51676e-02
2.00520e+03,1.68635e+01,0.00000e+00,-6.44543e-04,1.28080e-02,2.21935e-02
2.00520e+03,1.67786e+01,-1.28145e+00,-7.53186e-04,1.27566e-02,2.21080e-02
2.00520e+03,1.66656e+01,-2.56290e+00,-8.58543e-04,1.27040e-02,2.20207e-02
2.00520e+03,1.65515e+01,-3.84435e+00,-9.63769e-04,1.26502e-02,2.19319e-02
2.00520e+03,1.64126e+01,-5.12580e+00,-1.06609e-03,1.25953e-02,2.18417e-02
2.00520e+03,1.62680e+01,-6.40725e+00,-1.16774e-03,1.25393e-02,2.17501e-02
2.00520e+03,1.61044e+01,-7.68870e+00,-1.26717e-03,1.24825e-02,2.16574e-02
2.00520e+03,1.59315e+01,-8.97015e+00,-1.36551e-03,1.24247e-02,2.15636e-02
2.00520e+03,1.57433e+01,-1.02516e+01,-1.46207e-03,1.23662e-02,2.14688e-02
2.00520e+03,1.55427e+01,-1.15330e+01,-1.55715e-03,1.23070e-02,2.13732e-02
2.00520e+03,1.53282e+01,-1.28145e+01,-1.65062e-03,1.22472e-02,2.12769e-02
2.00520e+03,1.50970e+01,-1.40959e+01,-1.74213e-03,1.21868e-02,2.11800e-02
2.00520e+03,1.48486e+01,-1.53774e+01,-1.83163e-03,1.21260e-02,2.10825e-02
2.00520e+03,1.45761e+01,-1.66588e+01,-1.91830e-03,1.20648e-02,2.09846e-02
2.00520e+03,1.42800e+01,-1.79403e+01,-2.00221e-03,1.20033e-02,2.08865e-02
2.00520e+03,1.39556e+01,-1.92217e+01,-2.08281e-03,1.19417e-02,2.07882e-02
2.00520e+03,1.35931e+01,-2.05032e+01,-2.15893e-03,1.18802e-02,2.06900e-02
2.00520e+03,1.32039e+01,-2.17846e+01,-2.23195e-03,1.18187e-02,2.05920e-02
2.00520e+03,1.27550e+01,-2.30661e+01,-2.29795e-03,1.17578e-02,2.04943e-02
2.00520e+03,1.22812e+01,-2.43475e+01,-2.36106e-03,1.16973e-02,2.03975e-02
2.00520e+03,1.17384e+01,-2.56290e+01,-2.41607e-03,1.16377e-02,2.03013e-02
2.00520e+03,1.11403e+01,-2.69104e+01,-2.46460e-03,1.15792e-02,2.02067e-02
2.00520e+03,1.04858e+01,-2.81919e+01,-2.50653e-03,1.15221e-02,2.01137e-02
2.00520e+03,9.73672e+00,-2.94733e+01,-2.53738e-03,1.14665e-02,2.00221e-02
2.00520e+03,8.87814e+00,-3.07548e+01,-2.55541e-03,1.14132e-02,1.99327e-02
2.00520e+03,7.89577e+00,-3.20362e+01,-2.55894e-03,1.13627e-02,1.98464e-02
2.00520e+03,6.73385e+00,-3.33177e+01,-2.54143e-03,1.13155e-02,1.97631e-02
2.00520e+03,5.24243e+00,-3.45991e+01,-2.48534e-03,1.12739e-02,1.96844e-02
2.00520e+03,3.22533e+00,-3.58806e+01,-2.36767e-03,1.12484e-02,1.96262e-02
2.00520e+03,-1.30688e+00,-3.71620e+01,-1.95541e-03,1.12585e-02,1.95980e-02
2.00520e+03,-1.63397e+00,-3.71650e+01,-1.91737e-03,1.12898e-02,1.96482e-02
2.00520e+03,-4.61400e+00,-3.58377e+01,-1.44549e-03,1.13491e-02,1.97103e-02
2.00520e+03,-4.97481e+00,-3.45104e+01,-1.28039e-03,1.13929e-02,1.97746e-02
2.00520e+03,-5.09932e+00,-3.31830e+01,-1.14297e-03,1.14391e-02,1.98460e-02
2.00520e+03,-5.11821e+00,-3.18557e+01,-1.01792e-03,1.14873e-02,1.99227e-02
2.00520e+03,-5.05754e+00,-3.05284e+01,-9.02193e-04,1.15374e-02,2.00037e-02
2.00520e+03,-4.94693e+00,-2.92011e+01,-7.92312e-04,1.15889e-02,2.00881e-02
2.00520e+03,-4.78618e+00,-2.78738e+01,-6.88305e-04,1.16415e-02,2.01755e-02
2.00520e+03,-4.59485e+00,-2.65464e+01,-5.87879e-04,1.16951e-02,2.02651e-02
2.00520e+03,-4.38577e+00,-2.52191e+01,-4.89531e-04,1.17495e-02,2.03566e-02
2.00520e+03,-4.14998e+00,-2.38918e+01,-3.94314e-04,1.18044e-02,2.04497e-02
2.00520e+03,-3.89748e+00,-2.25645e+01,-3.01052e-04,1.18599e-02,2.05441e-02
2.00520e+03,-3.62871e+00,-2.12371e+01,-2.09696e-04,1.19157e-02,2.06397e-02
2.00520e+03,-3.34375e+00,-1.99098e+01,-1.20238e-04,1.19718e-02,2.07360e-02
2.00520e+03,-3.04862e+00,-1.85825e+01,-3.19694e-05,1.20280e-02,2.08331e-02
2.00520e+03,-2.74048e+00,-1.72552e+01,5.47749e-05,1.20842e-02,2.09306e-02
2.00520e+03,-2.42401e+00,-1.59279e+01,1.40543e-04,1.21405e-02,2.10284e-02
2.00520e+03,-2.10007e+00,-1.46005e+01,2.25436e-04,1.21966e-02,2.11264e-02
2.00520e+03,-1.76946e+00,-1.32732e+01,3.09548e-04,1.22527e-02,2.12245e-02
2.00520e+03,-1.43602e+00,-1.19459e+01,3.93329e-04,1.23085e-02,2.13226e-02
2.00520e+03,-1.09820e+00,-1.06186e+01,4.76598e-04,1.23641e-02,2.14206e-02
2.00520e+03,-7.59661e-01,-9.29125e+00,5.59781e-04,1.24195e-02,2.15185e-02
2.00520e+03,-4.18505e-01,-7.96393e+00,6.42658e-04,1.24746e-02,2.16163e-02
2.00520e+03,-7.73829e-02,-6.63661e+00,7.25539e-04,1.25295e-02,2.17138e-02
2.00520e+03,2.62450e-01,-5.30929e+00,8.08571e-04,1.25841e-02,2.18112e-02
2.00520e+03,6.02282e-01,-3.98196e+00,8.91603e-04,1.26384e-02,2.19084e-02
2.00520e+03,9.34067e-01,-2.65464e+00,9.75577e-04,1.26924e-02,2.20055e-02
2.00520e+03,1.26435e+00,-1.32732e+00,1.05973e-03,1.27462e-02,2.21025e-02
2.02480e+03,1.59367e+01,0.00000e+00,-1.64288e-04,6.96567e-03,1.20660e-02
2.02480e+03,1.58564e+01,-1.21102e+00,-2.00406e-04,6.94355e-03,1.20282e-02
2.02480e+03,1.57496e+01,-2.42204e+00,-2.35615e-04,6.92089e-03,1.19897e-02
2.02480e+03,1.56418e+01,-3.63306e+00,-2.70788e-04,6.89772e-03,1.19503e-02
2.02480e+03,1.55106e+01,-4.84408e+00,-3.05158e-04,6.87407e-03,1.19102e-02
2.02480e+03,1.53739e+01,-6.05509e+00,-3.39343e-04,6.84999e-03,1.18694e-02
2.02480e+03,1.52192e+01,-7.26611e+00,-3.72912e-04,6.82551e-03,1.18280e-02
2.02480e+03,1.50559e+01,-8.47713e+00,-4.06183e-04,6.80065e-03,1.17861e-02
2.02480e+03,1.48781e+01,-9.68815e+00,-4.38958e-04,6.77546e-03,1.17437e-02
2.02480e+03,1.46884e+01,-1.08992e+01,-4.71328e-04,6.74997e-03,1.17008e-02
2.02480e+03,1.44857e+01,-1.21102e+01,-5.03251e-04,6.72421e-03,1.16575e-02
2.02480e+03,1.42672e+01,-1.33212e+01,-5.34633e-04,6.69822e-03,1.16140e-02
2.02480e+03,1.40325e+01,-1.45322e+01,-5.65460e-04,6.67202e-03,1.15701e-02
2.02480e+03,1.37750e+01,-1.57432e+01,-5.95504e-04,6.64567e-03,1.15260e-02
2.02480e+03,1.34951e+01,-1.69543e+01,-6.24784e-04,6.61922e-03,1.14818e-02
2.02480e+03,1.31886e+01,-1.81653e+01,-6.53150e-04,6.59269e-03,1.14375e-02
2.02480e+03,1.28460e+01,-1.93763e+01,-6.80279e-04,6.56620e-03,1.13933e-02
2.02480e+03,1.24782e+01,-2.05873e+01,-7.06548e-04,6.53976e-03,1.13492e-02
2.02480e+03,1.20540e+01,-2.17983e+01,-7.30881e-04,6.51350e-03,1.13054e-02
2.02480e+03,1.16063e+01,-2.30094e+01,-7.54410e-04,6.48749e-03,1.12620e-02
2.02480e+03,1.10933e+01,-2.42204e+01,-7.75704e-04,6.46180e-03,1.12190e-02
2.02480e+03,1.05280e+01,-2.54314e+01,-7.95205e-04,6.43665e-03,1.11769e-02
2.02480e+03,9.90946e+00,-2.66424e+01,-8.12883e-04,6.41206e-03,1.11357e-02
2.02480e+03,9.20158e+00,-2.78534e+01,-8.27500e-04,6.38814e-03,1.10955e-02
2.02480e+03,8.39019e+00,-2.90645e+01,-8.38571e-04,6.36517e-03,1.10566e-02
2.02480e+03,7.46181e+00,-3.02755e+01,-8.45634e-04,6.34344e-03,1.10197e-02
2.02480e+03,6.36374e+00,-3.14865e+01,-8.46884e-04,6.32311e-03,1.09846e-02
2.02480e+03,4.95429e+00,-3.26975e+01,-8.37467e-04,6.30519e-03,1.09530e-02
2.02480e+03,3.04806e+00,-3.39085e+01,-8.11031e-04,6.29425e-03,1.09321e-02
2.02480e+03,-1.23505e+00,-3.51195e+01,-7.03170e-04,6.29858e-03,1.09321e-02
2.02480e+03,-1.54416e+00,-3.51224e+01,-6.92670e-04,6.31205e-03,1.09547e-02
2.02480e+03,-4.36041e+00,-3.38680e+01,-5.55935e-04,6.33760e-03,1.09911e-02
2.02480e+03,-4.70139e+00,-3.26136e+01,-5.03996e-04,6.35647e-03,1.10213e-02
2.02480e+03,-4.81905e+00,-3.13592e+01,-4.59707e-04,6.37634e-03,1.10537e-02
2.02480e+03,-4.83691e+00,-3.01049e+01,-4.18837e-04,6.39712e-03,1.10880e-02
2.02480e+03,-4.77957e+00,-2.88505e+01,-3.80543e-04,6.41866e-03,1.11240e-02
2.02480e+03,-4.67504e+00,-2.75961e+01,-3.43866e-04,6.44083e-03,1.11611e-02
2.02480e+03,-4.52312e+00,-2.63418e+01,-3.08812e-04,6.46351e-03,1.11994e-02
2.02480e+03,-4.34231e+00,-2.50874e+01,-2.74748e-04,6.48657e-03,1.12384e-02
2.02480e+03,-4.14473e+00,-2.38330e+01,-2.41258e-04,6.50997e-03,1.12782e-02
2.02480e+03,-3.92189e+00,-2.25787e+01,-2.08634e-04,6.53364e-03,1.13185e-02
2.02480e+03,-3.68327e+00,-2.13243e+01,-1.76550e-04,6.55750e-03,1.13593e-02
2.02480e+03,-3.42927e+00,-2.00699e+01,-1.44993e-04,6.58153e-03,1.14005e-02
2.02480e+03,-3.15997e+00,-1.88155e+01,-1.13960e-04,6.60566e-03,1.14419e-02
2.02480e+03,-2.88106e+00,-1.75612e+01,-8.32568e-05,6.62985e-03,1.14835e-02
2.02480e+03,-2.58986e+00,-1.63068e+01,-5.29744e-05,6.65408e-03,1.15253e-02
2.02480e+03,-2.29078e+00,-1.50524e+01,-2.29619e-05,6.67829e-03,1.15672e-02
2.02480e+03,-1.98465e+00,-1.37981e+01,6.80882e-06,6.70247e-03,1.16090e-02
2.02480e+03,-1.67220e+00,-1.25437e+01,3.63636e-05,6.72658e-03,1.16508e-02
2.02480e+03,-1.35709e+00,-1.12893e+01,6.58269e-05,6.75062e-03,1.16926e-02
2.02480e+03,-1.03784e+00,-1.00350e+01,9.51485e-05,6.77456e-03,1.17343e-02
2.02480e+03,-7.17909e-01,-8.78059e+00,1.24447e-04,6.79840e-03,1.17758e-02
2.02480e+03,-3.95503e-01,-7.52622e+00,1.53660e-04,6.82213e-03,1.18173e-02
2.02480e+03,-7.31298e-02,-6.27185e+00,1.82875e-04,6.84574e-03,1.18586e-02
2.02480e+03,2.48025e-01,-5.01748e+00,2.12131e-04,6.86923e-03,1.18997e-02
2.02480e+03,5.69180e-01,-3.76311e+00,2.41387e-04,6.89260e-03,1.19408e-02
2.02480e+03,8.82730e-01,-2.50874e+00,2.70904e-04,6.91585e-03,1.19817e-02
2.02480e+03,1.19486e+00,-1.25437e+00,3.00469e-04,6.93901e-03,1.20225e-02
2.03880e+03,1.52746e+01,0.00000e+00,-2.36541e-05,2.92579e-03,5.06767e-03
2.03880e+03,1.51977e+01,-1.16071e+00,-3.15807e-05,2.91905e-03,5.05605e-03
2.03880e+03,1.50954e+01,-2.32142e+00,-3.93527e-05,2.91215e-03,5.04415e-03
2.03880e+03,1.49920e+01,-3.48213e+00,-4.71186e-05,2.90510e-03,5.03200e-03
2.03880e+03,1.48662e+01,-4.64285e+00,-5.47479e-05,2.89790e-03,5.01961e-03
2.03880e+03,1.47352e+01,-5.80356e+00,-6.23456e-05,2.89057e-03,5.00700e-03
2.03880e+03,1.45870e+01,-6.96427e+00,-6.98385e-05,2.88311e-03,4.99418e-03
2.03880e+03,1.44304e+01,-8.12498e+00,-7.72806e-05,2.87554e-03,4.98119e-03
2.03880e+03,1.42600e+01,-9.28569e+00,-8.46385e-05,2.86787e-03,4.96802e-03
2.03880e+03,1.40782e+01,-1.04464e+01,-9.19273e-05,2.86011e-03,4.95471e-03
2.03880e+03,1.38839e+01,-1.16071e+01,-9.91400e-05,2.85227e-03,4.94127e-03
2.03880e+03,1.36745e+01,-1.27678e+01,-1.06261e-04,2.84436e-03,4.92771e-03
2.03880e+03,1.34496e+01,-1.39285e+01,-1.13287e-04,2.83638e-03,4.91406e-03
2.03880e+03,1.32028e+01,-1.50892e+01,-1.20180e-04,2.82836e-03,4.90033e-03
2.03880e+03,1.29345e+01,-1.62500e+01,-1.26943e-04,2.82030e-03,4.88656e-03
2.03880e+03,1.26407e+01,-1.74107e+01,-1.33550e-04,2.81223e-03,4.87275e-03
2.03880e+03,1.23123e+01,-1.85714e+01,-1.39947e-04,2.80416e-03,4.85897e-03
2.03880e+03,1.19599e+01,-1.97321e+01,-1.46197e-04,2.79611e-03,4.84521e-03
2.03880e+03,1.15532e+01,-2.08928e+01,-1.52118e-04,2.78812e-03,4.83156e-03
2.03880e+03,1.11241e+01,-2.20535e+01,-1.57902e-04,2.78020e-03,4.81804e-03
2.03880e+03,1.06324e+01,-2.32142e+01,-1.63306e-04,2.77238e-03,4.80468e-03
2.03880e+03,1.00906e+01,-2.43749e+01,-1.68405e-04,2.76472e-03,4.79160e-03
2.03880e+03,9.49781e+00,-2.55357e+01,-1.73193e-04,2.75724e-03,4.77881e-03
2.03880e+03,8.81933e+00,-2.66964e+01,-1.77460e-04,2.74995e-03,4.76636e-03
2.03880e+03,8.04165e+00,-2.78571e+01,-1.81124e-04,2.74296e-03,4.75440e-03
2.03880e+03,7.15183e+00,-2.90178e+01,-1.84105e-04,2.73634e-03,4.74306e-03
2.03880e+03,6.09938e+00,-3.01785e+01,-1.86098e-04,2.73016e-03,4.73243e-03
2.03880e+03,4.74849e+00,-3.13392e+01,-1.86274e-04,2.72470e-03,4.72300e-03
2.03880e+03,2.92144e+00,-3.24999e+01,-1.83554e-04,2.72137e-03,4.71712e-03
2.03880e+03,-1.18374e+00,-3.36606e+01,-1.66976e-04,2.72269e-03,4.71880e-03
2.03880e+03,-1.48002e+00,-3.36633e+01,-1.65193e-04,2.72679e-03,4.72583e-03
2.03880e+03,-4.17927e+00,-3.24611e+01,-1.40078e-04,2.73457e-03,4.73849e-03
2.03880e+03,-4.50609e+00,-3.12588e+01,-1.29394e-04,2.74032e-03,4.74813e-03
2.03880e+03,-4.61886e+00,-3.00565e+01,-1.20013e-04,2.74637e-03,4.75836e-03
2.03880e+03,-4.63598e+00,-2.88543e+01,-1.11214e-04,2.75269e-03,4.76910e-03
2.03880e+03,-4.58102e+00,-2.76520e+01,-1.02853e-04,2.75925e-03,4.78027e-03
2.03880e+03,-4.48083e+00,-2.64498e+01,-9.47676e-05,2.76600e-03,4.79179e-03
2.03880e+03,-4.33523e+00,-2.52475e+01,-8.69583e-05,2.77291e-03,4.80360e-03
2.03880e+03,-4.16192e+00,-2.40452e+01,-7.93174e-05,2.77993e-03,4.81563e-03
2.03880e+03,-3.97255e+00,-2.28430e+01,-7.17744e-05,2.78705e-03,4.82785e-03
2.03880e+03,-3.75897e+00,-2.16407e+01,-6.43785e-05,2.79426e-03,4.84022e-03
2.03880e+03,-3.53026e+00,-2.04384e+01,-5.70747e-05,2.80152e-03,4.85271e-03
2.03880e+03,-3.28682e+00,-1.92362e+01,-4.98606e-05,2.80884e-03,4.86530e-03
2.03880e+03,-3.02870e+00,-1.80339e+01,-4.27357e-05,2.81618e-03,4.87796e-03
2.03880e+03,-2.76138e+00,-1.68317e+01,-3.56668e-05,2.82355e-03,4.89066e-03
2.03880e+03,-2.48228e+00,-1.56294e+01,-2.86696e-05,2.83092e-03,4.90339e-03
2.03880e+03,-2.19562e+00,-1.44271e+01,-2.17183e-05,2.83829e-03,4.91612e-03
2.03880e+03,-1.90220e+00,-1.32249e+01,-1.48082e-05,2.84565e-03,4.92884e-03
2.03880e+03,-1.60274e+00,-1.20226e+01,-7.93478e-06,2.85299e-03,4.94154e-03
2.03880e+03,-1.30072e+00,-1.08204e+01,-1.07698e-06,2.86031e-03,4.95421e-03
2.03880e+03,-9.94731e-01,-9.61809e+00,5.75671e-06,2.86760e-03,4.96683e-03
2.03880e+03,-6.88086e-01,-8.41583e+00,1.25864e-05,2.87486e-03,4.97941e-03
2.03880e+03,-3.79073e-01,-7.21357e+00,1.94017e-05,2.88208e-03,4.99195e-03
2.03880e+03,-7.00919e-02,-6.01131e+00,2.62171e-05,2.88927e-03,5.00443e-03
2.03880e+03,2.37722e-01,-4.80905e+00,3.30397e-05,2.89642e-03,5.01685e-03
2.03880e+03,5.45535e-01,-3.60678e+00,3.98623e-05,2.90353e-03,5.02922e-03
2.03880e+03,8.46060e-01,-2.40452e+00,4.67292e-05,2.91061e-03,5.04154e-03
2.03880e+03,1.14523e+00,-1.20226e+00,5.36044e-05,2.91766e-03,5.05382e-03
2.04720e+03,1.48774e+01,0.00000e+00,-1.91877e-06,6.61524e-04,1.14579e-03
2.04720e+03,1.48025e+01,-1.13053e+00,-3.23343e-06,6.60732e-04,1.14443e-03
2.04720e+03,1.47028e+01,-2.26105e+00,-4.52958e-06,6.59922e-04,1.14303e-03
2.04720e+03,1.46021e+01,-3.39158e+00,-5.82498e-06,6.59093e-04,1.14160e-03
2.04720e+03,1.44796e+01,-4.52211e+00,-7.10404e-06,6.58247e-04,1.14014e-03
2.04720e+03,1.43520e+01,-5.65264e+00,-8.37930e-06,6.57385e-04,1.13866e-03
2.04720e+03,1.42077e+01,-6.78316e+00,-9.64201e-06,6.56509e-04,1.13715e-03
2.04720e+03,1.40552e+01,-7.91369e+00,-1.08986e-05,6.55620e-04,1.13562e-03
2.04720e+03,1.38892e+01,-9.04422e+00,-1.21452e-05,6.54719e-04,1.13407e-03
2.04720e+03,1.37121e+01,-1.01747e+01,-1.33834e-05,6.53808e-04,1.13251e-03
2.04720e+03,1.35229e+01,-1.13053e+01,-1.46126e-05,6.52886e-04,1.13093e-03
2.04720e+03,1.33189e+01,-1.24358e+01,-1.58307e-05,6.51956e-04,1.12933e-03
2.04720e+03,1.30998e+01,-1.35663e+01,-1.70375e-05,6.51019e-04,1.12773e-03
2.04720e+03,1.28594e+01,-1.46969e+01,-1.82284e-05,6.50077e-04,1.12611e-03
2.04720e+03,1.25982e+01,-1.58274e+01,-1.94036e-05,6.49130e-04,1.12449e-03
2.04720e+03,1.23120e+01,-1.69579e+01,-2.05603e-05,6.48182e-04,1.12287e-03
2.04720e+03,1.19922e+01,-1.80884e+01,-2.16917e-05,6.47234e-04,1.12125e-03
2.04720e+03,1.16489e+01,-1.92190e+01,-2.28056e-05,6.46288e-04,1.11964e-03
2.04720e+03,1.12528e+01,-2.03495e+01,-2.38800e-05,6.45349e-04,1.11803e-03
2.04720e+03,1.08348e+01,-2.14800e+01,-2.49380e-05,6.44419e-04,1.11644e-03
2.04720e+03,1.03559e+01,-2.26105e+01,-2.59505e-05,6.43500e-04,1.11488e-03
2.04720e+03,9.82823e+00,-2.37411e+01,-2.69264e-05,6.42600e-04,1.11334e-03
2.04720e+03,9.25081e+00,-2.48716e+01,-2.78651e-05,6.41721e-04,1.11184e-03
2.04720e+03,8.58998e+00,-2.60021e+01,-2.87414e-05,6.40865e-04,1.11038e-03
2.04720e+03,7.83252e+00,-2.71326e+01,-2.95454e-05,6.40044e-04,1.10898e-03
2.04720e+03,6.96585e+00,-2.82632e+01,-3.02678e-05,6.39267e-04,1.10766e-03
2.04720e+03,5.94077e+00,-2.93937e+01,-3.08716e-05,6.38540e-04,1.10641e-03
2.04720e+03,4.62500e+00,-3.05242e+01,-3.12579e-05,6.37899e-04,1.10532e-03
2.04720e+03,2.84547e+00,-3.16548e+01,-3.12973e-05,6.37508e-04,1.10464e-03
2.04720e+03,-1.15296e+00,-3.27853e+01,-2.96766e-05,6.37663e-04,1.10486e-03
2.04720e+03,-1.44153e+00,-3.27879e+01,-2.94639e-05,6.38145e-04,1.10569e-03
2.04720e+03,-4.07059e+00,-3.16169e+01,-2.60772e-05,6.39059e-04,1.10719e-03
2.04720e+03,-4.38891e+00,-3.04459e+01,-2.44193e-05,6.39734e-04,1.10832e-03
2.04720e+03,-4.49875e+00,-2.92749e+01,-2.29173e-05,6.40444e-04,1.10952e-03
2.04720e+03,-4.51542e+00,-2.81039e+01,-2.14851e-05,6.41188e-04,1.11078e-03
2.04720e+03,-4.46189e+00,-2.69329e+01,-2.01053e-05,6.41958e-04,1.11209e-03
2.04720e+03,-4.36430e+00,-2.57619e+01,-1.87586e-05,6.42751e-04,1.11344e-03
2.04720e+03,-4.22249e+00,-2.45909e+01,-1.74449e-05,6.43562e-04,1.11482e-03
2.04720e+03,-4.05369e+00,-2.34199e+01,-1.61514e-05,6.44387e-04,1.11623e-03
2.04720e+03,-3.86924e+00,-2.22489e+01,-1.48696e-05,6.45224e-04,1.11766e-03
2.04720e+03,-3.66121e+00,-2.10779e+01,-1.36054e-05,6.46071e-04,1.11911e-03
2.04720e+03,-3.43845e+00,-1.99069e+01,-1.23523e-05,6.46924e-04,1.12057e-03
2.04720e+03,-3.20134e+00,-1.87359e+01,-1.11099e-05,6.47784e-04,1.12205e-03
2.04720e+03,-2.94994e+00,-1.75649e+01,-9.87820e-06,6.48647e-04,1.12353e-03
2.04720e+03,-2.68957e+00,-1.63940e+01,-8.65320e-06,6.49512e-04,1.12502e-03
2.04720e+03,-2.41772e+00,-1.52230e+01,-7.43679e-06,6.50378e-04,1.12651e-03
2.04720e+03,-2.13852e+00,-1.40520e+01,-6.22589e-06,6.51244e-04,1.12801e-03
2.04720e+03,-1.85273e+00,-1.28810e+01,-5.01991e-06,6.52109e-04,1.12950e-03
2.04720e+03,-1.56106e+00,-1.17100e+01,-3.81834e-06,6.52971e-04,1.13099e-03
2.04720e+03,-1.26689e+00,-1.05390e+01,-2.61863e-06,6.53831e-04,1.13247e-03
2.04720e+03,-9.68863e-01,-9.36797e+00,-1.42181e-06,6.54687e-04,1.13395e-03
2.04720e+03,-6.70192e-01,-8.19698e+00,-2.25473e-07,6.55540e-04,1.13543e-03
2.04720e+03,-3.69215e-01,-7.02598e+00,9.69141e-07,6.56388e-04,1.13690e-03
2.04720e+03,-6.82691e-02,-5.85498e+00,2.16378e-06,6.57233e-04,1.13836e-03
2.04720e+03,2.31540e-01,-4.68399e+00,3.35927e-06,6.58073e-04,1.13982e-03
2.04720e+03,5.31348e-01,-3.51299e+00,4.55475e-06,6.58908e-04,1.14127e-03
2.04720e+03,8.24058e-01,-2.34199e+00,5.75555e-06,6.59740e-04,1.14272e-03
2.04720e+03,1.11544e+00,-1.17100e+00,6.95734e-06,6.60568e-04,1.14416e-03
2.05000e+03,1.47450e+01,0.00000e+00,0.00000e+00,0.00000e+00,0.00000e+00
2.05000e+03,1.46708e+01,-1.12047e+00,0.00000e+00,0.00000e+00,0.00000e+00
2.05000e+03,1.45720e+01,-2.24093e+00,0.00000e+00,0.00000e+00,0.00000e+00
2.05000e+03,1.44722e+01,-3.36140e+00,0.00000e+00,0.00000e+00,0.00000e+00
2.05000e+03,1.43508e+01,-4.48186e+00,0.00000e+00,0.00000e+00,0.00000e+00
2.05000e+03,1.42243e+01,-5.60233e+00,0.00000e+00,0.00000e+00,0.00000e+00
2.05000e+03,1.40812e+01,-6.72279e+00,0.00000e+00,0.00000e+00,0.00000e+00
2.05000e+03,1.39301e+01,-7.84326e+00,0.00000e+00,0.00000e+00,0.00000e+00
2.05000e+03,1.37656e+01,-8.96372e+00,0.00000e+00,0.00000e+00,0.00000e+00
2.05000e+03,1.35901e+01,-1.00842e+01,0.00000e+00,0.00000e+00,0.00000e+00
2.05000e+03,1.34025e+01,-1.12047e+01,0.00000e+00,0.00000e+00,0.00000e+00
2.05000e+03,1.32004e+01,-1.23251e+01,0.00000e+00,0.00000e+00,0.00000e+00
2.05000e+03,1.29833e+01,-1.34456e+01,0.00000e+00,0.00000e+00,0.00000e+00
2.05000e+03,1.27450e+01,-1.45661e+01,0.00000e+00,0.00000e+00,0.00000e+00
2.05000e+03,1.24860e+01,-1.56865e+01,0.00000e+00,0.00000e+00,0.00000e+00
2.05000e+03,1.22024e+01,-1.68070e+01,0.00000e+00,0.00000e+00,0.00000e+00
2.05000e+03,1.18854e+01,-1.79274e+01,0.00000e+00,0.00000e+00,0.00000e+00
2.05000e+03,1.15452e+01,-1.90479e+01,0.00000e+00,0.00000e+00,0.00000e+00
2.05000e+03,1.11526e+01,-2.01684e+01,0.00000e+00,0.00000e+00,0.00000e+00
2.05000e+03,1.07384e+01,-2.12888e+01,0.00000e+00,0.00000e+00,0.00000e+00
2.05000e+03,1.02638e+01,-2.24093e+01,0.00000e+00,0.00000e+00,0.00000e+00
2.05000e+03,9.74076e+00,-2.35298e+01,0.00000e+00,0.00000e+00,0.00000e+00
2.05000e+03,9.16848e+00,-2.46502e+01,0.00000e+00,0.00000e+00,0.00000e+00
2.05000e+03,8.51353e+00,-2.57707e+01,0.00000e+00,0.00000e+00,0.00000e+00
2.05000e+03,7.76281e+00,-2.68912e+01,0.00000e+00,0.00000e+00,0.00000e+00
2.05000e+03,6.90385e+00,-2.80116e+01,0.00000e+00,0.00000e+00,0.00000e+00
2.05000e+03,5.88790e+00,-2.91321e+01,0.00000e+00,0.00000e+00,0.00000e+00
2.05000e+03,4.58384e+00,-3.02526e+01,0.00000e+00,0.00000e+00,0.00000e+00
2.05000e+03,2.82014e+00,-3.13730e+01,0.00000e+00,0.00000e+00,0.00000e+00
2.05000e+03,-1.14270e+00,-3.24935e+01,0.00000e+00,0.00000e+00,0.00000e+00
2.05000e+03,-1.42870e+00,-3.24961e+01,0.00000e+00,0.00000e+00,0.00000e+00
2.05000e+03,-4.03436e+00,-3.13355e+01,0.00000e+00,0.00000e+00,0.00000e+00
2.05000e+03,-4.34985e+00,-3.01749e+01,0.00000e+00,0.00000e+00,0.00000e+00
2.05000e+03,-4.45871e+00,-2.90144e+01,0.00000e+00,0.00000e+00,0.00000e+00
2.05000e+03,-4.47523e+00,-2.78538e+01,0.00000e+00,0.00000e+00,0.00000e+00
2.05000e+03,-4.42218e+00,-2.66932e+01,0.00000e+00,0.00000e+00,0.00000e+00
2.05000e+03,-4.32546e+00,-2.55327e+01,0.00000e+00,0.00000e+00,0.00000e+00
2.05000e+03,-4.18491e+00,-2.43721e+01,0.00000e+00,0.00000e+00,0.00000e+00
2.05000e+03,-4.01761e+00,-2.32115e+01,0.00000e+00,0.00000e+00,0.00000e+00
2.05000e+03,-3.83480e+00,-2.20509e+01,0.00000e+00,0.00000e+00,0.00000e+00
2.05000e+03,-3.62863e+00,-2.08903e+01,0.00000e+00,0.00000e+00,0.00000e+00
2.05000e+03,-3.40785e+00,-1.97298e+01,0.00000e+00,0.00000e+00,0.00000e+00
2.05000e+03,-3.17285e+00,-1.85692e+01,0.00000e+00,0.00000e+00,0.00000e+00
2.05000e+03,-2.92368e+00,-1.74086e+01,0.00000e+00,0.00000e+00,0.00000e+00
2.05000e+03,-2.66563e+00,-1.62480e+01,0.00000e+00,0.00000e+00,0.00000e+00
2.05000e+03,-2.39621e+00,-1.50875e+01,0.00000e+00,0.00000e+00,0.00000e+00
2.05000e+03,-2.11949e+00,-1.39269e+01,0.00000e+00,0.00000e+00,0.00000e+00
2.05000e+03,-1.83624e+00,-1.27663e+01,0.00000e+00,0.00000e+00,0.00000e+00
2.05000e+03,-1.54717e+00,-1.16057e+01,0.00000e+00,0.00000e+00,0.00000e+00
2.05000e+03,-1.25562e+00,-1.04452e+01,0.00000e+00,0.00000e+00,0.00000e+00
2.05000e+03,-9.60241e-01,-9.28460e+00,0.00000e+00,0.00000e+00,0.00000e+00
2.05000e+03,-6.64227e-01,-8.12402e+00,0.00000e+00,0.00000e+00,0.00000e+00
2.05000e+03,-3.65929e-01,-6.96345e+00,0.00000e+00,0.00000e+00,0.00000e+00
2.05000e+03,-6.76615e-02,-5.80287e+00,0.00000e+00,0.00000e+00,0.00000e+00
2.05000e+03,2.29479e-01,-4.64230e+00,0.00000e+00,0.00000e+00,0.00000e+00
2.05000e+03,5.26620e-01,-3.48173e+00,0.00000e+00,0.00000e+00,0.00000e+00
2.05000e+03,8.16724e-01,-2.32115e+00,0.00000e+00,0.00000e+00,0.00000e+00
2.05000e+03,1.10552e+00,-1.16058e+00,0.00000e+00,0.00000e+00,0.00000e+00
--------------------------------------------------------------------------------------------------------------------------------------------------------------------------------------------------------------------------------------------------------------------------------------------------------------------------------------------------------------------------------

LAMINADO 
--------------------------------------------------------------------------------------------------------------------------------------------------------------------------------------------------------------------------------------------------------------------------------------------------------------------------------------------------------------------------------
X,Y,Z,Sigma,Tau,Von Mises
0.00000e+00,4.31008e+01,0.00000e+00,0.00000e+00,0.00000e+00,0.00000e+00
0.00000e+00,4.28837e+01,-3.27521e+00,0.00000e+00,0.00000e+00,0.00000e+00
0.00000e+00,4.25950e+01,-6.55041e+00,0.00000e+00,0.00000e+00,0.00000e+00
0.00000e+00,4.23033e+01,-9.82562e+00,0.00000e+00,0.00000e+00,0.00000e+00
0.00000e+00,4.19484e+01,-1.31008e+01,0.00000e+00,0.00000e+00,0.00000e+00
0.00000e+00,4.15787e+01,-1.63760e+01,0.00000e+00,0.00000e+00,0.00000e+00
0.00000e+00,4.11605e+01,-1.96512e+01,0.00000e+00,0.00000e+00,0.00000e+00
0.00000e+00,4.07187e+01,-2.29264e+01,0.00000e+00,0.00000e+00,0.00000e+00
0.00000e+00,4.02378e+01,-2.62017e+01,0.00000e+00,0.00000e+00,0.00000e+00
0.00000e+00,3.97249e+01,-2.94769e+01,0.00000e+00,0.00000e+00,0.00000e+00
0.00000e+00,3.91766e+01,-3.27521e+01,0.00000e+00,0.00000e+00,0.00000e+00
0.00000e+00,3.85857e+01,-3.60273e+01,0.00000e+00,0.00000e+00,0.00000e+00
0.00000e+00,3.79511e+01,-3.93025e+01,0.00000e+00,0.00000e+00,0.00000e+00
0.00000e+00,3.72545e+01,-4.25777e+01,0.00000e+00,0.00000e+00,0.00000e+00
0.00000e+00,3.64976e+01,-4.58529e+01,0.00000e+00,0.00000e+00,0.00000e+00
0.00000e+00,3.56687e+01,-4.91281e+01,0.00000e+00,0.00000e+00,0.00000e+00
0.00000e+00,3.47420e+01,-5.24033e+01,0.00000e+00,0.00000e+00,0.00000e+00
0.00000e+00,3.37474e+01,-5.56785e+01,0.00000e+00,0.00000e+00,0.00000e+00
0.00000e+00,3.26000e+01,-5.89537e+01,0.00000e+00,0.00000e+00,0.00000e+00
0.00000e+00,3.13892e+01,-6.22289e+01,0.00000e+00,0.00000e+00,0.00000e+00
0.00000e+00,3.00018e+01,-6.55041e+01,0.00000e+00,0.00000e+00,0.00000e+00
0.00000e+00,2.84730e+01,-6.87793e+01,0.00000e+00,0.00000e+00,0.00000e+00
0.00000e+00,2.68002e+01,-7.20546e+01,0.00000e+00,0.00000e+00,0.00000e+00
0.00000e+00,2.48857e+01,-7.53298e+01,0.00000e+00,0.00000e+00,0.00000e+00
0.00000e+00,2.26913e+01,-7.86050e+01,0.00000e+00,0.00000e+00,0.00000e+00
0.00000e+00,2.01805e+01,-8.18802e+01,0.00000e+00,0.00000e+00,0.00000e+00
0.00000e+00,1.72108e+01,-8.51554e+01,0.00000e+00,0.00000e+00,0.00000e+00
0.00000e+00,1.33989e+01,-8.84306e+01,0.00000e+00,0.00000e+00,0.00000e+00
0.00000e+00,8.24350e+00,-9.17058e+01,0.00000e+00,0.00000e+00,0.00000e+00
0.00000e+00,-3.34020e+00,-9.49810e+01,0.00000e+00,0.00000e+00,0.00000e+00
0.00000e+00,-4.17620e+00,-9.49886e+01,0.00000e+00,0.00000e+00,0.00000e+00
0.00000e+00,-1.17928e+01,-9.15961e+01,0.00000e+00,0.00000e+00,0.00000e+00
0.00000e+00,-1.27149e+01,-8.82037e+01,0.00000e+00,0.00000e+00,0.00000e+00
0.00000e+00,-1.30332e+01,-8.48113e+01,0.00000e+00,0.00000e+00,0.00000e+00
0.00000e+00,-1.30814e+01,-8.14188e+01,0.00000e+00,0.00000e+00,0.00000e+00
0.00000e+00,-1.29264e+01,-7.80264e+01,0.00000e+00,0.00000e+00,0.00000e+00
0.00000e+00,-1.26437e+01,-7.46339e+01,0.00000e+00,0.00000e+00,0.00000e+00
0.00000e+00,-1.22328e+01,-7.12415e+01,0.00000e+00,0.00000e+00,0.00000e+00
0.00000e+00,-1.17438e+01,-6.78490e+01,0.00000e+00,0.00000e+00,0.00000e+00
0.00000e+00,-1.12094e+01,-6.44565e+01,0.00000e+00,0.00000e+00,0.00000e+00
0.00000e+00,-1.06068e+01,-6.10641e+01,0.00000e+00,0.00000e+00,0.00000e+00
0.00000e+00,-9.96142e+00,-5.76716e+01,0.00000e+00,0.00000e+00,0.00000e+00
0.00000e+00,-9.27449e+00,-5.42792e+01,0.00000e+00,0.00000e+00,0.00000e+00
0.00000e+00,-8.54615e+00,-5.08867e+01,0.00000e+00,0.00000e+00,0.00000e+00
0.00000e+00,-7.79185e+00,-4.74943e+01,0.00000e+00,0.00000e+00,0.00000e+00
0.00000e+00,-7.00429e+00,-4.41018e+01,0.00000e+00,0.00000e+00,0.00000e+00
0.00000e+00,-6.19544e+00,-4.07094e+01,0.00000e+00,0.00000e+00,0.00000e+00
0.00000e+00,-5.36748e+00,-3.73169e+01,0.00000e+00,0.00000e+00,0.00000e+00
0.00000e+00,-4.52248e+00,-3.39245e+01,0.00000e+00,0.00000e+00,0.00000e+00
0.00000e+00,-3.67026e+00,-3.05320e+01,0.00000e+00,0.00000e+00,0.00000e+00
0.00000e+00,-2.80686e+00,-2.71396e+01,0.00000e+00,0.00000e+00,0.00000e+00
0.00000e+00,-1.94159e+00,-2.37472e+01,0.00000e+00,0.00000e+00,0.00000e+00
0.00000e+00,-1.06964e+00,-2.03547e+01,0.00000e+00,0.00000e+00,0.00000e+00
0.00000e+00,-1.97780e-01,-1.69622e+01,0.00000e+00,0.00000e+00,0.00000e+00
0.00000e+00,6.70785e-01,-1.35698e+01,0.00000e+00,0.00000e+00,0.00000e+00
0.00000e+00,1.53935e+00,-1.01774e+01,0.00000e+00,0.00000e+00,0.00000e+00
0.00000e+00,2.38735e+00,-6.78490e+00,0.00000e+00,0.00000e+00,0.00000e+00
0.00000e+00,3.23151e+00,-3.39245e+00,0.00000e+00,0.00000e+00,0.00000e+00
1.07300e+02,4.26785e+01,0.00000e+00,0.00000e+00,0.00000e+00,0.00000e+00
1.07300e+02,4.24636e+01,-3.24312e+00,0.00000e+00,0.00000e+00,0.00000e+00
1.07300e+02,4.21777e+01,-6.48624e+00,0.00000e+00,0.00000e+00,0.00000e+00
1.07300e+02,4.18889e+01,-9.72936e+00,0.00000e+00,0.00000e+00,0.00000e+00
1.07300e+02,4.15374e+01,-1.29725e+01,0.00000e+00,0.00000e+00,0.00000e+00
1.07300e+02,4.11714e+01,-1.62156e+01,0.00000e+00,0.00000e+00,0.00000e+00
1.07300e+02,4.07572e+01,-1.94587e+01,0.00000e+00,0.00000e+00,0.00000e+00
1.07300e+02,4.03197e+01,-2.27018e+01,0.00000e+00,0.00000e+00,0.00000e+00
1.07300e+02,3.98436e+01,-2.59450e+01,0.00000e+00,0.00000e+00,0.00000e+00
1.07300e+02,3.93357e+01,-2.91881e+01,0.00000e+00,0.00000e+00,0.00000e+00
1.07300e+02,3.87928e+01,-3.24312e+01,0.00000e+00,0.00000e+00,0.00000e+00
1.07300e+02,3.82077e+01,-3.56743e+01,0.00000e+00,0.00000e+00,0.00000e+00
1.07300e+02,3.75793e+01,-3.89174e+01,0.00000e+00,0.00000e+00,0.00000e+00
1.07300e+02,3.68895e+01,-4.21606e+01,0.00000e+00,0.00000e+00,0.00000e+00
1.07300e+02,3.61401e+01,-4.54037e+01,0.00000e+00,0.00000e+00,0.00000e+00
1.07300e+02,3.53192e+01,-4.86468e+01,0.00000e+00,0.00000e+00,0.00000e+00
1.07300e+02,3.44016e+01,-5.18899e+01,0.00000e+00,0.00000e+00,0.00000e+00
1.07300e+02,3.34168e+01,-5.51330e+01,0.00000e+00,0.00000e+00,0.00000e+00
1.07300e+02,3.22806e+01,-5.83762e+01,0.00000e+00,0.00000e+00,0.00000e+00
1.07300e+02,3.10816e+01,-6.16193e+01,0.00000e+00,0.00000e+00,0.00000e+00
1.07300e+02,2.97079e+01,-6.48624e+01,0.00000e+00,0.00000e+00,0.00000e+00
1.07300e+02,2.81940e+01,-6.81055e+01,0.00000e+00,0.00000e+00,0.00000e+00
1.07300e+02,2.65376e+01,-7.13486e+01,0.00000e+00,0.00000e+00,0.00000e+00
1.07300e+02,2.46419e+01,-7.45918e+01,0.00000e+00,0.00000e+00,0.00000e+00
1.07300e+02,2.24690e+01,-7.78349e+01,0.00000e+00,0.00000e+00,0.00000e+00
1.07300e+02,1.99828e+01,-8.10780e+01,0.00000e+00,0.00000e+00,0.00000e+00
1.07300e+02,1.70422e+01,-8.43211e+01,0.00000e+00,0.00000e+00,0.00000e+00
1.07300e+02,1.32676e+01,-8.75642e+01,0.00000e+00,0.00000e+00,0.00000e+00
1.07300e+02,8.16273e+00,-9.08074e+01,0.00000e+00,0.00000e+00,0.00000e+00
1.07300e+02,-3.30748e+00,-9.40505e+01,0.00000e+00,0.00000e+00,0.00000e+00
1.07300e+02,-4.13529e+00,-9.40580e+01,0.00000e+00,0.00000e+00,0.00000e+00
1.07300e+02,-1.16772e+01,-9.06988e+01,0.00000e+00,0.00000e+00,0.00000e+00
1.07300e+02,-1.25904e+01,-8.73396e+01,0.00000e+00,0.00000e+00,0.00000e+00
1.07300e+02,-1.29055e+01,-8.39804e+01,0.00000e+00,0.00000e+00,0.00000e+00
1.07300e+02,-1.29533e+01,-8.06211e+01,0.00000e+00,0.00000e+00,0.00000e+00
1.07300e+02,-1.27997e+01,-7.72619e+01,0.00000e+00,0.00000e+00,0.00000e+00
1.07300e+02,-1.25198e+01,-7.39027e+01,0.00000e+00,0.00000e+00,0.00000e+00
1.07300e+02,-1.21130e+01,-7.05435e+01,0.00000e+00,0.00000e+00,0.00000e+00
1.07300e+02,-1.16287e+01,-6.71843e+01,0.00000e+00,0.00000e+00,0.00000e+00
1.07300e+02,-1.10996e+01,-6.38251e+01,0.00000e+00,0.00000e+00,0.00000e+00
1.07300e+02,-1.05029e+01,-6.04659e+01,0.00000e+00,0.00000e+00,0.00000e+00
1.07300e+02,-9.86382e+00,-5.71066e+01,0.00000e+00,0.00000e+00,0.00000e+00
1.07300e+02,-9.18363e+00,-5.37474e+01,0.00000e+00,0.00000e+00,0.00000e+00
1.07300e+02,-8.46243e+00,-5.03882e+01,0.00000e+00,0.00000e+00,0.00000e+00
1.07300e+02,-7.71552e+00,-4.70290e+01,0.00000e+00,0.00000e+00,0.00000e+00
1.07300e+02,-6.93567e+00,-4.36698e+01,0.00000e+00,0.00000e+00,0.00000e+00
1.07300e+02,-6.13474e+00,-4.03106e+01,0.00000e+00,0.00000e+00,0.00000e+00
1.07300e+02,-5.31490e+00,-3.69514e+01,0.00000e+00,0.00000e+00,0.00000e+00
1.07300e+02,-4.47818e+00,-3.35921e+01,0.00000e+00,0.00000e+00,0.00000e+00
1.07300e+02,-3.63431e+00,-3.02329e+01,0.00000e+00,0.00000e+00,0.00000e+00
1.07300e+02,-2.77936e+00,-2.68737e+01,0.00000e+00,0.00000e+00,0.00000e+00
1.07300e+02,-1.92257e+00,-2.35145e+01,0.00000e+00,0.00000e+00,0.00000e+00
1.07300e+02,-1.05916e+00,-2.01553e+01,0.00000e+00,0.00000e+00,0.00000e+00
1.07300e+02,-1.95842e-01,-1.67961e+01,0.00000e+00,0.00000e+00,0.00000e+00
1.07300e+02,6.64213e-01,-1.34369e+01,0.00000e+00,0.00000e+00,0.00000e+00
1.07300e+02,1.52427e+00,-1.00776e+01,0.00000e+00,0.00000e+00,0.00000e+00
1.07300e+02,2.36396e+00,-6.71843e+00,0.00000e+00,0.00000e+00,0.00000e+00
1.07300e+02,3.19985e+00,-3.35921e+00,0.00000e+00,0.00000e+00,0.00000e+00
2.14300e+02,4.22575e+01,0.00000e+00,0.00000e+00,0.00000e+00,0.00000e+00
2.14300e+02,4.20447e+01,-3.21112e+00,0.00000e+00,0.00000e+00,0.00000e+00
2.14300e+02,4.17615e+01,-6.42224e+00,0.00000e+00,0.00000e+00,0.00000e+00
2.14300e+02,4.14756e+01,-9.63337e+00,0.00000e+00,0.00000e+00,0.00000e+00
2.14300e+02,4.11276e+01,-1.28445e+01,0.00000e+00,0.00000e+00,0.00000e+00
2.14300e+02,4.07652e+01,-1.60556e+01,0.00000e+00,0.00000e+00,0.00000e+00
2.14300e+02,4.03551e+01,-1.92667e+01,0.00000e+00,0.00000e+00,0.00000e+00
2.14300e+02,3.99219e+01,-2.24779e+01,0.00000e+00,0.00000e+00,0.00000e+00
2.14300e+02,3.94505e+01,-2.56890e+01,0.00000e+00,0.00000e+00,0.00000e+00
2.14300e+02,3.89476e+01,-2.89001e+01,0.00000e+00,0.00000e+00,0.00000e+00
2.14300e+02,3.84101e+01,-3.21112e+01,0.00000e+00,0.00000e+00,0.00000e+00
2.14300e+02,3.78307e+01,-3.53223e+01,0.00000e+00,0.00000e+00,0.00000e+00
2.14300e+02,3.72085e+01,-3.85335e+01,0.00000e+00,0.00000e+00,0.00000e+00
2.14300e+02,3.65256e+01,-4.17446e+01,0.00000e+00,0.00000e+00,0.00000e+00
2.14300e+02,3.57835e+01,-4.49557e+01,0.00000e+00,0.00000e+00,0.00000e+00
2.14300e+02,3.49707e+01,-4.81668e+01,0.00000e+00,0.00000e+00,0.00000e+00
2.14300e+02,3.40622e+01,-5.13780e+01,0.00000e+00,0.00000e+00,0.00000e+00
2.14300e+02,3.30871e+01,-5.45891e+01,0.00000e+00,0.00000e+00,0.00000e+00
2.14300e+02,3.19621e+01,-5.78002e+01,0.00000e+00,0.00000e+00,0.00000e+00
2.14300e+02,3.07750e+01,-6.10113e+01,0.00000e+00,0.00000e+00,0.00000e+00
2.14300e+02,2.94148e+01,-6.42224e+01,0.00000e+00,0.00000e+00,0.00000e+00
2.14300e+02,2.79159e+01,-6.74336e+01,0.00000e+00,0.00000e+00,0.00000e+00
2.14300e+02,2.62758e+01,-7.06447e+01,0.00000e+00,0.00000e+00,0.00000e+00
2.14300e+02,2.43988e+01,-7.38558e+01,0.00000e+00,0.00000e+00,0.00000e+00
2.14300e+02,2.22473e+01,-7.70669e+01,0.00000e+00,0.00000e+00,0.00000e+00
2.14300e+02,1.97856e+01,-8.02781e+01,0.00000e+00,0.00000e+00,0.00000e+00
2.14300e+02,1.68740e+01,-8.34892e+01,0.00000e+00,0.00000e+00,0.00000e+00
2.14300e+02,1.31367e+01,-8.67003e+01,0.00000e+00,0.00000e+00,0.00000e+00
2.14300e+02,8.08220e+00,-8.99114e+01,0.00000e+00,0.00000e+00,0.00000e+00
2.14300e+02,-3.27484e+00,-9.31226e+01,0.00000e+00,0.00000e+00,0.00000e+00
2.14300e+02,-4.09449e+00,-9.31300e+01,0.00000e+00,0.00000e+00,0.00000e+00
2.14300e+02,-1.15620e+01,-8.98039e+01,0.00000e+00,0.00000e+00,0.00000e+00
2.14300e+02,-1.24661e+01,-8.64779e+01,0.00000e+00,0.00000e+00,0.00000e+00
2.14300e+02,-1.27781e+01,-8.31518e+01,0.00000e+00,0.00000e+00,0.00000e+00
2.14300e+02,-1.28255e+01,-7.98257e+01,0.00000e+00,0.00000e+00,0.00000e+00
2.14300e+02,-1.26734e+01,-7.64996e+01,0.00000e+00,0.00000e+00,0.00000e+00
2.14300e+02,-1.23963e+01,-7.31736e+01,0.00000e+00,0.00000e+00,0.00000e+00
2.14300e+02,-1.19935e+01,-6.98475e+01,0.00000e+00,0.00000e+00,0.00000e+00
2.14300e+02,-1.15140e+01,-6.65214e+01,0.00000e+00,0.00000e+00,0.00000e+00
2.14300e+02,-1.09901e+01,-6.31954e+01,0.00000e+00,0.00000e+00,0.00000e+00
2.14300e+02,-1.03992e+01,-5.98693e+01,0.00000e+00,0.00000e+00,0.00000e+00
2.14300e+02,-9.76651e+00,-5.65432e+01,0.00000e+00,0.00000e+00,0.00000e+00
2.14300e+02,-9.09302e+00,-5.32171e+01,0.00000e+00,0.00000e+00,0.00000e+00
2.14300e+02,-8.37893e+00,-4.98911e+01,0.00000e+00,0.00000e+00,0.00000e+00
2.14300e+02,-7.63939e+00,-4.65650e+01,0.00000e+00,0.00000e+00,0.00000e+00
2.14300e+02,-6.86724e+00,-4.32389e+01,0.00000e+00,0.00000e+00,0.00000e+00
2.14300e+02,-6.07421e+00,-3.99129e+01,0.00000e+00,0.00000e+00,0.00000e+00
2.14300e+02,-5.26246e+00,-3.65868e+01,0.00000e+00,0.00000e+00,0.00000e+00
2.14300e+02,-4.43399e+00,-3.32607e+01,0.00000e+00,0.00000e+00,0.00000e+00
2.14300e+02,-3.59845e+00,-2.99346e+01,0.00000e+00,0.00000e+00,0.00000e+00
2.14300e+02,-2.75194e+00,-2.66086e+01,0.00000e+00,0.00000e+00,0.00000e+00
2.14300e+02,-1.90360e+00,-2.32825e+01,0.00000e+00,0.00000e+00,0.00000e+00
2.14300e+02,-1.04871e+00,-1.99564e+01,0.00000e+00,0.00000e+00,0.00000e+00
2.14300e+02,-1.93910e-01,-1.66304e+01,0.00000e+00,0.00000e+00,0.00000e+00
2.14300e+02,6.57660e-01,-1.33043e+01,0.00000e+00,0.00000e+00,0.00000e+00
2.14300e+02,1.50923e+00,-9.97821e+00,0.00000e+00,0.00000e+00,0.00000e+00
2.14300e+02,2.34063e+00,-6.65214e+00,0.00000e+00,0.00000e+00,0.00000e+00
2.14300e+02,3.16828e+00,-3.32607e+00,0.00000e+00,0.00000e+00,0.00000e+00
3.20700e+02,4.18388e+01,0.00000e+00,0.00000e+00,0.00000e+00,0.00000e+00
3.20700e+02,4.16280e+01,-3.17930e+00,0.00000e+00,0.00000e+00,0.00000e+00
3.20700e+02,4.13477e+01,-6.35861e+00,0.00000e+00,0.00000e+00,0.00000e+00
3.20700e+02,4.10646e+01,-9.53791e+00,0.00000e+00,0.00000e+00,0.00000e+00
3.20700e+02,4.07201e+01,-1.27172e+01,0.00000e+00,0.00000e+00,0.00000e+00
3.20700e+02,4.03613e+01,-1.58965e+01,0.00000e+00,0.00000e+00,0.00000e+00
3.20700e+02,3.99553e+01,-1.90758e+01,0.00000e+00,0.00000e+00,0.00000e+00
3.20700e+02,3.95264e+01,-2.22551e+01,0.00000e+00,0.00000e+00,0.00000e+00
3.20700e+02,3.90596e+01,-2.54344e+01,0.00000e+00,0.00000e+00,0.00000e+00
3.20700e+02,3.85617e+01,-2.86137e+01,0.00000e+00,0.00000e+00,0.00000e+00
3.20700e+02,3.80295e+01,-3.17930e+01,0.00000e+00,0.00000e+00,0.00000e+00
3.20700e+02,3.74559e+01,-3.49724e+01,0.00000e+00,0.00000e+00,0.00000e+00
3.20700e+02,3.68398e+01,-3.81517e+01,0.00000e+00,0.00000e+00,0.00000e+00
3.20700e+02,3.61637e+01,-4.13310e+01,0.00000e+00,0.00000e+00,0.00000e+00
3.20700e+02,3.54289e+01,-4.45103e+01,0.00000e+00,0.00000e+00,0.00000e+00
3.20700e+02,3.46242e+01,-4.76896e+01,0.00000e+00,0.00000e+00,0.00000e+00
3.20700e+02,3.37247e+01,-5.08689e+01,0.00000e+00,0.00000e+00,0.00000e+00
3.20700e+02,3.27593e+01,-5.40482e+01,0.00000e+00,0.00000e+00,0.00000e+00
3.20700e+02,3.16454e+01,-5.72275e+01,0.00000e+00,0.00000e+00,0.00000e+00
3.20700e+02,3.04701e+01,-6.04068e+01,0.00000e+00,0.00000e+00,0.00000e+00
3.20700e+02,2.91233e+01,-6.35861e+01,0.00000e+00,0.00000e+00,0.00000e+00
3.20700e+02,2.76393e+01,-6.67654e+01,0.00000e+00,0.00000e+00,0.00000e+00
3.20700e+02,2.60154e+01,-6.99447e+01,0.00000e+00,0.00000e+00,0.00000e+00
3.20700e+02,2.41570e+01,-7.31240e+01,0.00000e+00,0.00000e+00,0.00000e+00
3.20700e+02,2.20269e+01,-7.63033e+01,0.00000e+00,0.00000e+00,0.00000e+00
3.20700e+02,1.95896e+01,-7.94826e+01,0.00000e+00,0.00000e+00,0.00000e+00
3.20700e+02,1.67068e+01,-8.26619e+01,0.00000e+00,0.00000e+00,0.00000e+00
3.20700e+02,1.30066e+01,-8.58412e+01,0.00000e+00,0.00000e+00,0.00000e+00
3.20700e+02,8.00212e+00,-8.90205e+01,0.00000e+00,0.00000e+00,0.00000e+00
3.20700e+02,-3.24239e+00,-9.21998e+01,0.00000e+00,0.00000e+00,0.00000e+00
3.20700e+02,-4.05392e+00,-9.22072e+01,0.00000e+00,0.00000e+00,0.00000e+00
3.20700e+02,-1.14474e+01,-8.89141e+01,0.00000e+00,0.00000e+00,0.00000e+00
3.20700e+02,-1.23426e+01,-8.56210e+01,0.00000e+00,0.00000e+00,0.00000e+00
3.20700e+02,-1.26515e+01,-8.23279e+01,0.00000e+00,0.00000e+00,0.00000e+00
3.20700e+02,-1.26984e+01,-7.90348e+01,0.00000e+00,0.00000e+00,0.00000e+00
3.20700e+02,-1.25479e+01,-7.57416e+01,0.00000e+00,0.00000e+00,0.00000e+00
3.20700e+02,-1.22734e+01,-7.24485e+01,0.00000e+00,0.00000e+00,0.00000e+00
3.20700e+02,-1.18746e+01,-6.91554e+01,0.00000e+00,0.00000e+00,0.00000e+00
3.20700e+02,-1.13999e+01,-6.58623e+01,0.00000e+00,0.00000e+00,0.00000e+00
3.20700e+02,-1.08812e+01,-6.25692e+01,0.00000e+00,0.00000e+00,0.00000e+00
3.20700e+02,-1.02962e+01,-5.92761e+01,0.00000e+00,0.00000e+00,0.00000e+00
3.20700e+02,-9.66973e+00,-5.59829e+01,0.00000e+00,0.00000e+00,0.00000e+00
3.20700e+02,-9.00292e+00,-5.26898e+01,0.00000e+00,0.00000e+00,0.00000e+00
3.20700e+02,-8.29591e+00,-4.93967e+01,0.00000e+00,0.00000e+00,0.00000e+00
3.20700e+02,-7.56370e+00,-4.61036e+01,0.00000e+00,0.00000e+00,0.00000e+00
3.20700e+02,-6.79920e+00,-4.28105e+01,0.00000e+00,0.00000e+00,0.00000e+00
3.20700e+02,-6.01403e+00,-3.95174e+01,0.00000e+00,0.00000e+00,0.00000e+00
3.20700e+02,-5.21032e+00,-3.62243e+01,0.00000e+00,0.00000e+00,0.00000e+00
3.20700e+02,-4.39006e+00,-3.29311e+01,0.00000e+00,0.00000e+00,0.00000e+00
3.20700e+02,-3.56279e+00,-2.96380e+01,0.00000e+00,0.00000e+00,0.00000e+00
3.20700e+02,-2.72467e+00,-2.63449e+01,0.00000e+00,0.00000e+00,0.00000e+00
3.20700e+02,-1.88474e+00,-2.30518e+01,0.00000e+00,0.00000e+00,0.00000e+00
3.20700e+02,-1.03832e+00,-1.97587e+01,0.00000e+00,0.00000e+00,0.00000e+00
3.20700e+02,-1.91989e-01,-1.64656e+01,0.00000e+00,0.00000e+00,0.00000e+00
3.20700e+02,6.51143e-01,-1.31725e+01,0.00000e+00,0.00000e+00,0.00000e+00
3.20700e+02,1.49428e+00,-9.87934e+00,0.00000e+00,0.00000e+00,0.00000e+00
3.20700e+02,2.31744e+00,-6.58623e+00,0.00000e+00,0.00000e+00,0.00000e+00
3.20700e+02,3.13689e+00,-3.29311e+00,0.00000e+00,0.00000e+00,0.00000e+00
4.26200e+02,4.14236e+01,0.00000e+00,0.00000e+00,0.00000e+00,0.00000e+00
4.26200e+02,4.12150e+01,-3.14776e+00,0.00000e+00,0.00000e+00,0.00000e+00
4.26200e+02,4.09374e+01,-6.29551e+00,0.00000e+00,0.00000e+00,0.00000e+00
4.26200e+02,4.06571e+01,-9.44327e+00,0.00000e+00,0.00000e+00,0.00000e+00
4.26200e+02,4.03160e+01,-1.25910e+01,0.00000e+00,0.00000e+00,0.00000e+00
4.26200e+02,3.99607e+01,-1.57388e+01,0.00000e+00,0.00000e+00,0.00000e+00
4.26200e+02,3.95588e+01,-1.88865e+01,0.00000e+00,0.00000e+00,0.00000e+00
4.26200e+02,3.91341e+01,-2.20343e+01,0.00000e+00,0.00000e+00,0.00000e+00
4.26200e+02,3.86720e+01,-2.51820e+01,0.00000e+00,0.00000e+00,0.00000e+00
4.26200e+02,3.81790e+01,-2.83298e+01,0.00000e+00,0.00000e+00,0.00000e+00
4.26200e+02,3.76521e+01,-3.14776e+01,0.00000e+00,0.00000e+00,0.00000e+00
4.26200e+02,3.70842e+01,-3.46253e+01,0.00000e+00,0.00000e+00,0.00000e+00
4.26200e+02,3.64743e+01,-3.77731e+01,0.00000e+00,0.00000e+00,0.00000e+00
4.26200e+02,3.58048e+01,-4.09208e+01,0.00000e+00,0.00000e+00,0.00000e+00
4.26200e+02,3.50774e+01,-4.40686e+01,0.00000e+00,0.00000e+00,0.00000e+00
4.26200e+02,3.42806e+01,-4.72163e+01,0.00000e+00,0.00000e+00,0.00000e+00
4.26200e+02,3.33901e+01,-5.03641e+01,0.00000e+00,0.00000e+00,0.00000e+00
4.26200e+02,3.24342e+01,-5.35118e+01,0.00000e+00,0.00000e+00,0.00000e+00
4.26200e+02,3.13314e+01,-5.66596e+01,0.00000e+00,0.00000e+00,0.00000e+00
4.26200e+02,3.01677e+01,-5.98074e+01,0.00000e+00,0.00000e+00,0.00000e+00
4.26200e+02,2.88343e+01,-6.29551e+01,0.00000e+00,0.00000e+00,0.00000e+00
4.26200e+02,2.73650e+01,-6.61029e+01,0.00000e+00,0.00000e+00,0.00000e+00
4.26200e+02,2.57573e+01,-6.92506e+01,0.00000e+00,0.00000e+00,0.00000e+00
4.26200e+02,2.39173e+01,-7.23984e+01,0.00000e+00,0.00000e+00,0.00000e+00
4.26200e+02,2.18083e+01,-7.55461e+01,0.00000e+00,0.00000e+00,0.00000e+00
4.26200e+02,1.93952e+01,-7.86939e+01,0.00000e+00,0.00000e+00,0.00000e+00
4.26200e+02,1.65410e+01,-8.18417e+01,0.00000e+00,0.00000e+00,0.00000e+00
4.26200e+02,1.28775e+01,-8.49894e+01,0.00000e+00,0.00000e+00,0.00000e+00
4.26200e+02,7.92271e+00,-8.81372e+01,0.00000e+00,0.00000e+00,0.00000e+00
4.26200e+02,-3.21022e+00,-9.12849e+01,0.00000e+00,0.00000e+00,0.00000e+00
4.26200e+02,-4.01369e+00,-9.12922e+01,0.00000e+00,0.00000e+00,0.00000e+00
4.26200e+02,-1.13339e+01,-8.80318e+01,0.00000e+00,0.00000e+00,0.00000e+00
4.26200e+02,-1.22201e+01,-8.47713e+01,0.00000e+00,0.00000e+00,0.00000e+00
4.26200e+02,-1.25260e+01,-8.15109e+01,0.00000e+00,0.00000e+00,0.00000e+00
4.26200e+02,-1.25724e+01,-7.82505e+01,0.00000e+00,0.00000e+00,0.00000e+00
4.26200e+02,-1.24233e+01,-7.49900e+01,0.00000e+00,0.00000e+00,0.00000e+00
4.26200e+02,-1.21516e+01,-7.17296e+01,0.00000e+00,0.00000e+00,0.00000e+00
4.26200e+02,-1.17568e+01,-6.84692e+01,0.00000e+00,0.00000e+00,0.00000e+00
4.26200e+02,-1.12868e+01,-6.52087e+01,0.00000e+00,0.00000e+00,0.00000e+00
4.26200e+02,-1.07732e+01,-6.19483e+01,0.00000e+00,0.00000e+00,0.00000e+00
4.26200e+02,-1.01940e+01,-5.86879e+01,0.00000e+00,0.00000e+00,0.00000e+00
4.26200e+02,-9.57378e+00,-5.54274e+01,0.00000e+00,0.00000e+00,0.00000e+00
4.26200e+02,-8.91358e+00,-5.21670e+01,0.00000e+00,0.00000e+00,0.00000e+00
4.26200e+02,-8.21359e+00,-4.89065e+01,0.00000e+00,0.00000e+00,0.00000e+00
4.26200e+02,-7.48864e+00,-4.56461e+01,0.00000e+00,0.00000e+00,0.00000e+00
4.26200e+02,-6.73173e+00,-4.23857e+01,0.00000e+00,0.00000e+00,0.00000e+00
4.26200e+02,-5.95435e+00,-3.91252e+01,0.00000e+00,0.00000e+00,0.00000e+00
4.26200e+02,-5.15861e+00,-3.58648e+01,0.00000e+00,0.00000e+00,0.00000e+00
4.26200e+02,-4.34650e+00,-3.26044e+01,0.00000e+00,0.00000e+00,0.00000e+00
4.26200e+02,-3.52744e+00,-2.93439e+01,0.00000e+00,0.00000e+00,0.00000e+00
4.26200e+02,-2.69763e+00,-2.60835e+01,0.00000e+00,0.00000e+00,0.00000e+00
4.26200e+02,-1.86603e+00,-2.28231e+01,0.00000e+00,0.00000e+00,0.00000e+00
4.26200e+02,-1.02802e+00,-1.95626e+01,0.00000e+00,0.00000e+00,0.00000e+00
4.26200e+02,-1.90083e-01,-1.63022e+01,0.00000e+00,0.00000e+00,0.00000e+00
4.26200e+02,6.44682e-01,-1.30417e+01,0.00000e+00,0.00000e+00,0.00000e+00
4.26200e+02,1.47945e+00,-9.78131e+00,0.00000e+00,0.00000e+00,0.00000e+00
4.26200e+02,2.29445e+00,-6.52087e+00,0.00000e+00,0.00000e+00,0.00000e+00
4.26200e+02,3.10576e+00,-3.26044e+00,0.00000e+00,0.00000e+00,0.00000e+00
5.30600e+02,4.10127e+01,0.00000e+00,0.00000e+00,0.00000e+00,0.00000e+00
5.30600e+02,4.08062e+01,-3.11654e+00,0.00000e+00,0.00000e+00,0.00000e+00
5.30600e+02,4.05314e+01,-6.23307e+00,0.00000e+00,0.00000e+00,0.00000e+00
5.30600e+02,4.02539e+01,-9.34961e+00,0.00000e+00,0.00000e+00,0.00000e+00
5.30600e+02,3.99161e+01,-1.24661e+01,0.00000e+00,0.00000e+00,0.00000e+00
5.30600e+02,3.95644e+01,-1.55827e+01,0.00000e+00,0.00000e+00,0.00000e+00
5.30600e+02,3.91664e+01,-1.86992e+01,0.00000e+00,0.00000e+00,0.00000e+00
5.30600e+02,3.87460e+01,-2.18158e+01,0.00000e+00,0.00000e+00,0.00000e+00
5.30600e+02,3.82884e+01,-2.49323e+01,0.00000e+00,0.00000e+00,0.00000e+00
5.30600e+02,3.78003e+01,-2.80488e+01,0.00000e+00,0.00000e+00,0.00000e+00
5.30600e+02,3.72787e+01,-3.11654e+01,0.00000e+00,0.00000e+00,0.00000e+00
5.30600e+02,3.67164e+01,-3.42819e+01,0.00000e+00,0.00000e+00,0.00000e+00
5.30600e+02,3.61125e+01,-3.73984e+01,0.00000e+00,0.00000e+00,0.00000e+00
5.30600e+02,3.54497e+01,-4.05150e+01,0.00000e+00,0.00000e+00,0.00000e+00
5.30600e+02,3.47295e+01,-4.36315e+01,0.00000e+00,0.00000e+00,0.00000e+00
5.30600e+02,3.39406e+01,-4.67480e+01,0.00000e+00,0.00000e+00,0.00000e+00
5.30600e+02,3.30589e+01,-4.98646e+01,0.00000e+00,0.00000e+00,0.00000e+00
5.30600e+02,3.21125e+01,-5.29811e+01,0.00000e+00,0.00000e+00,0.00000e+00
5.30600e+02,3.10206e+01,-5.60976e+01,0.00000e+00,0.00000e+00,0.00000e+00
5.30600e+02,2.98685e+01,-5.92142e+01,0.00000e+00,0.00000e+00,0.00000e+00
5.30600e+02,2.85484e+01,-6.23307e+01,0.00000e+00,0.00000e+00,0.00000e+00
5.30600e+02,2.70936e+01,-6.54473e+01,0.00000e+00,0.00000e+00,0.00000e+00
5.30600e+02,2.55018e+01,-6.85638e+01,0.00000e+00,0.00000e+00,0.00000e+00
5.30600e+02,2.36801e+01,-7.16803e+01,0.00000e+00,0.00000e+00,0.00000e+00
5.30600e+02,2.15920e+01,-7.47969e+01,0.00000e+00,0.00000e+00,0.00000e+00
5.30600e+02,1.92028e+01,-7.79134e+01,0.00000e+00,0.00000e+00,0.00000e+00
5.30600e+02,1.63770e+01,-8.10299e+01,0.00000e+00,0.00000e+00,0.00000e+00
5.30600e+02,1.27498e+01,-8.41465e+01,0.00000e+00,0.00000e+00,0.00000e+00
5.30600e+02,7.84413e+00,-8.72630e+01,0.00000e+00,0.00000e+00,0.00000e+00
5.30600e+02,-3.17838e+00,-9.03795e+01,0.00000e+00,0.00000e+00,0.00000e+00
5.30600e+02,-3.97388e+00,-9.03868e+01,0.00000e+00,0.00000e+00,0.00000e+00
5.30600e+02,-1.12214e+01,-8.71587e+01,0.00000e+00,0.00000e+00,0.00000e+00
5.30600e+02,-1.20989e+01,-8.39306e+01,0.00000e+00,0.00000e+00,0.00000e+00
5.30600e+02,-1.24018e+01,-8.07025e+01,0.00000e+00,0.00000e+00,0.00000e+00
5.30600e+02,-1.24477e+01,-7.74744e+01,0.00000e+00,0.00000e+00,0.00000e+00
5.30600e+02,-1.23001e+01,-7.42463e+01,0.00000e+00,0.00000e+00,0.00000e+00
5.30600e+02,-1.20311e+01,-7.10182e+01,0.00000e+00,0.00000e+00,0.00000e+00
5.30600e+02,-1.16402e+01,-6.77901e+01,0.00000e+00,0.00000e+00,0.00000e+00
5.30600e+02,-1.11748e+01,-6.45620e+01,0.00000e+00,0.00000e+00,0.00000e+00
5.30600e+02,-1.06664e+01,-6.13339e+01,0.00000e+00,0.00000e+00,0.00000e+00
5.30600e+02,-1.00929e+01,-5.81058e+01,0.00000e+00,0.00000e+00,0.00000e+00
5.30600e+02,-9.47882e+00,-5.48777e+01,0.00000e+00,0.00000e+00,0.00000e+00
5.30600e+02,-8.82518e+00,-5.16496e+01,0.00000e+00,0.00000e+00,0.00000e+00
5.30600e+02,-8.13212e+00,-4.84215e+01,0.00000e+00,0.00000e+00,0.00000e+00
5.30600e+02,-7.41437e+00,-4.51934e+01,0.00000e+00,0.00000e+00,0.00000e+00
5.30600e+02,-6.66496e+00,-4.19653e+01,0.00000e+00,0.00000e+00,0.00000e+00
5.30600e+02,-5.89529e+00,-3.87372e+01,0.00000e+00,0.00000e+00,0.00000e+00
5.30600e+02,-5.10745e+00,-3.55091e+01,0.00000e+00,0.00000e+00,0.00000e+00
5.30600e+02,-4.30339e+00,-3.22810e+01,0.00000e+00,0.00000e+00,0.00000e+00
5.30600e+02,-3.49245e+00,-2.90529e+01,0.00000e+00,0.00000e+00,0.00000e+00
5.30600e+02,-2.67088e+00,-2.58248e+01,0.00000e+00,0.00000e+00,0.00000e+00
5.30600e+02,-1.84753e+00,-2.25967e+01,0.00000e+00,0.00000e+00,0.00000e+00
5.30600e+02,-1.01782e+00,-1.93686e+01,0.00000e+00,0.00000e+00,0.00000e+00
5.30600e+02,-1.88198e-01,-1.61405e+01,0.00000e+00,0.00000e+00,0.00000e+00
5.30600e+02,6.38288e-01,-1.29124e+01,0.00000e+00,0.00000e+00,0.00000e+00
5.30600e+02,1.46477e+00,-9.68430e+00,0.00000e+00,0.00000e+00,0.00000e+00
5.30600e+02,2.27169e+00,-6.45620e+00,0.00000e+00,0.00000e+00,0.00000e+00
5.30600e+02,3.07496e+00,-3.22810e+00,0.00000e+00,0.00000e+00,0.00000e+00
6.33500e+02,4.06078e+01,0.00000e+00,0.00000e+00,0.00000e+00,0.00000e+00
6.33500e+02,4.04033e+01,-3.08576e+00,0.00000e+00,0.00000e+00,0.00000e+00
6.33500e+02,4.01312e+01,-6.17153e+00,0.00000e+00,0.00000e+00,0.00000e+00
6.33500e+02,3.98564e+01,-9.25729e+00,0.00000e+00,0.00000e+00,0.00000e+00
6.33500e+02,3.95220e+01,-1.23431e+01,0.00000e+00,0.00000e+00,0.00000e+00
6.33500e+02,3.91738e+01,-1.54288e+01,0.00000e+00,0.00000e+00,0.00000e+00
6.33500e+02,3.87797e+01,-1.85146e+01,0.00000e+00,0.00000e+00,0.00000e+00
6.33500e+02,3.83634e+01,-2.16004e+01,0.00000e+00,0.00000e+00,0.00000e+00
6.33500e+02,3.79104e+01,-2.46861e+01,0.00000e+00,0.00000e+00,0.00000e+00
6.33500e+02,3.74271e+01,-2.77719e+01,0.00000e+00,0.00000e+00,0.00000e+00
6.33500e+02,3.69106e+01,-3.08576e+01,0.00000e+00,0.00000e+00,0.00000e+00
6.33500e+02,3.63539e+01,-3.39434e+01,0.00000e+00,0.00000e+00,0.00000e+00
6.33500e+02,3.57559e+01,-3.70292e+01,0.00000e+00,0.00000e+00,0.00000e+00
6.33500e+02,3.50997e+01,-4.01149e+01,0.00000e+00,0.00000e+00,0.00000e+00
6.33500e+02,3.43866e+01,-4.32007e+01,0.00000e+00,0.00000e+00,0.00000e+00
6.33500e+02,3.36055e+01,-4.62865e+01,0.00000e+00,0.00000e+00,0.00000e+00
6.33500e+02,3.27325e+01,-4.93722e+01,0.00000e+00,0.00000e+00,0.00000e+00
6.33500e+02,3.17954e+01,-5.24580e+01,0.00000e+00,0.00000e+00,0.00000e+00
6.33500e+02,3.07144e+01,-5.55438e+01,0.00000e+00,0.00000e+00,0.00000e+00
6.33500e+02,2.95736e+01,-5.86295e+01,0.00000e+00,0.00000e+00,0.00000e+00
6.33500e+02,2.82665e+01,-6.17153e+01,0.00000e+00,0.00000e+00,0.00000e+00
6.33500e+02,2.68261e+01,-6.48011e+01,0.00000e+00,0.00000e+00,0.00000e+00
6.33500e+02,2.52500e+01,-6.78868e+01,0.00000e+00,0.00000e+00,0.00000e+00
6.33500e+02,2.34463e+01,-7.09726e+01,0.00000e+00,0.00000e+00,0.00000e+00
6.33500e+02,2.13788e+01,-7.40584e+01,0.00000e+00,0.00000e+00,0.00000e+00
6.33500e+02,1.90132e+01,-7.71441e+01,0.00000e+00,0.00000e+00,0.00000e+00
6.33500e+02,1.62153e+01,-8.02299e+01,0.00000e+00,0.00000e+00,0.00000e+00
6.33500e+02,1.26239e+01,-8.33156e+01,0.00000e+00,0.00000e+00,0.00000e+00
6.33500e+02,7.76668e+00,-8.64014e+01,0.00000e+00,0.00000e+00,0.00000e+00
6.33500e+02,-3.14700e+00,-8.94872e+01,0.00000e+00,0.00000e+00,0.00000e+00
6.33500e+02,-3.93464e+00,-8.94943e+01,0.00000e+00,0.00000e+00,0.00000e+00
6.33500e+02,-1.11106e+01,-8.62981e+01,0.00000e+00,0.00000e+00,0.00000e+00
6.33500e+02,-1.19795e+01,-8.31019e+01,0.00000e+00,0.00000e+00,0.00000e+00
6.33500e+02,-1.22793e+01,-7.99057e+01,0.00000e+00,0.00000e+00,0.00000e+00
6.33500e+02,-1.23248e+01,-7.67094e+01,0.00000e+00,0.00000e+00,0.00000e+00
6.33500e+02,-1.21787e+01,-7.35132e+01,0.00000e+00,0.00000e+00,0.00000e+00
6.33500e+02,-1.19123e+01,-7.03170e+01,0.00000e+00,0.00000e+00,0.00000e+00
6.33500e+02,-1.15252e+01,-6.71208e+01,0.00000e+00,0.00000e+00,0.00000e+00
6.33500e+02,-1.10645e+01,-6.39245e+01,0.00000e+00,0.00000e+00,0.00000e+00
6.33500e+02,-1.05611e+01,-6.07283e+01,0.00000e+00,0.00000e+00,0.00000e+00
6.33500e+02,-9.99326e+00,-5.75321e+01,0.00000e+00,0.00000e+00,0.00000e+00
6.33500e+02,-9.38524e+00,-5.43358e+01,0.00000e+00,0.00000e+00,0.00000e+00
6.33500e+02,-8.73804e+00,-5.11396e+01,0.00000e+00,0.00000e+00,0.00000e+00
6.33500e+02,-8.05183e+00,-4.79434e+01,0.00000e+00,0.00000e+00,0.00000e+00
6.33500e+02,-7.34116e+00,-4.47472e+01,0.00000e+00,0.00000e+00,0.00000e+00
6.33500e+02,-6.59916e+00,-4.15509e+01,0.00000e+00,0.00000e+00,0.00000e+00
6.33500e+02,-5.83709e+00,-3.83547e+01,0.00000e+00,0.00000e+00,0.00000e+00
6.33500e+02,-5.05702e+00,-3.51585e+01,0.00000e+00,0.00000e+00,0.00000e+00
6.33500e+02,-4.26090e+00,-3.19623e+01,0.00000e+00,0.00000e+00,0.00000e+00
6.33500e+02,-3.45797e+00,-2.87660e+01,0.00000e+00,0.00000e+00,0.00000e+00
6.33500e+02,-2.64450e+00,-2.55698e+01,0.00000e+00,0.00000e+00,0.00000e+00
6.33500e+02,-1.82928e+00,-2.23736e+01,0.00000e+00,0.00000e+00,0.00000e+00
6.33500e+02,-1.00777e+00,-1.91774e+01,0.00000e+00,0.00000e+00,0.00000e+00
6.33500e+02,-1.86340e-01,-1.59811e+01,0.00000e+00,0.00000e+00,0.00000e+00
6.33500e+02,6.31986e-01,-1.27849e+01,0.00000e+00,0.00000e+00,0.00000e+00
6.33500e+02,1.45031e+00,-9.58868e+00,0.00000e+00,0.00000e+00,0.00000e+00
6.33500e+02,2.24926e+00,-6.39245e+00,0.00000e+00,0.00000e+00,0.00000e+00
6.33500e+02,3.04460e+00,-3.19623e+00,0.00000e+00,0.00000e+00,0.00000e+00
7.34700e+02,4.02095e+01,0.00000e+00,0.00000e+00,0.00000e+00,0.00000e+00
7.34700e+02,4.00070e+01,-3.05550e+00,0.00000e+00,0.00000e+00,0.00000e+00
7.34700e+02,3.97376e+01,-6.11100e+00,0.00000e+00,0.00000e+00,0.00000e+00
7.34700e+02,3.94656e+01,-9.16651e+00,0.00000e+00,0.00000e+00,0.00000e+00
7.34700e+02,3.91344e+01,-1.22220e+01,0.00000e+00,0.00000e+00,0.00000e+00
7.34700e+02,3.87896e+01,-1.52775e+01,0.00000e+00,0.00000e+00,0.00000e+00
7.34700e+02,3.83994e+01,-1.83330e+01,0.00000e+00,0.00000e+00,0.00000e+00
7.34700e+02,3.79872e+01,-2.13885e+01,0.00000e+00,0.00000e+00,0.00000e+00
7.34700e+02,3.75386e+01,-2.44440e+01,0.00000e+00,0.00000e+00,0.00000e+00
7.34700e+02,3.70601e+01,-2.74995e+01,0.00000e+00,0.00000e+00,0.00000e+00
7.34700e+02,3.65486e+01,-3.05550e+01,0.00000e+00,0.00000e+00,0.00000e+00
7.34700e+02,3.59973e+01,-3.36105e+01,0.00000e+00,0.00000e+00,0.00000e+00
7.34700e+02,3.54053e+01,-3.66660e+01,0.00000e+00,0.00000e+00,0.00000e+00
7.34700e+02,3.47554e+01,-3.97215e+01,0.00000e+00,0.00000e+00,0.00000e+00
7.34700e+02,3.40493e+01,-4.27770e+01,0.00000e+00,0.00000e+00,0.00000e+00
7.34700e+02,3.32760e+01,-4.58325e+01,0.00000e+00,0.00000e+00,0.00000e+00
7.34700e+02,3.24115e+01,-4.88880e+01,0.00000e+00,0.00000e+00,0.00000e+00
7.34700e+02,3.14836e+01,-5.19435e+01,0.00000e+00,0.00000e+00,0.00000e+00
7.34700e+02,3.04131e+01,-5.49990e+01,0.00000e+00,0.00000e+00,0.00000e+00
7.34700e+02,2.92835e+01,-5.80545e+01,0.00000e+00,0.00000e+00,0.00000e+00
7.34700e+02,2.79893e+01,-6.11100e+01,0.00000e+00,0.00000e+00,0.00000e+00
7.34700e+02,2.65630e+01,-6.41655e+01,0.00000e+00,0.00000e+00,0.00000e+00
7.34700e+02,2.50024e+01,-6.72210e+01,0.00000e+00,0.00000e+00,0.00000e+00
7.34700e+02,2.32164e+01,-7.02765e+01,0.00000e+00,0.00000e+00,0.00000e+00
7.34700e+02,2.11691e+01,-7.33320e+01,0.00000e+00,0.00000e+00,0.00000e+00
7.34700e+02,1.88268e+01,-7.63875e+01,0.00000e+00,0.00000e+00,0.00000e+00
7.34700e+02,1.60563e+01,-7.94430e+01,0.00000e+00,0.00000e+00,0.00000e+00
7.34700e+02,1.25001e+01,-8.24985e+01,0.00000e+00,0.00000e+00,0.00000e+00
7.34700e+02,7.69051e+00,-8.55540e+01,0.00000e+00,0.00000e+00,0.00000e+00
7.34700e+02,-3.11614e+00,-8.86096e+01,0.00000e+00,0.00000e+00,0.00000e+00
7.34700e+02,-3.89606e+00,-8.86166e+01,0.00000e+00,0.00000e+00,0.00000e+00
7.34700e+02,-1.10017e+01,-8.54518e+01,0.00000e+00,0.00000e+00,0.00000e+00
7.34700e+02,-1.18620e+01,-8.22869e+01,0.00000e+00,0.00000e+00,0.00000e+00
7.34700e+02,-1.21589e+01,-7.91220e+01,0.00000e+00,0.00000e+00,0.00000e+00
7.34700e+02,-1.22039e+01,-7.59571e+01,0.00000e+00,0.00000e+00,0.00000e+00
7.34700e+02,-1.20592e+01,-7.27922e+01,0.00000e+00,0.00000e+00,0.00000e+00
7.34700e+02,-1.17955e+01,-6.96274e+01,0.00000e+00,0.00000e+00,0.00000e+00
7.34700e+02,-1.14122e+01,-6.64625e+01,0.00000e+00,0.00000e+00,0.00000e+00
7.34700e+02,-1.09560e+01,-6.32976e+01,0.00000e+00,0.00000e+00,0.00000e+00
7.34700e+02,-1.04575e+01,-6.01327e+01,0.00000e+00,0.00000e+00,0.00000e+00
7.34700e+02,-9.89525e+00,-5.69678e+01,0.00000e+00,0.00000e+00,0.00000e+00
7.34700e+02,-9.29319e+00,-5.38030e+01,0.00000e+00,0.00000e+00,0.00000e+00
7.34700e+02,-8.65235e+00,-5.06381e+01,0.00000e+00,0.00000e+00,0.00000e+00
7.34700e+02,-7.97287e+00,-4.74732e+01,0.00000e+00,0.00000e+00,0.00000e+00
7.34700e+02,-7.26917e+00,-4.43083e+01,0.00000e+00,0.00000e+00,0.00000e+00
7.34700e+02,-6.53444e+00,-4.11434e+01,0.00000e+00,0.00000e+00,0.00000e+00
7.34700e+02,-5.77984e+00,-3.79786e+01,0.00000e+00,0.00000e+00,0.00000e+00
7.34700e+02,-5.00742e+00,-3.48137e+01,0.00000e+00,0.00000e+00,0.00000e+00
7.34700e+02,-4.21911e+00,-3.16488e+01,0.00000e+00,0.00000e+00,0.00000e+00
7.34700e+02,-3.42406e+00,-2.84839e+01,0.00000e+00,0.00000e+00,0.00000e+00
7.34700e+02,-2.61857e+00,-2.53190e+01,0.00000e+00,0.00000e+00,0.00000e+00
7.34700e+02,-1.81134e+00,-2.21542e+01,0.00000e+00,0.00000e+00,0.00000e+00
7.34700e+02,-9.97887e-01,-1.89893e+01,0.00000e+00,0.00000e+00,0.00000e+00
7.34700e+02,-1.84513e-01,-1.58244e+01,0.00000e+00,0.00000e+00,0.00000e+00
7.34700e+02,6.25788e-01,-1.26595e+01,0.00000e+00,0.00000e+00,0.00000e+00
7.34700e+02,1.43609e+00,-9.49464e+00,0.00000e+00,0.00000e+00,0.00000e+00
7.34700e+02,2.22720e+00,-6.32976e+00,0.00000e+00,0.00000e+00,0.00000e+00
7.34700e+02,3.01474e+00,-3.16488e+00,0.00000e+00,0.00000e+00,0.00000e+00
8.33800e+02,3.98196e+01,0.00000e+00,0.00000e+00,0.00000e+00,0.00000e+00
8.33800e+02,3.96190e+01,-3.02587e+00,0.00000e+00,0.00000e+00,0.00000e+00
8.33800e+02,3.93522e+01,-6.05173e+00,0.00000e+00,0.00000e+00,0.00000e+00
8.33800e+02,3.90828e+01,-9.07760e+00,0.00000e+00,0.00000e+00,0.00000e+00
8.33800e+02,3.87549e+01,-1.21035e+01,0.00000e+00,0.00000e+00,0.00000e+00
8.33800e+02,3.84134e+01,-1.51293e+01,0.00000e+00,0.00000e+00,0.00000e+00
8.33800e+02,3.80270e+01,-1.81552e+01,0.00000e+00,0.00000e+00,0.00000e+00
8.33800e+02,3.76188e+01,-2.11811e+01,0.00000e+00,0.00000e+00,0.00000e+00
8.33800e+02,3.71745e+01,-2.42069e+01,0.00000e+00,0.00000e+00,0.00000e+00
8.33800e+02,3.67006e+01,-2.72328e+01,0.00000e+00,0.00000e+00,0.00000e+00
8.33800e+02,3.61941e+01,-3.02587e+01,0.00000e+00,0.00000e+00,0.00000e+00
8.33800e+02,3.56482e+01,-3.32845e+01,0.00000e+00,0.00000e+00,0.00000e+00
8.33800e+02,3.50619e+01,-3.63104e+01,0.00000e+00,0.00000e+00,0.00000e+00
8.33800e+02,3.44183e+01,-3.93363e+01,0.00000e+00,0.00000e+00,0.00000e+00
8.33800e+02,3.37191e+01,-4.23621e+01,0.00000e+00,0.00000e+00,0.00000e+00
8.33800e+02,3.29532e+01,-4.53880e+01,0.00000e+00,0.00000e+00,0.00000e+00
8.33800e+02,3.20971e+01,-4.84139e+01,0.00000e+00,0.00000e+00,0.00000e+00
8.33800e+02,3.11783e+01,-5.14397e+01,0.00000e+00,0.00000e+00,0.00000e+00
8.33800e+02,3.01182e+01,-5.44656e+01,0.00000e+00,0.00000e+00,0.00000e+00
8.33800e+02,2.89995e+01,-5.74915e+01,0.00000e+00,0.00000e+00,0.00000e+00
8.33800e+02,2.77178e+01,-6.05173e+01,0.00000e+00,0.00000e+00,0.00000e+00
8.33800e+02,2.63054e+01,-6.35432e+01,0.00000e+00,0.00000e+00,0.00000e+00
8.33800e+02,2.47599e+01,-6.65691e+01,0.00000e+00,0.00000e+00,0.00000e+00
8.33800e+02,2.29912e+01,-6.95949e+01,0.00000e+00,0.00000e+00,0.00000e+00
8.33800e+02,2.09638e+01,-7.26208e+01,0.00000e+00,0.00000e+00,0.00000e+00
8.33800e+02,1.86442e+01,-7.56467e+01,0.00000e+00,0.00000e+00,0.00000e+00
8.33800e+02,1.59005e+01,-7.86725e+01,0.00000e+00,0.00000e+00,0.00000e+00
8.33800e+02,1.23789e+01,-8.16984e+01,0.00000e+00,0.00000e+00,0.00000e+00
8.33800e+02,7.61592e+00,-8.47243e+01,0.00000e+00,0.00000e+00,0.00000e+00
8.33800e+02,-3.08591e+00,-8.77501e+01,0.00000e+00,0.00000e+00,0.00000e+00
8.33800e+02,-3.85827e+00,-8.77572e+01,0.00000e+00,0.00000e+00,0.00000e+00
8.33800e+02,-1.08950e+01,-8.46230e+01,0.00000e+00,0.00000e+00,0.00000e+00
8.33800e+02,-1.17470e+01,-8.14888e+01,0.00000e+00,0.00000e+00,0.00000e+00
8.33800e+02,-1.20409e+01,-7.83546e+01,0.00000e+00,0.00000e+00,0.00000e+00
8.33800e+02,-1.20856e+01,-7.52204e+01,0.00000e+00,0.00000e+00,0.00000e+00
8.33800e+02,-1.19423e+01,-7.20862e+01,0.00000e+00,0.00000e+00,0.00000e+00
8.33800e+02,-1.16811e+01,-6.89521e+01,0.00000e+00,0.00000e+00,0.00000e+00
8.33800e+02,-1.13015e+01,-6.58179e+01,0.00000e+00,0.00000e+00,0.00000e+00
8.33800e+02,-1.08497e+01,-6.26837e+01,0.00000e+00,0.00000e+00,0.00000e+00
8.33800e+02,-1.03561e+01,-5.95495e+01,0.00000e+00,0.00000e+00,0.00000e+00
8.33800e+02,-9.79928e+00,-5.64153e+01,0.00000e+00,0.00000e+00,0.00000e+00
8.33800e+02,-9.20306e+00,-5.32811e+01,0.00000e+00,0.00000e+00,0.00000e+00
8.33800e+02,-8.56843e+00,-5.01469e+01,0.00000e+00,0.00000e+00,0.00000e+00
8.33800e+02,-7.89554e+00,-4.70128e+01,0.00000e+00,0.00000e+00,0.00000e+00
8.33800e+02,-7.19866e+00,-4.38786e+01,0.00000e+00,0.00000e+00,0.00000e+00
8.33800e+02,-6.47106e+00,-4.07444e+01,0.00000e+00,0.00000e+00,0.00000e+00
8.33800e+02,-5.72378e+00,-3.76102e+01,0.00000e+00,0.00000e+00,0.00000e+00
8.33800e+02,-4.95886e+00,-3.44760e+01,0.00000e+00,0.00000e+00,0.00000e+00
8.33800e+02,-4.17819e+00,-3.13418e+01,0.00000e+00,0.00000e+00,0.00000e+00
8.33800e+02,-3.39085e+00,-2.82077e+01,0.00000e+00,0.00000e+00,0.00000e+00
8.33800e+02,-2.59317e+00,-2.50735e+01,0.00000e+00,0.00000e+00,0.00000e+00
8.33800e+02,-1.79378e+00,-2.19393e+01,0.00000e+00,0.00000e+00,0.00000e+00
8.33800e+02,-9.88209e-01,-1.88051e+01,0.00000e+00,0.00000e+00,0.00000e+00
8.33800e+02,-1.82723e-01,-1.56709e+01,0.00000e+00,0.00000e+00,0.00000e+00
8.33800e+02,6.19718e-01,-1.25367e+01,0.00000e+00,0.00000e+00,0.00000e+00
8.33800e+02,1.42216e+00,-9.40255e+00,0.00000e+00,0.00000e+00,0.00000e+00
8.33800e+02,2.20560e+00,-6.26837e+00,0.00000e+00,0.00000e+00,0.00000e+00
8.33800e+02,2.98550e+00,-3.13418e+00,0.00000e+00,0.00000e+00,0.00000e+00
9.30700e+02,3.94382e+01,0.00000e+00,0.00000e+00,0.00000e+00,0.00000e+00
9.30700e+02,3.92396e+01,-2.99689e+00,0.00000e+00,0.00000e+00,0.00000e+00
9.30700e+02,3.89754e+01,-5.99378e+00,0.00000e+00,0.00000e+00,0.00000e+00
9.30700e+02,3.87085e+01,-8.99067e+00,0.00000e+00,0.00000e+00,0.00000e+00
9.30700e+02,3.83837e+01,-1.19876e+01,0.00000e+00,0.00000e+00,0.00000e+00
9.30700e+02,3.80455e+01,-1.49844e+01,0.00000e+00,0.00000e+00,0.00000e+00
9.30700e+02,3.76628e+01,-1.79813e+01,0.00000e+00,0.00000e+00,0.00000e+00
9.30700e+02,3.72585e+01,-2.09782e+01,0.00000e+00,0.00000e+00,0.00000e+00
9.30700e+02,3.68185e+01,-2.39751e+01,0.00000e+00,0.00000e+00,0.00000e+00
9.30700e+02,3.63492e+01,-2.69720e+01,0.00000e+00,0.00000e+00,0.00000e+00
9.30700e+02,3.58475e+01,-2.99689e+01,0.00000e+00,0.00000e+00,0.00000e+00
9.30700e+02,3.53068e+01,-3.29658e+01,0.00000e+00,0.00000e+00,0.00000e+00
9.30700e+02,3.47261e+01,-3.59627e+01,0.00000e+00,0.00000e+00,0.00000e+00
9.30700e+02,3.40887e+01,-3.89596e+01,0.00000e+00,0.00000e+00,0.00000e+00
9.30700e+02,3.33962e+01,-4.19565e+01,0.00000e+00,0.00000e+00,0.00000e+00
9.30700e+02,3.26376e+01,-4.49533e+01,0.00000e+00,0.00000e+00,0.00000e+00
9.30700e+02,3.17897e+01,-4.79502e+01,0.00000e+00,0.00000e+00,0.00000e+00
9.30700e+02,3.08797e+01,-5.09471e+01,0.00000e+00,0.00000e+00,0.00000e+00
9.30700e+02,2.98297e+01,-5.39440e+01,0.00000e+00,0.00000e+00,0.00000e+00
9.30700e+02,2.87218e+01,-5.69409e+01,0.00000e+00,0.00000e+00,0.00000e+00
9.30700e+02,2.74524e+01,-5.99378e+01,0.00000e+00,0.00000e+00,0.00000e+00
9.30700e+02,2.60534e+01,-6.29347e+01,0.00000e+00,0.00000e+00,0.00000e+00
9.30700e+02,2.45228e+01,-6.59316e+01,0.00000e+00,0.00000e+00,0.00000e+00
9.30700e+02,2.27710e+01,-6.89285e+01,0.00000e+00,0.00000e+00,0.00000e+00
9.30700e+02,2.07631e+01,-7.19254e+01,0.00000e+00,0.00000e+00,0.00000e+00
9.30700e+02,1.84656e+01,-7.49222e+01,0.00000e+00,0.00000e+00,0.00000e+00
9.30700e+02,1.57483e+01,-7.79191e+01,0.00000e+00,0.00000e+00,0.00000e+00
9.30700e+02,1.22603e+01,-8.09160e+01,0.00000e+00,0.00000e+00,0.00000e+00
9.30700e+02,7.54299e+00,-8.39129e+01,0.00000e+00,0.00000e+00,0.00000e+00
9.30700e+02,-3.05636e+00,-8.69098e+01,0.00000e+00,0.00000e+00,0.00000e+00
9.30700e+02,-3.82132e+00,-8.69168e+01,0.00000e+00,0.00000e+00,0.00000e+00
9.30700e+02,-1.07906e+01,-8.38126e+01,0.00000e+00,0.00000e+00,0.00000e+00
9.30700e+02,-1.16345e+01,-8.07084e+01,0.00000e+00,0.00000e+00,0.00000e+00
9.30700e+02,-1.19256e+01,-7.76042e+01,0.00000e+00,0.00000e+00,0.00000e+00
9.30700e+02,-1.19698e+01,-7.45001e+01,0.00000e+00,0.00000e+00,0.00000e+00
9.30700e+02,-1.18279e+01,-7.13959e+01,0.00000e+00,0.00000e+00,0.00000e+00
9.30700e+02,-1.15692e+01,-6.82917e+01,0.00000e+00,0.00000e+00,0.00000e+00
9.30700e+02,-1.11933e+01,-6.51876e+01,0.00000e+00,0.00000e+00,0.00000e+00
9.30700e+02,-1.07458e+01,-6.20834e+01,0.00000e+00,0.00000e+00,0.00000e+00
9.30700e+02,-1.02569e+01,-5.89792e+01,0.00000e+00,0.00000e+00,0.00000e+00
9.30700e+02,-9.70544e+00,-5.58751e+01,0.00000e+00,0.00000e+00,0.00000e+00
9.30700e+02,-9.11493e+00,-5.27709e+01,0.00000e+00,0.00000e+00,0.00000e+00
9.30700e+02,-8.48637e+00,-4.96667e+01,0.00000e+00,0.00000e+00,0.00000e+00
9.30700e+02,-7.81993e+00,-4.65625e+01,0.00000e+00,0.00000e+00,0.00000e+00
9.30700e+02,-7.12973e+00,-4.34584e+01,0.00000e+00,0.00000e+00,0.00000e+00
9.30700e+02,-6.40909e+00,-4.03542e+01,0.00000e+00,0.00000e+00,0.00000e+00
9.30700e+02,-5.66897e+00,-3.72500e+01,0.00000e+00,0.00000e+00,0.00000e+00
9.30700e+02,-4.91137e+00,-3.41459e+01,0.00000e+00,0.00000e+00,0.00000e+00
9.30700e+02,-4.13818e+00,-3.10417e+01,0.00000e+00,0.00000e+00,0.00000e+00
9.30700e+02,-3.35837e+00,-2.79375e+01,0.00000e+00,0.00000e+00,0.00000e+00
9.30700e+02,-2.56834e+00,-2.48334e+01,0.00000e+00,0.00000e+00,0.00000e+00
9.30700e+02,-1.77660e+00,-2.17292e+01,0.00000e+00,0.00000e+00,0.00000e+00
9.30700e+02,-9.78745e-01,-1.86250e+01,0.00000e+00,0.00000e+00,0.00000e+00
9.30700e+02,-1.80973e-01,-1.55208e+01,0.00000e+00,0.00000e+00,0.00000e+00
9.30700e+02,6.13784e-01,-1.24167e+01,0.00000e+00,0.00000e+00,0.00000e+00
9.30700e+02,1.40854e+00,-9.31251e+00,0.00000e+00,0.00000e+00,0.00000e+00
9.30700e+02,2.18448e+00,-6.20834e+00,0.00000e+00,0.00000e+00,0.00000e+00
9.30700e+02,2.95691e+00,-3.10417e+00,0.00000e+00,0.00000e+00,0.00000e+00
1.02500e+03,3.90671e+01,0.00000e+00,0.00000e+00,0.00000e+00,0.00000e+00
1.02500e+03,3.88704e+01,-2.96869e+00,0.00000e+00,0.00000e+00,0.00000e+00
1.02500e+03,3.86086e+01,-5.93738e+00,0.00000e+00,0.00000e+00,0.00000e+00
1.02500e+03,3.83443e+01,-8.90607e+00,0.00000e+00,0.00000e+00,0.00000e+00
1.02500e+03,3.80226e+01,-1.18748e+01,0.00000e+00,0.00000e+00,0.00000e+00
1.02500e+03,3.76875e+01,-1.48435e+01,0.00000e+00,0.00000e+00,0.00000e+00
1.02500e+03,3.73084e+01,-1.78121e+01,0.00000e+00,0.00000e+00,0.00000e+00
1.02500e+03,3.69079e+01,-2.07808e+01,0.00000e+00,0.00000e+00,0.00000e+00
1.02500e+03,3.64721e+01,-2.37495e+01,0.00000e+00,0.00000e+00,0.00000e+00
1.02500e+03,3.60071e+01,-2.67182e+01,0.00000e+00,0.00000e+00,0.00000e+00
1.02500e+03,3.55102e+01,-2.96869e+01,0.00000e+00,0.00000e+00,0.00000e+00
1.02500e+03,3.49746e+01,-3.26556e+01,0.00000e+00,0.00000e+00,0.00000e+00
1.02500e+03,3.43994e+01,-3.56243e+01,0.00000e+00,0.00000e+00,0.00000e+00
1.02500e+03,3.37680e+01,-3.85930e+01,0.00000e+00,0.00000e+00,0.00000e+00
1.02500e+03,3.30819e+01,-4.15617e+01,0.00000e+00,0.00000e+00,0.00000e+00
1.02500e+03,3.23305e+01,-4.45304e+01,0.00000e+00,0.00000e+00,0.00000e+00
1.02500e+03,3.14906e+01,-4.74990e+01,0.00000e+00,0.00000e+00,0.00000e+00
1.02500e+03,3.05891e+01,-5.04677e+01,0.00000e+00,0.00000e+00,0.00000e+00
1.02500e+03,2.95491e+01,-5.34364e+01,0.00000e+00,0.00000e+00,0.00000e+00
1.02500e+03,2.84516e+01,-5.64051e+01,0.00000e+00,0.00000e+00,0.00000e+00
1.02500e+03,2.71940e+01,-5.93738e+01,0.00000e+00,0.00000e+00,0.00000e+00
1.02500e+03,2.58083e+01,-6.23425e+01,0.00000e+00,0.00000e+00,0.00000e+00
1.02500e+03,2.42920e+01,-6.53112e+01,0.00000e+00,0.00000e+00,0.00000e+00
1.02500e+03,2.25567e+01,-6.82799e+01,0.00000e+00,0.00000e+00,0.00000e+00
1.02500e+03,2.05677e+01,-7.12486e+01,0.00000e+00,0.00000e+00,0.00000e+00
1.02500e+03,1.82919e+01,-7.42173e+01,0.00000e+00,0.00000e+00,0.00000e+00
1.02500e+03,1.56001e+01,-7.71859e+01,0.00000e+00,0.00000e+00,0.00000e+00
1.02500e+03,1.21450e+01,-8.01546e+01,0.00000e+00,0.00000e+00,0.00000e+00
1.02500e+03,7.47201e+00,-8.31233e+01,0.00000e+00,0.00000e+00,0.00000e+00
1.02500e+03,-3.02760e+00,-8.60920e+01,0.00000e+00,0.00000e+00,0.00000e+00
1.02500e+03,-3.78536e+00,-8.60989e+01,0.00000e+00,0.00000e+00,0.00000e+00
1.02500e+03,-1.06891e+01,-8.30239e+01,0.00000e+00,0.00000e+00,0.00000e+00
1.02500e+03,-1.15250e+01,-7.99490e+01,0.00000e+00,0.00000e+00,0.00000e+00
1.02500e+03,-1.18134e+01,-7.68740e+01,0.00000e+00,0.00000e+00,0.00000e+00
1.02500e+03,-1.18572e+01,-7.37991e+01,0.00000e+00,0.00000e+00,0.00000e+00
1.02500e+03,-1.17166e+01,-7.07241e+01,0.00000e+00,0.00000e+00,0.00000e+00
1.02500e+03,-1.14604e+01,-6.76491e+01,0.00000e+00,0.00000e+00,0.00000e+00
1.02500e+03,-1.10880e+01,-6.45742e+01,0.00000e+00,0.00000e+00,0.00000e+00
1.02500e+03,-1.06447e+01,-6.14992e+01,0.00000e+00,0.00000e+00,0.00000e+00
1.02500e+03,-1.01604e+01,-5.84243e+01,0.00000e+00,0.00000e+00,0.00000e+00
1.02500e+03,-9.61411e+00,-5.53493e+01,0.00000e+00,0.00000e+00,0.00000e+00
1.02500e+03,-9.02916e+00,-5.22743e+01,0.00000e+00,0.00000e+00,0.00000e+00
1.02500e+03,-8.40652e+00,-4.91994e+01,0.00000e+00,0.00000e+00,0.00000e+00
1.02500e+03,-7.74634e+00,-4.61244e+01,0.00000e+00,0.00000e+00,0.00000e+00
1.02500e+03,-7.06264e+00,-4.30495e+01,0.00000e+00,0.00000e+00,0.00000e+00
1.02500e+03,-6.34878e+00,-3.99745e+01,0.00000e+00,0.00000e+00,0.00000e+00
1.02500e+03,-5.61563e+00,-3.68995e+01,0.00000e+00,0.00000e+00,0.00000e+00
1.02500e+03,-4.86516e+00,-3.38246e+01,0.00000e+00,0.00000e+00,0.00000e+00
1.02500e+03,-4.09924e+00,-3.07496e+01,0.00000e+00,0.00000e+00,0.00000e+00
1.02500e+03,-3.32677e+00,-2.76746e+01,0.00000e+00,0.00000e+00,0.00000e+00
1.02500e+03,-2.54417e+00,-2.45997e+01,0.00000e+00,0.00000e+00,0.00000e+00
1.02500e+03,-1.75988e+00,-2.15247e+01,0.00000e+00,0.00000e+00,0.00000e+00
1.02500e+03,-9.69535e-01,-1.84498e+01,0.00000e+00,0.00000e+00,0.00000e+00
1.02500e+03,-1.79270e-01,-1.53748e+01,0.00000e+00,0.00000e+00,0.00000e+00
1.02500e+03,6.08008e-01,-1.22998e+01,0.00000e+00,0.00000e+00,0.00000e+00
1.02500e+03,1.39529e+00,-9.22488e+00,0.00000e+00,0.00000e+00,0.00000e+00
1.02500e+03,2.16392e+00,-6.14992e+00,0.00000e+00,0.00000e+00,0.00000e+00
1.02500e+03,2.92908e+00,-3.07496e+00,0.00000e+00,0.00000e+00,0.00000e+00
1.11650e+03,3.87070e+01,0.00000e+00,0.00000e+00,0.00000e+00,0.00000e+00
1.11650e+03,3.85121e+01,-2.94133e+00,0.00000e+00,0.00000e+00,0.00000e+00
1.11650e+03,3.82528e+01,-5.88266e+00,0.00000e+00,0.00000e+00,0.00000e+00
1.11650e+03,3.79909e+01,-8.82398e+00,0.00000e+00,0.00000e+00,0.00000e+00
1.11650e+03,3.76721e+01,-1.17653e+01,0.00000e+00,0.00000e+00,0.00000e+00
1.11650e+03,3.73401e+01,-1.47066e+01,0.00000e+00,0.00000e+00,0.00000e+00
1.11650e+03,3.69645e+01,-1.76480e+01,0.00000e+00,0.00000e+00,0.00000e+00
1.11650e+03,3.65678e+01,-2.05893e+01,0.00000e+00,0.00000e+00,0.00000e+00
1.11650e+03,3.61359e+01,-2.35306e+01,0.00000e+00,0.00000e+00,0.00000e+00
1.11650e+03,3.56753e+01,-2.64720e+01,0.00000e+00,0.00000e+00,0.00000e+00
1.11650e+03,3.51829e+01,-2.94133e+01,0.00000e+00,0.00000e+00,0.00000e+00
1.11650e+03,3.46522e+01,-3.23546e+01,0.00000e+00,0.00000e+00,0.00000e+00
1.11650e+03,3.40823e+01,-3.52959e+01,0.00000e+00,0.00000e+00,0.00000e+00
1.11650e+03,3.34567e+01,-3.82373e+01,0.00000e+00,0.00000e+00,0.00000e+00
1.11650e+03,3.27770e+01,-4.11786e+01,0.00000e+00,0.00000e+00,0.00000e+00
1.11650e+03,3.20325e+01,-4.41199e+01,0.00000e+00,0.00000e+00,0.00000e+00
1.11650e+03,3.12004e+01,-4.70612e+01,0.00000e+00,0.00000e+00,0.00000e+00
1.11650e+03,3.03072e+01,-5.00026e+01,0.00000e+00,0.00000e+00,0.00000e+00
1.11650e+03,2.92767e+01,-5.29439e+01,0.00000e+00,0.00000e+00,0.00000e+00
1.11650e+03,2.81893e+01,-5.58852e+01,0.00000e+00,0.00000e+00,0.00000e+00
1.11650e+03,2.69434e+01,-5.88266e+01,0.00000e+00,0.00000e+00,0.00000e+00
1.11650e+03,2.55704e+01,-6.17679e+01,0.00000e+00,0.00000e+00,0.00000e+00
1.11650e+03,2.40681e+01,-6.47092e+01,0.00000e+00,0.00000e+00,0.00000e+00
1.11650e+03,2.23488e+01,-6.76505e+01,0.00000e+00,0.00000e+00,0.00000e+00
1.11650e+03,2.03781e+01,-7.05919e+01,0.00000e+00,0.00000e+00,0.00000e+00
1.11650e+03,1.81233e+01,-7.35332e+01,0.00000e+00,0.00000e+00,0.00000e+00
1.11650e+03,1.54563e+01,-7.64745e+01,0.00000e+00,0.00000e+00,0.00000e+00
1.11650e+03,1.20330e+01,-7.94159e+01,0.00000e+00,0.00000e+00,0.00000e+00
1.11650e+03,7.40314e+00,-8.23572e+01,0.00000e+00,0.00000e+00,0.00000e+00
1.11650e+03,-2.99970e+00,-8.52985e+01,0.00000e+00,0.00000e+00,0.00000e+00
1.11650e+03,-3.75047e+00,-8.53053e+01,0.00000e+00,0.00000e+00,0.00000e+00
1.11650e+03,-1.05906e+01,-8.22587e+01,0.00000e+00,0.00000e+00,0.00000e+00
1.11650e+03,-1.14188e+01,-7.92121e+01,0.00000e+00,0.00000e+00,0.00000e+00
1.11650e+03,-1.17045e+01,-7.61655e+01,0.00000e+00,0.00000e+00,0.00000e+00
1.11650e+03,-1.17479e+01,-7.31189e+01,0.00000e+00,0.00000e+00,0.00000e+00
1.11650e+03,-1.16086e+01,-7.00722e+01,0.00000e+00,0.00000e+00,0.00000e+00
1.11650e+03,-1.13547e+01,-6.70256e+01,0.00000e+00,0.00000e+00,0.00000e+00
1.11650e+03,-1.09858e+01,-6.39790e+01,0.00000e+00,0.00000e+00,0.00000e+00
1.11650e+03,-1.05466e+01,-6.09324e+01,0.00000e+00,0.00000e+00,0.00000e+00
1.11650e+03,-1.00667e+01,-5.78858e+01,0.00000e+00,0.00000e+00,0.00000e+00
1.11650e+03,-9.52550e+00,-5.48391e+01,0.00000e+00,0.00000e+00,0.00000e+00
1.11650e+03,-8.94594e+00,-5.17925e+01,0.00000e+00,0.00000e+00,0.00000e+00
1.11650e+03,-8.32904e+00,-4.87459e+01,0.00000e+00,0.00000e+00,0.00000e+00
1.11650e+03,-7.67495e+00,-4.56993e+01,0.00000e+00,0.00000e+00,0.00000e+00
1.11650e+03,-6.99754e+00,-4.26527e+01,0.00000e+00,0.00000e+00,0.00000e+00
1.11650e+03,-6.29027e+00,-3.96060e+01,0.00000e+00,0.00000e+00,0.00000e+00
1.11650e+03,-5.56387e+00,-3.65594e+01,0.00000e+00,0.00000e+00,0.00000e+00
1.11650e+03,-4.82031e+00,-3.35128e+01,0.00000e+00,0.00000e+00,0.00000e+00
1.11650e+03,-4.06146e+00,-3.04662e+01,0.00000e+00,0.00000e+00,0.00000e+00
1.11650e+03,-3.29611e+00,-2.74196e+01,0.00000e+00,0.00000e+00,0.00000e+00
1.11650e+03,-2.52072e+00,-2.43730e+01,0.00000e+00,0.00000e+00,0.00000e+00
1.11650e+03,-1.74366e+00,-2.13263e+01,0.00000e+00,0.00000e+00,0.00000e+00
1.11650e+03,-9.60599e-01,-1.82797e+01,0.00000e+00,0.00000e+00,0.00000e+00
1.11650e+03,-1.77618e-01,-1.52331e+01,0.00000e+00,0.00000e+00,0.00000e+00
1.11650e+03,6.02404e-01,-1.21865e+01,0.00000e+00,0.00000e+00,0.00000e+00
1.11650e+03,1.38243e+00,-9.13986e+00,0.00000e+00,0.00000e+00,0.00000e+00
1.11650e+03,2.14398e+00,-6.09324e+00,0.00000e+00,0.00000e+00,0.00000e+00
1.11650e+03,2.90209e+00,-3.04662e+00,0.00000e+00,0.00000e+00,0.00000e+00
1.20500e+03,3.76912e+01,0.00000e+00,0.00000e+00,0.00000e+00,0.00000e+00
1.20500e+03,3.75014e+01,-2.86413e+00,0.00000e+00,0.00000e+00,0.00000e+00
1.20500e+03,3.72488e+01,-5.72827e+00,0.00000e+00,0.00000e+00,0.00000e+00
1.20500e+03,3.69938e+01,-8.59240e+00,0.00000e+00,0.00000e+00,0.00000e+00
1.20500e+03,3.66834e+01,-1.14565e+01,0.00000e+00,0.00000e+00,0.00000e+00
1.20500e+03,3.63602e+01,-1.43207e+01,0.00000e+00,0.00000e+00,0.00000e+00
1.20500e+03,3.59944e+01,-1.71848e+01,0.00000e+00,0.00000e+00,0.00000e+00
1.20500e+03,3.56080e+01,-2.00489e+01,0.00000e+00,0.00000e+00,0.00000e+00
1.20500e+03,3.51875e+01,-2.29131e+01,0.00000e+00,0.00000e+00,0.00000e+00
1.20500e+03,3.47390e+01,-2.57772e+01,0.00000e+00,0.00000e+00,0.00000e+00
1.20500e+03,3.42596e+01,-2.86413e+01,0.00000e+00,0.00000e+00,0.00000e+00
1.20500e+03,3.37428e+01,-3.15055e+01,0.00000e+00,0.00000e+00,0.00000e+00
1.20500e+03,3.31878e+01,-3.43696e+01,0.00000e+00,0.00000e+00,0.00000e+00
1.20500e+03,3.25787e+01,-3.72337e+01,0.00000e+00,0.00000e+00,0.00000e+00
1.20500e+03,3.19168e+01,-4.00979e+01,0.00000e+00,0.00000e+00,0.00000e+00
1.20500e+03,3.11919e+01,-4.29620e+01,0.00000e+00,0.00000e+00,0.00000e+00
1.20500e+03,3.03815e+01,-4.58261e+01,0.00000e+00,0.00000e+00,0.00000e+00
1.20500e+03,2.95118e+01,-4.86903e+01,0.00000e+00,0.00000e+00,0.00000e+00
1.20500e+03,2.85084e+01,-5.15544e+01,0.00000e+00,0.00000e+00,0.00000e+00
1.20500e+03,2.74495e+01,-5.44186e+01,0.00000e+00,0.00000e+00,0.00000e+00
1.20500e+03,2.62363e+01,-5.72827e+01,0.00000e+00,0.00000e+00,0.00000e+00
1.20500e+03,2.48993e+01,-6.01468e+01,0.00000e+00,0.00000e+00,0.00000e+00
1.20500e+03,2.34365e+01,-6.30110e+01,0.00000e+00,0.00000e+00,0.00000e+00
1.20500e+03,2.17623e+01,-6.58751e+01,0.00000e+00,0.00000e+00,0.00000e+00
1.20500e+03,1.98433e+01,-6.87392e+01,0.00000e+00,0.00000e+00,0.00000e+00
1.20500e+03,1.76476e+01,-7.16034e+01,0.00000e+00,0.00000e+00,0.00000e+00
1.20500e+03,1.50506e+01,-7.44675e+01,0.00000e+00,0.00000e+00,0.00000e+00
1.20500e+03,1.17172e+01,-7.73316e+01,0.00000e+00,0.00000e+00,0.00000e+00
1.20500e+03,7.20885e+00,-8.01958e+01,0.00000e+00,0.00000e+00,0.00000e+00
1.20500e+03,-2.92097e+00,-8.30599e+01,0.00000e+00,0.00000e+00,0.00000e+00
1.20500e+03,-3.65204e+00,-8.30665e+01,0.00000e+00,0.00000e+00,0.00000e+00
1.20500e+03,-1.03126e+01,-8.00999e+01,0.00000e+00,0.00000e+00,0.00000e+00
1.20500e+03,-1.11191e+01,-7.71332e+01,0.00000e+00,0.00000e+00,0.00000e+00
1.20500e+03,-1.13974e+01,-7.41666e+01,0.00000e+00,0.00000e+00,0.00000e+00
1.20500e+03,-1.14396e+01,-7.11999e+01,0.00000e+00,0.00000e+00,0.00000e+00
1.20500e+03,-1.13040e+01,-6.82332e+01,0.00000e+00,0.00000e+00,0.00000e+00
1.20500e+03,-1.10567e+01,-6.52666e+01,0.00000e+00,0.00000e+00,0.00000e+00
1.20500e+03,-1.06975e+01,-6.22999e+01,0.00000e+00,0.00000e+00,0.00000e+00
1.20500e+03,-1.02698e+01,-5.93332e+01,0.00000e+00,0.00000e+00,0.00000e+00
1.20500e+03,-9.80253e+00,-5.63666e+01,0.00000e+00,0.00000e+00,0.00000e+00
1.20500e+03,-9.27551e+00,-5.33999e+01,0.00000e+00,0.00000e+00,0.00000e+00
1.20500e+03,-8.71115e+00,-5.04333e+01,0.00000e+00,0.00000e+00,0.00000e+00
1.20500e+03,-8.11045e+00,-4.74666e+01,0.00000e+00,0.00000e+00,0.00000e+00
1.20500e+03,-7.47352e+00,-4.44999e+01,0.00000e+00,0.00000e+00,0.00000e+00
1.20500e+03,-6.81389e+00,-4.15333e+01,0.00000e+00,0.00000e+00,0.00000e+00
1.20500e+03,-6.12518e+00,-3.85666e+01,0.00000e+00,0.00000e+00,0.00000e+00
1.20500e+03,-5.41785e+00,-3.55999e+01,0.00000e+00,0.00000e+00,0.00000e+00
1.20500e+03,-4.69381e+00,-3.26333e+01,0.00000e+00,0.00000e+00,0.00000e+00
1.20500e+03,-3.95486e+00,-2.96666e+01,0.00000e+00,0.00000e+00,0.00000e+00
1.20500e+03,-3.20961e+00,-2.67000e+01,0.00000e+00,0.00000e+00,0.00000e+00
1.20500e+03,-2.45457e+00,-2.37333e+01,0.00000e+00,0.00000e+00,0.00000e+00
1.20500e+03,-1.69790e+00,-2.07666e+01,0.00000e+00,0.00000e+00,0.00000e+00
1.20500e+03,-9.35389e-01,-1.78000e+01,0.00000e+00,0.00000e+00,0.00000e+00
1.20500e+03,-1.72956e-01,-1.48333e+01,0.00000e+00,0.00000e+00,0.00000e+00
1.20500e+03,5.86594e-01,-1.18666e+01,0.00000e+00,0.00000e+00,0.00000e+00
1.20500e+03,1.34615e+00,-8.89999e+00,0.00000e+00,0.00000e+00,0.00000e+00
1.20500e+03,2.08771e+00,-5.93332e+00,0.00000e+00,0.00000e+00,0.00000e+00
1.20500e+03,2.82592e+00,-2.96666e+00,0.00000e+00,0.00000e+00,0.00000e+00
1.29010e+03,3.63234e+01,0.00000e+00,0.00000e+00,0.00000e+00,0.00000e+00
1.29010e+03,3.61405e+01,-2.76019e+00,0.00000e+00,0.00000e+00,0.00000e+00
1.29010e+03,3.58971e+01,-5.52039e+00,0.00000e+00,0.00000e+00,0.00000e+00
1.29010e+03,3.56513e+01,-8.28058e+00,0.00000e+00,0.00000e+00,0.00000e+00
1.29010e+03,3.53522e+01,-1.10408e+01,0.00000e+00,0.00000e+00,0.00000e+00
1.29010e+03,3.50407e+01,-1.38010e+01,0.00000e+00,0.00000e+00,0.00000e+00
1.29010e+03,3.46882e+01,-1.65612e+01,0.00000e+00,0.00000e+00,0.00000e+00
1.29010e+03,3.43158e+01,-1.93214e+01,0.00000e+00,0.00000e+00,0.00000e+00
1.29010e+03,3.39106e+01,-2.20816e+01,0.00000e+00,0.00000e+00,0.00000e+00
1.29010e+03,3.34783e+01,-2.48418e+01,0.00000e+00,0.00000e+00,0.00000e+00
1.29010e+03,3.30163e+01,-2.76019e+01,0.00000e+00,0.00000e+00,0.00000e+00
1.29010e+03,3.25183e+01,-3.03621e+01,0.00000e+00,0.00000e+00,0.00000e+00
1.29010e+03,3.19834e+01,-3.31223e+01,0.00000e+00,0.00000e+00,0.00000e+00
1.29010e+03,3.13964e+01,-3.58825e+01,0.00000e+00,0.00000e+00,0.00000e+00
1.29010e+03,3.07585e+01,-3.86427e+01,0.00000e+00,0.00000e+00,0.00000e+00
1.29010e+03,3.00599e+01,-4.14029e+01,0.00000e+00,0.00000e+00,0.00000e+00
1.29010e+03,2.92790e+01,-4.41631e+01,0.00000e+00,0.00000e+00,0.00000e+00
1.29010e+03,2.84408e+01,-4.69233e+01,0.00000e+00,0.00000e+00,0.00000e+00
1.29010e+03,2.74738e+01,-4.96835e+01,0.00000e+00,0.00000e+00,0.00000e+00
1.29010e+03,2.64534e+01,-5.24437e+01,0.00000e+00,0.00000e+00,0.00000e+00
1.29010e+03,2.52842e+01,-5.52039e+01,0.00000e+00,0.00000e+00,0.00000e+00
1.29010e+03,2.39957e+01,-5.79641e+01,0.00000e+00,0.00000e+00,0.00000e+00
1.29010e+03,2.25860e+01,-6.07243e+01,0.00000e+00,0.00000e+00,0.00000e+00
1.29010e+03,2.09725e+01,-6.34845e+01,0.00000e+00,0.00000e+00,0.00000e+00
1.29010e+03,1.91232e+01,-6.62447e+01,0.00000e+00,0.00000e+00,0.00000e+00
1.29010e+03,1.70072e+01,-6.90049e+01,0.00000e+00,0.00000e+00,0.00000e+00
1.29010e+03,1.45045e+01,-7.17651e+01,0.00000e+00,0.00000e+00,0.00000e+00
1.29010e+03,1.12920e+01,-7.45253e+01,0.00000e+00,0.00000e+00,0.00000e+00
1.29010e+03,6.94724e+00,-7.72855e+01,0.00000e+00,0.00000e+00,0.00000e+00
1.29010e+03,-2.81497e+00,-8.00457e+01,0.00000e+00,0.00000e+00,0.00000e+00
1.29010e+03,-3.51951e+00,-8.00521e+01,0.00000e+00,0.00000e+00,0.00000e+00
1.29010e+03,-9.93839e+00,-7.71931e+01,0.00000e+00,0.00000e+00,0.00000e+00
1.29010e+03,-1.07156e+01,-7.43341e+01,0.00000e+00,0.00000e+00,0.00000e+00
1.29010e+03,-1.09838e+01,-7.14751e+01,0.00000e+00,0.00000e+00,0.00000e+00
1.29010e+03,-1.10244e+01,-6.86160e+01,0.00000e+00,0.00000e+00,0.00000e+00
1.29010e+03,-1.08937e+01,-6.57570e+01,0.00000e+00,0.00000e+00,0.00000e+00
1.29010e+03,-1.06555e+01,-6.28980e+01,0.00000e+00,0.00000e+00,0.00000e+00
1.29010e+03,-1.03093e+01,-6.00390e+01,0.00000e+00,0.00000e+00,0.00000e+00
1.29010e+03,-9.89713e+00,-5.71800e+01,0.00000e+00,0.00000e+00,0.00000e+00
1.29010e+03,-9.44680e+00,-5.43210e+01,0.00000e+00,0.00000e+00,0.00000e+00
1.29010e+03,-8.93890e+00,-5.14620e+01,0.00000e+00,0.00000e+00,0.00000e+00
1.29010e+03,-8.39503e+00,-4.86030e+01,0.00000e+00,0.00000e+00,0.00000e+00
1.29010e+03,-7.81612e+00,-4.57440e+01,0.00000e+00,0.00000e+00,0.00000e+00
1.29010e+03,-7.20231e+00,-4.28850e+01,0.00000e+00,0.00000e+00,0.00000e+00
1.29010e+03,-6.56662e+00,-4.00260e+01,0.00000e+00,0.00000e+00,0.00000e+00
1.29010e+03,-5.90290e+00,-3.71670e+01,0.00000e+00,0.00000e+00,0.00000e+00
1.29010e+03,-5.22123e+00,-3.43080e+01,0.00000e+00,0.00000e+00,0.00000e+00
1.29010e+03,-4.52347e+00,-3.14490e+01,0.00000e+00,0.00000e+00,0.00000e+00
1.29010e+03,-3.81134e+00,-2.85900e+01,0.00000e+00,0.00000e+00,0.00000e+00
1.29010e+03,-3.09313e+00,-2.57310e+01,0.00000e+00,0.00000e+00,0.00000e+00
1.29010e+03,-2.36549e+00,-2.28720e+01,0.00000e+00,0.00000e+00,0.00000e+00
1.29010e+03,-1.63628e+00,-2.00130e+01,0.00000e+00,0.00000e+00,0.00000e+00
1.29010e+03,-9.01444e-01,-1.71540e+01,0.00000e+00,0.00000e+00,0.00000e+00
1.29010e+03,-1.66680e-01,-1.42950e+01,0.00000e+00,0.00000e+00,0.00000e+00
1.29010e+03,5.65307e-01,-1.14360e+01,0.00000e+00,0.00000e+00,0.00000e+00
1.29010e+03,1.29729e+00,-8.57701e+00,0.00000e+00,0.00000e+00,0.00000e+00
1.29010e+03,2.01195e+00,-5.71800e+00,0.00000e+00,0.00000e+00,0.00000e+00
1.29010e+03,2.72337e+00,-2.85900e+00,0.00000e+00,0.00000e+00,0.00000e+00
1.37170e+03,3.50118e+01,0.00000e+00,0.00000e+00,0.00000e+00,0.00000e+00
1.37170e+03,3.48355e+01,-2.66053e+00,0.00000e+00,0.00000e+00,0.00000e+00
1.37170e+03,3.46009e+01,-5.32106e+00,0.00000e+00,0.00000e+00,0.00000e+00
1.37170e+03,3.43640e+01,-7.98159e+00,0.00000e+00,0.00000e+00,0.00000e+00
1.37170e+03,3.40757e+01,-1.06421e+01,0.00000e+00,0.00000e+00,0.00000e+00
1.37170e+03,3.37754e+01,-1.33027e+01,0.00000e+00,0.00000e+00,0.00000e+00
1.37170e+03,3.34357e+01,-1.59632e+01,0.00000e+00,0.00000e+00,0.00000e+00
1.37170e+03,3.30768e+01,-1.86237e+01,0.00000e+00,0.00000e+00,0.00000e+00
1.37170e+03,3.26861e+01,-2.12842e+01,0.00000e+00,0.00000e+00,0.00000e+00
1.37170e+03,3.22695e+01,-2.39448e+01,0.00000e+00,0.00000e+00,0.00000e+00
1.37170e+03,3.18241e+01,-2.66053e+01,0.00000e+00,0.00000e+00,0.00000e+00
1.37170e+03,3.13441e+01,-2.92658e+01,0.00000e+00,0.00000e+00,0.00000e+00
1.37170e+03,3.08286e+01,-3.19264e+01,0.00000e+00,0.00000e+00,0.00000e+00
1.37170e+03,3.02627e+01,-3.45869e+01,0.00000e+00,0.00000e+00,0.00000e+00
1.37170e+03,2.96479e+01,-3.72474e+01,0.00000e+00,0.00000e+00,0.00000e+00
1.37170e+03,2.89745e+01,-3.99080e+01,0.00000e+00,0.00000e+00,0.00000e+00
1.37170e+03,2.82218e+01,-4.25685e+01,0.00000e+00,0.00000e+00,0.00000e+00
1.37170e+03,2.74139e+01,-4.52290e+01,0.00000e+00,0.00000e+00,0.00000e+00
1.37170e+03,2.64818e+01,-4.78895e+01,0.00000e+00,0.00000e+00,0.00000e+00
1.37170e+03,2.54982e+01,-5.05501e+01,0.00000e+00,0.00000e+00,0.00000e+00
1.37170e+03,2.43712e+01,-5.32106e+01,0.00000e+00,0.00000e+00,0.00000e+00
1.37170e+03,2.31293e+01,-5.58711e+01,0.00000e+00,0.00000e+00,0.00000e+00
1.37170e+03,2.17704e+01,-5.85317e+01,0.00000e+00,0.00000e+00,0.00000e+00
1.37170e+03,2.02153e+01,-6.11922e+01,0.00000e+00,0.00000e+00,0.00000e+00
1.37170e+03,1.84327e+01,-6.38527e+01,0.00000e+00,0.00000e+00,0.00000e+00
1.37170e+03,1.63931e+01,-6.65133e+01,0.00000e+00,0.00000e+00,0.00000e+00
1.37170e+03,1.39807e+01,-6.91738e+01,0.00000e+00,0.00000e+00,0.00000e+00
1.37170e+03,1.08843e+01,-7.18343e+01,0.00000e+00,0.00000e+00,0.00000e+00
1.37170e+03,6.69639e+00,-7.44949e+01,0.00000e+00,0.00000e+00,0.00000e+00
1.37170e+03,-2.71333e+00,-7.71554e+01,0.00000e+00,0.00000e+00,0.00000e+00
1.37170e+03,-3.39243e+00,-7.71616e+01,0.00000e+00,0.00000e+00,0.00000e+00
1.37170e+03,-9.57954e+00,-7.44058e+01,0.00000e+00,0.00000e+00,0.00000e+00
1.37170e+03,-1.03287e+01,-7.16500e+01,0.00000e+00,0.00000e+00,0.00000e+00
1.37170e+03,-1.05872e+01,-6.88942e+01,0.00000e+00,0.00000e+00,0.00000e+00
1.37170e+03,-1.06264e+01,-6.61385e+01,0.00000e+00,0.00000e+00,0.00000e+00
1.37170e+03,-1.05004e+01,-6.33827e+01,0.00000e+00,0.00000e+00,0.00000e+00
1.37170e+03,-1.02708e+01,-6.06269e+01,0.00000e+00,0.00000e+00,0.00000e+00
1.37170e+03,-9.93701e+00,-5.78712e+01,0.00000e+00,0.00000e+00,0.00000e+00
1.37170e+03,-9.53977e+00,-5.51154e+01,0.00000e+00,0.00000e+00,0.00000e+00
1.37170e+03,-9.10569e+00,-5.23596e+01,0.00000e+00,0.00000e+00,0.00000e+00
1.37170e+03,-8.61613e+00,-4.96039e+01,0.00000e+00,0.00000e+00,0.00000e+00
1.37170e+03,-8.09190e+00,-4.68481e+01,0.00000e+00,0.00000e+00,0.00000e+00
1.37170e+03,-7.53389e+00,-4.40923e+01,0.00000e+00,0.00000e+00,0.00000e+00
1.37170e+03,-6.94225e+00,-4.13365e+01,0.00000e+00,0.00000e+00,0.00000e+00
1.37170e+03,-6.32951e+00,-3.85808e+01,0.00000e+00,0.00000e+00,0.00000e+00
1.37170e+03,-5.68976e+00,-3.58250e+01,0.00000e+00,0.00000e+00,0.00000e+00
1.37170e+03,-5.03271e+00,-3.30692e+01,0.00000e+00,0.00000e+00,0.00000e+00
1.37170e+03,-4.36014e+00,-3.03135e+01,0.00000e+00,0.00000e+00,0.00000e+00
1.37170e+03,-3.67372e+00,-2.75577e+01,0.00000e+00,0.00000e+00,0.00000e+00
1.37170e+03,-2.98144e+00,-2.48019e+01,0.00000e+00,0.00000e+00,0.00000e+00
1.37170e+03,-2.28008e+00,-2.20462e+01,0.00000e+00,0.00000e+00,0.00000e+00
1.37170e+03,-1.57720e+00,-1.92904e+01,0.00000e+00,0.00000e+00,0.00000e+00
1.37170e+03,-8.68894e-01,-1.65346e+01,0.00000e+00,0.00000e+00,0.00000e+00
1.37170e+03,-1.60661e-01,-1.37788e+01,0.00000e+00,0.00000e+00,0.00000e+00
1.37170e+03,5.44895e-01,-1.10231e+01,0.00000e+00,0.00000e+00,0.00000e+00
1.37170e+03,1.25045e+00,-8.26731e+00,0.00000e+00,0.00000e+00,0.00000e+00
1.37170e+03,1.93930e+00,-5.51154e+00,0.00000e+00,0.00000e+00,0.00000e+00
1.37170e+03,2.62503e+00,-2.75577e+00,0.00000e+00,0.00000e+00,0.00000e+00
1.44960e+03,3.37597e+01,0.00000e+00,0.00000e+00,0.00000e+00,0.00000e+00
1.44960e+03,3.35897e+01,-2.56538e+00,0.00000e+00,0.00000e+00,0.00000e+00
1.44960e+03,3.33635e+01,-5.13077e+00,0.00000e+00,0.00000e+00,0.00000e+00
1.44960e+03,3.31351e+01,-7.69615e+00,0.00000e+00,0.00000e+00,0.00000e+00
1.44960e+03,3.28571e+01,-1.02615e+01,0.00000e+00,0.00000e+00,0.00000e+00
1.44960e+03,3.25675e+01,-1.28269e+01,0.00000e+00,0.00000e+00,0.00000e+00
1.44960e+03,3.22399e+01,-1.53923e+01,0.00000e+00,0.00000e+00,0.00000e+00
1.44960e+03,3.18939e+01,-1.79577e+01,0.00000e+00,0.00000e+00,0.00000e+00
1.44960e+03,3.15172e+01,-2.05231e+01,0.00000e+00,0.00000e+00,0.00000e+00
1.44960e+03,3.11155e+01,-2.30885e+01,0.00000e+00,0.00000e+00,0.00000e+00
1.44960e+03,3.06860e+01,-2.56538e+01,0.00000e+00,0.00000e+00,0.00000e+00
1.44960e+03,3.02232e+01,-2.82192e+01,0.00000e+00,0.00000e+00,0.00000e+00
1.44960e+03,2.97261e+01,-3.07846e+01,0.00000e+00,0.00000e+00,0.00000e+00
1.44960e+03,2.91805e+01,-3.33500e+01,0.00000e+00,0.00000e+00,0.00000e+00
1.44960e+03,2.85877e+01,-3.59154e+01,0.00000e+00,0.00000e+00,0.00000e+00
1.44960e+03,2.79383e+01,-3.84808e+01,0.00000e+00,0.00000e+00,0.00000e+00
1.44960e+03,2.72125e+01,-4.10462e+01,0.00000e+00,0.00000e+00,0.00000e+00
1.44960e+03,2.64335e+01,-4.36115e+01,0.00000e+00,0.00000e+00,0.00000e+00
1.44960e+03,2.55347e+01,-4.61769e+01,0.00000e+00,0.00000e+00,0.00000e+00
1.44960e+03,2.45863e+01,-4.87423e+01,0.00000e+00,0.00000e+00,0.00000e+00
1.44960e+03,2.34997e+01,-5.13077e+01,0.00000e+00,0.00000e+00,0.00000e+00
1.44960e+03,2.23022e+01,-5.38731e+01,0.00000e+00,0.00000e+00,0.00000e+00
1.44960e+03,2.09919e+01,-5.64385e+01,0.00000e+00,0.00000e+00,0.00000e+00
1.44960e+03,1.94923e+01,-5.90039e+01,0.00000e+00,0.00000e+00,0.00000e+00
1.44960e+03,1.77735e+01,-6.15692e+01,0.00000e+00,0.00000e+00,0.00000e+00
1.44960e+03,1.58069e+01,-6.41346e+01,0.00000e+00,0.00000e+00,0.00000e+00
1.44960e+03,1.34808e+01,-6.67000e+01,0.00000e+00,0.00000e+00,0.00000e+00
1.44960e+03,1.04950e+01,-6.92654e+01,0.00000e+00,0.00000e+00,0.00000e+00
1.44960e+03,6.45692e+00,-7.18308e+01,0.00000e+00,0.00000e+00,0.00000e+00
1.44960e+03,-2.61629e+00,-7.43962e+01,0.00000e+00,0.00000e+00,0.00000e+00
1.44960e+03,-3.27111e+00,-7.44021e+01,0.00000e+00,0.00000e+00,0.00000e+00
1.44960e+03,-9.23696e+00,-7.17449e+01,0.00000e+00,0.00000e+00,0.00000e+00
1.44960e+03,-9.95928e+00,-6.90877e+01,0.00000e+00,0.00000e+00,0.00000e+00
1.44960e+03,-1.02085e+01,-6.64305e+01,0.00000e+00,0.00000e+00,0.00000e+00
1.44960e+03,-1.02464e+01,-6.37732e+01,0.00000e+00,0.00000e+00,0.00000e+00
1.44960e+03,-1.01249e+01,-6.11160e+01,0.00000e+00,0.00000e+00,0.00000e+00
1.44960e+03,-9.90345e+00,-5.84588e+01,0.00000e+00,0.00000e+00,0.00000e+00
1.44960e+03,-9.58164e+00,-5.58016e+01,0.00000e+00,0.00000e+00,0.00000e+00
1.44960e+03,-9.19861e+00,-5.31444e+01,0.00000e+00,0.00000e+00,0.00000e+00
1.44960e+03,-8.78006e+00,-5.04872e+01,0.00000e+00,0.00000e+00,0.00000e+00
1.44960e+03,-8.30801e+00,-4.78299e+01,0.00000e+00,0.00000e+00,0.00000e+00
1.44960e+03,-7.80252e+00,-4.51727e+01,0.00000e+00,0.00000e+00,0.00000e+00
1.44960e+03,-7.26447e+00,-4.25155e+01,0.00000e+00,0.00000e+00,0.00000e+00
1.44960e+03,-6.69398e+00,-3.98583e+01,0.00000e+00,0.00000e+00,0.00000e+00
1.44960e+03,-6.10316e+00,-3.72011e+01,0.00000e+00,0.00000e+00,0.00000e+00
1.44960e+03,-5.48628e+00,-3.45438e+01,0.00000e+00,0.00000e+00,0.00000e+00
1.44960e+03,-4.85273e+00,-3.18866e+01,0.00000e+00,0.00000e+00,0.00000e+00
1.44960e+03,-4.20421e+00,-2.92294e+01,0.00000e+00,0.00000e+00,0.00000e+00
1.44960e+03,-3.54234e+00,-2.65722e+01,0.00000e+00,0.00000e+00,0.00000e+00
1.44960e+03,-2.87482e+00,-2.39150e+01,0.00000e+00,0.00000e+00,0.00000e+00
1.44960e+03,-2.19854e+00,-2.12577e+01,0.00000e+00,0.00000e+00,0.00000e+00
1.44960e+03,-1.52080e+00,-1.86005e+01,0.00000e+00,0.00000e+00,0.00000e+00
1.44960e+03,-8.37821e-01,-1.59433e+01,0.00000e+00,0.00000e+00,0.00000e+00
1.44960e+03,-1.54916e-01,-1.32861e+01,0.00000e+00,0.00000e+00,0.00000e+00
1.44960e+03,5.25408e-01,-1.06289e+01,0.00000e+00,0.00000e+00,0.00000e+00
1.44960e+03,1.20573e+00,-7.97166e+00,0.00000e+00,0.00000e+00,0.00000e+00
1.44960e+03,1.86995e+00,-5.31444e+00,0.00000e+00,0.00000e+00,0.00000e+00
1.44960e+03,2.53116e+00,-2.65722e+00,0.00000e+00,0.00000e+00,0.00000e+00
1.52340e+03,3.25736e+01,0.00000e+00,0.00000e+00,0.00000e+00,0.00000e+00
1.52340e+03,3.24095e+01,-2.47525e+00,0.00000e+00,0.00000e+00,0.00000e+00
1.52340e+03,3.21913e+01,-4.95049e+00,0.00000e+00,0.00000e+00,0.00000e+00
1.52340e+03,3.19709e+01,-7.42574e+00,0.00000e+00,0.00000e+00,0.00000e+00
1.52340e+03,3.17026e+01,-9.90099e+00,0.00000e+00,0.00000e+00,0.00000e+00
1.52340e+03,3.14232e+01,-1.23762e+01,0.00000e+00,0.00000e+00,0.00000e+00
1.52340e+03,3.11072e+01,-1.48515e+01,0.00000e+00,0.00000e+00,0.00000e+00
1.52340e+03,3.07733e+01,-1.73267e+01,0.00000e+00,0.00000e+00,0.00000e+00
1.52340e+03,3.04098e+01,-1.98020e+01,0.00000e+00,0.00000e+00,0.00000e+00
1.52340e+03,3.00222e+01,-2.22772e+01,0.00000e+00,0.00000e+00,0.00000e+00
1.52340e+03,2.96079e+01,-2.47525e+01,0.00000e+00,0.00000e+00,0.00000e+00
1.52340e+03,2.91613e+01,-2.72277e+01,0.00000e+00,0.00000e+00,0.00000e+00
1.52340e+03,2.86816e+01,-2.97030e+01,0.00000e+00,0.00000e+00,0.00000e+00
1.52340e+03,2.81552e+01,-3.21782e+01,0.00000e+00,0.00000e+00,0.00000e+00
1.52340e+03,2.75832e+01,-3.46535e+01,0.00000e+00,0.00000e+00,0.00000e+00
1.52340e+03,2.69567e+01,-3.71287e+01,0.00000e+00,0.00000e+00,0.00000e+00
1.52340e+03,2.62564e+01,-3.96040e+01,0.00000e+00,0.00000e+00,0.00000e+00
1.52340e+03,2.55047e+01,-4.20792e+01,0.00000e+00,0.00000e+00,0.00000e+00
1.52340e+03,2.46375e+01,-4.45544e+01,0.00000e+00,0.00000e+00,0.00000e+00
1.52340e+03,2.37225e+01,-4.70297e+01,0.00000e+00,0.00000e+00,0.00000e+00
1.52340e+03,2.26740e+01,-4.95049e+01,0.00000e+00,0.00000e+00,0.00000e+00
1.52340e+03,2.15185e+01,-5.19802e+01,0.00000e+00,0.00000e+00,0.00000e+00
1.52340e+03,2.02543e+01,-5.44554e+01,0.00000e+00,0.00000e+00,0.00000e+00
1.52340e+03,1.88075e+01,-5.69307e+01,0.00000e+00,0.00000e+00,0.00000e+00
1.52340e+03,1.71490e+01,-5.94059e+01,0.00000e+00,0.00000e+00,0.00000e+00
1.52340e+03,1.52515e+01,-6.18812e+01,0.00000e+00,0.00000e+00,0.00000e+00
1.52340e+03,1.30071e+01,-6.43564e+01,0.00000e+00,0.00000e+00,0.00000e+00
1.52340e+03,1.01263e+01,-6.68317e+01,0.00000e+00,0.00000e+00,0.00000e+00
1.52340e+03,6.23005e+00,-6.93069e+01,0.00000e+00,0.00000e+00,0.00000e+00
1.52340e+03,-2.52437e+00,-7.17822e+01,0.00000e+00,0.00000e+00,0.00000e+00
1.52340e+03,-3.15618e+00,-7.17879e+01,0.00000e+00,0.00000e+00,0.00000e+00
1.52340e+03,-8.91241e+00,-6.92241e+01,0.00000e+00,0.00000e+00,0.00000e+00
1.52340e+03,-9.60935e+00,-6.66602e+01,0.00000e+00,0.00000e+00,0.00000e+00
1.52340e+03,-9.84985e+00,-6.40963e+01,0.00000e+00,0.00000e+00,0.00000e+00
1.52340e+03,-9.88634e+00,-6.15325e+01,0.00000e+00,0.00000e+00,0.00000e+00
1.52340e+03,-9.76914e+00,-5.89686e+01,0.00000e+00,0.00000e+00,0.00000e+00
1.52340e+03,-9.55548e+00,-5.64048e+01,0.00000e+00,0.00000e+00,0.00000e+00
1.52340e+03,-9.24498e+00,-5.38409e+01,0.00000e+00,0.00000e+00,0.00000e+00
1.52340e+03,-8.87540e+00,-5.12771e+01,0.00000e+00,0.00000e+00,0.00000e+00
1.52340e+03,-8.47156e+00,-4.87132e+01,0.00000e+00,0.00000e+00,0.00000e+00
1.52340e+03,-8.01609e+00,-4.61494e+01,0.00000e+00,0.00000e+00,0.00000e+00
1.52340e+03,-7.52837e+00,-4.35855e+01,0.00000e+00,0.00000e+00,0.00000e+00
1.52340e+03,-7.00922e+00,-4.10217e+01,0.00000e+00,0.00000e+00,0.00000e+00
1.52340e+03,-6.45878e+00,-3.84578e+01,0.00000e+00,0.00000e+00,0.00000e+00
1.52340e+03,-5.88872e+00,-3.58940e+01,0.00000e+00,0.00000e+00,0.00000e+00
1.52340e+03,-5.29352e+00,-3.33301e+01,0.00000e+00,0.00000e+00,0.00000e+00
1.52340e+03,-4.68222e+00,-3.07662e+01,0.00000e+00,0.00000e+00,0.00000e+00
1.52340e+03,-4.05649e+00,-2.82024e+01,0.00000e+00,0.00000e+00,0.00000e+00
1.52340e+03,-3.41788e+00,-2.56385e+01,0.00000e+00,0.00000e+00,0.00000e+00
1.52340e+03,-2.77381e+00,-2.30747e+01,0.00000e+00,0.00000e+00,0.00000e+00
1.52340e+03,-2.12129e+00,-2.05108e+01,0.00000e+00,0.00000e+00,0.00000e+00
1.52340e+03,-1.46736e+00,-1.79470e+01,0.00000e+00,0.00000e+00,0.00000e+00
1.52340e+03,-8.08383e-01,-1.53831e+01,0.00000e+00,0.00000e+00,0.00000e+00
1.52340e+03,-1.49473e-01,-1.28193e+01,0.00000e+00,0.00000e+00,0.00000e+00
1.52340e+03,5.06948e-01,-1.02554e+01,0.00000e+00,0.00000e+00,0.00000e+00
1.52340e+03,1.16337e+00,-7.69156e+00,0.00000e+00,0.00000e+00,0.00000e+00
1.52340e+03,1.80424e+00,-5.12771e+00,0.00000e+00,0.00000e+00,0.00000e+00
1.52340e+03,2.44222e+00,-2.56385e+00,0.00000e+00,0.00000e+00,0.00000e+00
1.59310e+03,3.14533e+01,0.00000e+00,0.00000e+00,0.00000e+00,0.00000e+00
1.59310e+03,3.12949e+01,-2.39012e+00,0.00000e+00,0.00000e+00,0.00000e+00
1.59310e+03,3.10841e+01,-4.78023e+00,0.00000e+00,0.00000e+00,0.00000e+00
1.59310e+03,3.08713e+01,-7.17035e+00,0.00000e+00,0.00000e+00,0.00000e+00
1.59310e+03,3.06123e+01,-9.56047e+00,0.00000e+00,0.00000e+00,0.00000e+00
1.59310e+03,3.03425e+01,-1.19506e+01,0.00000e+00,0.00000e+00,0.00000e+00
1.59310e+03,3.00373e+01,-1.43407e+01,0.00000e+00,0.00000e+00,0.00000e+00
1.59310e+03,2.97149e+01,-1.67308e+01,0.00000e+00,0.00000e+00,0.00000e+00
1.59310e+03,2.93640e+01,-1.91209e+01,0.00000e+00,0.00000e+00,0.00000e+00
1.59310e+03,2.89896e+01,-2.15111e+01,0.00000e+00,0.00000e+00,0.00000e+00
1.59310e+03,2.85896e+01,-2.39012e+01,0.00000e+00,0.00000e+00,0.00000e+00
1.59310e+03,2.81583e+01,-2.62913e+01,0.00000e+00,0.00000e+00,0.00000e+00
1.59310e+03,2.76952e+01,-2.86814e+01,0.00000e+00,0.00000e+00,0.00000e+00
1.59310e+03,2.71869e+01,-3.10715e+01,0.00000e+00,0.00000e+00,0.00000e+00
1.59310e+03,2.66345e+01,-3.34616e+01,0.00000e+00,0.00000e+00,0.00000e+00
1.59310e+03,2.60296e+01,-3.58518e+01,0.00000e+00,0.00000e+00,0.00000e+00
1.59310e+03,2.53533e+01,-3.82419e+01,0.00000e+00,0.00000e+00,0.00000e+00
1.59310e+03,2.46276e+01,-4.06320e+01,0.00000e+00,0.00000e+00,0.00000e+00
1.59310e+03,2.37902e+01,-4.30221e+01,0.00000e+00,0.00000e+00,0.00000e+00
1.59310e+03,2.29066e+01,-4.54122e+01,0.00000e+00,0.00000e+00,0.00000e+00
1.59310e+03,2.18941e+01,-4.78023e+01,0.00000e+00,0.00000e+00,0.00000e+00
1.59310e+03,2.07785e+01,-5.01925e+01,0.00000e+00,0.00000e+00,0.00000e+00
1.59310e+03,1.95577e+01,-5.25826e+01,0.00000e+00,0.00000e+00,0.00000e+00
1.59310e+03,1.81606e+01,-5.49727e+01,0.00000e+00,0.00000e+00,0.00000e+00
1.59310e+03,1.65592e+01,-5.73628e+01,0.00000e+00,0.00000e+00,0.00000e+00
1.59310e+03,1.47269e+01,-5.97529e+01,0.00000e+00,0.00000e+00,0.00000e+00
1.59310e+03,1.25597e+01,-6.21430e+01,0.00000e+00,0.00000e+00,0.00000e+00
1.59310e+03,9.77800e+00,-6.45332e+01,0.00000e+00,0.00000e+00,0.00000e+00
1.59310e+03,6.01578e+00,-6.69233e+01,0.00000e+00,0.00000e+00,0.00000e+00
1.59310e+03,-2.43755e+00,-6.93134e+01,0.00000e+00,0.00000e+00,0.00000e+00
1.59310e+03,-3.04763e+00,-6.93189e+01,0.00000e+00,0.00000e+00,0.00000e+00
1.59310e+03,-8.60589e+00,-6.68433e+01,0.00000e+00,0.00000e+00,0.00000e+00
1.59310e+03,-9.27886e+00,-6.43676e+01,0.00000e+00,0.00000e+00,0.00000e+00
1.59310e+03,-9.51109e+00,-6.18919e+01,0.00000e+00,0.00000e+00,0.00000e+00
1.59310e+03,-9.54632e+00,-5.94162e+01,0.00000e+00,0.00000e+00,0.00000e+00
1.59310e+03,-9.43315e+00,-5.69406e+01,0.00000e+00,0.00000e+00,0.00000e+00
1.59310e+03,-9.22684e+00,-5.44649e+01,0.00000e+00,0.00000e+00,0.00000e+00
1.59310e+03,-8.92702e+00,-5.19892e+01,0.00000e+00,0.00000e+00,0.00000e+00
1.59310e+03,-8.57016e+00,-4.95135e+01,0.00000e+00,0.00000e+00,0.00000e+00
1.59310e+03,-8.18020e+00,-4.70379e+01,0.00000e+00,0.00000e+00,0.00000e+00
1.59310e+03,-7.74040e+00,-4.45622e+01,0.00000e+00,0.00000e+00,0.00000e+00
1.59310e+03,-7.26945e+00,-4.20865e+01,0.00000e+00,0.00000e+00,0.00000e+00
1.59310e+03,-6.76816e+00,-3.96108e+01,0.00000e+00,0.00000e+00,0.00000e+00
1.59310e+03,-6.23665e+00,-3.71351e+01,0.00000e+00,0.00000e+00,0.00000e+00
1.59310e+03,-5.68619e+00,-3.46595e+01,0.00000e+00,0.00000e+00,0.00000e+00
1.59310e+03,-5.11146e+00,-3.21838e+01,0.00000e+00,0.00000e+00,0.00000e+00
1.59310e+03,-4.52119e+00,-2.97081e+01,0.00000e+00,0.00000e+00,0.00000e+00
1.59310e+03,-3.91698e+00,-2.72324e+01,0.00000e+00,0.00000e+00,0.00000e+00
1.59310e+03,-3.30033e+00,-2.47568e+01,0.00000e+00,0.00000e+00,0.00000e+00
1.59310e+03,-2.67841e+00,-2.22811e+01,0.00000e+00,0.00000e+00,0.00000e+00
1.59310e+03,-2.04833e+00,-1.98054e+01,0.00000e+00,0.00000e+00,0.00000e+00
1.59310e+03,-1.41689e+00,-1.73297e+01,0.00000e+00,0.00000e+00,0.00000e+00
1.59310e+03,-7.80581e-01,-1.48541e+01,0.00000e+00,0.00000e+00,0.00000e+00
1.59310e+03,-1.44332e-01,-1.23784e+01,0.00000e+00,0.00000e+00,0.00000e+00
1.59310e+03,4.89512e-01,-9.90271e+00,0.00000e+00,0.00000e+00,0.00000e+00
1.59310e+03,1.12336e+00,-7.42703e+00,0.00000e+00,0.00000e+00,0.00000e+00
1.59310e+03,1.74219e+00,-4.95135e+00,0.00000e+00,0.00000e+00,0.00000e+00
1.59310e+03,2.35823e+00,-2.47568e+00,0.00000e+00,0.00000e+00,0.00000e+00
1.65850e+03,3.04021e+01,0.00000e+00,0.00000e+00,0.00000e+00,0.00000e+00
1.65850e+03,3.02490e+01,-2.31024e+00,0.00000e+00,0.00000e+00,0.00000e+00
1.65850e+03,3.00453e+01,-4.62048e+00,0.00000e+00,0.00000e+00,0.00000e+00
1.65850e+03,2.98396e+01,-6.93072e+00,0.00000e+00,0.00000e+00,0.00000e+00
1.65850e+03,2.95892e+01,-9.24096e+00,0.00000e+00,0.00000e+00,0.00000e+00
1.65850e+03,2.93285e+01,-1.15512e+01,0.00000e+00,0.00000e+00,0.00000e+00
1.65850e+03,2.90335e+01,-1.38614e+01,0.00000e+00,0.00000e+00,0.00000e+00
1.65850e+03,2.87218e+01,-1.61717e+01,0.00000e+00,0.00000e+00,0.00000e+00
1.65850e+03,2.83826e+01,-1.84819e+01,0.00000e+00,0.00000e+00,0.00000e+00
1.65850e+03,2.80208e+01,-2.07921e+01,0.00000e+00,0.00000e+00,0.00000e+00
1.65850e+03,2.76341e+01,-2.31024e+01,0.00000e+00,0.00000e+00,0.00000e+00
1.65850e+03,2.72173e+01,-2.54126e+01,0.00000e+00,0.00000e+00,0.00000e+00
1.65850e+03,2.67696e+01,-2.77229e+01,0.00000e+00,0.00000e+00,0.00000e+00
1.65850e+03,2.62783e+01,-3.00331e+01,0.00000e+00,0.00000e+00,0.00000e+00
1.65850e+03,2.57444e+01,-3.23433e+01,0.00000e+00,0.00000e+00,0.00000e+00
1.65850e+03,2.51597e+01,-3.46536e+01,0.00000e+00,0.00000e+00,0.00000e+00
1.65850e+03,2.45060e+01,-3.69638e+01,0.00000e+00,0.00000e+00,0.00000e+00
1.65850e+03,2.38045e+01,-3.92741e+01,0.00000e+00,0.00000e+00,0.00000e+00
1.65850e+03,2.29951e+01,-4.15843e+01,0.00000e+00,0.00000e+00,0.00000e+00
1.65850e+03,2.21410e+01,-4.38945e+01,0.00000e+00,0.00000e+00,0.00000e+00
1.65850e+03,2.11624e+01,-4.62048e+01,0.00000e+00,0.00000e+00,0.00000e+00
1.65850e+03,2.00840e+01,-4.85150e+01,0.00000e+00,0.00000e+00,0.00000e+00
1.65850e+03,1.89041e+01,-5.08253e+01,0.00000e+00,0.00000e+00,0.00000e+00
1.65850e+03,1.75537e+01,-5.31355e+01,0.00000e+00,0.00000e+00,0.00000e+00
1.65850e+03,1.60058e+01,-5.54457e+01,0.00000e+00,0.00000e+00,0.00000e+00
1.65850e+03,1.42348e+01,-5.77560e+01,0.00000e+00,0.00000e+00,0.00000e+00
1.65850e+03,1.21400e+01,-6.00662e+01,0.00000e+00,0.00000e+00,0.00000e+00
1.65850e+03,9.45122e+00,-6.23764e+01,0.00000e+00,0.00000e+00,0.00000e+00
1.65850e+03,5.81473e+00,-6.46867e+01,0.00000e+00,0.00000e+00,0.00000e+00
1.65850e+03,-2.35608e+00,-6.69969e+01,0.00000e+00,0.00000e+00,0.00000e+00
1.65850e+03,-2.94577e+00,-6.70023e+01,0.00000e+00,0.00000e+00,0.00000e+00
1.65850e+03,-8.31828e+00,-6.46093e+01,0.00000e+00,0.00000e+00,0.00000e+00
1.65850e+03,-8.96876e+00,-6.22164e+01,0.00000e+00,0.00000e+00,0.00000e+00
1.65850e+03,-9.19322e+00,-5.98235e+01,0.00000e+00,0.00000e+00,0.00000e+00
1.65850e+03,-9.22728e+00,-5.74305e+01,0.00000e+00,0.00000e+00,0.00000e+00
1.65850e+03,-9.11789e+00,-5.50376e+01,0.00000e+00,0.00000e+00,0.00000e+00
1.65850e+03,-8.91848e+00,-5.26447e+01,0.00000e+00,0.00000e+00,0.00000e+00
1.65850e+03,-8.62868e+00,-5.02517e+01,0.00000e+00,0.00000e+00,0.00000e+00
1.65850e+03,-8.28374e+00,-4.78588e+01,0.00000e+00,0.00000e+00,0.00000e+00
1.65850e+03,-7.90682e+00,-4.54658e+01,0.00000e+00,0.00000e+00,0.00000e+00
1.65850e+03,-7.48171e+00,-4.30729e+01,0.00000e+00,0.00000e+00,0.00000e+00
1.65850e+03,-7.02650e+00,-4.06800e+01,0.00000e+00,0.00000e+00,0.00000e+00
1.65850e+03,-6.54196e+00,-3.82870e+01,0.00000e+00,0.00000e+00,0.00000e+00
1.65850e+03,-6.02822e+00,-3.58941e+01,0.00000e+00,0.00000e+00,0.00000e+00
1.65850e+03,-5.49615e+00,-3.35011e+01,0.00000e+00,0.00000e+00,0.00000e+00
1.65850e+03,-4.94063e+00,-3.11082e+01,0.00000e+00,0.00000e+00,0.00000e+00
1.65850e+03,-4.37009e+00,-2.87153e+01,0.00000e+00,0.00000e+00,0.00000e+00
1.65850e+03,-3.78607e+00,-2.63223e+01,0.00000e+00,0.00000e+00,0.00000e+00
1.65850e+03,-3.19003e+00,-2.39294e+01,0.00000e+00,0.00000e+00,0.00000e+00
1.65850e+03,-2.58890e+00,-2.15364e+01,0.00000e+00,0.00000e+00,0.00000e+00
1.65850e+03,-1.97988e+00,-1.91435e+01,0.00000e+00,0.00000e+00,0.00000e+00
1.65850e+03,-1.36954e+00,-1.67506e+01,0.00000e+00,0.00000e+00,0.00000e+00
1.65850e+03,-7.54494e-01,-1.43576e+01,0.00000e+00,0.00000e+00,0.00000e+00
1.65850e+03,-1.39508e-01,-1.19647e+01,0.00000e+00,0.00000e+00,0.00000e+00
1.65850e+03,4.73153e-01,-9.57176e+00,0.00000e+00,0.00000e+00,0.00000e+00
1.65850e+03,1.08581e+00,-7.17882e+00,0.00000e+00,0.00000e+00,0.00000e+00
1.65850e+03,1.68397e+00,-4.78588e+00,0.00000e+00,0.00000e+00,0.00000e+00
1.65850e+03,2.27942e+00,-2.39294e+00,0.00000e+00,0.00000e+00,0.00000e+00
1.71930e+03,2.94249e+01,0.00000e+00,0.00000e+00,0.00000e+00,0.00000e+00
1.71930e+03,2.92767e+01,-2.23598e+00,0.00000e+00,0.00000e+00,0.00000e+00
1.71930e+03,2.90795e+01,-4.47196e+00,0.00000e+00,0.00000e+00,0.00000e+00
1.71930e+03,2.88804e+01,-6.70794e+00,0.00000e+00,0.00000e+00,0.00000e+00
1.71930e+03,2.86381e+01,-8.94392e+00,0.00000e+00,0.00000e+00,0.00000e+00
1.71930e+03,2.83857e+01,-1.11799e+01,0.00000e+00,0.00000e+00,0.00000e+00
1.71930e+03,2.81002e+01,-1.34159e+01,0.00000e+00,0.00000e+00,0.00000e+00
1.71930e+03,2.77986e+01,-1.56519e+01,0.00000e+00,0.00000e+00,0.00000e+00
1.71930e+03,2.74703e+01,-1.78878e+01,0.00000e+00,0.00000e+00,0.00000e+00
1.71930e+03,2.71201e+01,-2.01238e+01,0.00000e+00,0.00000e+00,0.00000e+00
1.71930e+03,2.67458e+01,-2.23598e+01,0.00000e+00,0.00000e+00,0.00000e+00
1.71930e+03,2.63424e+01,-2.45958e+01,0.00000e+00,0.00000e+00,0.00000e+00
1.71930e+03,2.59091e+01,-2.68317e+01,0.00000e+00,0.00000e+00,0.00000e+00
1.71930e+03,2.54336e+01,-2.90677e+01,0.00000e+00,0.00000e+00,0.00000e+00
1.71930e+03,2.49169e+01,-3.13037e+01,0.00000e+00,0.00000e+00,0.00000e+00
1.71930e+03,2.43509e+01,-3.35397e+01,0.00000e+00,0.00000e+00,0.00000e+00
1.71930e+03,2.37183e+01,-3.57757e+01,0.00000e+00,0.00000e+00,0.00000e+00
1.71930e+03,2.30393e+01,-3.80116e+01,0.00000e+00,0.00000e+00,0.00000e+00
1.71930e+03,2.22560e+01,-4.02476e+01,0.00000e+00,0.00000e+00,0.00000e+00
1.71930e+03,2.14293e+01,-4.24836e+01,0.00000e+00,0.00000e+00,0.00000e+00
1.71930e+03,2.04822e+01,-4.47196e+01,0.00000e+00,0.00000e+00,0.00000e+00
1.71930e+03,1.94385e+01,-4.69556e+01,0.00000e+00,0.00000e+00,0.00000e+00
1.71930e+03,1.82964e+01,-4.91915e+01,0.00000e+00,0.00000e+00,0.00000e+00
1.71930e+03,1.69894e+01,-5.14275e+01,0.00000e+00,0.00000e+00,0.00000e+00
1.71930e+03,1.54913e+01,-5.36635e+01,0.00000e+00,0.00000e+00,0.00000e+00
1.71930e+03,1.37772e+01,-5.58995e+01,0.00000e+00,0.00000e+00,0.00000e+00
1.71930e+03,1.17498e+01,-5.81355e+01,0.00000e+00,0.00000e+00,0.00000e+00
1.71930e+03,9.14742e+00,-6.03714e+01,0.00000e+00,0.00000e+00,0.00000e+00
1.71930e+03,5.62782e+00,-6.26074e+01,0.00000e+00,0.00000e+00,0.00000e+00
1.71930e+03,-2.28035e+00,-6.48434e+01,0.00000e+00,0.00000e+00,0.00000e+00
1.71930e+03,-2.85109e+00,-6.48486e+01,0.00000e+00,0.00000e+00,0.00000e+00
1.71930e+03,-8.05090e+00,-6.25326e+01,0.00000e+00,0.00000e+00,0.00000e+00
1.71930e+03,-8.68047e+00,-6.02165e+01,0.00000e+00,0.00000e+00,0.00000e+00
1.71930e+03,-8.89772e+00,-5.79005e+01,0.00000e+00,0.00000e+00,0.00000e+00
1.71930e+03,-8.93068e+00,-5.55845e+01,0.00000e+00,0.00000e+00,0.00000e+00
1.71930e+03,-8.82481e+00,-5.32685e+01,0.00000e+00,0.00000e+00,0.00000e+00
1.71930e+03,-8.63181e+00,-5.09525e+01,0.00000e+00,0.00000e+00,0.00000e+00
1.71930e+03,-8.35132e+00,-4.86364e+01,0.00000e+00,0.00000e+00,0.00000e+00
1.71930e+03,-8.01747e+00,-4.63204e+01,0.00000e+00,0.00000e+00,0.00000e+00
1.71930e+03,-7.65266e+00,-4.40044e+01,0.00000e+00,0.00000e+00,0.00000e+00
1.71930e+03,-7.24122e+00,-4.16884e+01,0.00000e+00,0.00000e+00,0.00000e+00
1.71930e+03,-6.80064e+00,-3.93724e+01,0.00000e+00,0.00000e+00,0.00000e+00
1.71930e+03,-6.33168e+00,-3.70563e+01,0.00000e+00,0.00000e+00,0.00000e+00
1.71930e+03,-5.83445e+00,-3.47403e+01,0.00000e+00,0.00000e+00,0.00000e+00
1.71930e+03,-5.31949e+00,-3.24243e+01,0.00000e+00,0.00000e+00,0.00000e+00
1.71930e+03,-4.78182e+00,-3.01083e+01,0.00000e+00,0.00000e+00,0.00000e+00
1.71930e+03,-4.22962e+00,-2.77922e+01,0.00000e+00,0.00000e+00,0.00000e+00
1.71930e+03,-3.66437e+00,-2.54762e+01,0.00000e+00,0.00000e+00,0.00000e+00
1.71930e+03,-3.08749e+00,-2.31602e+01,0.00000e+00,0.00000e+00,0.00000e+00
1.71930e+03,-2.50568e+00,-2.08442e+01,0.00000e+00,0.00000e+00,0.00000e+00
1.71930e+03,-1.91624e+00,-1.85282e+01,0.00000e+00,0.00000e+00,0.00000e+00
1.71930e+03,-1.32552e+00,-1.62121e+01,0.00000e+00,0.00000e+00,0.00000e+00
1.71930e+03,-7.30242e-01,-1.38961e+01,0.00000e+00,0.00000e+00,0.00000e+00
1.71930e+03,-1.35024e-01,-1.15801e+01,0.00000e+00,0.00000e+00,0.00000e+00
1.71930e+03,4.57944e-01,-9.26408e+00,0.00000e+00,0.00000e+00,0.00000e+00
1.71930e+03,1.05091e+00,-6.94806e+00,0.00000e+00,0.00000e+00,0.00000e+00
1.71930e+03,1.62984e+00,-4.63204e+00,0.00000e+00,0.00000e+00,0.00000e+00
1.71930e+03,2.20615e+00,-2.31602e+00,0.00000e+00,0.00000e+00,0.00000e+00
1.77540e+03,2.77303e+01,0.00000e+00,0.00000e+00,0.00000e+00,0.00000e+00
1.77540e+03,2.75906e+01,-2.10721e+00,0.00000e+00,0.00000e+00,0.00000e+00
1.77540e+03,2.74048e+01,-4.21442e+00,0.00000e+00,0.00000e+00,0.00000e+00
1.77540e+03,2.72172e+01,-6.32163e+00,0.00000e+00,0.00000e+00,0.00000e+00
1.77540e+03,2.69888e+01,-8.42884e+00,0.00000e+00,0.00000e+00,0.00000e+00
1.77540e+03,2.67510e+01,-1.05361e+01,0.00000e+00,0.00000e+00,0.00000e+00
1.77540e+03,2.64819e+01,-1.26433e+01,0.00000e+00,0.00000e+00,0.00000e+00
1.77540e+03,2.61977e+01,-1.47505e+01,0.00000e+00,0.00000e+00,0.00000e+00
1.77540e+03,2.58883e+01,-1.68577e+01,0.00000e+00,0.00000e+00,0.00000e+00
1.77540e+03,2.55583e+01,-1.89649e+01,0.00000e+00,0.00000e+00,0.00000e+00
1.77540e+03,2.52056e+01,-2.10721e+01,0.00000e+00,0.00000e+00,0.00000e+00
1.77540e+03,2.48254e+01,-2.31793e+01,0.00000e+00,0.00000e+00,0.00000e+00
1.77540e+03,2.44171e+01,-2.52865e+01,0.00000e+00,0.00000e+00,0.00000e+00
1.77540e+03,2.39689e+01,-2.73937e+01,0.00000e+00,0.00000e+00,0.00000e+00
1.77540e+03,2.34819e+01,-2.95009e+01,0.00000e+00,0.00000e+00,0.00000e+00
1.77540e+03,2.29486e+01,-3.16082e+01,0.00000e+00,0.00000e+00,0.00000e+00
1.77540e+03,2.23524e+01,-3.37154e+01,0.00000e+00,0.00000e+00,0.00000e+00
1.77540e+03,2.17125e+01,-3.58226e+01,0.00000e+00,0.00000e+00,0.00000e+00
1.77540e+03,2.09743e+01,-3.79298e+01,0.00000e+00,0.00000e+00,0.00000e+00
1.77540e+03,2.01952e+01,-4.00370e+01,0.00000e+00,0.00000e+00,0.00000e+00
1.77540e+03,1.93026e+01,-4.21442e+01,0.00000e+00,0.00000e+00,0.00000e+00
1.77540e+03,1.83190e+01,-4.42514e+01,0.00000e+00,0.00000e+00,0.00000e+00
1.77540e+03,1.72428e+01,-4.63586e+01,0.00000e+00,0.00000e+00,0.00000e+00
1.77540e+03,1.60110e+01,-4.84658e+01,0.00000e+00,0.00000e+00,0.00000e+00
1.77540e+03,1.45992e+01,-5.05731e+01,0.00000e+00,0.00000e+00,0.00000e+00
1.77540e+03,1.29838e+01,-5.26803e+01,0.00000e+00,0.00000e+00,0.00000e+00
1.77540e+03,1.10731e+01,-5.47875e+01,0.00000e+00,0.00000e+00,0.00000e+00
1.77540e+03,8.62063e+00,-5.68947e+01,0.00000e+00,0.00000e+00,0.00000e+00
1.77540e+03,5.30372e+00,-5.90019e+01,0.00000e+00,0.00000e+00,0.00000e+00
1.77540e+03,-2.14903e+00,-6.11091e+01,0.00000e+00,0.00000e+00,0.00000e+00
1.77540e+03,-2.68689e+00,-6.11140e+01,0.00000e+00,0.00000e+00,0.00000e+00
1.77540e+03,-7.58725e+00,-5.89314e+01,0.00000e+00,0.00000e+00,0.00000e+00
1.77540e+03,-8.18057e+00,-5.67487e+01,0.00000e+00,0.00000e+00,0.00000e+00
1.77540e+03,-8.38530e+00,-5.45661e+01,0.00000e+00,0.00000e+00,0.00000e+00
1.77540e+03,-8.41637e+00,-5.23834e+01,0.00000e+00,0.00000e+00,0.00000e+00
1.77540e+03,-8.31659e+00,-5.02008e+01,0.00000e+00,0.00000e+00,0.00000e+00
1.77540e+03,-8.13471e+00,-4.80181e+01,0.00000e+00,0.00000e+00,0.00000e+00
1.77540e+03,-7.87037e+00,-4.58355e+01,0.00000e+00,0.00000e+00,0.00000e+00
1.77540e+03,-7.55575e+00,-4.36529e+01,0.00000e+00,0.00000e+00,0.00000e+00
1.77540e+03,-7.21195e+00,-4.14702e+01,0.00000e+00,0.00000e+00,0.00000e+00
1.77540e+03,-6.82421e+00,-3.92876e+01,0.00000e+00,0.00000e+00,0.00000e+00
1.77540e+03,-6.40900e+00,-3.71049e+01,0.00000e+00,0.00000e+00,0.00000e+00
1.77540e+03,-5.96704e+00,-3.49223e+01,0.00000e+00,0.00000e+00,0.00000e+00
1.77540e+03,-5.49844e+00,-3.27396e+01,0.00000e+00,0.00000e+00,0.00000e+00
1.77540e+03,-5.01314e+00,-3.05570e+01,0.00000e+00,0.00000e+00,0.00000e+00
1.77540e+03,-4.50644e+00,-2.83744e+01,0.00000e+00,0.00000e+00,0.00000e+00
1.77540e+03,-3.98604e+00,-2.61917e+01,0.00000e+00,0.00000e+00,0.00000e+00
1.77540e+03,-3.45334e+00,-2.40091e+01,0.00000e+00,0.00000e+00,0.00000e+00
1.77540e+03,-2.90969e+00,-2.18264e+01,0.00000e+00,0.00000e+00,0.00000e+00
1.77540e+03,-2.36138e+00,-1.96438e+01,0.00000e+00,0.00000e+00,0.00000e+00
1.77540e+03,-1.80588e+00,-1.74611e+01,0.00000e+00,0.00000e+00,0.00000e+00
1.77540e+03,-1.24918e+00,-1.52785e+01,0.00000e+00,0.00000e+00,0.00000e+00
1.77540e+03,-6.88187e-01,-1.30959e+01,0.00000e+00,0.00000e+00,0.00000e+00
1.77540e+03,-1.27248e-01,-1.09132e+01,0.00000e+00,0.00000e+00,0.00000e+00
1.77540e+03,4.31571e-01,-8.73057e+00,0.00000e+00,0.00000e+00,0.00000e+00
1.77540e+03,9.90390e-01,-6.54793e+00,0.00000e+00,0.00000e+00,0.00000e+00
1.77540e+03,1.53598e+00,-4.36529e+00,0.00000e+00,0.00000e+00,0.00000e+00
1.77540e+03,2.07910e+00,-2.18264e+00,0.00000e+00,0.00000e+00,0.00000e+00
1.82660e+03,2.53092e+01,0.00000e+00,0.00000e+00,0.00000e+00,0.00000e+00
1.82660e+03,2.51817e+01,-1.92323e+00,0.00000e+00,0.00000e+00,0.00000e+00
1.82660e+03,2.50121e+01,-3.84646e+00,0.00000e+00,0.00000e+00,0.00000e+00
1.82660e+03,2.48409e+01,-5.76969e+00,0.00000e+00,0.00000e+00,0.00000e+00
1.82660e+03,2.46324e+01,-7.69292e+00,0.00000e+00,0.00000e+00,0.00000e+00
1.82660e+03,2.44154e+01,-9.61614e+00,0.00000e+00,0.00000e+00,0.00000e+00
1.82660e+03,2.41698e+01,-1.15394e+01,0.00000e+00,0.00000e+00,0.00000e+00
1.82660e+03,2.39103e+01,-1.34626e+01,0.00000e+00,0.00000e+00,0.00000e+00
1.82660e+03,2.36280e+01,-1.53858e+01,0.00000e+00,0.00000e+00,0.00000e+00
1.82660e+03,2.33268e+01,-1.73091e+01,0.00000e+00,0.00000e+00,0.00000e+00
1.82660e+03,2.30049e+01,-1.92323e+01,0.00000e+00,0.00000e+00,0.00000e+00
1.82660e+03,2.26579e+01,-2.11555e+01,0.00000e+00,0.00000e+00,0.00000e+00
1.82660e+03,2.22852e+01,-2.30787e+01,0.00000e+00,0.00000e+00,0.00000e+00
1.82660e+03,2.18762e+01,-2.50020e+01,0.00000e+00,0.00000e+00,0.00000e+00
1.82660e+03,2.14317e+01,-2.69252e+01,0.00000e+00,0.00000e+00,0.00000e+00
1.82660e+03,2.09449e+01,-2.88484e+01,0.00000e+00,0.00000e+00,0.00000e+00
1.82660e+03,2.04008e+01,-3.07717e+01,0.00000e+00,0.00000e+00,0.00000e+00
1.82660e+03,1.98168e+01,-3.26949e+01,0.00000e+00,0.00000e+00,0.00000e+00
1.82660e+03,1.91430e+01,-3.46181e+01,0.00000e+00,0.00000e+00,0.00000e+00
1.82660e+03,1.84320e+01,-3.65413e+01,0.00000e+00,0.00000e+00,0.00000e+00
1.82660e+03,1.76173e+01,-3.84646e+01,0.00000e+00,0.00000e+00,0.00000e+00
1.82660e+03,1.67196e+01,-4.03878e+01,0.00000e+00,0.00000e+00,0.00000e+00
1.82660e+03,1.57373e+01,-4.23110e+01,0.00000e+00,0.00000e+00,0.00000e+00
1.82660e+03,1.46131e+01,-4.42343e+01,0.00000e+00,0.00000e+00,0.00000e+00
1.82660e+03,1.33245e+01,-4.61575e+01,0.00000e+00,0.00000e+00,0.00000e+00
1.82660e+03,1.18502e+01,-4.80807e+01,0.00000e+00,0.00000e+00,0.00000e+00
1.82660e+03,1.01063e+01,-5.00040e+01,0.00000e+00,0.00000e+00,0.00000e+00
1.82660e+03,7.86795e+00,-5.19272e+01,0.00000e+00,0.00000e+00,0.00000e+00
1.82660e+03,4.84065e+00,-5.38504e+01,0.00000e+00,0.00000e+00,0.00000e+00
1.82660e+03,-1.96139e+00,-5.57736e+01,0.00000e+00,0.00000e+00,0.00000e+00
1.82660e+03,-2.45230e+00,-5.57781e+01,0.00000e+00,0.00000e+00,0.00000e+00
1.82660e+03,-6.92480e+00,-5.37860e+01,0.00000e+00,0.00000e+00,0.00000e+00
1.82660e+03,-7.46632e+00,-5.17940e+01,0.00000e+00,0.00000e+00,0.00000e+00
1.82660e+03,-7.65318e+00,-4.98019e+01,0.00000e+00,0.00000e+00,0.00000e+00
1.82660e+03,-7.68153e+00,-4.78098e+01,0.00000e+00,0.00000e+00,0.00000e+00
1.82660e+03,-7.59047e+00,-4.58177e+01,0.00000e+00,0.00000e+00,0.00000e+00
1.82660e+03,-7.42446e+00,-4.38257e+01,0.00000e+00,0.00000e+00,0.00000e+00
1.82660e+03,-7.18321e+00,-4.18336e+01,0.00000e+00,0.00000e+00,0.00000e+00
1.82660e+03,-6.89605e+00,-3.98415e+01,0.00000e+00,0.00000e+00,0.00000e+00
1.82660e+03,-6.58227e+00,-3.78494e+01,0.00000e+00,0.00000e+00,0.00000e+00
1.82660e+03,-6.22838e+00,-3.58574e+01,0.00000e+00,0.00000e+00,0.00000e+00
1.82660e+03,-5.84943e+00,-3.38653e+01,0.00000e+00,0.00000e+00,0.00000e+00
1.82660e+03,-5.44606e+00,-3.18732e+01,0.00000e+00,0.00000e+00,0.00000e+00
1.82660e+03,-5.01837e+00,-2.98811e+01,0.00000e+00,0.00000e+00,0.00000e+00
1.82660e+03,-4.57544e+00,-2.78891e+01,0.00000e+00,0.00000e+00,0.00000e+00
1.82660e+03,-4.11298e+00,-2.58970e+01,0.00000e+00,0.00000e+00,0.00000e+00
1.82660e+03,-3.63801e+00,-2.39049e+01,0.00000e+00,0.00000e+00,0.00000e+00
1.82660e+03,-3.15183e+00,-2.19128e+01,0.00000e+00,0.00000e+00,0.00000e+00
1.82660e+03,-2.65564e+00,-1.99208e+01,0.00000e+00,0.00000e+00,0.00000e+00
1.82660e+03,-2.15521e+00,-1.79287e+01,0.00000e+00,0.00000e+00,0.00000e+00
1.82660e+03,-1.64821e+00,-1.59366e+01,0.00000e+00,0.00000e+00,0.00000e+00
1.82660e+03,-1.14012e+00,-1.39445e+01,0.00000e+00,0.00000e+00,0.00000e+00
1.82660e+03,-6.28101e-01,-1.19525e+01,0.00000e+00,0.00000e+00,0.00000e+00
1.82660e+03,-1.16138e-01,-9.96038e+00,0.00000e+00,0.00000e+00,0.00000e+00
1.82660e+03,3.93890e-01,-7.96830e+00,0.00000e+00,0.00000e+00,0.00000e+00
1.82660e+03,9.03919e-01,-5.97623e+00,0.00000e+00,0.00000e+00,0.00000e+00
1.82660e+03,1.40187e+00,-3.98415e+00,0.00000e+00,0.00000e+00,0.00000e+00
1.82660e+03,1.89757e+00,-1.99208e+00,0.00000e+00,0.00000e+00,0.00000e+00
1.87280e+03,2.31244e+01,0.00000e+00,0.00000e+00,0.00000e+00,0.00000e+00
1.87280e+03,2.30080e+01,-1.75721e+00,0.00000e+00,0.00000e+00,0.00000e+00
1.87280e+03,2.28531e+01,-3.51443e+00,0.00000e+00,0.00000e+00,0.00000e+00
1.87280e+03,2.26966e+01,-5.27164e+00,0.00000e+00,0.00000e+00,0.00000e+00
1.87280e+03,2.25061e+01,-7.02886e+00,0.00000e+00,0.00000e+00,0.00000e+00
1.87280e+03,2.23078e+01,-8.78607e+00,0.00000e+00,0.00000e+00,0.00000e+00
1.87280e+03,2.20834e+01,-1.05433e+01,0.00000e+00,0.00000e+00,0.00000e+00
1.87280e+03,2.18464e+01,-1.23005e+01,0.00000e+00,0.00000e+00,0.00000e+00
1.87280e+03,2.15884e+01,-1.40577e+01,0.00000e+00,0.00000e+00,0.00000e+00
1.87280e+03,2.13132e+01,-1.58149e+01,0.00000e+00,0.00000e+00,0.00000e+00
1.87280e+03,2.10191e+01,-1.75721e+01,0.00000e+00,0.00000e+00,0.00000e+00
1.87280e+03,2.07020e+01,-1.93294e+01,0.00000e+00,0.00000e+00,0.00000e+00
1.87280e+03,2.03615e+01,-2.10866e+01,0.00000e+00,0.00000e+00,0.00000e+00
1.87280e+03,1.99878e+01,-2.28438e+01,0.00000e+00,0.00000e+00,0.00000e+00
1.87280e+03,1.95817e+01,-2.46010e+01,0.00000e+00,0.00000e+00,0.00000e+00
1.87280e+03,1.91369e+01,-2.63582e+01,0.00000e+00,0.00000e+00,0.00000e+00
1.87280e+03,1.86398e+01,-2.81154e+01,0.00000e+00,0.00000e+00,0.00000e+00
1.87280e+03,1.81062e+01,-2.98726e+01,0.00000e+00,0.00000e+00,0.00000e+00
1.87280e+03,1.74905e+01,-3.16299e+01,0.00000e+00,0.00000e+00,0.00000e+00
1.87280e+03,1.68409e+01,-3.33871e+01,0.00000e+00,0.00000e+00,0.00000e+00
1.87280e+03,1.60966e+01,-3.51443e+01,0.00000e+00,0.00000e+00,0.00000e+00
1.87280e+03,1.52763e+01,-3.69015e+01,0.00000e+00,0.00000e+00,0.00000e+00
1.87280e+03,1.43788e+01,-3.86587e+01,0.00000e+00,0.00000e+00,0.00000e+00
1.87280e+03,1.33517e+01,-4.04159e+01,0.00000e+00,0.00000e+00,0.00000e+00
1.87280e+03,1.21743e+01,-4.21731e+01,0.00000e+00,0.00000e+00,0.00000e+00
1.87280e+03,1.08272e+01,-4.39304e+01,0.00000e+00,0.00000e+00,0.00000e+00
1.87280e+03,9.23393e+00,-4.56876e+01,0.00000e+00,0.00000e+00,0.00000e+00
1.87280e+03,7.18879e+00,-4.74448e+01,0.00000e+00,0.00000e+00,0.00000e+00
1.87280e+03,4.42280e+00,-4.92020e+01,0.00000e+00,0.00000e+00,0.00000e+00
1.87280e+03,-1.79208e+00,-5.09592e+01,0.00000e+00,0.00000e+00,0.00000e+00
1.87280e+03,-2.24062e+00,-5.09633e+01,0.00000e+00,0.00000e+00,0.00000e+00
1.87280e+03,-6.32705e+00,-4.91432e+01,0.00000e+00,0.00000e+00,0.00000e+00
1.87280e+03,-6.82182e+00,-4.73231e+01,0.00000e+00,0.00000e+00,0.00000e+00
1.87280e+03,-6.99255e+00,-4.55029e+01,0.00000e+00,0.00000e+00,0.00000e+00
1.87280e+03,-7.01846e+00,-4.36828e+01,0.00000e+00,0.00000e+00,0.00000e+00
1.87280e+03,-6.93525e+00,-4.18627e+01,0.00000e+00,0.00000e+00,0.00000e+00
1.87280e+03,-6.78358e+00,-4.00426e+01,0.00000e+00,0.00000e+00,0.00000e+00
1.87280e+03,-6.56315e+00,-3.82225e+01,0.00000e+00,0.00000e+00,0.00000e+00
1.87280e+03,-6.30078e+00,-3.64024e+01,0.00000e+00,0.00000e+00,0.00000e+00
1.87280e+03,-6.01408e+00,-3.45822e+01,0.00000e+00,0.00000e+00,0.00000e+00
1.87280e+03,-5.69074e+00,-3.27621e+01,0.00000e+00,0.00000e+00,0.00000e+00
1.87280e+03,-5.34450e+00,-3.09420e+01,0.00000e+00,0.00000e+00,0.00000e+00
1.87280e+03,-4.97595e+00,-2.91219e+01,0.00000e+00,0.00000e+00,0.00000e+00
1.87280e+03,-4.58518e+00,-2.73018e+01,0.00000e+00,0.00000e+00,0.00000e+00
1.87280e+03,-4.18049e+00,-2.54816e+01,0.00000e+00,0.00000e+00,0.00000e+00
1.87280e+03,-3.75794e+00,-2.36615e+01,0.00000e+00,0.00000e+00,0.00000e+00
1.87280e+03,-3.32398e+00,-2.18414e+01,0.00000e+00,0.00000e+00,0.00000e+00
1.87280e+03,-2.87976e+00,-2.00213e+01,0.00000e+00,0.00000e+00,0.00000e+00
1.87280e+03,-2.42640e+00,-1.82012e+01,0.00000e+00,0.00000e+00,0.00000e+00
1.87280e+03,-1.96917e+00,-1.63811e+01,0.00000e+00,0.00000e+00,0.00000e+00
1.87280e+03,-1.50594e+00,-1.45609e+01,0.00000e+00,0.00000e+00,0.00000e+00
1.87280e+03,-1.04170e+00,-1.27408e+01,0.00000e+00,0.00000e+00,0.00000e+00
1.87280e+03,-5.73883e-01,-1.09207e+01,0.00000e+00,0.00000e+00,0.00000e+00
1.87280e+03,-1.06113e-01,-9.10059e+00,0.00000e+00,0.00000e+00,0.00000e+00
1.87280e+03,3.59890e-01,-7.28047e+00,0.00000e+00,0.00000e+00,0.00000e+00
1.87280e+03,8.25892e-01,-5.46035e+00,0.00000e+00,0.00000e+00,0.00000e+00
1.87280e+03,1.28086e+00,-3.64024e+00,0.00000e+00,0.00000e+00,0.00000e+00
1.87280e+03,1.73377e+00,-1.82012e+00,0.00000e+00,0.00000e+00,0.00000e+00
1.91380e+03,2.11856e+01,0.00000e+00,0.00000e+00,0.00000e+00,0.00000e+00
1.91380e+03,2.10789e+01,-1.60989e+00,0.00000e+00,0.00000e+00,0.00000e+00
1.91380e+03,2.09370e+01,-3.21977e+00,0.00000e+00,0.00000e+00,0.00000e+00
1.91380e+03,2.07936e+01,-4.82966e+00,0.00000e+00,0.00000e+00,0.00000e+00
1.91380e+03,2.06192e+01,-6.43954e+00,0.00000e+00,0.00000e+00,0.00000e+00
1.91380e+03,2.04375e+01,-8.04943e+00,0.00000e+00,0.00000e+00,0.00000e+00
1.91380e+03,2.02319e+01,-9.65931e+00,0.00000e+00,0.00000e+00,0.00000e+00
1.91380e+03,2.00147e+01,-1.12692e+01,0.00000e+00,0.00000e+00,0.00000e+00
1.91380e+03,1.97784e+01,-1.28791e+01,0.00000e+00,0.00000e+00,0.00000e+00
1.91380e+03,1.95262e+01,-1.44890e+01,0.00000e+00,0.00000e+00,0.00000e+00
1.91380e+03,1.92568e+01,-1.60989e+01,0.00000e+00,0.00000e+00,0.00000e+00
1.91380e+03,1.89663e+01,-1.77087e+01,0.00000e+00,0.00000e+00,0.00000e+00
1.91380e+03,1.86544e+01,-1.93186e+01,0.00000e+00,0.00000e+00,0.00000e+00
1.91380e+03,1.83120e+01,-2.09285e+01,0.00000e+00,0.00000e+00,0.00000e+00
1.91380e+03,1.79399e+01,-2.25384e+01,0.00000e+00,0.00000e+00,0.00000e+00
1.91380e+03,1.75325e+01,-2.41483e+01,0.00000e+00,0.00000e+00,0.00000e+00
1.91380e+03,1.70770e+01,-2.57582e+01,0.00000e+00,0.00000e+00,0.00000e+00
1.91380e+03,1.65881e+01,-2.73680e+01,0.00000e+00,0.00000e+00,0.00000e+00
1.91380e+03,1.60241e+01,-2.89779e+01,0.00000e+00,0.00000e+00,0.00000e+00
1.91380e+03,1.54289e+01,-3.05878e+01,0.00000e+00,0.00000e+00,0.00000e+00
1.91380e+03,1.47470e+01,-3.21977e+01,0.00000e+00,0.00000e+00,0.00000e+00
1.91380e+03,1.39955e+01,-3.38076e+01,0.00000e+00,0.00000e+00,0.00000e+00
1.91380e+03,1.31733e+01,-3.54175e+01,0.00000e+00,0.00000e+00,0.00000e+00
1.91380e+03,1.22322e+01,-3.70274e+01,0.00000e+00,0.00000e+00,0.00000e+00
1.91380e+03,1.11536e+01,-3.86372e+01,0.00000e+00,0.00000e+00,0.00000e+00
1.91380e+03,9.91946e+00,-4.02471e+01,0.00000e+00,0.00000e+00,0.00000e+00
1.91380e+03,8.45973e+00,-4.18570e+01,0.00000e+00,0.00000e+00,0.00000e+00
1.91380e+03,6.58606e+00,-4.34669e+01,0.00000e+00,0.00000e+00,0.00000e+00
1.91380e+03,4.05198e+00,-4.50768e+01,0.00000e+00,0.00000e+00,0.00000e+00
1.91380e+03,-1.64183e+00,-4.66867e+01,0.00000e+00,0.00000e+00,0.00000e+00
1.91380e+03,-2.05276e+00,-4.66904e+01,0.00000e+00,0.00000e+00,0.00000e+00
1.91380e+03,-5.79657e+00,-4.50229e+01,0.00000e+00,0.00000e+00,0.00000e+00
1.91380e+03,-6.24986e+00,-4.33554e+01,0.00000e+00,0.00000e+00,0.00000e+00
1.91380e+03,-6.40628e+00,-4.16879e+01,0.00000e+00,0.00000e+00,0.00000e+00
1.91380e+03,-6.43001e+00,-4.00204e+01,0.00000e+00,0.00000e+00,0.00000e+00
1.91380e+03,-6.35378e+00,-3.83528e+01,0.00000e+00,0.00000e+00,0.00000e+00
1.91380e+03,-6.21483e+00,-3.66853e+01,0.00000e+00,0.00000e+00,0.00000e+00
1.91380e+03,-6.01288e+00,-3.50178e+01,0.00000e+00,0.00000e+00,0.00000e+00
1.91380e+03,-5.77251e+00,-3.33503e+01,0.00000e+00,0.00000e+00,0.00000e+00
1.91380e+03,-5.50985e+00,-3.16828e+01,0.00000e+00,0.00000e+00,0.00000e+00
1.91380e+03,-5.21362e+00,-3.00153e+01,0.00000e+00,0.00000e+00,0.00000e+00
1.91380e+03,-4.89640e+00,-2.83477e+01,0.00000e+00,0.00000e+00,0.00000e+00
1.91380e+03,-4.55876e+00,-2.66802e+01,0.00000e+00,0.00000e+00,0.00000e+00
1.91380e+03,-4.20075e+00,-2.50127e+01,0.00000e+00,0.00000e+00,0.00000e+00
1.91380e+03,-3.82998e+00,-2.33452e+01,0.00000e+00,0.00000e+00,0.00000e+00
1.91380e+03,-3.44287e+00,-2.16777e+01,0.00000e+00,0.00000e+00,0.00000e+00
1.91380e+03,-3.04529e+00,-2.00102e+01,0.00000e+00,0.00000e+00,0.00000e+00
1.91380e+03,-2.63832e+00,-1.83427e+01,0.00000e+00,0.00000e+00,0.00000e+00
1.91380e+03,-2.22297e+00,-1.66751e+01,0.00000e+00,0.00000e+00,0.00000e+00
1.91380e+03,-1.80407e+00,-1.50076e+01,0.00000e+00,0.00000e+00,0.00000e+00
1.91380e+03,-1.37967e+00,-1.33401e+01,0.00000e+00,0.00000e+00,0.00000e+00
1.91380e+03,-9.54362e-01,-1.16726e+01,0.00000e+00,0.00000e+00,0.00000e+00
1.91380e+03,-5.25768e-01,-1.00051e+01,0.00000e+00,0.00000e+00,0.00000e+00
1.91380e+03,-9.72161e-02,-8.33757e+00,0.00000e+00,0.00000e+00,0.00000e+00
1.91380e+03,3.29716e-01,-6.67006e+00,0.00000e+00,0.00000e+00,0.00000e+00
1.91380e+03,7.56647e-01,-5.00254e+00,0.00000e+00,0.00000e+00,0.00000e+00
1.91380e+03,1.17347e+00,-3.33503e+00,0.00000e+00,0.00000e+00,0.00000e+00
1.91380e+03,1.58841e+00,-1.66751e+00,0.00000e+00,0.00000e+00,0.00000e+00
1.94970e+03,1.94880e+01,0.00000e+00,0.00000e+00,0.00000e+00,0.00000e+00
1.94970e+03,1.93899e+01,-1.48088e+00,0.00000e+00,0.00000e+00,0.00000e+00
1.94970e+03,1.92593e+01,-2.96177e+00,0.00000e+00,0.00000e+00,0.00000e+00
1.94970e+03,1.91274e+01,-4.44265e+00,0.00000e+00,0.00000e+00,0.00000e+00
1.94970e+03,1.89669e+01,-5.92353e+00,0.00000e+00,0.00000e+00,0.00000e+00
1.94970e+03,1.87998e+01,-7.40441e+00,0.00000e+00,0.00000e+00,0.00000e+00
1.94970e+03,1.86107e+01,-8.88530e+00,0.00000e+00,0.00000e+00,0.00000e+00
1.94970e+03,1.84109e+01,-1.03662e+01,0.00000e+00,0.00000e+00,0.00000e+00
1.94970e+03,1.81935e+01,-1.18471e+01,0.00000e+00,0.00000e+00,0.00000e+00
1.94970e+03,1.79616e+01,-1.33279e+01,0.00000e+00,0.00000e+00,0.00000e+00
1.94970e+03,1.77137e+01,-1.48088e+01,0.00000e+00,0.00000e+00,0.00000e+00
1.94970e+03,1.74465e+01,-1.62897e+01,0.00000e+00,0.00000e+00,0.00000e+00
1.94970e+03,1.71596e+01,-1.77706e+01,0.00000e+00,0.00000e+00,0.00000e+00
1.94970e+03,1.68446e+01,-1.92515e+01,0.00000e+00,0.00000e+00,0.00000e+00
1.94970e+03,1.65024e+01,-2.07324e+01,0.00000e+00,0.00000e+00,0.00000e+00
1.94970e+03,1.61276e+01,-2.22132e+01,0.00000e+00,0.00000e+00,0.00000e+00
1.94970e+03,1.57086e+01,-2.36941e+01,0.00000e+00,0.00000e+00,0.00000e+00
1.94970e+03,1.52589e+01,-2.51750e+01,0.00000e+00,0.00000e+00,0.00000e+00
1.94970e+03,1.47401e+01,-2.66559e+01,0.00000e+00,0.00000e+00,0.00000e+00
1.94970e+03,1.41926e+01,-2.81368e+01,0.00000e+00,0.00000e+00,0.00000e+00
1.94970e+03,1.35653e+01,-2.96177e+01,0.00000e+00,0.00000e+00,0.00000e+00
1.94970e+03,1.28740e+01,-3.10985e+01,0.00000e+00,0.00000e+00,0.00000e+00
1.94970e+03,1.21177e+01,-3.25794e+01,0.00000e+00,0.00000e+00,0.00000e+00
1.94970e+03,1.12521e+01,-3.40603e+01,0.00000e+00,0.00000e+00,0.00000e+00
1.94970e+03,1.02599e+01,-3.55412e+01,0.00000e+00,0.00000e+00,0.00000e+00
1.94970e+03,9.12460e+00,-3.70221e+01,0.00000e+00,0.00000e+00,0.00000e+00
1.94970e+03,7.78184e+00,-3.85029e+01,0.00000e+00,0.00000e+00,0.00000e+00
1.94970e+03,6.05831e+00,-3.99838e+01,0.00000e+00,0.00000e+00,0.00000e+00
1.94970e+03,3.72729e+00,-4.14647e+01,0.00000e+00,0.00000e+00,0.00000e+00
1.94970e+03,-1.51027e+00,-4.29456e+01,0.00000e+00,0.00000e+00,0.00000e+00
1.94970e+03,-1.88827e+00,-4.29490e+01,0.00000e+00,0.00000e+00,0.00000e+00
1.94970e+03,-5.33209e+00,-4.14151e+01,0.00000e+00,0.00000e+00,0.00000e+00
1.94970e+03,-5.74905e+00,-3.98812e+01,0.00000e+00,0.00000e+00,0.00000e+00
1.94970e+03,-5.89293e+00,-3.83473e+01,0.00000e+00,0.00000e+00,0.00000e+00
1.94970e+03,-5.91477e+00,-3.68135e+01,0.00000e+00,0.00000e+00,0.00000e+00
1.94970e+03,-5.84465e+00,-3.52796e+01,0.00000e+00,0.00000e+00,0.00000e+00
1.94970e+03,-5.71682e+00,-3.37457e+01,0.00000e+00,0.00000e+00,0.00000e+00
1.94970e+03,-5.53106e+00,-3.22118e+01,0.00000e+00,0.00000e+00,0.00000e+00
1.94970e+03,-5.30995e+00,-3.06779e+01,0.00000e+00,0.00000e+00,0.00000e+00
1.94970e+03,-5.06834e+00,-2.91440e+01,0.00000e+00,0.00000e+00,0.00000e+00
1.94970e+03,-4.79584e+00,-2.76101e+01,0.00000e+00,0.00000e+00,0.00000e+00
1.94970e+03,-4.50405e+00,-2.60762e+01,0.00000e+00,0.00000e+00,0.00000e+00
1.94970e+03,-4.19345e+00,-2.45423e+01,0.00000e+00,0.00000e+00,0.00000e+00
1.94970e+03,-3.86414e+00,-2.30084e+01,0.00000e+00,0.00000e+00,0.00000e+00
1.94970e+03,-3.52308e+00,-2.14745e+01,0.00000e+00,0.00000e+00,0.00000e+00
1.94970e+03,-3.16699e+00,-1.99406e+01,0.00000e+00,0.00000e+00,0.00000e+00
1.94970e+03,-2.80126e+00,-1.84067e+01,0.00000e+00,0.00000e+00,0.00000e+00
1.94970e+03,-2.42690e+00,-1.68728e+01,0.00000e+00,0.00000e+00,0.00000e+00
1.94970e+03,-2.04484e+00,-1.53389e+01,0.00000e+00,0.00000e+00,0.00000e+00
1.94970e+03,-1.65951e+00,-1.38050e+01,0.00000e+00,0.00000e+00,0.00000e+00
1.94970e+03,-1.26912e+00,-1.22712e+01,0.00000e+00,0.00000e+00,0.00000e+00
1.94970e+03,-8.77888e-01,-1.07373e+01,0.00000e+00,0.00000e+00,0.00000e+00
1.94970e+03,-4.83637e-01,-9.20336e+00,0.00000e+00,0.00000e+00,0.00000e+00
1.94970e+03,-8.94260e-02,-7.66947e+00,0.00000e+00,0.00000e+00,0.00000e+00
1.94970e+03,3.03295e-01,-6.13558e+00,0.00000e+00,0.00000e+00,0.00000e+00
1.94970e+03,6.96016e-01,-4.60168e+00,0.00000e+00,0.00000e+00,0.00000e+00
1.94970e+03,1.07944e+00,-3.06779e+00,0.00000e+00,0.00000e+00,0.00000e+00
1.94970e+03,1.46113e+00,-1.53389e+00,0.00000e+00,0.00000e+00,0.00000e+00
1.98010e+03,1.80504e+01,0.00000e+00,0.00000e+00,0.00000e+00,0.00000e+00
1.98010e+03,1.79595e+01,-1.37164e+00,0.00000e+00,0.00000e+00,0.00000e+00
1.98010e+03,1.78386e+01,-2.74329e+00,0.00000e+00,0.00000e+00,0.00000e+00
1.98010e+03,1.77165e+01,-4.11493e+00,0.00000e+00,0.00000e+00,0.00000e+00
1.98010e+03,1.75678e+01,-5.48657e+00,0.00000e+00,0.00000e+00,0.00000e+00
1.98010e+03,1.74130e+01,-6.85822e+00,0.00000e+00,0.00000e+00,0.00000e+00
1.98010e+03,1.72378e+01,-8.22986e+00,0.00000e+00,0.00000e+00,0.00000e+00
1.98010e+03,1.70528e+01,-9.60150e+00,0.00000e+00,0.00000e+00,0.00000e+00
1.98010e+03,1.68514e+01,-1.09731e+01,0.00000e+00,0.00000e+00,0.00000e+00
1.98010e+03,1.66366e+01,-1.23448e+01,0.00000e+00,0.00000e+00,0.00000e+00
1.98010e+03,1.64070e+01,-1.37164e+01,0.00000e+00,0.00000e+00,0.00000e+00
1.98010e+03,1.61595e+01,-1.50881e+01,0.00000e+00,0.00000e+00,0.00000e+00
1.98010e+03,1.58938e+01,-1.64597e+01,0.00000e+00,0.00000e+00,0.00000e+00
1.98010e+03,1.56020e+01,-1.78314e+01,0.00000e+00,0.00000e+00,0.00000e+00
1.98010e+03,1.52851e+01,-1.92030e+01,0.00000e+00,0.00000e+00,0.00000e+00
1.98010e+03,1.49379e+01,-2.05747e+01,0.00000e+00,0.00000e+00,0.00000e+00
1.98010e+03,1.45498e+01,-2.19463e+01,0.00000e+00,0.00000e+00,0.00000e+00
1.98010e+03,1.41333e+01,-2.33179e+01,0.00000e+00,0.00000e+00,0.00000e+00
1.98010e+03,1.36527e+01,-2.46896e+01,0.00000e+00,0.00000e+00,0.00000e+00
1.98010e+03,1.31457e+01,-2.60612e+01,0.00000e+00,0.00000e+00,0.00000e+00
1.98010e+03,1.25646e+01,-2.74329e+01,0.00000e+00,0.00000e+00,0.00000e+00
1.98010e+03,1.19244e+01,-2.88045e+01,0.00000e+00,0.00000e+00,0.00000e+00
1.98010e+03,1.12238e+01,-3.01762e+01,0.00000e+00,0.00000e+00,0.00000e+00
1.98010e+03,1.04220e+01,-3.15478e+01,0.00000e+00,0.00000e+00,0.00000e+00
1.98010e+03,9.50303e+00,-3.29194e+01,0.00000e+00,0.00000e+00,0.00000e+00
1.98010e+03,8.45151e+00,-3.42911e+01,0.00000e+00,0.00000e+00,0.00000e+00
1.98010e+03,7.20780e+00,-3.56627e+01,0.00000e+00,0.00000e+00,0.00000e+00
1.98010e+03,5.61141e+00,-3.70344e+01,0.00000e+00,0.00000e+00,0.00000e+00
1.98010e+03,3.45234e+00,-3.84060e+01,0.00000e+00,0.00000e+00,0.00000e+00
1.98010e+03,-1.39886e+00,-3.97777e+01,0.00000e+00,0.00000e+00,0.00000e+00
1.98010e+03,-1.74898e+00,-3.97808e+01,0.00000e+00,0.00000e+00,0.00000e+00
1.98010e+03,-4.93876e+00,-3.83601e+01,0.00000e+00,0.00000e+00,0.00000e+00
1.98010e+03,-5.32496e+00,-3.69394e+01,0.00000e+00,0.00000e+00,0.00000e+00
1.98010e+03,-5.45823e+00,-3.55186e+01,0.00000e+00,0.00000e+00,0.00000e+00
1.98010e+03,-5.47846e+00,-3.40979e+01,0.00000e+00,0.00000e+00,0.00000e+00
1.98010e+03,-5.41351e+00,-3.26771e+01,0.00000e+00,0.00000e+00,0.00000e+00
1.98010e+03,-5.29511e+00,-3.12564e+01,0.00000e+00,0.00000e+00,0.00000e+00
1.98010e+03,-5.12305e+00,-2.98356e+01,0.00000e+00,0.00000e+00,0.00000e+00
1.98010e+03,-4.91825e+00,-2.84149e+01,0.00000e+00,0.00000e+00,0.00000e+00
1.98010e+03,-4.69446e+00,-2.69941e+01,0.00000e+00,0.00000e+00,0.00000e+00
1.98010e+03,-4.44207e+00,-2.55734e+01,0.00000e+00,0.00000e+00,0.00000e+00
1.98010e+03,-4.17180e+00,-2.41527e+01,0.00000e+00,0.00000e+00,0.00000e+00
1.98010e+03,-3.88412e+00,-2.27319e+01,0.00000e+00,0.00000e+00,0.00000e+00
1.98010e+03,-3.57909e+00,-2.13112e+01,0.00000e+00,0.00000e+00,0.00000e+00
1.98010e+03,-3.26320e+00,-1.98904e+01,0.00000e+00,0.00000e+00,0.00000e+00
1.98010e+03,-2.93337e+00,-1.84697e+01,0.00000e+00,0.00000e+00,0.00000e+00
1.98010e+03,-2.59462e+00,-1.70489e+01,0.00000e+00,0.00000e+00,0.00000e+00
1.98010e+03,-2.24788e+00,-1.56282e+01,0.00000e+00,0.00000e+00,0.00000e+00
1.98010e+03,-1.89400e+00,-1.42074e+01,0.00000e+00,0.00000e+00,0.00000e+00
1.98010e+03,-1.53709e+00,-1.27867e+01,0.00000e+00,0.00000e+00,0.00000e+00
1.98010e+03,-1.17550e+00,-1.13660e+01,0.00000e+00,0.00000e+00,0.00000e+00
1.98010e+03,-8.13129e-01,-9.94521e+00,0.00000e+00,0.00000e+00,0.00000e+00
1.98010e+03,-4.47961e-01,-8.52447e+00,0.00000e+00,0.00000e+00,0.00000e+00
1.98010e+03,-8.28294e-02,-7.10372e+00,0.00000e+00,0.00000e+00,0.00000e+00
1.98010e+03,2.80922e-01,-5.68298e+00,0.00000e+00,0.00000e+00,0.00000e+00
1.98010e+03,6.44673e-01,-4.26223e+00,0.00000e+00,0.00000e+00,0.00000e+00
1.98010e+03,9.99811e-01,-2.84149e+00,0.00000e+00,0.00000e+00,0.00000e+00
1.98010e+03,1.35334e+00,-1.42074e+00,0.00000e+00,0.00000e+00,0.00000e+00
2.00520e+03,1.68635e+01,0.00000e+00,0.00000e+00,0.00000e+00,0.00000e+00
2.00520e+03,1.67786e+01,-1.28145e+00,0.00000e+00,0.00000e+00,0.00000e+00
2.00520e+03,1.66656e+01,-2.56290e+00,0.00000e+00,0.00000e+00,0.00000e+00
2.00520e+03,1.65515e+01,-3.84435e+00,0.00000e+00,0.00000e+00,0.00000e+00
2.00520e+03,1.64126e+01,-5.12580e+00,0.00000e+00,0.00000e+00,0.00000e+00
2.00520e+03,1.62680e+01,-6.40725e+00,0.00000e+00,0.00000e+00,0.00000e+00
2.00520e+03,1.61044e+01,-7.68870e+00,0.00000e+00,0.00000e+00,0.00000e+00
2.00520e+03,1.59315e+01,-8.97015e+00,0.00000e+00,0.00000e+00,0.00000e+00
2.00520e+03,1.57433e+01,-1.02516e+01,0.00000e+00,0.00000e+00,0.00000e+00
2.00520e+03,1.55427e+01,-1.15330e+01,0.00000e+00,0.00000e+00,0.00000e+00
2.00520e+03,1.53282e+01,-1.28145e+01,0.00000e+00,0.00000e+00,0.00000e+00
2.00520e+03,1.50970e+01,-1.40959e+01,0.00000e+00,0.00000e+00,0.00000e+00
2.00520e+03,1.48486e+01,-1.53774e+01,0.00000e+00,0.00000e+00,0.00000e+00
2.00520e+03,1.45761e+01,-1.66588e+01,0.00000e+00,0.00000e+00,0.00000e+00
2.00520e+03,1.42800e+01,-1.79403e+01,0.00000e+00,0.00000e+00,0.00000e+00
2.00520e+03,1.39556e+01,-1.92217e+01,0.00000e+00,0.00000e+00,0.00000e+00
2.00520e+03,1.35931e+01,-2.05032e+01,0.00000e+00,0.00000e+00,0.00000e+00
2.00520e+03,1.32039e+01,-2.17846e+01,0.00000e+00,0.00000e+00,0.00000e+00
2.00520e+03,1.27550e+01,-2.30661e+01,0.00000e+00,0.00000e+00,0.00000e+00
2.00520e+03,1.22812e+01,-2.43475e+01,0.00000e+00,0.00000e+00,0.00000e+00
2.00520e+03,1.17384e+01,-2.56290e+01,0.00000e+00,0.00000e+00,0.00000e+00
2.00520e+03,1.11403e+01,-2.69104e+01,0.00000e+00,0.00000e+00,0.00000e+00
2.00520e+03,1.04858e+01,-2.81919e+01,0.00000e+00,0.00000e+00,0.00000e+00
2.00520e+03,9.73672e+00,-2.94733e+01,0.00000e+00,0.00000e+00,0.00000e+00
2.00520e+03,8.87814e+00,-3.07548e+01,0.00000e+00,0.00000e+00,0.00000e+00
2.00520e+03,7.89577e+00,-3.20362e+01,0.00000e+00,0.00000e+00,0.00000e+00
2.00520e+03,6.73385e+00,-3.33177e+01,0.00000e+00,0.00000e+00,0.00000e+00
2.00520e+03,5.24243e+00,-3.45991e+01,0.00000e+00,0.00000e+00,0.00000e+00
2.00520e+03,3.22533e+00,-3.58806e+01,0.00000e+00,0.00000e+00,0.00000e+00
2.00520e+03,-1.30688e+00,-3.71620e+01,0.00000e+00,0.00000e+00,0.00000e+00
2.00520e+03,-1.63397e+00,-3.71650e+01,0.00000e+00,0.00000e+00,0.00000e+00
2.00520e+03,-4.61400e+00,-3.58377e+01,0.00000e+00,0.00000e+00,0.00000e+00
2.00520e+03,-4.97481e+00,-3.45104e+01,0.00000e+00,0.00000e+00,0.00000e+00
2.00520e+03,-5.09932e+00,-3.31830e+01,0.00000e+00,0.00000e+00,0.00000e+00
2.00520e+03,-5.11821e+00,-3.18557e+01,0.00000e+00,0.00000e+00,0.00000e+00
2.00520e+03,-5.05754e+00,-3.05284e+01,0.00000e+00,0.00000e+00,0.00000e+00
2.00520e+03,-4.94693e+00,-2.92011e+01,0.00000e+00,0.00000e+00,0.00000e+00
2.00520e+03,-4.78618e+00,-2.78738e+01,0.00000e+00,0.00000e+00,0.00000e+00
2.00520e+03,-4.59485e+00,-2.65464e+01,0.00000e+00,0.00000e+00,0.00000e+00
2.00520e+03,-4.38577e+00,-2.52191e+01,0.00000e+00,0.00000e+00,0.00000e+00
2.00520e+03,-4.14998e+00,-2.38918e+01,0.00000e+00,0.00000e+00,0.00000e+00
2.00520e+03,-3.89748e+00,-2.25645e+01,0.00000e+00,0.00000e+00,0.00000e+00
2.00520e+03,-3.62871e+00,-2.12371e+01,0.00000e+00,0.00000e+00,0.00000e+00
2.00520e+03,-3.34375e+00,-1.99098e+01,0.00000e+00,0.00000e+00,0.00000e+00
2.00520e+03,-3.04862e+00,-1.85825e+01,0.00000e+00,0.00000e+00,0.00000e+00
2.00520e+03,-2.74048e+00,-1.72552e+01,0.00000e+00,0.00000e+00,0.00000e+00
2.00520e+03,-2.42401e+00,-1.59279e+01,0.00000e+00,0.00000e+00,0.00000e+00
2.00520e+03,-2.10007e+00,-1.46005e+01,0.00000e+00,0.00000e+00,0.00000e+00
2.00520e+03,-1.76946e+00,-1.32732e+01,0.00000e+00,0.00000e+00,0.00000e+00
2.00520e+03,-1.43602e+00,-1.19459e+01,0.00000e+00,0.00000e+00,0.00000e+00
2.00520e+03,-1.09820e+00,-1.06186e+01,0.00000e+00,0.00000e+00,0.00000e+00
2.00520e+03,-7.59661e-01,-9.29125e+00,0.00000e+00,0.00000e+00,0.00000e+00
2.00520e+03,-4.18505e-01,-7.96393e+00,0.00000e+00,0.00000e+00,0.00000e+00
2.00520e+03,-7.73829e-02,-6.63661e+00,0.00000e+00,0.00000e+00,0.00000e+00
2.00520e+03,2.62450e-01,-5.30929e+00,0.00000e+00,0.00000e+00,0.00000e+00
2.00520e+03,6.02282e-01,-3.98196e+00,0.00000e+00,0.00000e+00,0.00000e+00
2.00520e+03,9.34067e-01,-2.65464e+00,0.00000e+00,0.00000e+00,0.00000e+00
2.00520e+03,1.26435e+00,-1.32732e+00,0.00000e+00,0.00000e+00,0.00000e+00
2.02480e+03,1.59367e+01,0.00000e+00,0.00000e+00,0.00000e+00,0.00000e+00
2.02480e+03,1.58564e+01,-1.21102e+00,0.00000e+00,0.00000e+00,0.00000e+00
2.02480e+03,1.57496e+01,-2.42204e+00,0.00000e+00,0.00000e+00,0.00000e+00
2.02480e+03,1.56418e+01,-3.63306e+00,0.00000e+00,0.00000e+00,0.00000e+00
2.02480e+03,1.55106e+01,-4.84408e+00,0.00000e+00,0.00000e+00,0.00000e+00
2.02480e+03,1.53739e+01,-6.05509e+00,0.00000e+00,0.00000e+00,0.00000e+00
2.02480e+03,1.52192e+01,-7.26611e+00,0.00000e+00,0.00000e+00,0.00000e+00
2.02480e+03,1.50559e+01,-8.47713e+00,0.00000e+00,0.00000e+00,0.00000e+00
2.02480e+03,1.48781e+01,-9.68815e+00,0.00000e+00,0.00000e+00,0.00000e+00
2.02480e+03,1.46884e+01,-1.08992e+01,0.00000e+00,0.00000e+00,0.00000e+00
2.02480e+03,1.44857e+01,-1.21102e+01,0.00000e+00,0.00000e+00,0.00000e+00
2.02480e+03,1.42672e+01,-1.33212e+01,0.00000e+00,0.00000e+00,0.00000e+00
2.02480e+03,1.40325e+01,-1.45322e+01,0.00000e+00,0.00000e+00,0.00000e+00
2.02480e+03,1.37750e+01,-1.57432e+01,0.00000e+00,0.00000e+00,0.00000e+00
2.02480e+03,1.34951e+01,-1.69543e+01,0.00000e+00,0.00000e+00,0.00000e+00
2.02480e+03,1.31886e+01,-1.81653e+01,0.00000e+00,0.00000e+00,0.00000e+00
2.02480e+03,1.28460e+01,-1.93763e+01,0.00000e+00,0.00000e+00,0.00000e+00
2.02480e+03,1.24782e+01,-2.05873e+01,0.00000e+00,0.00000e+00,0.00000e+00
2.02480e+03,1.20540e+01,-2.17983e+01,0.00000e+00,0.00000e+00,0.00000e+00
2.02480e+03,1.16063e+01,-2.30094e+01,0.00000e+00,0.00000e+00,0.00000e+00
2.02480e+03,1.10933e+01,-2.42204e+01,0.00000e+00,0.00000e+00,0.00000e+00
2.02480e+03,1.05280e+01,-2.54314e+01,0.00000e+00,0.00000e+00,0.00000e+00
2.02480e+03,9.90946e+00,-2.66424e+01,0.00000e+00,0.00000e+00,0.00000e+00
2.02480e+03,9.20158e+00,-2.78534e+01,0.00000e+00,0.00000e+00,0.00000e+00
2.02480e+03,8.39019e+00,-2.90645e+01,0.00000e+00,0.00000e+00,0.00000e+00
2.02480e+03,7.46181e+00,-3.02755e+01,0.00000e+00,0.00000e+00,0.00000e+00
2.02480e+03,6.36374e+00,-3.14865e+01,0.00000e+00,0.00000e+00,0.00000e+00
2.02480e+03,4.95429e+00,-3.26975e+01,0.00000e+00,0.00000e+00,0.00000e+00
2.02480e+03,3.04806e+00,-3.39085e+01,0.00000e+00,0.00000e+00,0.00000e+00
2.02480e+03,-1.23505e+00,-3.51195e+01,0.00000e+00,0.00000e+00,0.00000e+00
2.02480e+03,-1.54416e+00,-3.51224e+01,0.00000e+00,0.00000e+00,0.00000e+00
2.02480e+03,-4.36041e+00,-3.38680e+01,0.00000e+00,0.00000e+00,0.00000e+00
2.02480e+03,-4.70139e+00,-3.26136e+01,0.00000e+00,0.00000e+00,0.00000e+00
2.02480e+03,-4.81905e+00,-3.13592e+01,0.00000e+00,0.00000e+00,0.00000e+00
2.02480e+03,-4.83691e+00,-3.01049e+01,0.00000e+00,0.00000e+00,0.00000e+00
2.02480e+03,-4.77957e+00,-2.88505e+01,0.00000e+00,0.00000e+00,0.00000e+00
2.02480e+03,-4.67504e+00,-2.75961e+01,0.00000e+00,0.00000e+00,0.00000e+00
2.02480e+03,-4.52312e+00,-2.63418e+01,0.00000e+00,0.00000e+00,0.00000e+00
2.02480e+03,-4.34231e+00,-2.50874e+01,0.00000e+00,0.00000e+00,0.00000e+00
2.02480e+03,-4.14473e+00,-2.38330e+01,0.00000e+00,0.00000e+00,0.00000e+00
2.02480e+03,-3.92189e+00,-2.25787e+01,0.00000e+00,0.00000e+00,0.00000e+00
2.02480e+03,-3.68327e+00,-2.13243e+01,0.00000e+00,0.00000e+00,0.00000e+00
2.02480e+03,-3.42927e+00,-2.00699e+01,0.00000e+00,0.00000e+00,0.00000e+00
2.02480e+03,-3.15997e+00,-1.88155e+01,0.00000e+00,0.00000e+00,0.00000e+00
2.02480e+03,-2.88106e+00,-1.75612e+01,0.00000e+00,0.00000e+00,0.00000e+00
2.02480e+03,-2.58986e+00,-1.63068e+01,0.00000e+00,0.00000e+00,0.00000e+00
2.02480e+03,-2.29078e+00,-1.50524e+01,0.00000e+00,0.00000e+00,0.00000e+00
2.02480e+03,-1.98465e+00,-1.37981e+01,0.00000e+00,0.00000e+00,0.00000e+00
2.02480e+03,-1.67220e+00,-1.25437e+01,0.00000e+00,0.00000e+00,0.00000e+00
2.02480e+03,-1.35709e+00,-1.12893e+01,0.00000e+00,0.00000e+00,0.00000e+00
2.02480e+03,-1.03784e+00,-1.00350e+01,0.00000e+00,0.00000e+00,0.00000e+00
2.02480e+03,-7.17909e-01,-8.78059e+00,0.00000e+00,0.00000e+00,0.00000e+00
2.02480e+03,-3.95503e-01,-7.52622e+00,0.00000e+00,0.00000e+00,0.00000e+00
2.02480e+03,-7.31298e-02,-6.27185e+00,0.00000e+00,0.00000e+00,0.00000e+00
2.02480e+03,2.48025e-01,-5.01748e+00,0.00000e+00,0.00000e+00,0.00000e+00
2.02480e+03,5.69180e-01,-3.76311e+00,0.00000e+00,0.00000e+00,0.00000e+00
2.02480e+03,8.82730e-01,-2.50874e+00,0.00000e+00,0.00000e+00,0.00000e+00
2.02480e+03,1.19486e+00,-1.25437e+00,0.00000e+00,0.00000e+00,0.00000e+00
2.03880e+03,1.52746e+01,0.00000e+00,0.00000e+00,0.00000e+00,0.00000e+00
2.03880e+03,1.51977e+01,-1.16071e+00,0.00000e+00,0.00000e+00,0.00000e+00
2.03880e+03,1.50954e+01,-2.32142e+00,0.00000e+00,0.00000e+00,0.00000e+00
2.03880e+03,1.49920e+01,-3.48213e+00,0.00000e+00,0.00000e+00,0.00000e+00
2.03880e+03,1.48662e+01,-4.64285e+00,0.00000e+00,0.00000e+00,0.00000e+00
2.03880e+03,1.47352e+01,-5.80356e+00,0.00000e+00,0.00000e+00,0.00000e+00
2.03880e+03,1.45870e+01,-6.96427e+00,0.00000e+00,0.00000e+00,0.00000e+00
2.03880e+03,1.44304e+01,-8.12498e+00,0.00000e+00,0.00000e+00,0.00000e+00
2.03880e+03,1.42600e+01,-9.28569e+00,0.00000e+00,0.00000e+00,0.00000e+00
2.03880e+03,1.40782e+01,-1.04464e+01,0.00000e+00,0.00000e+00,0.00000e+00
2.03880e+03,1.38839e+01,-1.16071e+01,0.00000e+00,0.00000e+00,0.00000e+00
2.03880e+03,1.36745e+01,-1.27678e+01,0.00000e+00,0.00000e+00,0.00000e+00
2.03880e+03,1.34496e+01,-1.39285e+01,0.00000e+00,0.00000e+00,0.00000e+00
2.03880e+03,1.32028e+01,-1.50892e+01,0.00000e+00,0.00000e+00,0.00000e+00
2.03880e+03,1.29345e+01,-1.62500e+01,0.00000e+00,0.00000e+00,0.00000e+00
2.03880e+03,1.26407e+01,-1.74107e+01,0.00000e+00,0.00000e+00,0.00000e+00
2.03880e+03,1.23123e+01,-1.85714e+01,0.00000e+00,0.00000e+00,0.00000e+00
2.03880e+03,1.19599e+01,-1.97321e+01,0.00000e+00,0.00000e+00,0.00000e+00
2.03880e+03,1.15532e+01,-2.08928e+01,0.00000e+00,0.00000e+00,0.00000e+00
2.03880e+03,1.11241e+01,-2.20535e+01,0.00000e+00,0.00000e+00,0.00000e+00
2.03880e+03,1.06324e+01,-2.32142e+01,0.00000e+00,0.00000e+00,0.00000e+00
2.03880e+03,1.00906e+01,-2.43749e+01,0.00000e+00,0.00000e+00,0.00000e+00
2.03880e+03,9.49781e+00,-2.55357e+01,0.00000e+00,0.00000e+00,0.00000e+00
2.03880e+03,8.81933e+00,-2.66964e+01,0.00000e+00,0.00000e+00,0.00000e+00
2.03880e+03,8.04165e+00,-2.78571e+01,0.00000e+00,0.00000e+00,0.00000e+00
2.03880e+03,7.15183e+00,-2.90178e+01,0.00000e+00,0.00000e+00,0.00000e+00
2.03880e+03,6.09938e+00,-3.01785e+01,0.00000e+00,0.00000e+00,0.00000e+00
2.03880e+03,4.74849e+00,-3.13392e+01,0.00000e+00,0.00000e+00,0.00000e+00
2.03880e+03,2.92144e+00,-3.24999e+01,0.00000e+00,0.00000e+00,0.00000e+00
2.03880e+03,-1.18374e+00,-3.36606e+01,0.00000e+00,0.00000e+00,0.00000e+00
2.03880e+03,-1.48002e+00,-3.36633e+01,0.00000e+00,0.00000e+00,0.00000e+00
2.03880e+03,-4.17927e+00,-3.24611e+01,0.00000e+00,0.00000e+00,0.00000e+00
2.03880e+03,-4.50609e+00,-3.12588e+01,0.00000e+00,0.00000e+00,0.00000e+00
2.03880e+03,-4.61886e+00,-3.00565e+01,0.00000e+00,0.00000e+00,0.00000e+00
2.03880e+03,-4.63598e+00,-2.88543e+01,0.00000e+00,0.00000e+00,0.00000e+00
2.03880e+03,-4.58102e+00,-2.76520e+01,0.00000e+00,0.00000e+00,0.00000e+00
2.03880e+03,-4.48083e+00,-2.64498e+01,0.00000e+00,0.00000e+00,0.00000e+00
2.03880e+03,-4.33523e+00,-2.52475e+01,0.00000e+00,0.00000e+00,0.00000e+00
2.03880e+03,-4.16192e+00,-2.40452e+01,0.00000e+00,0.00000e+00,0.00000e+00
2.03880e+03,-3.97255e+00,-2.28430e+01,0.00000e+00,0.00000e+00,0.00000e+00
2.03880e+03,-3.75897e+00,-2.16407e+01,0.00000e+00,0.00000e+00,0.00000e+00
2.03880e+03,-3.53026e+00,-2.04384e+01,0.00000e+00,0.00000e+00,0.00000e+00
2.03880e+03,-3.28682e+00,-1.92362e+01,0.00000e+00,0.00000e+00,0.00000e+00
2.03880e+03,-3.02870e+00,-1.80339e+01,0.00000e+00,0.00000e+00,0.00000e+00
2.03880e+03,-2.76138e+00,-1.68317e+01,0.00000e+00,0.00000e+00,0.00000e+00
2.03880e+03,-2.48228e+00,-1.56294e+01,0.00000e+00,0.00000e+00,0.00000e+00
2.03880e+03,-2.19562e+00,-1.44271e+01,0.00000e+00,0.00000e+00,0.00000e+00
2.03880e+03,-1.90220e+00,-1.32249e+01,0.00000e+00,0.00000e+00,0.00000e+00
2.03880e+03,-1.60274e+00,-1.20226e+01,0.00000e+00,0.00000e+00,0.00000e+00
2.03880e+03,-1.30072e+00,-1.08204e+01,0.00000e+00,0.00000e+00,0.00000e+00
2.03880e+03,-9.94731e-01,-9.61809e+00,0.00000e+00,0.00000e+00,0.00000e+00
2.03880e+03,-6.88086e-01,-8.41583e+00,0.00000e+00,0.00000e+00,0.00000e+00
2.03880e+03,-3.79073e-01,-7.21357e+00,0.00000e+00,0.00000e+00,0.00000e+00
2.03880e+03,-7.00919e-02,-6.01131e+00,0.00000e+00,0.00000e+00,0.00000e+00
2.03880e+03,2.37722e-01,-4.80905e+00,0.00000e+00,0.00000e+00,0.00000e+00
2.03880e+03,5.45535e-01,-3.60678e+00,0.00000e+00,0.00000e+00,0.00000e+00
2.03880e+03,8.46060e-01,-2.40452e+00,0.00000e+00,0.00000e+00,0.00000e+00
2.03880e+03,1.14523e+00,-1.20226e+00,0.00000e+00,0.00000e+00,0.00000e+00
2.04720e+03,1.48774e+01,0.00000e+00,0.00000e+00,0.00000e+00,0.00000e+00
2.04720e+03,1.48025e+01,-1.13053e+00,0.00000e+00,0.00000e+00,0.00000e+00
2.04720e+03,1.47028e+01,-2.26105e+00,0.00000e+00,0.00000e+00,0.00000e+00
2.04720e+03,1.46021e+01,-3.39158e+00,0.00000e+00,0.00000e+00,0.00000e+00
2.04720e+03,1.44796e+01,-4.52211e+00,0.00000e+00,0.00000e+00,0.00000e+00
2.04720e+03,1.43520e+01,-5.65264e+00,0.00000e+00,0.00000e+00,0.00000e+00
2.04720e+03,1.42077e+01,-6.78316e+00,0.00000e+00,0.00000e+00,0.00000e+00
2.04720e+03,1.40552e+01,-7.91369e+00,0.00000e+00,0.00000e+00,0.00000e+00
2.04720e+03,1.38892e+01,-9.04422e+00,0.00000e+00,0.00000e+00,0.00000e+00
2.04720e+03,1.37121e+01,-1.01747e+01,0.00000e+00,0.00000e+00,0.00000e+00
2.04720e+03,1.35229e+01,-1.13053e+01,0.00000e+00,0.00000e+00,0.00000e+00
2.04720e+03,1.33189e+01,-1.24358e+01,0.00000e+00,0.00000e+00,0.00000e+00
2.04720e+03,1.30998e+01,-1.35663e+01,0.00000e+00,0.00000e+00,0.00000e+00
2.04720e+03,1.28594e+01,-1.46969e+01,0.00000e+00,0.00000e+00,0.00000e+00
2.04720e+03,1.25982e+01,-1.58274e+01,0.00000e+00,0.00000e+00,0.00000e+00
2.04720e+03,1.23120e+01,-1.69579e+01,0.00000e+00,0.00000e+00,0.00000e+00
2.04720e+03,1.19922e+01,-1.80884e+01,0.00000e+00,0.00000e+00,0.00000e+00
2.04720e+03,1.16489e+01,-1.92190e+01,0.00000e+00,0.00000e+00,0.00000e+00
2.04720e+03,1.12528e+01,-2.03495e+01,0.00000e+00,0.00000e+00,0.00000e+00
2.04720e+03,1.08348e+01,-2.14800e+01,0.00000e+00,0.00000e+00,0.00000e+00
2.04720e+03,1.03559e+01,-2.26105e+01,0.00000e+00,0.00000e+00,0.00000e+00
2.04720e+03,9.82823e+00,-2.37411e+01,0.00000e+00,0.00000e+00,0.00000e+00
2.04720e+03,9.25081e+00,-2.48716e+01,0.00000e+00,0.00000e+00,0.00000e+00
2.04720e+03,8.58998e+00,-2.60021e+01,0.00000e+00,0.00000e+00,0.00000e+00
2.04720e+03,7.83252e+00,-2.71326e+01,0.00000e+00,0.00000e+00,0.00000e+00
2.04720e+03,6.96585e+00,-2.82632e+01,0.00000e+00,0.00000e+00,0.00000e+00
2.04720e+03,5.94077e+00,-2.93937e+01,0.00000e+00,0.00000e+00,0.00000e+00
2.04720e+03,4.62500e+00,-3.05242e+01,0.00000e+00,0.00000e+00,0.00000e+00
2.04720e+03,2.84547e+00,-3.16548e+01,0.00000e+00,0.00000e+00,0.00000e+00
2.04720e+03,-1.15296e+00,-3.27853e+01,0.00000e+00,0.00000e+00,0.00000e+00
2.04720e+03,-1.44153e+00,-3.27879e+01,0.00000e+00,0.00000e+00,0.00000e+00
2.04720e+03,-4.07059e+00,-3.16169e+01,0.00000e+00,0.00000e+00,0.00000e+00
2.04720e+03,-4.38891e+00,-3.04459e+01,0.00000e+00,0.00000e+00,0.00000e+00
2.04720e+03,-4.49875e+00,-2.92749e+01,0.00000e+00,0.00000e+00,0.00000e+00
2.04720e+03,-4.51542e+00,-2.81039e+01,0.00000e+00,0.00000e+00,0.00000e+00
2.04720e+03,-4.46189e+00,-2.69329e+01,0.00000e+00,0.00000e+00,0.00000e+00
2.04720e+03,-4.36430e+00,-2.57619e+01,0.00000e+00,0.00000e+00,0.00000e+00
2.04720e+03,-4.22249e+00,-2.45909e+01,0.00000e+00,0.00000e+00,0.00000e+00
2.04720e+03,-4.05369e+00,-2.34199e+01,0.00000e+00,0.00000e+00,0.00000e+00
2.04720e+03,-3.86924e+00,-2.22489e+01,0.00000e+00,0.00000e+00,0.00000e+00
2.04720e+03,-3.66121e+00,-2.10779e+01,0.00000e+00,0.00000e+00,0.00000e+00
2.04720e+03,-3.43845e+00,-1.99069e+01,0.00000e+00,0.00000e+00,0.00000e+00
2.04720e+03,-3.20134e+00,-1.87359e+01,0.00000e+00,0.00000e+00,0.00000e+00
2.04720e+03,-2.94994e+00,-1.75649e+01,0.00000e+00,0.00000e+00,0.00000e+00
2.04720e+03,-2.68957e+00,-1.63940e+01,0.00000e+00,0.00000e+00,0.00000e+00
2.04720e+03,-2.41772e+00,-1.52230e+01,0.00000e+00,0.00000e+00,0.00000e+00
2.04720e+03,-2.13852e+00,-1.40520e+01,0.00000e+00,0.00000e+00,0.00000e+00
2.04720e+03,-1.85273e+00,-1.28810e+01,0.00000e+00,0.00000e+00,0.00000e+00
2.04720e+03,-1.56106e+00,-1.17100e+01,0.00000e+00,0.00000e+00,0.00000e+00
2.04720e+03,-1.26689e+00,-1.05390e+01,0.00000e+00,0.00000e+00,0.00000e+00
2.04720e+03,-9.68863e-01,-9.36797e+00,0.00000e+00,0.00000e+00,0.00000e+00
2.04720e+03,-6.70192e-01,-8.19698e+00,0.00000e+00,0.00000e+00,0.00000e+00
2.04720e+03,-3.69215e-01,-7.02598e+00,0.00000e+00,0.00000e+00,0.00000e+00
2.04720e+03,-6.82691e-02,-5.85498e+00,0.00000e+00,0.00000e+00,0.00000e+00
2.04720e+03,2.31540e-01,-4.68399e+00,0.00000e+00,0.00000e+00,0.00000e+00
2.04720e+03,5.31348e-01,-3.51299e+00,0.00000e+00,0.00000e+00,0.00000e+00
2.04720e+03,8.24058e-01,-2.34199e+00,0.00000e+00,0.00000e+00,0.00000e+00
2.04720e+03,1.11544e+00,-1.17100e+00,0.00000e+00,0.00000e+00,0.00000e+00
2.05000e+03,1.47450e+01,0.00000e+00,0.00000e+00,0.00000e+00,0.00000e+00
2.05000e+03,1.46708e+01,-1.12047e+00,0.00000e+00,0.00000e+00,0.00000e+00
2.05000e+03,1.45720e+01,-2.24093e+00,0.00000e+00,0.00000e+00,0.00000e+00
2.05000e+03,1.44722e+01,-3.36140e+00,0.00000e+00,0.00000e+00,0.00000e+00
2.05000e+03,1.43508e+01,-4.48186e+00,0.00000e+00,0.00000e+00,0.00000e+00
2.05000e+03,1.42243e+01,-5.60233e+00,0.00000e+00,0.00000e+00,0.00000e+00
2.05000e+03,1.40812e+01,-6.72279e+00,0.00000e+00,0.00000e+00,0.00000e+00
2.05000e+03,1.39301e+01,-7.84326e+00,0.00000e+00,0.00000e+00,0.00000e+00
2.05000e+03,1.37656e+01,-8.96372e+00,0.00000e+00,0.00000e+00,0.00000e+00
2.05000e+03,1.35901e+01,-1.00842e+01,0.00000e+00,0.00000e+00,0.00000e+00
2.05000e+03,1.34025e+01,-1.12047e+01,0.00000e+00,0.00000e+00,0.00000e+00
2.05000e+03,1.32004e+01,-1.23251e+01,0.00000e+00,0.00000e+00,0.00000e+00
2.05000e+03,1.29833e+01,-1.34456e+01,0.00000e+00,0.00000e+00,0.00000e+00
2.05000e+03,1.27450e+01,-1.45661e+01,0.00000e+00,0.00000e+00,0.00000e+00
2.05000e+03,1.24860e+01,-1.56865e+01,0.00000e+00,0.00000e+00,0.00000e+00
2.05000e+03,1.22024e+01,-1.68070e+01,0.00000e+00,0.00000e+00,0.00000e+00
2.05000e+03,1.18854e+01,-1.79274e+01,0.00000e+00,0.00000e+00,0.00000e+00
2.05000e+03,1.15452e+01,-1.90479e+01,0.00000e+00,0.00000e+00,0.00000e+00
2.05000e+03,1.11526e+01,-2.01684e+01,0.00000e+00,0.00000e+00,0.00000e+00
2.05000e+03,1.07384e+01,-2.12888e+01,0.00000e+00,0.00000e+00,0.00000e+00
2.05000e+03,1.02638e+01,-2.24093e+01,0.00000e+00,0.00000e+00,0.00000e+00
2.05000e+03,9.74076e+00,-2.35298e+01,0.00000e+00,0.00000e+00,0.00000e+00
2.05000e+03,9.16848e+00,-2.46502e+01,0.00000e+00,0.00000e+00,0.00000e+00
2.05000e+03,8.51353e+00,-2.57707e+01,0.00000e+00,0.00000e+00,0.00000e+00
2.05000e+03,7.76281e+00,-2.68912e+01,0.00000e+00,0.00000e+00,0.00000e+00
2.05000e+03,6.90385e+00,-2.80116e+01,0.00000e+00,0.00000e+00,0.00000e+00
2.05000e+03,5.88790e+00,-2.91321e+01,0.00000e+00,0.00000e+00,0.00000e+00
2.05000e+03,4.58384e+00,-3.02526e+01,0.00000e+00,0.00000e+00,0.00000e+00
2.05000e+03,2.82014e+00,-3.13730e+01,0.00000e+00,0.00000e+00,0.00000e+00
2.05000e+03,-1.14270e+00,-3.24935e+01,0.00000e+00,0.00000e+00,0.00000e+00
2.05000e+03,-1.42870e+00,-3.24961e+01,0.00000e+00,0.00000e+00,0.00000e+00
2.05000e+03,-4.03436e+00,-3.13355e+01,0.00000e+00,0.00000e+00,0.00000e+00
2.05000e+03,-4.34985e+00,-3.01749e+01,0.00000e+00,0.00000e+00,0.00000e+00
2.05000e+03,-4.45871e+00,-2.90144e+01,0.00000e+00,0.00000e+00,0.00000e+00
2.05000e+03,-4.47523e+00,-2.78538e+01,0.00000e+00,0.00000e+00,0.00000e+00
2.05000e+03,-4.42218e+00,-2.66932e+01,0.00000e+00,0.00000e+00,0.00000e+00
2.05000e+03,-4.32546e+00,-2.55327e+01,0.00000e+00,0.00000e+00,0.00000e+00
2.05000e+03,-4.18491e+00,-2.43721e+01,0.00000e+00,0.00000e+00,0.00000e+00
2.05000e+03,-4.01761e+00,-2.32115e+01,0.00000e+00,0.00000e+00,0.00000e+00
2.05000e+03,-3.83480e+00,-2.20509e+01,0.00000e+00,0.00000e+00,0.00000e+00
2.05000e+03,-3.62863e+00,-2.08903e+01,0.00000e+00,0.00000e+00,0.00000e+00
2.05000e+03,-3.40785e+00,-1.97298e+01,0.00000e+00,0.00000e+00,0.00000e+00
2.05000e+03,-3.17285e+00,-1.85692e+01,0.00000e+00,0.00000e+00,0.00000e+00
2.05000e+03,-2.92368e+00,-1.74086e+01,0.00000e+00,0.00000e+00,0.00000e+00
2.05000e+03,-2.66563e+00,-1.62480e+01,0.00000e+00,0.00000e+00,0.00000e+00
2.05000e+03,-2.39621e+00,-1.50875e+01,0.00000e+00,0.00000e+00,0.00000e+00
2.05000e+03,-2.11949e+00,-1.39269e+01,0.00000e+00,0.00000e+00,0.00000e+00
2.05000e+03,-1.83624e+00,-1.27663e+01,0.00000e+00,0.00000e+00,0.00000e+00
2.05000e+03,-1.54717e+00,-1.16057e+01,0.00000e+00,0.00000e+00,0.00000e+00
2.05000e+03,-1.25562e+00,-1.04452e+01,0.00000e+00,0.00000e+00,0.00000e+00
2.05000e+03,-9.60241e-01,-9.28460e+00,0.00000e+00,0.00000e+00,0.00000e+00
2.05000e+03,-6.64227e-01,-8.12402e+00,0.00000e+00,0.00000e+00,0.00000e+00
2.05000e+03,-3.65929e-01,-6.96345e+00,0.00000e+00,0.00000e+00,0.00000e+00
2.05000e+03,-6.76615e-02,-5.80287e+00,0.00000e+00,0.00000e+00,0.00000e+00
2.05000e+03,2.29479e-01,-4.64230e+00,0.00000e+00,0.00000e+00,0.00000e+00
2.05000e+03,5.26620e-01,-3.48173e+00,0.00000e+00,0.00000e+00,0.00000e+00
2.05000e+03,8.16724e-01,-2.32115e+00,0.00000e+00,0.00000e+00,0.00000e+00
2.05000e+03,1.10552e+00,-1.16058e+00,0.00000e+00,0.00000e+00,0.00000e+00
--------------------------------------------------------------------------------------------------------------------------------------------------------------------------------------------------------------------------------------------------------------------------------------------------------------------------------------------------------------------------------

ALMA 
--------------------------------------------------------------------------------------------------------------------------------------------------------------------------------------------------------------------------------------------------------------------------------------------------------------------------------------------------------------------------------
X,Y,Z,Sigma,Tau,Von Mises
0.00000e+00,4.05613e+00,0.00000e+00,1.15217e-01,4.66980e-01,8.16999e-01
0.00000e+00,1.70710e+01,0.00000e+00,4.64790e-02,4.67431e-01,8.10947e-01
0.00000e+00,3.00859e+01,0.00000e+00,-2.22588e-02,4.67431e-01,8.09920e-01
0.00000e+00,4.31008e+01,0.00000e+00,-9.09966e-02,4.66990e-01,8.13952e-01
1.07300e+02,4.01639e+00,0.00000e+00,1.03422e-01,4.42900e-01,7.74065e-01
1.07300e+02,1.69038e+01,0.00000e+00,4.17234e-02,4.43323e-01,7.68991e-01
1.07300e+02,2.97912e+01,0.00000e+00,-1.99756e-02,4.43323e-01,7.68118e-01
1.07300e+02,4.26785e+01,0.00000e+00,-8.16746e-02,4.42908e-01,7.71476e-01
2.14300e+02,3.97676e+00,0.00000e+00,9.22122e-02,4.18739e-01,7.31115e-01
2.14300e+02,1.67370e+01,0.00000e+00,3.72049e-02,4.19136e-01,7.26917e-01
2.14300e+02,2.94972e+01,0.00000e+00,-1.78024e-02,4.19136e-01,7.26183e-01
2.14300e+02,4.22575e+01,0.00000e+00,-7.28097e-02,4.18747e-01,7.28936e-01
3.20700e+02,3.93736e+00,0.00000e+00,8.16256e-02,3.94050e-01,6.87379e-01
3.20700e+02,1.65712e+01,0.00000e+00,3.29389e-02,3.94421e-01,6.83951e-01
3.20700e+02,2.92050e+01,0.00000e+00,-1.57477e-02,3.94421e-01,6.83339e-01
3.20700e+02,4.18388e+01,0.00000e+00,-6.44344e-02,3.94058e-01,6.85563e-01
4.26200e+02,3.89829e+00,0.00000e+00,7.17004e-02,3.69228e-01,6.43528e-01
4.26200e+02,1.64067e+01,0.00000e+00,2.89401e-02,3.69572e-01,6.40771e-01
4.26200e+02,2.89151e+01,0.00000e+00,-1.38202e-02,3.69572e-01,6.40267e-01
4.26200e+02,4.14236e+01,0.00000e+00,-5.65805e-02,3.69234e-01,6.42031e-01
5.30600e+02,3.85963e+00,0.00000e+00,6.24524e-02,3.44323e-01,5.99647e-01
5.30600e+02,1.62440e+01,0.00000e+00,2.52145e-02,3.44642e-01,5.97470e-01
5.30600e+02,2.86284e+01,0.00000e+00,-1.20233e-02,3.44642e-01,5.97059e-01
5.30600e+02,4.10127e+01,0.00000e+00,-4.92611e-02,3.44330e-01,5.98428e-01
6.33500e+02,3.82152e+00,0.00000e+00,5.39089e-02,3.19444e-01,5.55913e-01
6.33500e+02,1.60836e+01,0.00000e+00,2.17730e-02,3.19737e-01,5.54229e-01
6.33500e+02,2.83457e+01,0.00000e+00,-1.03629e-02,3.19737e-01,5.53898e-01
6.33500e+02,4.06078e+01,0.00000e+00,-4.24988e-02,3.19450e-01,5.54933e-01
7.34700e+02,3.78404e+00,0.00000e+00,4.60740e-02,2.94636e-01,5.12400e-01
7.34700e+02,1.59259e+01,0.00000e+00,1.86169e-02,2.94905e-01,5.11129e-01
7.34700e+02,2.80677e+01,0.00000e+00,-8.84030e-03,2.94905e-01,5.10866e-01
7.34700e+02,4.02095e+01,0.00000e+00,-3.62974e-02,2.94641e-01,5.11623e-01
8.33800e+02,3.74734e+00,0.00000e+00,3.89601e-02,2.70038e-01,4.69339e-01
8.33800e+02,1.57714e+01,0.00000e+00,1.57509e-02,2.70282e-01,4.68407e-01
8.33800e+02,2.77955e+01,0.00000e+00,-7.45824e-03,2.70282e-01,4.68202e-01
8.33800e+02,3.98196e+01,0.00000e+00,-3.06674e-02,2.70042e-01,4.68731e-01
9.30700e+02,3.71145e+00,0.00000e+00,3.25505e-02,2.45670e-01,4.26756e-01
9.30700e+02,1.56204e+01,0.00000e+00,1.31684e-02,2.45891e-01,4.26099e-01
9.30700e+02,2.75293e+01,0.00000e+00,-6.21376e-03,2.45891e-01,4.25941e-01
9.30700e+02,3.94382e+01,0.00000e+00,-2.55959e-02,2.45674e-01,4.26289e-01
1.02500e+03,3.67653e+00,0.00000e+00,2.68393e-02,2.21870e-01,3.85226e-01
1.02500e+03,1.54734e+01,0.00000e+00,1.08669e-02,2.22069e-01,3.84788e-01
1.02500e+03,2.72703e+01,0.00000e+00,-5.10551e-03,2.22069e-01,3.84669e-01
1.02500e+03,3.90671e+01,0.00000e+00,-2.10779e-02,2.21874e-01,3.84874e-01
1.11650e+03,3.64264e+00,0.00000e+00,2.18044e-02,1.98301e-01,3.44158e-01
1.11650e+03,1.53308e+01,0.00000e+00,8.83756e-03,1.98478e-01,3.43887e-01
1.11650e+03,2.70189e+01,0.00000e+00,-4.12924e-03,1.98478e-01,3.43798e-01
1.11650e+03,3.87070e+01,0.00000e+00,-1.70960e-02,1.98304e-01,3.43898e-01
1.20500e+03,3.54704e+00,0.00000e+00,2.50533e-02,1.77959e-01,3.09250e-01
1.20500e+03,1.49284e+01,0.00000e+00,1.02568e-02,1.78180e-01,3.08787e-01
1.20500e+03,2.63098e+01,0.00000e+00,-4.53980e-03,1.78180e-01,3.08650e-01
1.20500e+03,3.76912e+01,0.00000e+00,-1.93364e-02,1.77965e-01,3.08850e-01
1.29010e+03,3.41832e+00,0.00000e+00,2.03149e-02,1.62140e-01,2.81568e-01
1.29010e+03,1.43867e+01,0.00000e+00,8.32475e-03,1.62334e-01,2.81294e-01
1.29010e+03,2.53550e+01,0.00000e+00,-3.66542e-03,1.62334e-01,2.81195e-01
1.29010e+03,3.63234e+01,0.00000e+00,-1.56556e-02,1.62145e-01,2.81279e-01
1.37170e+03,3.29489e+00,0.00000e+00,1.61148e-02,1.45852e-01,2.53137e-01
1.37170e+03,1.38672e+01,0.00000e+00,6.61310e-03,1.46021e-01,2.53002e-01
1.37170e+03,2.44395e+01,0.00000e+00,-2.88863e-03,1.46021e-01,2.52932e-01
1.37170e+03,3.50118e+01,0.00000e+00,-1.23904e-02,1.45857e-01,2.52935e-01
1.44960e+03,3.17706e+00,0.00000e+00,1.24586e-02,1.29337e-01,2.24365e-01
1.44960e+03,1.33713e+01,0.00000e+00,5.12308e-03,1.29482e-01,2.24327e-01
1.44960e+03,2.35655e+01,0.00000e+00,-2.21244e-03,1.29482e-01,2.24280e-01
1.44960e+03,3.37597e+01,0.00000e+00,-9.54797e-03,1.29341e-01,2.24228e-01
1.52340e+03,3.06543e+00,0.00000e+00,9.35534e-03,1.12309e-01,1.94750e-01
1.52340e+03,1.29015e+01,0.00000e+00,3.85765e-03,1.12430e-01,1.94773e-01
1.52340e+03,2.27375e+01,0.00000e+00,-1.64004e-03,1.12430e-01,1.94742e-01
1.52340e+03,3.25736e+01,0.00000e+00,-7.13773e-03,1.12312e-01,1.94661e-01
1.59310e+03,2.96000e+00,0.00000e+00,6.78875e-03,9.52443e-02,1.65108e-01
1.59310e+03,1.24578e+01,0.00000e+00,2.80955e-03,9.53432e-02,1.65163e-01
1.59310e+03,2.19555e+01,0.00000e+00,-1.16966e-03,9.53432e-02,1.65143e-01
1.59310e+03,3.14533e+01,0.00000e+00,-5.14886e-03,9.52465e-02,1.65052e-01
1.65850e+03,2.86108e+00,0.00000e+00,4.73508e-03,7.84178e-02,1.35906e-01
1.65850e+03,1.20414e+01,0.00000e+00,1.96879e-03,7.84964e-02,1.35974e-01
1.65850e+03,2.12218e+01,0.00000e+00,-7.97500e-04,7.84964e-02,1.35962e-01
1.65850e+03,3.04021e+01,0.00000e+00,-3.56379e-03,7.84195e-02,1.35873e-01
1.71930e+03,2.76911e+00,0.00000e+00,3.16108e-03,6.20142e-02,1.07458e-01
1.71930e+03,1.16544e+01,0.00000e+00,1.32205e-03,6.20743e-02,1.07524e-01
1.71930e+03,2.05396e+01,0.00000e+00,-5.16969e-04,6.20743e-02,1.07517e-01
1.71930e+03,2.94249e+01,0.00000e+00,-2.35599e-03,6.20155e-02,1.07440e-01
1.77540e+03,2.60964e+00,0.00000e+00,3.66897e-03,7.93792e-02,1.37538e-01
1.77540e+03,1.09832e+01,0.00000e+00,1.57856e-03,7.94567e-02,1.37632e-01
1.77540e+03,1.93567e+01,0.00000e+00,-5.11842e-04,7.94567e-02,1.37624e-01
1.77540e+03,2.77303e+01,0.00000e+00,-2.60225e-03,7.93822e-02,1.37519e-01
1.82660e+03,2.38179e+00,0.00000e+00,2.40755e-03,6.27655e-02,1.08740e-01
1.82660e+03,1.00242e+01,0.00000e+00,1.04377e-03,6.28210e-02,1.08814e-01
1.82660e+03,1.76667e+01,0.00000e+00,-3.20002e-04,6.28210e-02,1.08810e-01
1.82660e+03,2.53092e+01,0.00000e+00,-1.68378e-03,6.27674e-02,1.08729e-01
1.87280e+03,2.17619e+00,0.00000e+00,1.49221e-03,4.82400e-02,8.35674e-02
1.87280e+03,9.15894e+00,0.00000e+00,6.53994e-04,4.82782e-02,8.36228e-02
1.87280e+03,1.61417e+01,0.00000e+00,-1.84226e-04,4.82782e-02,8.36205e-02
1.87280e+03,2.31244e+01,0.00000e+00,-1.02245e-03,4.82412e-02,8.35625e-02
1.91380e+03,1.99374e+00,0.00000e+00,8.61670e-04,3.58106e-02,6.20318e-02
1.91380e+03,8.39104e+00,0.00000e+00,3.83078e-04,3.58359e-02,6.20707e-02
1.91380e+03,1.47883e+01,0.00000e+00,-9.55150e-05,3.58359e-02,6.20696e-02
1.91380e+03,2.11856e+01,0.00000e+00,-5.74108e-04,3.58114e-02,6.20298e-02
1.94970e+03,1.83398e+00,0.00000e+00,4.51743e-04,2.53157e-02,4.38504e-02
1.94970e+03,7.71865e+00,0.00000e+00,2.04598e-04,2.53314e-02,4.38757e-02
1.94970e+03,1.36033e+01,0.00000e+00,-4.25463e-05,2.53314e-02,4.38753e-02
1.94970e+03,1.94880e+01,0.00000e+00,-2.89691e-04,2.53161e-02,4.38498e-02
1.98010e+03,1.69869e+00,0.00000e+00,2.09008e-04,1.67733e-02,2.90530e-02
1.98010e+03,7.14927e+00,0.00000e+00,9.69603e-05,1.67824e-02,2.90681e-02
1.98010e+03,1.25999e+01,0.00000e+00,-1.50875e-05,1.67824e-02,2.90680e-02
1.98010e+03,1.80504e+01,0.00000e+00,-1.27135e-04,1.67735e-02,2.90529e-02
2.00520e+03,1.58699e+00,0.00000e+00,8.01341e-05,1.00524e-02,1.74114e-02
2.00520e+03,6.67917e+00,0.00000e+00,3.83834e-05,1.00571e-02,1.74194e-02
2.00520e+03,1.17713e+01,0.00000e+00,-3.36729e-06,1.00571e-02,1.74193e-02
2.00520e+03,1.68635e+01,0.00000e+00,-4.51180e-05,1.00525e-02,1.74114e-02
2.02480e+03,1.49977e+00,0.00000e+00,2.31198e-05,5.14469e-03,8.91090e-03
2.02480e+03,6.31207e+00,0.00000e+00,1.15798e-05,5.14672e-03,8.91438e-03
2.02480e+03,1.11244e+01,0.00000e+00,3.97907e-08,5.14672e-03,8.91437e-03
2.02480e+03,1.59367e+01,0.00000e+00,-1.15002e-05,5.14474e-03,8.91096e-03
2.03880e+03,1.43746e+00,0.00000e+00,4.23652e-06,1.99075e-03,3.44808e-03
2.03880e+03,6.04986e+00,0.00000e+00,2.27242e-06,1.99136e-03,3.44914e-03
2.03880e+03,1.06622e+01,0.00000e+00,3.08315e-07,1.99136e-03,3.44914e-03
2.03880e+03,1.52746e+01,0.00000e+00,-1.65579e-06,1.99076e-03,3.44810e-03
2.04720e+03,1.40008e+00,0.00000e+00,5.71492e-07,3.94430e-04,6.83173e-04
2.04720e+03,5.89253e+00,0.00000e+00,3.36224e-07,3.94502e-04,6.83298e-04
2.04720e+03,1.03850e+01,0.00000e+00,1.00955e-07,3.94502e-04,6.83298e-04
2.04720e+03,1.48774e+01,0.00000e+00,-1.34314e-07,3.94432e-04,6.83175e-04
2.05000e+03,1.38762e+00,0.00000e+00,0.00000e+00,0.00000e+00,0.00000e+00
2.05000e+03,5.84009e+00,0.00000e+00,0.00000e+00,0.00000e+00,0.00000e+00
2.05000e+03,1.02925e+01,0.00000e+00,0.00000e+00,0.00000e+00,0.00000e+00
2.05000e+03,1.47450e+01,0.00000e+00,0.00000e+00,0.00000e+00,0.00000e+00
MESA INFERIOR 
--------------------------------------------------------------------------------------------------------------------------------------------------------------------------------------------------------------------------------------------------------------------------------------------------------------------------------------------------------------------------------
X,Y,Z,Sigma,Von Mises
0.00000e+00,4.05613e+00,0.00000e+00,0.00000e+00,0.00000e+00
1.07300e+02,4.01639e+00,0.00000e+00,0.00000e+00,0.00000e+00
2.14300e+02,3.97676e+00,0.00000e+00,0.00000e+00,0.00000e+00
3.20700e+02,3.93736e+00,0.00000e+00,0.00000e+00,0.00000e+00
4.26200e+02,3.89829e+00,0.00000e+00,0.00000e+00,0.00000e+00
5.30600e+02,3.85963e+00,0.00000e+00,0.00000e+00,0.00000e+00
6.33500e+02,3.82152e+00,0.00000e+00,0.00000e+00,0.00000e+00
7.34700e+02,3.78404e+00,0.00000e+00,0.00000e+00,0.00000e+00
8.33800e+02,3.74734e+00,0.00000e+00,0.00000e+00,0.00000e+00
9.30700e+02,3.71145e+00,0.00000e+00,0.00000e+00,0.00000e+00
1.02500e+03,3.67653e+00,0.00000e+00,0.00000e+00,0.00000e+00
1.11650e+03,3.64264e+00,0.00000e+00,0.00000e+00,0.00000e+00
1.20500e+03,3.54704e+00,0.00000e+00,0.00000e+00,0.00000e+00
1.29010e+03,3.41832e+00,0.00000e+00,0.00000e+00,0.00000e+00
1.37170e+03,3.29489e+00,0.00000e+00,0.00000e+00,0.00000e+00
1.44960e+03,3.17706e+00,0.00000e+00,0.00000e+00,0.00000e+00
1.52340e+03,3.06543e+00,0.00000e+00,0.00000e+00,0.00000e+00
1.59310e+03,2.96000e+00,0.00000e+00,0.00000e+00,0.00000e+00
1.65850e+03,2.86108e+00,0.00000e+00,0.00000e+00,0.00000e+00
1.71930e+03,2.76911e+00,0.00000e+00,0.00000e+00,0.00000e+00
1.77540e+03,2.60964e+00,0.00000e+00,0.00000e+00,0.00000e+00
1.82660e+03,2.38179e+00,0.00000e+00,0.00000e+00,0.00000e+00
1.87280e+03,2.17619e+00,0.00000e+00,0.00000e+00,0.00000e+00
1.91380e+03,1.99374e+00,0.00000e+00,0.00000e+00,0.00000e+00
1.94970e+03,1.83398e+00,0.00000e+00,0.00000e+00,0.00000e+00
1.98010e+03,1.69869e+00,0.00000e+00,0.00000e+00,0.00000e+00
2.00520e+03,1.58699e+00,0.00000e+00,0.00000e+00,0.00000e+00
2.02480e+03,1.49977e+00,0.00000e+00,0.00000e+00,0.00000e+00
2.03880e+03,1.43746e+00,0.00000e+00,0.00000e+00,0.00000e+00
2.04720e+03,1.40008e+00,0.00000e+00,0.00000e+00,0.00000e+00
2.05000e+03,1.38762e+00,0.00000e+00,0.00000e+00,0.00000e+00
--------------------------------------------------------------------------------------------------------------------------------------------------------------------------------------------------------------------------------------------------------------------------------------------------------------------------------------------------------------------------------

MESA SUPERIOR 
--------------------------------------------------------------------------------------------------------------------------------------------------------------------------------------------------------------------------------------------------------------------------------------------------------------------------------------------------------------------------------
X,Y,Z,Sigma,Von Mises
0.00000e+00,4.31008e+01,0.00000e+00,0.00000e+00,0.00000e+00
1.07300e+02,4.26785e+01,0.00000e+00,0.00000e+00,0.00000e+00
2.14300e+02,4.22575e+01,0.00000e+00,0.00000e+00,0.00000e+00
3.20700e+02,4.18388e+01,0.00000e+00,0.00000e+00,0.00000e+00
4.26200e+02,4.14236e+01,0.00000e+00,0.00000e+00,0.00000e+00
5.30600e+02,4.10127e+01,0.00000e+00,0.00000e+00,0.00000e+00
6.33500e+02,4.06078e+01,0.00000e+00,0.00000e+00,0.00000e+00
7.34700e+02,4.02095e+01,0.00000e+00,0.00000e+00,0.00000e+00
8.33800e+02,3.98196e+01,0.00000e+00,0.00000e+00,0.00000e+00
9.30700e+02,3.94382e+01,0.00000e+00,0.00000e+00,0.00000e+00
1.02500e+03,3.90671e+01,0.00000e+00,0.00000e+00,0.00000e+00
1.11650e+03,3.87070e+01,0.00000e+00,0.00000e+00,0.00000e+00
1.20500e+03,3.76912e+01,0.00000e+00,0.00000e+00,0.00000e+00
1.29010e+03,3.63234e+01,0.00000e+00,0.00000e+00,0.00000e+00
1.37170e+03,3.50118e+01,0.00000e+00,0.00000e+00,0.00000e+00
1.44960e+03,3.37597e+01,0.00000e+00,0.00000e+00,0.00000e+00
1.52340e+03,3.25736e+01,0.00000e+00,0.00000e+00,0.00000e+00
1.59310e+03,3.14533e+01,0.00000e+00,0.00000e+00,0.00000e+00
1.65850e+03,3.04021e+01,0.00000e+00,0.00000e+00,0.00000e+00
1.71930e+03,2.94249e+01,0.00000e+00,0.00000e+00,0.00000e+00
1.77540e+03,2.77303e+01,0.00000e+00,0.00000e+00,0.00000e+00
1.82660e+03,2.53092e+01,0.00000e+00,0.00000e+00,0.00000e+00
1.87280e+03,2.31244e+01,0.00000e+00,0.00000e+00,0.00000e+00
1.91380e+03,2.11856e+01,0.00000e+00,0.00000e+00,0.00000e+00
1.94970e+03,1.94880e+01,0.00000e+00,0.00000e+00,0.00000e+00
1.98010e+03,1.80504e+01,0.00000e+00,0.00000e+00,0.00000e+00
2.00520e+03,1.68635e+01,0.00000e+00,0.00000e+00,0.00000e+00
2.02480e+03,1.59367e+01,0.00000e+00,0.00000e+00,0.00000e+00
2.03880e+03,1.52746e+01,0.00000e+00,0.00000e+00,0.00000e+00
2.04720e+03,1.48774e+01,0.00000e+00,0.00000e+00,0.00000e+00
2.05000e+03,1.47450e+01,0.00000e+00,0.00000e+00,0.00000e+00
--------------------------------------------------------------------------------------------------------------------------------------------------------------------------------------------------------------------------------------------------------------------------------------------------------------------------------------------------------------------------------

