----------------------------------------------
LOG MATLAB Estruturas Copyright Charles 2020
----------------------------------------------

VISÃO GERAL POR SEÇÃO
--------------------------------------------------------------------------------------------------------------------------------------------------------------------------------------------------------------------------------------------------------------------------------------------------------------------------------------------------------------------------------
SEÇÃO,POSIÇÃO .25c,, ESFORÇOS,,,,,INÉRCIAS,,,,CENTROS GEOMÉTRICOS,,,DEFLEXÇOES,,,,,TENSÕES NORMAIS,,,,,,,,TENSÕES CISALHAMENTO,,,TENSÕES DE VON MISES
NUMERO,X,Y,MFz,MFy,MTx,Vz,Vy,EIzz,EIyy,EIzy,GJ,Zcg,Ycg,Zcc,Z,Y,Z´,Y´,Theta,Sigma_Chap+,Sigma_Chap-,Sigma_Lam+,Sigma_Lam-,Sigma_Mesa+,Sigma_Mesa-,Sigma_Alma+,Sigma_Alma-,  Tau_Alma,  Tau_Chap,  Tau_Lam, Von Mises_Alma,  Von Mises_Chap,  Von Mises_Lam
--------------------------------------------------------------------------------------------------------------------------------------------------------------------------------------------------------------------------------------------------------------------------------------------------------------------------------------------------------------------------------
01,0.00000e+00,0.00000e+00,2.68965e+05,-3.81033e+04,-1.18198e+04,-4.41156e+01,2.96180e+02,2.43720e+09,3.02407e+09,6.88619e+08,3.64269e+07,8.66395e+01,2.17434e+01,7.43235e+01,0.00000e+00,0.00000e+00,0.00000e+00,0.00000e+00,0.00000e+00,4.55625e+00,-3.55708e+00,0.00000e+00,0.00000e+00,1.78848e+02,-1.95215e+02,2.23736e-01,-2.44211e-01,8.83524e-01,8.09799e-01,0.00000e+00,1.54772e+00,4.64215e+00,0.00000e+00
02,1.07300e+02,0.00000e+00,2.38181e+05,-3.35223e+04,-1.09868e+04,-4.12711e+01,2.77617e+02,2.38487e+09,2.93941e+09,6.69313e+08,3.54008e+07,8.58583e+01,2.15452e+01,7.36225e+01,-2.21058e-01,6.67369e-01,-4.12037e-03,1.24393e-02,-3.40588e-02,4.08352e+00,-3.18562e+00,0.00000e+00,0.00000e+00,1.60285e+02,-1.74835e+02,2.00513e-01,-2.18716e-01,8.36838e-01,7.65134e-01,0.00000e+00,1.46402e+00,4.16981e+00,0.00000e+00
03,2.14300e+02,0.00000e+00,2.09450e+05,-2.92591e+04,-1.01776e+04,-3.84155e+01,2.59405e+02,2.33333e+09,2.85653e+09,6.50412e+08,3.43936e+07,8.50782e+01,2.13473e+01,7.29231e+01,-8.60112e-01,2.59660e+00,-7.82457e-03,2.36211e-02,-6.64943e-02,3.63379e+00,-2.83346e+00,0.00000e+00,0.00000e+00,1.42667e+02,-1.55501e+02,1.78474e-01,-1.94529e-01,7.90166e-01,7.20610e-01,0.00000e+00,1.38064e+00,3.72053e+00,0.00000e+00
04,3.20700e+02,0.00000e+00,1.82820e+05,-2.53268e+04,-9.38955e+03,-3.54989e+01,2.41156e+02,2.28273e+09,2.77562e+09,6.31961e+08,3.34227e+07,8.43013e+01,2.11503e+01,7.22271e+01,-1.86801e+00,5.63934e+00,-1.11209e-02,3.35732e-02,-9.71826e-02,3.20909e+00,-2.50180e+00,0.00000e+00,0.00000e+00,1.26058e+02,-1.37284e+02,1.57696e-01,-1.71740e-01,7.42480e-01,6.75736e-01,0.00000e+00,1.29583e+00,3.29625e+00,0.00000e+00
05,4.26200e+02,0.00000e+00,1.58326e+05,-2.17343e+04,-8.62310e+03,-3.26061e+01,2.23192e+02,2.23318e+09,2.69686e+09,6.14002e+08,3.24767e+07,8.35299e+01,2.09548e+01,7.15366e+01,-3.19435e+00,9.64367e+00,-1.40230e-02,4.23385e-02,-1.26008e-01,2.81129e+00,-2.19180e+00,0.00000e+00,0.00000e+00,1.10516e+02,-1.20250e+02,1.38254e-01,-1.50431e-01,6.94560e-01,6.30817e-01,0.00000e+00,1.21089e+00,2.89876e+00,0.00000e+00
06,5.30600e+02,0.00000e+00,1.35945e+05,-1.84789e+04,-7.87818e+03,-2.97574e+01,2.05556e+02,2.18477e+09,2.62035e+09,5.96558e+08,3.15545e+07,8.27655e+01,2.07610e+01,7.08528e+01,-4.79035e+00,1.44627e+01,-1.65517e-02,4.99804e-02,-1.52901e-01,2.44133e+00,-1.90392e+00,0.00000e+00,0.00000e+00,9.60684e+01,-1.04430e+02,1.20180e-01,-1.30641e-01,6.46517e-01,5.85897e-01,0.00000e+00,1.12602e+00,2.52891e+00,0.00000e+00
07,6.33500e+02,0.00000e+00,1.15681e+05,-1.55598e+04,-7.15537e+03,-2.69787e+01,1.88313e+02,2.13765e+09,2.54632e+09,5.79679e+08,3.06560e+07,8.20110e+01,2.05698e+01,7.01785e+01,-6.60540e+00,1.99441e+01,-1.87263e-02,5.65580e-02,-1.77755e-01,2.10053e+00,-1.63899e+00,0.00000e+00,0.00000e+00,8.27581e+01,-8.98715e+01,1.03529e-01,-1.12428e-01,5.98520e-01,5.41065e-01,0.00000e+00,1.04148e+00,2.18791e+00,0.00000e+00
08,7.34700e+02,0.00000e+00,9.74744e+04,-1.29655e+04,-6.45284e+03,-2.42939e+01,1.71493e+02,2.09189e+09,2.47483e+09,5.63383e+08,2.97765e+07,8.12680e+01,2.03815e+01,6.95148e+01,-8.59402e+00,2.59509e+01,-2.05745e-02,6.21536e-02,-2.00531e-01,1.78916e+00,-1.39709e+00,0.00000e+00,0.00000e+00,7.05914e+01,-7.65788e+01,8.83086e-02,-9.57988e-02,5.50636e-01,4.96274e-01,0.00000e+00,9.57375e-01,1.87589e+00,0.00000e+00
09,8.33800e+02,0.00000e+00,8.12871e+04,-1.06853e+04,-5.77444e+03,-2.17234e+01,1.55194e+02,2.04762e+09,2.40610e+09,5.47713e+08,2.89165e+07,8.05393e+01,2.01969e+01,6.88645e+01,-1.07096e+01,3.23428e+01,-2.21220e-02,6.68450e-02,-2.21164e-01,1.50775e+00,-1.17851e+00,0.00000e+00,0.00000e+00,5.95869e+01,-6.45704e+01,7.45422e-02,-8.07765e-02,5.03203e-01,4.51832e-01,0.00000e+00,8.74262e-01,1.59330e+00,0.00000e+00
10,9.30700e+02,0.00000e+00,6.70118e+04,-8.69962e+03,-5.12340e+03,-1.92607e+01,1.39445e+02,2.00486e+09,2.34009e+09,5.32666e+08,2.80772e+07,7.98259e+01,2.00162e+01,6.82283e+01,-1.29152e+01,3.90083e+01,-2.34014e-02,7.07290e-02,-2.39680e-01,1.25563e+00,-9.82659e-01,0.00000e+00,0.00000e+00,4.97162e+01,-5.38132e+01,6.21942e-02,-6.73194e-02,4.56396e-01,4.07987e-01,0.00000e+00,7.92420e-01,1.33967e+00,0.00000e+00
11,1.02500e+03,0.00000e+00,5.45681e+04,-6.99164e+03,-4.50144e+03,-1.69637e+01,1.24473e+02,1.96375e+09,2.27699e+09,5.18282e+08,2.72443e+07,7.91308e+01,1.98401e+01,6.76088e+01,-1.51710e+01,4.58271e+01,-2.44411e-02,7.38905e-02,-2.56074e-01,1.03246e+00,-8.09219e-01,0.00000e+00,0.00000e+00,4.09666e+01,-4.42905e+01,5.12485e-02,-5.54067e-02,4.10910e-01,3.65102e-01,0.00000e+00,7.13029e-01,1.11466e+00,0.00000e+00
12,1.11650e+03,0.00000e+00,4.38409e+04,-5.53897e+03,-3.90623e+03,-1.47886e+01,1.10001e+02,1.92432e+09,2.21681e+09,5.04566e+08,2.64281e+07,7.84554e+01,1.96691e+01,6.70073e+01,-1.74454e+01,5.27039e+01,-2.52723e-02,7.64228e-02,-2.70395e-01,8.37225e-01,-6.57377e-01,0.00000e+00,0.00000e+00,3.32993e+01,-3.59568e+01,4.16569e-02,-4.49814e-02,3.66027e-01,3.22859e-01,0.00000e+00,6.34825e-01,9.16628e-01,0.00000e+00
13,1.20500e+03,0.00000e+00,3.47096e+04,-4.31624e+03,-3.33748e+03,-1.28438e+01,9.63569e+01,1.32148e+09,1.95268e+09,4.45208e+08,2.39670e+07,7.39632e+01,1.86188e+01,6.42675e+01,-1.97154e+01,5.95734e+01,-2.60269e-02,7.88204e-02,-2.83097e-01,8.89630e-01,-7.71762e-01,0.00000e+00,0.00000e+00,3.81015e+01,-4.11234e+01,4.76644e-02,-5.14447e-02,3.25040e-01,3.25621e-01,0.00000e+00,5.64417e-01,9.56383e-01,0.00000e+00
14,1.29010e+03,0.00000e+00,2.70503e+04,-3.30041e+03,-2.82218e+03,-1.10299e+01,8.36487e+01,1.21619e+09,1.75686e+09,4.00479e+08,2.15746e+07,7.15330e+01,1.79989e+01,6.20379e+01,-2.19600e+01,6.63788e+01,-2.67245e-02,8.11170e-02,-2.94588e-01,7.26427e-01,-6.28125e-01,0.00000e+00,0.00000e+00,3.10802e+01,-3.34867e+01,3.88809e-02,-4.18913e-02,2.93790e-01,2.91809e-01,0.00000e+00,5.09781e-01,7.94299e-01,0.00000e+00
15,1.37170e+03,0.00000e+00,2.07045e+04,-2.47098e+03,-2.36883e+03,-9.29927e+00,7.18854e+01,1.12002e+09,1.58132e+09,3.60391e+08,1.94469e+07,6.91884e+01,1.74013e+01,5.98941e+01,-2.41636e+01,7.30732e+01,-2.72853e-02,8.29615e-02,-3.04895e-01,5.82023e-01,-5.02002e-01,0.00000e+00,0.00000e+00,2.48934e+01,-2.67686e+01,3.11412e-02,-3.34870e-02,2.62936e-01,2.59328e-01,0.00000e+00,4.55955e-01,6.56206e-01,0.00000e+00
16,1.44960e+03,0.00000e+00,1.55223e+04,-1.80794e+03,-1.96767e+03,-7.72346e+00,6.11639e+01,1.03251e+09,1.42458e+09,3.24609e+08,1.75406e+07,6.69366e+01,1.68278e+01,5.78421e+01,-2.63062e+01,7.95922e+01,-2.77250e-02,8.44071e-02,-3.14009e-01,4.56286e-01,-3.92808e-01,0.00000e+00,0.00000e+00,1.95189e+01,-2.09457e+01,2.44178e-02,-2.62028e-02,2.32864e-01,2.28082e-01,0.00000e+00,4.03588e-01,5.44228e-01,0.00000e+00
17,1.52340e+03,0.00000e+00,1.13722e+04,-1.29123e+03,-1.61369e+03,-6.27954e+00,5.13044e+01,9.53418e+08,1.28561e+09,2.92889e+08,1.58543e+07,6.47909e+01,1.62818e+01,5.58929e+01,-2.83647e+01,8.58620e+01,-2.80593e-02,8.55060e-02,-3.21904e-01,3.49140e-01,-3.00121e-01,0.00000e+00,0.00000e+00,1.49423e+01,-1.60011e+01,1.86926e-02,-2.00171e-02,2.03202e-01,1.97842e-01,0.00000e+00,3.52027e-01,4.46315e-01,0.00000e+00
18,1.59310e+03,0.00000e+00,8.10886e+03,-8.98189e+02,-1.30004e+03,-4.99866e+00,4.23347e+01,8.82075e+08,1.16263e+09,2.64824e+08,1.43509e+07,6.27531e+01,1.57637e+01,5.40474e+01,-3.03290e+01,9.18500e+01,-2.83060e-02,8.63171e-02,-3.28608e-01,2.59734e-01,-2.22923e-01,0.00000e+00,0.00000e+00,1.11196e+01,-1.18842e+01,1.39105e-02,-1.48670e-02,1.74223e-01,1.68550e-01,0.00000e+00,3.01809e-01,3.61019e-01,0.00000e+00
19,1.65850e+03,0.00000e+00,5.60457e+03,-6.07302e+02,-1.02178e+03,-3.89694e+00,3.42491e+01,8.18049e+08,1.05434e+09,2.40117e+08,1.30021e+07,6.08309e+01,1.52752e+01,5.23116e+01,-3.21859e+01,9.75140e+01,-2.84815e-02,8.68939e-02,-3.34140e-01,1.87105e-01,-1.60253e-01,0.00000e+00,0.00000e+00,8.00838e+00,-8.54461e+00,1.00183e-02,-1.06892e-02,1.46131e-01,1.40172e-01,0.00000e+00,2.53135e-01,2.86814e-01,0.00000e+00
20,1.71930e+03,0.00000e+00,3.74153e+03,-3.97946e+02,-7.74466e+02,-2.98980e+00,2.70352e+01,7.61023e+08,9.59670e+08,2.18523e+08,1.17748e+07,5.90349e+01,1.48192e+01,5.06943e+01,-3.39213e+01,1.02809e+02,-2.86010e-02,8.72864e-02,-3.38529e-01,1.30018e-01,-1.11057e-01,0.00000e+00,0.00000e+00,5.56007e+00,-5.92410e+00,6.95555e-03,-7.41095e-03,1.19134e-01,1.12677e-01,0.00000e+00,2.06364e-01,2.22029e-01,0.00000e+00
21,1.77540e+03,0.00000e+00,2.40049e+03,-2.49358e+02,-5.56386e+02,-2.30746e+00,2.07736e+01,3.98519e+08,7.29057e+08,1.66652e+08,7.88241e+06,5.21005e+01,1.31900e+01,4.07358e+01,-3.55286e+01,1.07715e+02,-2.87003e-02,8.76288e-02,-3.42354e-01,1.43286e-01,-1.37873e-01,0.00000e+00,0.00000e+00,6.64050e+00,-7.06890e+00,8.30715e-03,-8.84307e-03,1.57393e-01,1.11511e-01,0.00000e+00,2.72631e-01,2.30788e-01,0.00000e+00
22,1.82660e+03,0.00000e+00,1.47131e+03,-1.45093e+02,-3.81247e+02,-1.76538e+00,1.55224e+01,3.22692e+08,5.63581e+08,1.28741e+08,6.02891e+06,4.80842e+01,1.21552e+01,3.73499e+01,-3.70002e+01,1.12210e+02,-2.87856e-02,8.79346e-02,-3.45780e-01,9.88096e-02,-9.47277e-02,0.00000e+00,0.00000e+00,4.58024e+00,-4.85636e+00,5.72980e-03,-6.07523e-03,1.29548e-01,8.87899e-02,0.00000e+00,2.24394e-01,1.76588e-01,0.00000e+00
23,1.87280e+03,0.00000e+00,8.52864e+02,-7.59437e+01,-2.61246e+02,-1.22810e+00,1.12503e+01,2.62353e+08,4.36581e+08,9.96683e+07,4.68298e+06,4.43938e+01,1.12070e+01,3.42731e+01,-3.83314e+01,1.16277e+02,-2.88417e-02,8.81370e-02,-3.48529e-01,6.39507e-02,-6.15868e-02,0.00000e+00,0.00000e+00,2.98664e+00,-3.14478e+00,3.73623e-03,-3.93407e-03,1.03879e-01,6.97523e-02,0.00000e+00,1.79929e-01,1.33247e-01,0.00000e+00
24,1.91380e+03,0.00000e+00,4.61406e+02,-3.43222e+01,-1.74179e+02,-8.02218e-01,7.84519e+00,2.14932e+08,3.40501e+08,7.76906e+07,3.67737e+06,4.10625e+01,1.03532e+01,3.15244e+01,-3.95146e+01,1.19893e+02,-2.88755e-02,8.82603e-02,-3.50644e-01,3.81995e-02,-3.73950e-02,0.00000e+00,0.00000e+00,1.81426e+00,-1.89072e+00,2.26961e-03,-2.36526e-03,8.00461e-02,5.30014e-02,0.00000e+00,1.38646e-01,9.78222e-02,0.00000e+00
25,1.94970e+03,0.00000e+00,2.26763e+02,-1.23948e+01,-1.16748e+02,-4.19368e-01,5.22685e+00,1.77937e+08,2.68420e+08,6.12136e+07,2.97395e+06,3.80992e+01,9.59536e+00,2.91026e+01,-4.05515e+01,1.23063e+02,-2.88936e-02,8.83281e-02,-3.52199e-01,2.04386e-02,-2.06342e-02,0.00000e+00,0.00000e+00,9.97741e-01,-1.02585e+00,1.24816e-03,-1.28332e-03,5.92748e-02,3.96366e-02,0.00000e+00,1.02668e-01,7.10584e-02,0.00000e+00
26,1.98010e+03,0.00000e+00,9.81493e+01,-3.11013e+00,-7.34085e+01,-1.91463e-01,3.23458e+00,1.49784e+08,2.15653e+08,4.91590e+07,2.45178e+06,3.55543e+01,8.94582e+00,2.70403e+01,-4.14300e+01,1.25749e+02,-2.89019e-02,8.83602e-02,-3.53250e-01,9.48413e-03,-1.00036e-02,0.00000e+00,0.00000e+00,4.79512e-01,-4.85530e-01,5.99861e-04,-6.07390e-04,4.05510e-02,2.75900e-02,0.00000e+00,7.02367e-02,4.85687e-02,0.00000e+00
27,2.00520e+03,0.00000e+00,3.50309e+01,-9.95417e-02,-4.34014e+01,-4.84241e-02,1.79477e+00,1.28656e+08,1.77484e+08,4.04436e+07,2.09581e+06,3.34272e+01,8.40385e+00,2.53292e+01,-4.21555e+01,1.27967e+02,-2.89049e-02,8.83729e-02,-3.53886e-01,3.56086e-03,-3.99685e-03,0.00000e+00,0.00000e+00,1.88507e-01,-1.87317e-01,2.35819e-04,-2.34330e-04,2.49282e-02,1.76769e-02,0.00000e+00,4.31770e-02,3.07997e-02,0.00000e+00
28,2.02480e+03,0.00000e+00,9.28730e+00,2.92823e-01,-2.19595e+01,8.38697e-03,8.32122e-01,1.13447e+08,1.50904e+08,3.43767e+07,1.85290e+06,3.17493e+01,7.97693e+00,2.39876e+01,-4.27221e+01,1.29699e+02,-2.89058e-02,8.83766e-02,-3.54205e-01,9.77788e-04,-1.18350e-03,0.00000e+00,0.00000e+00,5.44186e-02,-5.29011e-02,6.80767e-05,-6.61784e-05,1.27367e-02,9.53038e-03,0.00000e+00,2.20607e-02,1.65342e-02,0.00000e+00
29,2.03880e+03,0.00000e+00,1.51533e+00,1.20115e-01,-8.21542e+00,1.62855e-02,2.78159e-01,1.03260e+08,1.33576e+08,3.04229e+07,1.70557e+06,3.05414e+01,7.66993e+00,2.30264e+01,-4.31267e+01,1.30936e+02,-2.89059e-02,8.83773e-02,-3.54322e-01,1.69853e-04,-2.16856e-04,0.00000e+00,0.00000e+00,9.57031e-03,-9.02899e-03,1.19723e-05,-1.12951e-05,4.65915e-03,3.71843e-03,0.00000e+00,8.06988e-03,6.44253e-03,0.00000e+00
30,2.04720e+03,0.00000e+00,1.73530e-01,2.58582e-02,-1.49820e+00,6.15672e-03,4.13167e-02,9.74134e+07,1.23821e+08,2.81976e+07,1.66795e+06,2.98129e+01,7.48488e+00,2.24484e+01,-4.33695e+01,1.31678e+02,-2.89059e-02,8.83774e-02,-3.54346e-01,2.06231e-05,-2.83416e-05,0.00000e+00,0.00000e+00,1.17154e-03,-1.05899e-03,1.46558e-06,-1.32477e-06,7.69501e-04,6.81356e-04,0.00000e+00,1.33281e-03,1.18030e-03,0.00000e+00
31,2.05000e+03,0.00000e+00,0.00000e+00,0.00000e+00,0.00000e+00,0.00000e+00,0.00000e+00,5.74754e+07,1.08343e+08,2.47732e+07,NaN,2.74871e+01,6.96602e+00,2.15905e+01,-4.34505e+01,1.31926e+02,-2.89059e-02,8.83774e-02,-3.54347e-01,0.00000e+00,0.00000e+00,0.00000e+00,0.00000e+00,0.00000e+00,0.00000e+00,0.00000e+00,0.00000e+00,0.00000e+00,0.00000e+00,0.00000e+00,0.00000e+00,0.00000e+00,0.00000e+00
--------------------------------------------------------------------------------------------------------------------------------------------------------------------------------------------------------------------------------------------------------------------------------------------------------------------------------------------------------------------------------

CHAPEADO 
--------------------------------------------------------------------------------------------------------------------------------------------------------------------------------------------------------------------------------------------------------------------------------------------------------------------------------------------------------------------------------
X,Y,Z,Sigma,Tau,Von Mises
0.00000e+00,4.31008e+01,0.00000e+00,-3.48872e+00,8.09799e-01,3.76012e+00
0.00000e+00,4.28837e+01,-3.27521e+00,-3.51735e+00,7.97017e-01,3.77855e+00
0.00000e+00,4.25950e+01,-6.55041e+00,-3.53370e+00,7.83924e-01,3.78558e+00
0.00000e+00,4.23033e+01,-9.82562e+00,-3.54955e+00,7.70534e-01,3.79216e+00
0.00000e+00,4.19484e+01,-1.31008e+01,-3.55457e+00,7.56871e-01,3.78861e+00
0.00000e+00,4.15787e+01,-1.63760e+01,-3.55708e+00,7.42955e-01,3.78269e+00
0.00000e+00,4.11605e+01,-1.96512e+01,-3.55126e+00,7.28807e-01,3.76894e+00
0.00000e+00,4.07187e+01,-2.29264e+01,-3.54140e+00,7.14446e-01,3.75138e+00
0.00000e+00,4.02378e+01,-2.62017e+01,-3.52486e+00,6.99892e-01,3.72749e+00
0.00000e+00,3.97249e+01,-2.94769e+01,-3.50283e+00,6.85164e-01,3.69840e+00
0.00000e+00,3.91766e+01,-3.27521e+01,-3.47476e+00,6.70280e-01,3.66357e+00
0.00000e+00,3.85857e+01,-3.60273e+01,-3.43937e+00,6.55261e-01,3.62179e+00
0.00000e+00,3.79511e+01,-3.93025e+01,-3.39650e+00,6.40126e-01,3.57289e+00
0.00000e+00,3.72545e+01,-4.25777e+01,-3.34303e+00,6.24902e-01,3.51388e+00
0.00000e+00,3.64976e+01,-4.58529e+01,-3.27924e+00,6.09617e-01,3.44504e+00
0.00000e+00,3.56687e+01,-4.91281e+01,-3.20309e+00,5.94295e-01,3.36443e+00
0.00000e+00,3.47420e+01,-5.24033e+01,-3.11023e+00,5.78990e-01,3.26791e+00
0.00000e+00,3.37474e+01,-5.56785e+01,-3.00574e+00,5.63712e-01,3.16034e+00
0.00000e+00,3.26000e+01,-5.89537e+01,-2.87507e+00,5.48543e-01,3.02799e+00
0.00000e+00,3.13892e+01,-6.22289e+01,-2.73355e+00,5.33519e-01,2.88552e+00
0.00000e+00,3.00018e+01,-6.55041e+01,-2.56181e+00,5.18677e-01,2.71477e+00
0.00000e+00,2.84730e+01,-6.87793e+01,-2.36585e+00,5.04143e-01,2.52185e+00
0.00000e+00,2.68002e+01,-7.20546e+01,-2.14523e+00,4.89940e-01,2.30697e+00
0.00000e+00,2.48857e+01,-7.53298e+01,-1.88324e+00,4.76122e-01,2.05588e+00
0.00000e+00,2.26913e+01,-7.86050e+01,-1.57332e+00,4.62855e-01,1.76579e+00
0.00000e+00,2.01805e+01,-8.18802e+01,-1.20922e+00,4.50299e-01,1.43893e+00
0.00000e+00,1.72108e+01,-8.51554e+01,-7.66560e-01,4.38559e-01,1.07917e+00
0.00000e+00,1.33989e+01,-8.84306e+01,-1.79711e-01,4.28209e-01,7.63141e-01
0.00000e+00,8.24350e+00,-9.17058e+01,6.37172e-01,4.21886e-01,9.69511e-01
0.00000e+00,-3.34020e+00,-9.49810e+01,2.55466e+00,4.24393e-01,2.65831e+00
0.00000e+00,-4.17620e+00,-9.49886e+01,2.69764e+00,4.32176e-01,2.79957e+00
0.00000e+00,-1.17928e+01,-9.15961e+01,4.06984e+00,4.46936e-01,4.14280e+00
0.00000e+00,-1.27149e+01,-8.82037e+01,4.29587e+00,4.57840e-01,4.36845e+00
0.00000e+00,-1.30332e+01,-8.48113e+01,4.41850e+00,4.69314e-01,4.49265e+00
0.00000e+00,-1.30814e+01,-8.14188e+01,4.49491e+00,4.81320e-01,4.57157e+00
0.00000e+00,-1.29264e+01,-7.80264e+01,4.53651e+00,4.93763e-01,4.61642e+00
0.00000e+00,-1.26437e+01,-7.46339e+01,4.55625e+00,5.06571e-01,4.63996e+00
0.00000e+00,-1.22328e+01,-7.12415e+01,4.55405e+00,5.19669e-01,4.64215e+00
0.00000e+00,-1.17438e+01,-6.78490e+01,4.53847e+00,5.32992e-01,4.63141e+00
0.00000e+00,-1.12094e+01,-6.44565e+01,4.51513e+00,5.46508e-01,4.61328e+00
0.00000e+00,-1.06068e+01,-6.10641e+01,4.48009e+00,5.60178e-01,4.58395e+00
0.00000e+00,-9.96142e+00,-5.76716e+01,4.43774e+00,5.73966e-01,4.54773e+00
0.00000e+00,-9.27449e+00,-5.42792e+01,4.38828e+00,5.87843e-01,4.50485e+00
0.00000e+00,-8.54615e+00,-5.08867e+01,4.33172e+00,6.01781e-01,4.45536e+00
0.00000e+00,-7.79185e+00,-4.74943e+01,4.27072e+00,6.15755e-01,4.40188e+00
0.00000e+00,-7.00429e+00,-4.41018e+01,4.20402e+00,6.29746e-01,4.34322e+00
0.00000e+00,-6.19544e+00,-4.07094e+01,4.13368e+00,6.43731e-01,4.28141e+00
0.00000e+00,-5.36748e+00,-3.73169e+01,4.06007e+00,6.57695e-01,4.21686e+00
0.00000e+00,-4.52248e+00,-3.39245e+01,3.98354e+00,6.71623e-01,4.14992e+00
0.00000e+00,-3.67026e+00,-3.05320e+01,3.90578e+00,6.85505e-01,4.08226e+00
0.00000e+00,-2.80686e+00,-2.71396e+01,3.82610e+00,6.99332e-01,4.01325e+00
0.00000e+00,-1.94159e+00,-2.37472e+01,3.74610e+00,7.13100e-01,3.94446e+00
0.00000e+00,-1.06964e+00,-2.03547e+01,3.66495e+00,7.26804e-01,3.87513e+00
0.00000e+00,-1.97780e-01,-1.69622e+01,3.58382e+00,7.40439e-01,3.80638e+00
0.00000e+00,6.70785e-01,-1.35698e+01,3.50326e+00,7.54006e-01,3.73877e+00
0.00000e+00,1.53935e+00,-1.01774e+01,3.42270e+00,7.67501e-01,3.67179e+00
0.00000e+00,2.38735e+00,-6.78490e+00,3.34565e+00,7.80930e-01,3.60873e+00
0.00000e+00,3.23151e+00,-3.39245e+00,3.26927e+00,7.94302e-01,3.54695e+00
1.07300e+02,4.26785e+01,0.00000e+00,-3.12452e+00,7.65134e-01,3.39395e+00
1.07300e+02,4.24636e+01,-3.24312e+00,-3.15014e+00,7.53134e-01,3.40954e+00
1.07300e+02,4.21777e+01,-6.48624e+00,-3.16475e+00,7.40843e-01,3.41500e+00
1.07300e+02,4.18889e+01,-9.72936e+00,-3.17893e+00,7.28272e-01,3.42005e+00
1.07300e+02,4.15374e+01,-1.29725e+01,-3.18340e+00,7.15445e-01,3.41609e+00
1.07300e+02,4.11714e+01,-1.62156e+01,-3.18562e+00,7.02381e-01,3.41001e+00
1.07300e+02,4.07572e+01,-1.94587e+01,-3.18038e+00,6.89098e-01,3.39697e+00
1.07300e+02,4.03197e+01,-2.27018e+01,-3.17152e+00,6.75617e-01,3.38052e+00
1.07300e+02,3.98436e+01,-2.59450e+01,-3.15668e+00,6.61953e-01,3.35845e+00
1.07300e+02,3.93357e+01,-2.91881e+01,-3.13691e+00,6.48126e-01,3.33173e+00
1.07300e+02,3.87928e+01,-3.24312e+01,-3.11174e+00,6.34153e-01,3.29990e+00
1.07300e+02,3.82077e+01,-3.56743e+01,-3.08001e+00,6.20054e-01,3.26188e+00
1.07300e+02,3.75793e+01,-3.89174e+01,-3.04158e+00,6.05846e-01,3.21751e+00
1.07300e+02,3.68895e+01,-4.21606e+01,-2.99365e+00,5.91553e-01,3.16413e+00
1.07300e+02,3.61401e+01,-4.54037e+01,-2.93647e+00,5.77204e-01,3.10199e+00
1.07300e+02,3.53192e+01,-4.86468e+01,-2.86822e+00,5.62820e-01,3.02936e+00
1.07300e+02,3.44016e+01,-5.18899e+01,-2.78500e+00,5.48451e-01,2.94256e+00
1.07300e+02,3.34168e+01,-5.51330e+01,-2.69136e+00,5.34108e-01,2.84592e+00
1.07300e+02,3.22806e+01,-5.83762e+01,-2.57427e+00,5.19868e-01,2.72721e+00
1.07300e+02,3.10816e+01,-6.16193e+01,-2.44746e+00,5.05764e-01,2.59951e+00
1.07300e+02,2.97079e+01,-6.48624e+01,-2.29357e+00,4.91831e-01,2.44666e+00
1.07300e+02,2.81940e+01,-6.81055e+01,-2.11798e+00,4.78186e-01,2.27416e+00
1.07300e+02,2.65376e+01,-7.13486e+01,-1.92030e+00,4.64853e-01,2.08227e+00
1.07300e+02,2.46419e+01,-7.45918e+01,-1.68556e+00,4.51881e-01,1.85842e+00
1.07300e+02,2.24690e+01,-7.78349e+01,-1.40788e+00,4.39426e-01,1.60044e+00
1.07300e+02,1.99828e+01,-8.10780e+01,-1.08166e+00,4.27639e-01,1.31096e+00
1.07300e+02,1.70422e+01,-8.43211e+01,-6.85059e-01,4.16618e-01,9.94996e-01
1.07300e+02,1.32676e+01,-8.75642e+01,-1.59278e-01,4.06901e-01,7.22548e-01
1.07300e+02,8.16273e+00,-9.08074e+01,5.72588e-01,4.00966e-01,9.00100e-01
1.07300e+02,-3.30748e+00,-9.40505e+01,2.29048e+00,4.03320e-01,2.39464e+00
1.07300e+02,-4.13529e+00,-9.40580e+01,2.41857e+00,4.10627e-01,2.52098e+00
1.07300e+02,-1.16772e+01,-9.06988e+01,3.64788e+00,4.24483e-01,3.72124e+00
1.07300e+02,-1.25904e+01,-8.73396e+01,3.85036e+00,4.34720e-01,3.92329e+00
1.07300e+02,-1.29055e+01,-8.39804e+01,3.96019e+00,4.45492e-01,4.03467e+00
1.07300e+02,-1.29533e+01,-8.06211e+01,4.02862e+00,4.56763e-01,4.10557e+00
1.07300e+02,-1.27997e+01,-7.72619e+01,4.06586e+00,4.68444e-01,4.14603e+00
1.07300e+02,-1.25198e+01,-7.39027e+01,4.08352e+00,4.80468e-01,4.16745e+00
1.07300e+02,-1.21130e+01,-7.05435e+01,4.08152e+00,4.92764e-01,4.16981e+00
1.07300e+02,-1.16287e+01,-6.71843e+01,4.06754e+00,5.05272e-01,4.16062e+00
1.07300e+02,-1.10996e+01,-6.38251e+01,4.04659e+00,5.17961e-01,4.14485e+00
1.07300e+02,-1.05029e+01,-6.04659e+01,4.01518e+00,5.30794e-01,4.11909e+00
1.07300e+02,-9.86382e+00,-5.71066e+01,3.97721e+00,5.43737e-01,4.08719e+00
1.07300e+02,-9.18363e+00,-5.37474e+01,3.93287e+00,5.56765e-01,4.04937e+00
1.07300e+02,-8.46243e+00,-5.03882e+01,3.88217e+00,5.69849e-01,4.00568e+00
1.07300e+02,-7.71552e+00,-4.70290e+01,3.82749e+00,5.82968e-01,3.95844e+00
1.07300e+02,-6.93567e+00,-4.36698e+01,3.76771e+00,5.96102e-01,3.90662e+00
1.07300e+02,-6.13474e+00,-4.03106e+01,3.70467e+00,6.09231e-01,3.85202e+00
1.07300e+02,-5.31490e+00,-3.69514e+01,3.63869e+00,6.22340e-01,3.79500e+00
1.07300e+02,-4.47818e+00,-3.35921e+01,3.57010e+00,6.35415e-01,3.73589e+00
1.07300e+02,-3.63431e+00,-3.02329e+01,3.50041e+00,6.48447e-01,3.67618e+00
1.07300e+02,-2.77936e+00,-2.68737e+01,3.42899e+00,6.61428e-01,3.61531e+00
1.07300e+02,-1.92257e+00,-2.35145e+01,3.35729e+00,6.74352e-01,3.55467e+00
1.07300e+02,-1.05916e+00,-2.01553e+01,3.28457e+00,6.87217e-01,3.49359e+00
1.07300e+02,-1.95842e-01,-1.67961e+01,3.21186e+00,7.00017e-01,3.43309e+00
1.07300e+02,6.64213e-01,-1.34369e+01,3.13966e+00,7.12753e-01,3.37365e+00
1.07300e+02,1.52427e+00,-1.00776e+01,3.06745e+00,7.25421e-01,3.31481e+00
1.07300e+02,2.36396e+00,-6.71843e+00,2.99840e+00,7.38028e-01,3.25952e+00
1.07300e+02,3.19985e+00,-3.35921e+00,2.92994e+00,7.50581e-01,3.20541e+00
2.14300e+02,4.22575e+01,0.00000e+00,-2.77899e+00,7.20610e-01,3.04641e+00
2.14300e+02,4.20447e+01,-3.21112e+00,-2.80180e+00,7.09380e-01,3.05937e+00
2.14300e+02,4.17615e+01,-6.42224e+00,-2.81483e+00,6.97876e-01,3.06339e+00
2.14300e+02,4.14756e+01,-9.63337e+00,-2.82747e+00,6.86111e-01,3.06705e+00
2.14300e+02,4.11276e+01,-1.28445e+01,-2.83146e+00,6.74107e-01,3.06275e+00
2.14300e+02,4.07652e+01,-1.60556e+01,-2.83346e+00,6.61881e-01,3.05659e+00
2.14300e+02,4.03551e+01,-1.92667e+01,-2.82882e+00,6.49450e-01,3.04427e+00
2.14300e+02,3.99219e+01,-2.24779e+01,-2.82096e+00,6.36833e-01,3.02894e+00
2.14300e+02,3.94505e+01,-2.56890e+01,-2.80777e+00,6.24046e-01,3.00863e+00
2.14300e+02,3.89476e+01,-2.89001e+01,-2.79020e+00,6.11106e-01,2.98422e+00
2.14300e+02,3.84101e+01,-3.21112e+01,-2.76782e+00,5.98029e-01,2.95529e+00
2.14300e+02,3.78307e+01,-3.53223e+01,-2.73962e+00,5.84834e-01,2.92089e+00
2.14300e+02,3.72085e+01,-3.85335e+01,-2.70544e+00,5.71537e-01,2.88086e+00
2.14300e+02,3.65256e+01,-4.17446e+01,-2.66282e+00,5.58161e-01,2.83288e+00
2.14300e+02,3.57835e+01,-4.49557e+01,-2.61196e+00,5.44733e-01,2.77715e+00
2.14300e+02,3.49707e+01,-4.81668e+01,-2.55126e+00,5.31271e-01,2.71214e+00
2.14300e+02,3.40622e+01,-5.13780e+01,-2.47724e+00,5.17824e-01,2.63460e+00
2.14300e+02,3.30871e+01,-5.45891e+01,-2.39394e+00,5.04401e-01,2.54838e+00
2.14300e+02,3.19621e+01,-5.78002e+01,-2.28978e+00,4.91075e-01,2.44266e+00
2.14300e+02,3.07750e+01,-6.10113e+01,-2.17697e+00,4.77875e-01,2.32901e+00
2.14300e+02,2.94148e+01,-6.42224e+01,-2.04007e+00,4.64836e-01,2.19320e+00
2.14300e+02,2.79159e+01,-6.74336e+01,-1.88387e+00,4.52067e-01,2.04011e+00
2.14300e+02,2.62758e+01,-7.06447e+01,-1.70801e+00,4.39589e-01,1.87003e+00
2.14300e+02,2.43988e+01,-7.38558e+01,-1.49917e+00,4.27449e-01,1.67202e+00
2.14300e+02,2.22473e+01,-7.70669e+01,-1.25213e+00,4.15793e-01,1.44446e+00
2.14300e+02,1.97856e+01,-8.02781e+01,-9.61901e-01,4.04762e-01,1.19027e+00
2.14300e+02,1.68740e+01,-8.34892e+01,-6.09047e-01,3.94448e-01,9.15263e-01
2.14300e+02,1.31367e+01,-8.67003e+01,-1.41262e-01,3.85356e-01,6.82240e-01
2.14300e+02,8.08220e+00,-8.99114e+01,5.09885e-01,3.79802e-01,8.32304e-01
2.14300e+02,-3.27484e+00,-9.31226e+01,2.03833e+00,3.82005e-01,2.14303e+00
2.14300e+02,-4.09449e+00,-9.31300e+01,2.15230e+00,3.88843e-01,2.25522e+00
2.14300e+02,-1.15620e+01,-8.98039e+01,3.24609e+00,4.01811e-01,3.31985e+00
2.14300e+02,-1.24661e+01,-8.64779e+01,3.42626e+00,4.11391e-01,3.49957e+00
2.14300e+02,-1.27781e+01,-8.31518e+01,3.52400e+00,4.21472e-01,3.59882e+00
2.14300e+02,-1.28255e+01,-7.98257e+01,3.58491e+00,4.32020e-01,3.66217e+00
2.14300e+02,-1.26734e+01,-7.64996e+01,3.61806e+00,4.42952e-01,3.69851e+00
2.14300e+02,-1.23963e+01,-7.31736e+01,3.63379e+00,4.54205e-01,3.71798e+00
2.14300e+02,-1.19935e+01,-6.98475e+01,3.63204e+00,4.65712e-01,3.72053e+00
2.14300e+02,-1.15140e+01,-6.65214e+01,3.61961e+00,4.77418e-01,3.71287e+00
2.14300e+02,-1.09901e+01,-6.31954e+01,3.60100e+00,4.89292e-01,3.69938e+00
2.14300e+02,-1.03992e+01,-5.98693e+01,3.57307e+00,5.01302e-01,3.67705e+00
2.14300e+02,-9.76651e+00,-5.65432e+01,3.53931e+00,5.13415e-01,3.64931e+00
2.14300e+02,-9.09302e+00,-5.32171e+01,3.49988e+00,5.25607e-01,3.61634e+00
2.14300e+02,-8.37893e+00,-4.98911e+01,3.45479e+00,5.37852e-01,3.57819e+00
2.14300e+02,-7.63939e+00,-4.65650e+01,3.40617e+00,5.50129e-01,3.53693e+00
2.14300e+02,-6.86724e+00,-4.32389e+01,3.35300e+00,5.62420e-01,3.49164e+00
2.14300e+02,-6.07421e+00,-3.99129e+01,3.29693e+00,5.74707e-01,3.44392e+00
2.14300e+02,-5.26246e+00,-3.65868e+01,3.23825e+00,5.86975e-01,3.39409e+00
2.14300e+02,-4.43399e+00,-3.32607e+01,3.17724e+00,5.99211e-01,3.34246e+00
2.14300e+02,-3.59845e+00,-2.99346e+01,3.11525e+00,6.11407e-01,3.29032e+00
2.14300e+02,-2.75194e+00,-2.66086e+01,3.05173e+00,6.23554e-01,3.23721e+00
2.14300e+02,-1.90360e+00,-2.32825e+01,2.98796e+00,6.35650e-01,3.18434e+00
2.14300e+02,-1.04871e+00,-1.99564e+01,2.92328e+00,6.47689e-01,3.13114e+00
2.14300e+02,-1.93910e-01,-1.66304e+01,2.85860e+00,6.59667e-01,3.07849e+00
2.14300e+02,6.57660e-01,-1.33043e+01,2.79438e+00,6.71586e-01,3.02682e+00
2.14300e+02,1.50923e+00,-9.97821e+00,2.73016e+00,6.83441e-01,2.97574e+00
2.14300e+02,2.34063e+00,-6.65214e+00,2.66875e+00,6.95239e-01,2.92785e+00
2.14300e+02,3.16828e+00,-3.32607e+00,2.60785e+00,7.06986e-01,2.88104e+00
3.20700e+02,4.18388e+01,0.00000e+00,-2.45342e+00,6.75736e-01,2.71830e+00
3.20700e+02,4.16280e+01,-3.17930e+00,-2.47363e+00,6.65279e-01,2.72885e+00
3.20700e+02,4.13477e+01,-6.35861e+00,-2.48519e+00,6.54568e-01,2.73158e+00
3.20700e+02,4.10646e+01,-9.53791e+00,-2.49640e+00,6.43614e-01,2.73400e+00
3.20700e+02,4.07201e+01,-1.27172e+01,-2.49999e+00,6.32437e-01,2.72944e+00
3.20700e+02,4.03613e+01,-1.58965e+01,-2.50180e+00,6.21053e-01,2.72326e+00
3.20700e+02,3.99553e+01,-1.90758e+01,-2.49776e+00,6.09478e-01,2.71167e+00
3.20700e+02,3.95264e+01,-2.22551e+01,-2.49087e+00,5.97730e-01,2.69746e+00
3.20700e+02,3.90596e+01,-2.54344e+01,-2.47928e+00,5.85824e-01,2.67888e+00
3.20700e+02,3.85617e+01,-2.86137e+01,-2.46382e+00,5.73776e-01,2.65670e+00
3.20700e+02,3.80295e+01,-3.17930e+01,-2.44411e+00,5.61600e-01,2.63056e+00
3.20700e+02,3.74559e+01,-3.49724e+01,-2.41925e+00,5.49314e-01,2.59962e+00
3.20700e+02,3.68398e+01,-3.81517e+01,-2.38912e+00,5.36933e-01,2.56374e+00
3.20700e+02,3.61637e+01,-4.13310e+01,-2.35153e+00,5.24479e-01,2.52090e+00
3.20700e+02,3.54289e+01,-4.45103e+01,-2.30667e+00,5.11976e-01,2.47125e+00
3.20700e+02,3.46242e+01,-4.76896e+01,-2.25311e+00,4.99442e-01,2.41347e+00
3.20700e+02,3.37247e+01,-5.08689e+01,-2.18779e+00,4.86921e-01,2.34472e+00
3.20700e+02,3.27593e+01,-5.40482e+01,-2.11428e+00,4.74424e-01,2.26835e+00
3.20700e+02,3.16454e+01,-5.72275e+01,-2.02234e+00,4.62015e-01,2.17491e+00
3.20700e+02,3.04701e+01,-6.04068e+01,-1.92276e+00,4.49725e-01,2.07455e+00
3.20700e+02,2.91233e+01,-6.35861e+01,-1.80191e+00,4.37585e-01,1.95482e+00
3.20700e+02,2.76393e+01,-6.67654e+01,-1.66400e+00,4.25695e-01,1.82004e+00
3.20700e+02,2.60154e+01,-6.99447e+01,-1.50873e+00,4.14077e-01,1.67053e+00
3.20700e+02,2.41570e+01,-7.31240e+01,-1.32434e+00,4.02774e-01,1.49685e+00
3.20700e+02,2.20269e+01,-7.63033e+01,-1.10621e+00,3.91922e-01,1.29789e+00
3.20700e+02,1.95896e+01,-7.94826e+01,-8.49938e-01,3.81651e-01,1.07674e+00
3.20700e+02,1.67068e+01,-8.26619e+01,-5.38353e-01,3.72048e-01,8.39692e-01
3.20700e+02,1.30066e+01,-8.58412e+01,-1.25261e-01,3.63582e-01,6.42079e-01
3.20700e+02,8.00212e+00,-8.90205e+01,4.49776e-01,3.58411e-01,7.66599e-01
3.20700e+02,-3.24239e+00,-9.21998e+01,1.79964e+00,3.60463e-01,1.90487e+00
3.20700e+02,-4.05392e+00,-9.22072e+01,1.90030e+00,3.66830e-01,2.00371e+00
3.20700e+02,-1.14474e+01,-8.89141e+01,2.86639e+00,3.78905e-01,2.94056e+00
3.20700e+02,-1.23426e+01,-8.56210e+01,3.02557e+00,3.87824e-01,3.09924e+00
3.20700e+02,-1.26515e+01,-8.23279e+01,3.11195e+00,3.97211e-01,3.18710e+00
3.20700e+02,-1.26984e+01,-7.90348e+01,3.16580e+00,4.07032e-01,3.24335e+00
3.20700e+02,-1.25479e+01,-7.57416e+01,3.19514e+00,4.17211e-01,3.27583e+00
3.20700e+02,-1.22734e+01,-7.24485e+01,3.20909e+00,4.27688e-01,3.29348e+00
3.20700e+02,-1.18746e+01,-6.91554e+01,3.20759e+00,4.38403e-01,3.29625e+00
3.20700e+02,-1.13999e+01,-6.58623e+01,3.19668e+00,4.49302e-01,3.29004e+00
3.20700e+02,-1.08812e+01,-6.25692e+01,3.18030e+00,4.60358e-01,3.27873e+00
3.20700e+02,-1.02962e+01,-5.92761e+01,3.15568e+00,4.71540e-01,3.25966e+00
3.20700e+02,-9.66973e+00,-5.59829e+01,3.12593e+00,4.82818e-01,3.23585e+00
3.20700e+02,-9.00292e+00,-5.26898e+01,3.09115e+00,4.94170e-01,3.20747e+00
3.20700e+02,-8.29591e+00,-4.93967e+01,3.05139e+00,5.05571e-01,3.17456e+00
3.20700e+02,-7.56370e+00,-4.61036e+01,3.00850e+00,5.17002e-01,3.13894e+00
3.20700e+02,-6.79920e+00,-4.28105e+01,2.96160e+00,5.28446e-01,3.09981e+00
3.20700e+02,-6.01403e+00,-3.95174e+01,2.91213e+00,5.39886e-01,3.05859e+00
3.20700e+02,-5.21032e+00,-3.62243e+01,2.86037e+00,5.51308e-01,3.01555e+00
3.20700e+02,-4.39006e+00,-3.29311e+01,2.80654e+00,5.62701e-01,2.97096e+00
3.20700e+02,-3.56279e+00,-2.96380e+01,2.75185e+00,5.74056e-01,2.92597e+00
3.20700e+02,-2.72467e+00,-2.63449e+01,2.69581e+00,5.85366e-01,2.88016e+00
3.20700e+02,-1.88474e+00,-2.30518e+01,2.63954e+00,5.96628e-01,2.83462e+00
3.20700e+02,-1.03832e+00,-1.97587e+01,2.58247e+00,6.07837e-01,2.78882e+00
3.20700e+02,-1.91989e-01,-1.64656e+01,2.52541e+00,6.18990e-01,2.74356e+00
3.20700e+02,6.51143e-01,-1.31725e+01,2.46874e+00,6.30087e-01,2.69921e+00
3.20700e+02,1.49428e+00,-9.87934e+00,2.41208e+00,6.41125e-01,2.65542e+00
3.20700e+02,2.31744e+00,-6.58623e+00,2.35789e+00,6.52110e-01,2.61446e+00
3.20700e+02,3.13689e+00,-3.29311e+00,2.30417e+00,6.63047e-01,2.57451e+00
4.26200e+02,4.14236e+01,0.00000e+00,-2.14902e+00,6.30817e-01,2.41082e+00
4.26200e+02,4.12150e+01,-3.14776e+00,-2.16680e+00,6.21124e-01,2.41917e+00
4.26200e+02,4.09374e+01,-6.29551e+00,-2.17701e+00,6.11195e-01,2.42075e+00
4.26200e+02,4.06571e+01,-9.44327e+00,-2.18691e+00,6.01041e-01,2.42205e+00
4.26200e+02,4.03160e+01,-1.25910e+01,-2.19013e+00,5.90681e-01,2.41731e+00
4.26200e+02,3.99607e+01,-1.57388e+01,-2.19180e+00,5.80128e-01,2.41114e+00
4.26200e+02,3.95588e+01,-1.88865e+01,-2.18833e+00,5.69399e-01,2.40030e+00
4.26200e+02,3.91341e+01,-2.20343e+01,-2.18237e+00,5.58510e-01,2.38716e+00
4.26200e+02,3.86720e+01,-2.51820e+01,-2.17229e+00,5.47473e-01,2.37024e+00
4.26200e+02,3.81790e+01,-2.83298e+01,-2.15882e+00,5.36305e-01,2.35019e+00
4.26200e+02,3.76521e+01,-3.14776e+01,-2.14162e+00,5.25019e-01,2.32669e+00
4.26200e+02,3.70842e+01,-3.46253e+01,-2.11992e+00,5.13631e-01,2.29902e+00
4.26200e+02,3.64743e+01,-3.77731e+01,-2.09359e+00,5.02155e-01,2.26707e+00
4.26200e+02,3.58048e+01,-4.09208e+01,-2.06073e+00,4.90610e-01,2.22906e+00
4.26200e+02,3.50774e+01,-4.40686e+01,-2.02149e+00,4.79021e-01,2.18514e+00
4.26200e+02,3.42806e+01,-4.72163e+01,-1.97464e+00,4.67402e-01,2.13415e+00
4.26200e+02,3.33901e+01,-5.03641e+01,-1.91748e+00,4.55797e-01,2.07364e+00
4.26200e+02,3.24342e+01,-5.35118e+01,-1.85314e+00,4.44212e-01,2.00651e+00
4.26200e+02,3.13314e+01,-5.66596e+01,-1.77265e+00,4.32711e-01,1.92457e+00
4.26200e+02,3.01677e+01,-5.98074e+01,-1.68546e+00,4.21319e-01,1.83666e+00
4.26200e+02,2.88343e+01,-6.29551e+01,-1.57963e+00,4.10065e-01,1.73197e+00
4.26200e+02,2.73650e+01,-6.61029e+01,-1.45886e+00,3.99045e-01,1.61431e+00
4.26200e+02,2.57573e+01,-6.92506e+01,-1.32288e+00,3.88276e-01,1.48401e+00
4.26200e+02,2.39173e+01,-7.23984e+01,-1.16138e+00,3.77798e-01,1.33304e+00
4.26200e+02,2.18083e+01,-7.55461e+01,-9.70303e-01,3.67739e-01,1.16068e+00
4.26200e+02,1.93952e+01,-7.86939e+01,-7.45810e-01,3.58219e-01,9.70152e-01
4.26200e+02,1.65410e+01,-8.18417e+01,-4.72845e-01,3.49318e-01,7.67888e-01
4.26200e+02,1.28775e+01,-8.49894e+01,-1.10928e-01,3.41471e-01,6.01758e-01
4.26200e+02,7.92271e+00,-8.81372e+01,3.92900e-01,3.36678e-01,7.03155e-01
4.26200e+02,-3.21022e+00,-9.12849e+01,1.57571e+00,3.38580e-01,1.68130e+00
4.26200e+02,-4.01369e+00,-9.12922e+01,1.66392e+00,3.44482e-01,1.76766e+00
4.26200e+02,-1.13339e+01,-8.80318e+01,2.51058e+00,3.55675e-01,2.58506e+00
4.26200e+02,-1.22201e+01,-8.47713e+01,2.65015e+00,3.63943e-01,2.72409e+00
4.26200e+02,-1.25260e+01,-8.15109e+01,2.72593e+00,3.72644e-01,2.80130e+00
4.26200e+02,-1.25724e+01,-7.82505e+01,2.77320e+00,3.81747e-01,2.85093e+00
4.26200e+02,-1.24233e+01,-7.49900e+01,2.79899e+00,3.91183e-01,2.87982e+00
4.26200e+02,-1.21516e+01,-7.17296e+01,2.81129e+00,4.00894e-01,2.89577e+00
4.26200e+02,-1.17568e+01,-6.84692e+01,2.81006e+00,4.10826e-01,2.89876e+00
4.26200e+02,-1.12868e+01,-6.52087e+01,2.80058e+00,4.20928e-01,2.89392e+00
4.26200e+02,-1.07732e+01,-6.19483e+01,2.78630e+00,4.31177e-01,2.88465e+00
4.26200e+02,-1.01940e+01,-5.86879e+01,2.76481e+00,4.41542e-01,2.86864e+00
4.26200e+02,-9.57378e+00,-5.54274e+01,2.73882e+00,4.51995e-01,2.84851e+00
4.26200e+02,-8.91358e+00,-5.21670e+01,2.70843e+00,4.62518e-01,2.82442e+00
4.26200e+02,-8.21359e+00,-4.89065e+01,2.67366e+00,4.73085e-01,2.79641e+00
4.26200e+02,-7.48864e+00,-4.56461e+01,2.63616e+00,4.83681e-01,2.76607e+00
4.26200e+02,-6.73173e+00,-4.23857e+01,2.59514e+00,4.94289e-01,2.73271e+00
4.26200e+02,-5.95435e+00,-3.91252e+01,2.55187e+00,5.04892e-01,2.69755e+00
4.26200e+02,-5.15861e+00,-3.58648e+01,2.50658e+00,5.15480e-01,2.66085e+00
4.26200e+02,-4.34650e+00,-3.26044e+01,2.45950e+00,5.26040e-01,2.62284e+00
4.26200e+02,-3.52744e+00,-2.93439e+01,2.41165e+00,5.36565e-01,2.58452e+00
4.26200e+02,-2.69763e+00,-2.60835e+01,2.36262e+00,5.47049e-01,2.54554e+00
4.26200e+02,-1.86603e+00,-2.28231e+01,2.31339e+00,5.57488e-01,2.50682e+00
4.26200e+02,-1.02802e+00,-1.95626e+01,2.26346e+00,5.67877e-01,2.46794e+00
4.26200e+02,-1.90083e-01,-1.63022e+01,2.21354e+00,5.78215e-01,2.42956e+00
4.26200e+02,6.44682e-01,-1.30417e+01,2.16396e+00,5.88501e-01,2.39202e+00
4.26200e+02,1.47945e+00,-9.78131e+00,2.11439e+00,5.98732e-01,2.35501e+00
4.26200e+02,2.29445e+00,-6.52087e+00,2.06699e+00,6.08914e-01,2.32051e+00
4.26200e+02,3.10576e+00,-3.26044e+00,2.01999e+00,6.19051e-01,2.28693e+00
5.30600e+02,4.10127e+01,0.00000e+00,-1.86630e+00,5.85897e-01,2.12436e+00
5.30600e+02,4.08062e+01,-3.11654e+00,-1.88184e+00,5.76957e-01,2.13071e+00
5.30600e+02,4.05314e+01,-6.23307e+00,-1.89080e+00,5.67799e-01,2.13127e+00
5.30600e+02,4.02539e+01,-9.34961e+00,-1.89949e+00,5.58432e-01,2.13158e+00
5.30600e+02,3.99161e+01,-1.24661e+01,-1.90238e+00,5.48876e-01,2.12670e+00
5.30600e+02,3.95644e+01,-1.55827e+01,-1.90392e+00,5.39142e-01,2.12060e+00
5.30600e+02,3.91664e+01,-1.86992e+01,-1.90100e+00,5.29246e-01,2.11047e+00
5.30600e+02,3.87460e+01,-2.18158e+01,-1.89591e+00,5.19201e-01,2.09838e+00
5.30600e+02,3.82884e+01,-2.49323e+01,-1.88725e+00,5.09021e-01,2.08303e+00
5.30600e+02,3.78003e+01,-2.80488e+01,-1.87563e+00,4.98720e-01,2.06499e+00
5.30600e+02,3.72787e+01,-3.11654e+01,-1.86078e+00,4.88310e-01,2.04398e+00
5.30600e+02,3.67164e+01,-3.42819e+01,-1.84202e+00,4.77805e-01,2.01939e+00
5.30600e+02,3.61125e+01,-3.73984e+01,-1.81924e+00,4.67219e-01,1.99111e+00
5.30600e+02,3.54497e+01,-4.05150e+01,-1.79077e+00,4.56571e-01,1.95761e+00
5.30600e+02,3.47295e+01,-4.36315e+01,-1.75678e+00,4.45881e-01,1.91903e+00
5.30600e+02,3.39406e+01,-4.67480e+01,-1.71616e+00,4.35164e-01,1.87438e+00
5.30600e+02,3.30589e+01,-4.98646e+01,-1.66658e+00,4.24460e-01,1.82154e+00
5.30600e+02,3.21125e+01,-5.29811e+01,-1.61077e+00,4.13774e-01,1.76301e+00
5.30600e+02,3.10206e+01,-5.60976e+01,-1.54093e+00,4.03165e-01,1.69177e+00
5.30600e+02,2.98685e+01,-5.92142e+01,-1.46527e+00,3.92657e-01,1.61542e+00
5.30600e+02,2.85484e+01,-6.23307e+01,-1.37342e+00,3.82277e-01,1.52469e+00
5.30600e+02,2.70936e+01,-6.54473e+01,-1.26858e+00,3.72112e-01,1.42292e+00
5.30600e+02,2.55018e+01,-6.85638e+01,-1.15052e+00,3.62179e-01,1.31043e+00
5.30600e+02,2.36801e+01,-7.16803e+01,-1.01029e+00,3.52515e-01,1.18046e+00
5.30600e+02,2.15920e+01,-7.47969e+01,-8.44373e-01,3.43237e-01,1.03267e+00
5.30600e+02,1.92028e+01,-7.79134e+01,-6.49415e-01,3.34456e-01,8.70243e-01
5.30600e+02,1.63770e+01,-8.10299e+01,-4.12344e-01,3.26246e-01,6.99526e-01
5.30600e+02,1.27498e+01,-8.41465e+01,-9.79884e-02,3.19008e-01,5.61159e-01
5.30600e+02,7.84413e+00,-8.72630e+01,3.39666e-01,3.14587e-01,6.42082e-01
5.30600e+02,-3.17838e+00,-9.03795e+01,1.36725e+00,3.16342e-01,1.47295e+00
5.30600e+02,-3.97388e+00,-9.03868e+01,1.44389e+00,3.21786e-01,1.54772e+00
5.30600e+02,-1.12214e+01,-8.71587e+01,2.17959e+00,3.32110e-01,2.25422e+00
5.30600e+02,-1.20989e+01,-8.39306e+01,2.30095e+00,3.39737e-01,2.37500e+00
5.30600e+02,-1.24018e+01,-8.07025e+01,2.36688e+00,3.47762e-01,2.44233e+00
5.30600e+02,-1.24477e+01,-7.74744e+01,2.40805e+00,3.56159e-01,2.48581e+00
5.30600e+02,-1.23001e+01,-7.42463e+01,2.43055e+00,3.64862e-01,2.51136e+00
5.30600e+02,-1.20311e+01,-7.10182e+01,2.44133e+00,3.73820e-01,2.52573e+00
5.30600e+02,-1.16402e+01,-6.77901e+01,2.44036e+00,3.82981e-01,2.52891e+00
5.30600e+02,-1.11748e+01,-6.45620e+01,2.43221e+00,3.92299e-01,2.52534e+00
5.30600e+02,-1.06664e+01,-6.13339e+01,2.41990e+00,4.01752e-01,2.51797e+00
5.30600e+02,-1.00929e+01,-5.81058e+01,2.40133e+00,4.11313e-01,2.50478e+00
5.30600e+02,-9.47882e+00,-5.48777e+01,2.37883e+00,4.20955e-01,2.48806e+00
5.30600e+02,-8.82518e+00,-5.16496e+01,2.35253e+00,4.30661e-01,2.46795e+00
5.30600e+02,-8.13212e+00,-4.84215e+01,2.32242e+00,4.40408e-01,2.44448e+00
5.30600e+02,-7.41437e+00,-4.51934e+01,2.28992e+00,4.50181e-01,2.41904e+00
5.30600e+02,-6.66496e+00,-4.19653e+01,2.25438e+00,4.59966e-01,2.39101e+00
5.30600e+02,-5.89529e+00,-3.87372e+01,2.21688e+00,4.69746e-01,2.36147e+00
5.30600e+02,-5.10745e+00,-3.55091e+01,2.17763e+00,4.79512e-01,2.33064e+00
5.30600e+02,-4.30339e+00,-3.22810e+01,2.13681e+00,4.89252e-01,2.29871e+00
5.30600e+02,-3.49245e+00,-2.90529e+01,2.09534e+00,4.98960e-01,2.26657e+00
5.30600e+02,-2.67088e+00,-2.58248e+01,2.05283e+00,5.08630e-01,2.23388e+00
5.30600e+02,-1.84753e+00,-2.25967e+01,2.01016e+00,5.18258e-01,2.20148e+00
5.30600e+02,-1.01782e+00,-1.93686e+01,1.96687e+00,5.27841e-01,2.16897e+00
5.30600e+02,-1.88198e-01,-1.61405e+01,1.92359e+00,5.37376e-01,2.13694e+00
5.30600e+02,6.38288e-01,-1.29124e+01,1.88061e+00,5.46864e-01,2.10568e+00
5.30600e+02,1.46477e+00,-9.68430e+00,1.83763e+00,5.56300e-01,2.07492e+00
5.30600e+02,2.27169e+00,-6.45620e+00,1.79654e+00,5.65691e-01,2.04636e+00
5.30600e+02,3.07496e+00,-3.22810e+00,1.75580e+00,5.75042e-01,2.01863e+00
6.33500e+02,4.06078e+01,0.00000e+00,-1.60611e+00,5.41065e-01,1.85953e+00
6.33500e+02,4.04033e+01,-3.08576e+00,-1.61959e+00,5.32862e-01,1.86411e+00
6.33500e+02,4.01312e+01,-6.17153e+00,-1.62740e+00,5.24459e-01,1.86376e+00
6.33500e+02,3.98564e+01,-9.25729e+00,-1.63499e+00,5.15866e-01,1.86321e+00
6.33500e+02,3.95220e+01,-1.23431e+01,-1.63757e+00,5.07097e-01,1.85825e+00
6.33500e+02,3.91738e+01,-1.54288e+01,-1.63899e+00,4.98167e-01,1.85224e+00
6.33500e+02,3.87797e+01,-1.85146e+01,-1.63658e+00,4.89087e-01,1.84282e+00
6.33500e+02,3.83634e+01,-2.16004e+01,-1.63230e+00,4.79871e-01,1.83173e+00
6.33500e+02,3.79104e+01,-2.46861e+01,-1.62493e+00,4.70530e-01,1.81785e+00
6.33500e+02,3.74271e+01,-2.77719e+01,-1.61503e+00,4.61079e-01,1.80169e+00
6.33500e+02,3.69106e+01,-3.08576e+01,-1.60234e+00,4.51528e-01,1.78301e+00
6.33500e+02,3.63539e+01,-3.39434e+01,-1.58628e+00,4.41890e-01,1.76127e+00
6.33500e+02,3.57559e+01,-3.70292e+01,-1.56677e+00,4.32177e-01,1.73640e+00
6.33500e+02,3.50997e+01,-4.01149e+01,-1.54236e+00,4.22407e-01,1.70709e+00
6.33500e+02,3.43866e+01,-4.32007e+01,-1.51318e+00,4.12599e-01,1.67345e+00
6.33500e+02,3.36055e+01,-4.62865e+01,-1.47831e+00,4.02767e-01,1.63465e+00
6.33500e+02,3.27325e+01,-4.93722e+01,-1.43572e+00,3.92945e-01,1.58887e+00
6.33500e+02,3.17954e+01,-5.24580e+01,-1.38777e+00,3.83141e-01,1.53827e+00
6.33500e+02,3.07144e+01,-5.55438e+01,-1.32773e+00,3.73408e-01,1.47688e+00
6.33500e+02,2.95736e+01,-5.86295e+01,-1.26269e+00,3.63767e-01,1.41116e+00
6.33500e+02,2.82665e+01,-6.17153e+01,-1.18370e+00,3.54243e-01,1.33327e+00
6.33500e+02,2.68261e+01,-6.48011e+01,-1.09353e+00,3.44917e-01,1.24608e+00
6.33500e+02,2.52500e+01,-6.78868e+01,-9.91982e-01,3.35804e-01,1.14992e+00
6.33500e+02,2.34463e+01,-7.09726e+01,-8.71342e-01,3.26937e-01,1.03918e+00
6.33500e+02,2.13788e+01,-7.40584e+01,-7.28581e-01,3.18424e-01,9.13790e-01
6.33500e+02,1.90132e+01,-7.71441e+01,-5.60821e-01,3.10368e-01,7.76856e-01
6.33500e+02,1.62153e+01,-8.02299e+01,-3.56800e-01,3.02835e-01,6.34377e-01
6.33500e+02,1.26239e+01,-8.33156e+01,-8.62379e-02,2.96195e-01,5.20222e-01
6.33500e+02,7.76668e+00,-8.64014e+01,2.90485e-01,2.92139e-01,5.83453e-01
6.33500e+02,-3.14700e+00,-8.94872e+01,1.17513e+00,2.93749e-01,1.28055e+00
6.33500e+02,-3.93464e+00,-8.94943e+01,1.24112e+00,2.98744e-01,1.34466e+00
6.33500e+02,-1.11106e+01,-8.62981e+01,1.87466e+00,3.08217e-01,1.94919e+00
6.33500e+02,-1.19795e+01,-8.31019e+01,1.97926e+00,3.15214e-01,2.05318e+00
6.33500e+02,-1.22793e+01,-7.99057e+01,2.03613e+00,3.22577e-01,2.11139e+00
6.33500e+02,-1.23248e+01,-7.67094e+01,2.07167e+00,3.30282e-01,2.14920e+00
6.33500e+02,-1.21787e+01,-7.35132e+01,2.09114e+00,3.38267e-01,2.17167e+00
6.33500e+02,-1.19123e+01,-7.03170e+01,2.10053e+00,3.46485e-01,2.18458e+00
6.33500e+02,-1.15252e+01,-6.71208e+01,2.09979e+00,3.54890e-01,2.18791e+00
6.33500e+02,-1.10645e+01,-6.39245e+01,2.09288e+00,3.63440e-01,2.18550e+00
6.33500e+02,-1.05611e+01,-6.07283e+01,2.08238e+00,3.72113e-01,2.17985e+00
6.33500e+02,-9.99326e+00,-5.75321e+01,2.06649e+00,3.80885e-01,2.16924e+00
6.33500e+02,-9.38524e+00,-5.43358e+01,2.04723e+00,3.89732e-01,2.15564e+00
6.33500e+02,-8.73804e+00,-5.11396e+01,2.02467e+00,3.98636e-01,2.13917e+00
6.33500e+02,-8.05183e+00,-4.79434e+01,1.99885e+00,4.07579e-01,2.11985e+00
6.33500e+02,-7.34116e+00,-4.47472e+01,1.97098e+00,4.16546e-01,2.09888e+00
6.33500e+02,-6.59916e+00,-4.15509e+01,1.94048e+00,4.25523e-01,2.07573e+00
6.33500e+02,-5.83709e+00,-3.83547e+01,1.90829e+00,4.34496e-01,2.05132e+00
6.33500e+02,-5.05702e+00,-3.51585e+01,1.87460e+00,4.43456e-01,2.02585e+00
6.33500e+02,-4.26090e+00,-3.19623e+01,1.83956e+00,4.52393e-01,1.99949e+00
6.33500e+02,-3.45797e+00,-2.87660e+01,1.80394e+00,4.61300e-01,1.97297e+00
6.33500e+02,-2.64450e+00,-2.55698e+01,1.76745e+00,4.70172e-01,1.94604e+00
6.33500e+02,-1.82928e+00,-2.23736e+01,1.73081e+00,4.79005e-01,1.91938e+00
6.33500e+02,-1.00777e+00,-1.91774e+01,1.69364e+00,4.87797e-01,1.89268e+00
6.33500e+02,-1.86340e-01,-1.59811e+01,1.65647e+00,4.96545e-01,1.86643e+00
6.33500e+02,6.31986e-01,-1.27849e+01,1.61957e+00,5.05250e-01,1.84088e+00
6.33500e+02,1.45031e+00,-9.58868e+00,1.58267e+00,5.13908e-01,1.81580e+00
6.33500e+02,2.24926e+00,-6.39245e+00,1.54739e+00,5.22524e-01,1.79263e+00
6.33500e+02,3.04460e+00,-3.19623e+00,1.51242e+00,5.31103e-01,1.77020e+00
7.34700e+02,4.02095e+01,0.00000e+00,-1.36855e+00,4.96274e-01,1.61611e+00
7.34700e+02,4.00070e+01,-3.05550e+00,-1.38014e+00,4.88792e-01,1.61912e+00
7.34700e+02,3.97376e+01,-6.11100e+00,-1.38690e+00,4.81129e-01,1.61801e+00
7.34700e+02,3.94656e+01,-9.16651e+00,-1.39347e+00,4.73291e-01,1.61672e+00
7.34700e+02,3.91344e+01,-1.22220e+01,-1.39577e+00,4.65294e-01,1.61173e+00
7.34700e+02,3.87896e+01,-1.52775e+01,-1.39709e+00,4.57148e-01,1.60587e+00
7.34700e+02,3.83994e+01,-1.83330e+01,-1.39513e+00,4.48867e-01,1.59713e+00
7.34700e+02,3.79872e+01,-2.13885e+01,-1.39158e+00,4.40462e-01,1.58698e+00
7.34700e+02,3.75386e+01,-2.44440e+01,-1.38540e+00,4.31943e-01,1.57450e+00
7.34700e+02,3.70601e+01,-2.74995e+01,-1.37706e+00,4.23323e-01,1.56009e+00
7.34700e+02,3.65486e+01,-3.05550e+01,-1.36634e+00,4.14612e-01,1.54356e+00
7.34700e+02,3.59973e+01,-3.36105e+01,-1.35275e+00,4.05822e-01,1.52447e+00
7.34700e+02,3.54053e+01,-3.66660e+01,-1.33621e+00,3.96963e-01,1.50273e+00
7.34700e+02,3.47554e+01,-3.97215e+01,-1.31550e+00,3.88053e-01,1.47726e+00
7.34700e+02,3.40493e+01,-4.27770e+01,-1.29073e+00,3.79108e-01,1.44815e+00
7.34700e+02,3.32760e+01,-4.58325e+01,-1.26110e+00,3.70140e-01,1.41470e+00
7.34700e+02,3.24115e+01,-4.88880e+01,-1.22489e+00,3.61182e-01,1.37540e+00
7.34700e+02,3.14836e+01,-5.19435e+01,-1.18411e+00,3.52241e-01,1.33204e+00
7.34700e+02,3.04131e+01,-5.49990e+01,-1.13303e+00,3.43364e-01,1.27963e+00
7.34700e+02,2.92835e+01,-5.80545e+01,-1.07767e+00,3.34571e-01,1.22360e+00
7.34700e+02,2.79893e+01,-6.11100e+01,-1.01043e+00,3.25885e-01,1.15740e+00
7.34700e+02,2.65630e+01,-6.41655e+01,-9.33661e-01,3.17380e-01,1.08347e+00
7.34700e+02,2.50024e+01,-6.72210e+01,-8.47191e-01,3.09068e-01,1.00215e+00
7.34700e+02,2.32164e+01,-7.02765e+01,-7.44442e-01,3.00981e-01,9.08825e-01
7.34700e+02,2.11691e+01,-7.33320e+01,-6.22835e-01,2.93217e-01,8.03650e-01
7.34700e+02,1.88268e+01,-7.63875e+01,-4.79916e-01,2.85870e-01,6.89553e-01
7.34700e+02,1.60563e+01,-7.94430e+01,-3.06083e-01,2.79000e-01,5.72023e-01
7.34700e+02,1.25001e+01,-8.24985e+01,-7.55233e-02,2.72944e-01,4.78747e-01
7.34700e+02,7.69051e+00,-8.55540e+01,2.45541e-01,2.69246e-01,5.27039e-01
7.34700e+02,-3.11614e+00,-8.86096e+01,9.99623e-01,2.70714e-01,1.10413e+00
7.34700e+02,-3.89606e+00,-8.86166e+01,1.05588e+00,2.75270e-01,1.15853e+00
7.34700e+02,-1.10017e+01,-8.54518e+01,1.59609e+00,2.83909e-01,1.67012e+00
7.34700e+02,-1.18620e+01,-8.22869e+01,1.68536e+00,2.90291e-01,1.75876e+00
7.34700e+02,-1.21589e+01,-7.91220e+01,1.73395e+00,2.97007e-01,1.80865e+00
7.34700e+02,-1.22039e+01,-7.59571e+01,1.76435e+00,3.04033e-01,1.84126e+00
7.34700e+02,-1.20592e+01,-7.27922e+01,1.78105e+00,3.11316e-01,1.86089e+00
7.34700e+02,-1.17955e+01,-6.96274e+01,1.78916e+00,3.18812e-01,1.87244e+00
7.34700e+02,-1.14122e+01,-6.64625e+01,1.78864e+00,3.26477e-01,1.87589e+00
7.34700e+02,-1.09560e+01,-6.32976e+01,1.78285e+00,3.34275e-01,1.87450e+00
7.34700e+02,-1.04575e+01,-6.01327e+01,1.77400e+00,3.42185e-01,1.87039e+00
7.34700e+02,-9.89525e+00,-5.69678e+01,1.76055e+00,3.50185e-01,1.86211e+00
7.34700e+02,-9.29319e+00,-5.38030e+01,1.74423e+00,3.58253e-01,1.85132e+00
7.34700e+02,-8.65235e+00,-5.06381e+01,1.72511e+00,3.66375e-01,1.83812e+00
7.34700e+02,-7.97287e+00,-4.74732e+01,1.70320e+00,3.74531e-01,1.82256e+00
7.34700e+02,-7.26917e+00,-4.43083e+01,1.67954e+00,3.82709e-01,1.80562e+00
7.34700e+02,-6.53444e+00,-4.11434e+01,1.65364e+00,3.90896e-01,1.78688e+00
7.34700e+02,-5.77984e+00,-3.79786e+01,1.62631e+00,3.99080e-01,1.76711e+00
7.34700e+02,-5.00742e+00,-3.48137e+01,1.59768e+00,4.07251e-01,1.74647e+00
7.34700e+02,-4.21911e+00,-3.16488e+01,1.56791e+00,4.15401e-01,1.72512e+00
7.34700e+02,-3.42406e+00,-2.84839e+01,1.53766e+00,4.23525e-01,1.70368e+00
7.34700e+02,-2.61857e+00,-2.53190e+01,1.50665e+00,4.31616e-01,1.68192e+00
7.34700e+02,-1.81134e+00,-2.21542e+01,1.47551e+00,4.39672e-01,1.66044e+00
7.34700e+02,-9.97887e-01,-1.89893e+01,1.44393e+00,4.47691e-01,1.63897e+00
7.34700e+02,-1.84513e-01,-1.58244e+01,1.41235e+00,4.55669e-01,1.61791e+00
7.34700e+02,6.25788e-01,-1.26595e+01,1.38099e+00,4.63608e-01,1.59748e+00
7.34700e+02,1.43609e+00,-9.49464e+00,1.34963e+00,4.71503e-01,1.57748e+00
7.34700e+02,2.22720e+00,-6.32976e+00,1.31966e+00,4.79361e-01,1.55912e+00
7.34700e+02,3.01474e+00,-3.16488e+00,1.28995e+00,4.87185e-01,1.54143e+00
8.33800e+02,3.98196e+01,0.00000e+00,-1.15395e+00,4.51832e-01,1.39429e+00
8.33800e+02,3.96190e+01,-3.02587e+00,-1.16383e+00,4.45051e-01,1.39596e+00
8.33800e+02,3.93522e+01,-6.05173e+00,-1.16963e+00,4.38105e-01,1.39422e+00
8.33800e+02,3.90828e+01,-9.07760e+00,-1.17527e+00,4.31002e-01,1.39231e+00
8.33800e+02,3.87549e+01,-1.21035e+01,-1.17731e+00,4.23754e-01,1.38736e+00
8.33800e+02,3.84134e+01,-1.51293e+01,-1.17851e+00,4.16372e-01,1.38166e+00
8.33800e+02,3.80270e+01,-1.81552e+01,-1.17696e+00,4.08867e-01,1.37359e+00
8.33800e+02,3.76188e+01,-2.11811e+01,-1.17406e+00,4.01249e-01,1.36434e+00
8.33800e+02,3.71745e+01,-2.42069e+01,-1.16895e+00,3.93529e-01,1.35316e+00
8.33800e+02,3.67006e+01,-2.72328e+01,-1.16201e+00,3.85716e-01,1.34037e+00
8.33800e+02,3.61941e+01,-3.02587e+01,-1.15307e+00,3.77822e-01,1.32582e+00
8.33800e+02,3.56482e+01,-3.32845e+01,-1.14170e+00,3.69855e-01,1.30914e+00
8.33800e+02,3.50619e+01,-3.63104e+01,-1.12784e+00,3.61827e-01,1.29027e+00
8.33800e+02,3.44183e+01,-3.93363e+01,-1.11047e+00,3.53752e-01,1.26829e+00
8.33800e+02,3.37191e+01,-4.23621e+01,-1.08967e+00,3.45645e-01,1.24330e+00
8.33800e+02,3.29532e+01,-4.53880e+01,-1.06477e+00,3.37518e-01,1.21470e+00
8.33800e+02,3.20971e+01,-4.84139e+01,-1.03433e+00,3.29400e-01,1.18125e+00
8.33800e+02,3.11783e+01,-5.14397e+01,-1.00002e+00,3.21296e-01,1.14444e+00
8.33800e+02,3.01182e+01,-5.44656e+01,-9.57024e-01,3.13251e-01,1.10012e+00
8.33800e+02,2.89995e+01,-5.74915e+01,-9.10427e-01,3.05282e-01,1.05284e+00
8.33800e+02,2.77178e+01,-6.05173e+01,-8.53798e-01,2.97411e-01,9.97162e-01
8.33800e+02,2.63054e+01,-6.35432e+01,-7.89129e-01,2.89702e-01,9.35151e-01
8.33800e+02,2.47599e+01,-6.65691e+01,-7.16279e-01,2.82170e-01,8.67130e-01
8.33800e+02,2.29912e+01,-6.95949e+01,-6.29695e-01,2.74841e-01,7.89385e-01
8.33800e+02,2.09638e+01,-7.26208e+01,-5.27203e-01,2.67805e-01,7.02211e-01
8.33800e+02,1.86442e+01,-7.56467e+01,-4.06730e-01,2.61146e-01,6.08293e-01
8.33800e+02,1.59005e+01,-7.86725e+01,-2.60178e-01,2.54920e-01,5.12490e-01
8.33800e+02,1.23789e+01,-8.16984e+01,-6.57687e-02,2.49432e-01,4.37006e-01
8.33800e+02,7.61592e+00,-8.47243e+01,2.04993e-01,2.46080e-01,4.72957e-01
8.33800e+02,-3.08591e+00,-8.77501e+01,8.41061e-01,2.47411e-01,9.43939e-01
8.33800e+02,-3.85827e+00,-8.77572e+01,8.88518e-01,2.51541e-01,9.89587e-01
8.33800e+02,-1.08950e+01,-8.46230e+01,1.34436e+00,2.59370e-01,1.41744e+00
8.33800e+02,-1.17470e+01,-8.14888e+01,1.41977e+00,2.65154e-01,1.49221e+00
8.33800e+02,-1.20409e+01,-7.83546e+01,1.46086e+00,2.71240e-01,1.53455e+00
8.33800e+02,-1.20856e+01,-7.52204e+01,1.48662e+00,2.77608e-01,1.56244e+00
8.33800e+02,-1.19423e+01,-7.20862e+01,1.50081e+00,2.84208e-01,1.57948e+00
8.33800e+02,-1.16811e+01,-6.89521e+01,1.50775e+00,2.91002e-01,1.58977e+00
8.33800e+02,-1.13015e+01,-6.58179e+01,1.50741e+00,2.97949e-01,1.59330e+00
8.33800e+02,-1.08497e+01,-6.26837e+01,1.50263e+00,3.05015e-01,1.59279e+00
8.33800e+02,-1.03561e+01,-5.95495e+01,1.49527e+00,3.12184e-01,1.59003e+00
8.33800e+02,-9.79928e+00,-5.64153e+01,1.48403e+00,3.19434e-01,1.58381e+00
8.33800e+02,-9.20306e+00,-5.32811e+01,1.47036e+00,3.26746e-01,1.57551e+00
8.33800e+02,-8.56843e+00,-5.01469e+01,1.45433e+00,3.34106e-01,1.56523e+00
8.33800e+02,-7.89554e+00,-4.70128e+01,1.43595e+00,3.41498e-01,1.55300e+00
8.33800e+02,-7.19866e+00,-4.38786e+01,1.41609e+00,3.48910e-01,1.53965e+00
8.33800e+02,-6.47106e+00,-4.07444e+01,1.39434e+00,3.56329e-01,1.52483e+00
8.33800e+02,-5.72378e+00,-3.76102e+01,1.37138e+00,3.63746e-01,1.50918e+00
8.33800e+02,-4.95886e+00,-3.44760e+01,1.34734e+00,3.71152e-01,1.49284e+00
8.33800e+02,-4.17819e+00,-3.13418e+01,1.32232e+00,3.78538e-01,1.47595e+00
8.33800e+02,-3.39085e+00,-2.82077e+01,1.29690e+00,3.85900e-01,1.45901e+00
8.33800e+02,-2.59317e+00,-2.50735e+01,1.27084e+00,3.93232e-01,1.44185e+00
8.33800e+02,-1.79378e+00,-2.19393e+01,1.24468e+00,4.00533e-01,1.42496e+00
8.33800e+02,-9.88209e-01,-1.88051e+01,1.21813e+00,4.07800e-01,1.40810e+00
8.33800e+02,-1.82723e-01,-1.56709e+01,1.19160e+00,4.15031e-01,1.39164e+00
8.33800e+02,6.19718e-01,-1.25367e+01,1.16524e+00,4.22225e-01,1.37572e+00
8.33800e+02,1.42216e+00,-9.40255e+00,1.13889e+00,4.29381e-01,1.36021e+00
8.33800e+02,2.20560e+00,-6.26837e+00,1.11371e+00,4.36502e-01,1.34609e+00
8.33800e+02,2.98550e+00,-3.13418e+00,1.08874e+00,4.43592e-01,1.33255e+00
9.30700e+02,3.94382e+01,0.00000e+00,-9.61706e-01,4.07987e-01,1.19341e+00
9.30700e+02,3.92396e+01,-2.99689e+00,-9.70036e-01,4.01885e-01,1.19394e+00
9.30700e+02,3.89754e+01,-5.99378e+00,-9.74967e-01,3.95635e-01,1.19170e+00
9.30700e+02,3.87085e+01,-8.99067e+00,-9.79763e-01,3.89244e-01,1.18931e+00
9.30700e+02,3.83837e+01,-1.19876e+01,-9.81559e-01,3.82722e-01,1.18444e+00
9.30700e+02,3.80455e+01,-1.49844e+01,-9.82659e-01,3.76080e-01,1.17895e+00
9.30700e+02,3.76628e+01,-1.79813e+01,-9.81456e-01,3.69326e-01,1.17152e+00
9.30700e+02,3.72585e+01,-2.09782e+01,-9.79135e-01,3.62472e-01,1.16313e+00
9.30700e+02,3.68185e+01,-2.39751e+01,-9.74964e-01,3.55525e-01,1.15315e+00
9.30700e+02,3.63492e+01,-2.69720e+01,-9.69273e-01,3.48495e-01,1.14186e+00
9.30700e+02,3.58475e+01,-2.99689e+01,-9.61911e-01,3.41392e-01,1.12912e+00
9.30700e+02,3.53068e+01,-3.29658e+01,-9.52525e-01,3.34223e-01,1.11464e+00
9.30700e+02,3.47261e+01,-3.59627e+01,-9.41067e-01,3.27000e-01,1.09836e+00
9.30700e+02,3.40887e+01,-3.89596e+01,-9.26675e-01,3.19734e-01,1.07954e+00
9.30700e+02,3.33962e+01,-4.19565e+01,-9.09425e-01,3.12439e-01,1.05826e+00
9.30700e+02,3.26376e+01,-4.49533e+01,-8.88758e-01,3.05126e-01,1.03402e+00
9.30700e+02,3.17897e+01,-4.79502e+01,-8.63463e-01,2.97822e-01,1.00581e+00
9.30700e+02,3.08797e+01,-5.09471e+01,-8.34950e-01,2.90530e-01,9.74867e-01
9.30700e+02,2.98297e+01,-5.39440e+01,-7.99192e-01,2.83291e-01,9.37800e-01
9.30700e+02,2.87218e+01,-5.69409e+01,-7.60431e-01,2.76121e-01,8.98323e-01
9.30700e+02,2.74524e+01,-5.99378e+01,-7.13305e-01,2.69038e-01,8.52026e-01
9.30700e+02,2.60534e+01,-6.29347e+01,-6.59475e-01,2.62102e-01,8.00625e-01
9.30700e+02,2.45228e+01,-6.59316e+01,-5.98822e-01,2.55324e-01,7.44419e-01
9.30700e+02,2.27710e+01,-6.89285e+01,-5.26718e-01,2.48730e-01,6.80464e-01
9.30700e+02,2.07631e+01,-7.19254e+01,-4.41348e-01,2.42399e-01,6.09147e-01
9.30700e+02,1.84656e+01,-7.49222e+01,-3.40985e-01,2.36408e-01,5.32857e-01
9.30700e+02,1.57483e+01,-7.79191e+01,-2.18876e-01,2.30806e-01,4.55764e-01
9.30700e+02,1.22603e+01,-8.09160e+01,-5.68603e-02,2.25868e-01,3.95325e-01
9.30700e+02,7.54299e+00,-8.39129e+01,1.68822e-01,2.22852e-01,4.21296e-01
9.30700e+02,-3.05636e+00,-8.69098e+01,6.99118e-01,2.24050e-01,7.99600e-01
9.30700e+02,-3.82132e+00,-8.69168e+01,7.38690e-01,2.27765e-01,8.37433e-01
9.30700e+02,-1.07906e+01,-8.38126e+01,1.11889e+00,2.34811e-01,1.19052e+00
9.30700e+02,-1.16345e+01,-8.07084e+01,1.18188e+00,2.40015e-01,1.25286e+00
9.30700e+02,-1.19256e+01,-7.76042e+01,1.21624e+00,2.45491e-01,1.28842e+00
9.30700e+02,-1.19698e+01,-7.45001e+01,1.23781e+00,2.51221e-01,1.31206e+00
9.30700e+02,-1.18279e+01,-7.13959e+01,1.24974e+00,2.57160e-01,1.32674e+00
9.30700e+02,-1.15692e+01,-6.82917e+01,1.25563e+00,2.63272e-01,1.33587e+00
9.30700e+02,-1.11933e+01,-6.51876e+01,1.25544e+00,2.69523e-01,1.33942e+00
9.30700e+02,-1.07458e+01,-6.20834e+01,1.25155e+00,2.75882e-01,1.33967e+00
9.30700e+02,-1.02569e+01,-5.89792e+01,1.24551e+00,2.82332e-01,1.33807e+00
9.30700e+02,-9.70544e+00,-5.58751e+01,1.23623e+00,2.88856e-01,1.33364e+00
9.30700e+02,-9.11493e+00,-5.27709e+01,1.22494e+00,2.95435e-01,1.32752e+00
9.30700e+02,-8.48637e+00,-4.96667e+01,1.21167e+00,3.02058e-01,1.31979e+00
9.30700e+02,-7.81993e+00,-4.65625e+01,1.19643e+00,3.08709e-01,1.31048e+00
9.30700e+02,-7.12973e+00,-4.34584e+01,1.17997e+00,3.15378e-01,1.30028e+00
9.30700e+02,-6.40909e+00,-4.03542e+01,1.16194e+00,3.22054e-01,1.28890e+00
9.30700e+02,-5.66897e+00,-3.72500e+01,1.14289e+00,3.28727e-01,1.27686e+00
9.30700e+02,-4.91137e+00,-3.41459e+01,1.12294e+00,3.35391e-01,1.26430e+00
9.30700e+02,-4.13818e+00,-3.10417e+01,1.10218e+00,3.42036e-01,1.25130e+00
9.30700e+02,-3.35837e+00,-2.79375e+01,1.08108e+00,3.48660e-01,1.23831e+00
9.30700e+02,-2.56834e+00,-2.48334e+01,1.05944e+00,3.55258e-01,1.22517e+00
9.30700e+02,-1.77660e+00,-2.17292e+01,1.03772e+00,3.61827e-01,1.21228e+00
9.30700e+02,-9.78745e-01,-1.86250e+01,1.01569e+00,3.68366e-01,1.19946e+00
9.30700e+02,-1.80973e-01,-1.55208e+01,9.93655e-01,3.74872e-01,1.18699e+00
9.30700e+02,6.13784e-01,-1.24167e+01,9.71779e-01,3.81345e-01,1.17500e+00
9.30700e+02,1.40854e+00,-9.31251e+00,9.49903e-01,3.87783e-01,1.16338e+00
9.30700e+02,2.18448e+00,-6.20834e+00,9.29002e-01,3.94191e-01,1.15291e+00
9.30700e+02,2.95691e+00,-3.10417e+00,9.08282e-01,4.00571e-01,1.14295e+00
1.02500e+03,3.90671e+01,0.00000e+00,-7.91524e-01,3.65102e-01,1.01312e+00
1.02500e+03,3.88704e+01,-2.96869e+00,-7.98472e-01,3.59648e-01,1.01272e+00
1.02500e+03,3.86086e+01,-5.93738e+00,-8.02621e-01,3.54061e-01,1.01009e+00
1.02500e+03,3.83443e+01,-8.90607e+00,-8.06658e-01,3.48348e-01,1.00734e+00
1.02500e+03,3.80226e+01,-1.18748e+01,-8.08225e-01,3.42518e-01,1.00259e+00
1.02500e+03,3.76875e+01,-1.48435e+01,-8.09219e-01,3.36580e-01,9.97344e-01
1.02500e+03,3.73084e+01,-1.78121e+01,-8.08316e-01,3.30544e-01,9.90531e-01
1.02500e+03,3.69079e+01,-2.07808e+01,-8.06493e-01,3.24417e-01,9.82939e-01
1.02500e+03,3.64721e+01,-2.37495e+01,-8.03146e-01,3.18207e-01,9.74069e-01
1.02500e+03,3.60071e+01,-2.67182e+01,-7.98548e-01,3.11923e-01,9.64141e-01
1.02500e+03,3.55102e+01,-2.96869e+01,-7.92573e-01,3.05573e-01,9.53046e-01
1.02500e+03,3.49746e+01,-3.26556e+01,-7.84931e-01,2.99166e-01,9.40541e-01
1.02500e+03,3.43994e+01,-3.56243e+01,-7.75584e-01,2.92709e-01,9.26588e-01
1.02500e+03,3.37680e+01,-3.85930e+01,-7.63820e-01,2.86214e-01,9.10591e-01
1.02500e+03,3.30819e+01,-4.15617e+01,-7.49702e-01,2.79693e-01,8.92602e-01
1.02500e+03,3.23305e+01,-4.45304e+01,-7.32771e-01,2.73157e-01,8.72237e-01
1.02500e+03,3.14906e+01,-4.74990e+01,-7.12028e-01,2.66627e-01,8.48678e-01
1.02500e+03,3.05891e+01,-5.04677e+01,-6.88635e-01,2.60110e-01,8.22916e-01
1.02500e+03,2.95491e+01,-5.34364e+01,-6.59276e-01,2.53639e-01,7.92239e-01
1.02500e+03,2.84516e+01,-5.64051e+01,-6.27444e-01,2.47230e-01,7.59641e-01
1.02500e+03,2.71940e+01,-5.93738e+01,-5.88724e-01,2.40899e-01,7.21590e-01
1.02500e+03,2.58083e+01,-6.23425e+01,-5.44482e-01,2.34699e-01,6.79494e-01
1.02500e+03,2.42920e+01,-6.53112e+01,-4.94622e-01,2.28640e-01,6.33625e-01
1.02500e+03,2.25567e+01,-6.82799e+01,-4.35332e-01,2.22746e-01,5.81688e-01
1.02500e+03,2.05677e+01,-7.12486e+01,-3.65117e-01,2.17087e-01,5.24110e-01
1.02500e+03,1.82919e+01,-7.42173e+01,-2.82556e-01,2.11731e-01,4.62956e-01
1.02500e+03,1.56001e+01,-7.71859e+01,-1.82086e-01,2.06724e-01,4.01696e-01
1.02500e+03,1.21450e+01,-8.01546e+01,-4.87536e-02,2.02310e-01,3.53786e-01
1.02500e+03,7.47201e+00,-8.31233e+01,1.37009e-01,1.99615e-01,3.71900e-01
1.02500e+03,-3.02760e+00,-8.60920e+01,5.73623e-01,2.00686e-01,6.70722e-01
1.02500e+03,-3.78536e+00,-8.60989e+01,6.06210e-01,2.04007e-01,7.01675e-01
1.02500e+03,-1.06891e+01,-8.30239e+01,9.19402e-01,2.10304e-01,9.88931e-01
1.02500e+03,-1.15250e+01,-7.99490e+01,9.71359e-01,2.14956e-01,1.04027e+00
1.02500e+03,-1.18134e+01,-7.68740e+01,9.99747e-01,2.19852e-01,1.06981e+00
1.02500e+03,-1.18572e+01,-7.37991e+01,1.01760e+00,2.24974e-01,1.08966e+00
1.02500e+03,-1.17166e+01,-7.07241e+01,1.02752e+00,2.30282e-01,1.10222e+00
1.02500e+03,-1.14604e+01,-6.76491e+01,1.03246e+00,2.35746e-01,1.11027e+00
1.02500e+03,-1.10880e+01,-6.45742e+01,1.03240e+00,2.41334e-01,1.11381e+00
1.02500e+03,-1.06447e+01,-6.14992e+01,1.02928e+00,2.47017e-01,1.11466e+00
1.02500e+03,-1.01604e+01,-5.84243e+01,1.02440e+00,2.52783e-01,1.11404e+00
1.02500e+03,-9.61411e+00,-5.53493e+01,1.01685e+00,2.58614e-01,1.11114e+00
1.02500e+03,-9.02916e+00,-5.22743e+01,1.00764e+00,2.64495e-01,1.10689e+00
1.02500e+03,-8.40652e+00,-4.91994e+01,9.96803e-01,2.70415e-01,1.10136e+00
1.02500e+03,-7.74634e+00,-4.61244e+01,9.84351e-01,2.76360e-01,1.09456e+00
1.02500e+03,-7.06264e+00,-4.30495e+01,9.70886e-01,2.82321e-01,1.08708e+00
1.02500e+03,-6.34878e+00,-3.99745e+01,9.56123e-01,2.88289e-01,1.07866e+00
1.02500e+03,-5.61563e+00,-3.68995e+01,9.40529e-01,2.94254e-01,1.06974e+00
1.02500e+03,-4.86516e+00,-3.38246e+01,9.24190e-01,3.00210e-01,1.06043e+00
1.02500e+03,-4.09924e+00,-3.07496e+01,9.07185e-01,3.06150e-01,1.05079e+00
1.02500e+03,-3.32677e+00,-2.76746e+01,8.89899e-01,3.12071e-01,1.04119e+00
1.02500e+03,-2.54417e+00,-2.45997e+01,8.72176e-01,3.17969e-01,1.03151e+00
1.02500e+03,-1.75988e+00,-2.15247e+01,8.54381e-01,3.23841e-01,1.02205e+00
1.02500e+03,-9.69535e-01,-1.84498e+01,8.36325e-01,3.29685e-01,1.01268e+00
1.02500e+03,-1.79270e-01,-1.53748e+01,8.18272e-01,3.35500e-01,1.00362e+00
1.02500e+03,6.08008e-01,-1.22998e+01,8.00348e-01,3.41286e-01,9.94981e-01
1.02500e+03,1.39529e+00,-9.22488e+00,7.82424e-01,3.47041e-01,9.86661e-01
1.02500e+03,2.16392e+00,-6.14992e+00,7.65303e-01,3.52769e-01,9.79298e-01
1.02500e+03,2.92908e+00,-3.07496e+00,7.48331e-01,3.58471e-01,9.72370e-01
1.11650e+03,3.87070e+01,0.00000e+00,-6.42591e-01,3.22859e-01,8.51843e-01
1.11650e+03,3.85121e+01,-2.94133e+00,-6.48317e-01,3.18032e-01,8.50734e-01
1.11650e+03,3.82528e+01,-5.88266e+00,-6.51770e-01,3.13088e-01,8.47866e-01
1.11650e+03,3.79909e+01,-8.82398e+00,-6.55132e-01,3.08032e-01,8.44896e-01
1.11650e+03,3.76721e+01,-1.17653e+01,-6.56487e-01,3.02873e-01,8.40341e-01
1.11650e+03,3.73401e+01,-1.47066e+01,-6.57377e-01,2.97619e-01,8.35389e-01
1.11650e+03,3.69645e+01,-1.76480e+01,-6.56726e-01,2.92277e-01,8.29196e-01
1.11650e+03,3.65678e+01,-2.05893e+01,-6.55327e-01,2.86855e-01,8.22381e-01
1.11650e+03,3.61359e+01,-2.35306e+01,-6.52691e-01,2.81360e-01,8.14552e-01
1.11650e+03,3.56753e+01,-2.64720e+01,-6.49038e-01,2.75799e-01,8.05882e-01
1.11650e+03,3.51829e+01,-2.94133e+01,-6.44266e-01,2.70180e-01,7.96286e-01
1.11650e+03,3.46522e+01,-3.23546e+01,-6.38142e-01,2.64510e-01,7.85571e-01
1.11650e+03,3.40823e+01,-3.52959e+01,-6.30631e-01,2.58796e-01,7.73706e-01
1.11650e+03,3.34567e+01,-3.82373e+01,-6.21157e-01,2.53048e-01,7.60221e-01
1.11650e+03,3.27770e+01,-4.11786e+01,-6.09771e-01,2.47278e-01,7.45158e-01
1.11650e+03,3.20325e+01,-4.41199e+01,-5.96100e-01,2.41494e-01,7.28212e-01
1.11650e+03,3.12004e+01,-4.70612e+01,-5.79333e-01,2.35716e-01,7.08740e-01
1.11650e+03,3.03072e+01,-5.00026e+01,-5.60413e-01,2.29948e-01,6.87525e-01
1.11650e+03,2.92767e+01,-5.29439e+01,-5.36646e-01,2.24222e-01,6.62431e-01
1.11650e+03,2.81893e+01,-5.58852e+01,-5.10871e-01,2.18550e-01,6.35831e-01
1.11650e+03,2.69434e+01,-5.88266e+01,-4.79499e-01,2.12948e-01,6.04946e-01
1.11650e+03,2.55704e+01,-6.17679e+01,-4.43643e-01,2.07461e-01,5.70912e-01
1.11650e+03,2.40681e+01,-6.47092e+01,-4.03223e-01,2.02100e-01,5.33969e-01
1.11650e+03,2.23488e+01,-6.76505e+01,-3.55143e-01,1.96884e-01,4.92358e-01
1.11650e+03,2.03781e+01,-7.05919e+01,-2.98188e-01,1.91876e-01,4.46504e-01
1.11650e+03,1.81233e+01,-7.35332e+01,-2.31204e-01,1.87137e-01,3.98141e-01
1.11650e+03,1.54563e+01,-7.64745e+01,-1.49673e-01,1.82706e-01,3.50067e-01
1.11650e+03,1.20330e+01,-7.94159e+01,-4.14466e-02,1.78800e-01,3.12452e-01
1.11650e+03,7.40314e+00,-8.23572e+01,1.09370e-01,1.76415e-01,3.24544e-01
1.11650e+03,-2.99970e+00,-8.52985e+01,4.63958e-01,1.77363e-01,5.56444e-01
1.11650e+03,-3.75047e+00,-8.53053e+01,4.90429e-01,1.80302e-01,5.81419e-01
1.11650e+03,-1.05906e+01,-8.22587e+01,7.44927e-01,1.85875e-01,8.11520e-01
1.11650e+03,-1.14188e+01,-7.92121e+01,7.87218e-01,1.89992e-01,8.53231e-01
1.11650e+03,-1.17045e+01,-7.61655e+01,8.10363e-01,1.94324e-01,8.77482e-01
1.11650e+03,-1.17479e+01,-7.31189e+01,8.24952e-01,1.98856e-01,8.93967e-01
1.11650e+03,-1.16086e+01,-7.00722e+01,8.33094e-01,2.03554e-01,9.04626e-01
1.11650e+03,-1.13547e+01,-6.70256e+01,8.37191e-01,2.08389e-01,9.11683e-01
1.11650e+03,-1.09858e+01,-6.39790e+01,8.37225e-01,2.13334e-01,9.15139e-01
1.11650e+03,-1.05466e+01,-6.09324e+01,8.34782e-01,2.18363e-01,9.16465e-01
1.11650e+03,-1.00667e+01,-5.78858e+01,8.30901e-01,2.23465e-01,9.16628e-01
1.11650e+03,-9.52550e+00,-5.48391e+01,8.24855e-01,2.28626e-01,9.14984e-01
1.11650e+03,-8.94594e+00,-5.17925e+01,8.17456e-01,2.33830e-01,9.12285e-01
1.11650e+03,-8.32904e+00,-4.87459e+01,8.08739e-01,2.39068e-01,9.08582e-01
1.11650e+03,-7.67495e+00,-4.56993e+01,7.98710e-01,2.44329e-01,9.03896e-01
1.11650e+03,-6.99754e+00,-4.26527e+01,7.87857e-01,2.49604e-01,8.98680e-01
1.11650e+03,-6.29027e+00,-3.96060e+01,7.75950e-01,2.54885e-01,8.92747e-01
1.11650e+03,-5.56387e+00,-3.65594e+01,7.63368e-01,2.60163e-01,8.86446e-01
1.11650e+03,-4.82031e+00,-3.35128e+01,7.50181e-01,2.65434e-01,8.79850e-01
1.11650e+03,-4.06146e+00,-3.04662e+01,7.36453e-01,2.70691e-01,8.73031e-01
1.11650e+03,-3.29611e+00,-2.74196e+01,7.22496e-01,2.75930e-01,8.66264e-01
1.11650e+03,-2.52072e+00,-2.43730e+01,7.08185e-01,2.81149e-01,8.59453e-01
1.11650e+03,-1.74366e+00,-2.13263e+01,6.93815e-01,2.86345e-01,8.52854e-01
1.11650e+03,-9.60599e-01,-1.82797e+01,6.79233e-01,2.91517e-01,8.46347e-01
1.11650e+03,-1.77618e-01,-1.52331e+01,6.64653e-01,2.96663e-01,8.40113e-01
1.11650e+03,6.02404e-01,-1.21865e+01,6.50179e-01,3.01783e-01,8.34237e-01
1.11650e+03,1.38243e+00,-9.13986e+00,6.35704e-01,3.06875e-01,8.28636e-01
1.11650e+03,2.14398e+00,-6.09324e+00,6.21881e-01,3.11943e-01,8.23809e-01
1.11650e+03,2.90209e+00,-3.04662e+00,6.08180e-01,3.16989e-01,8.19347e-01
1.20500e+03,3.76912e+01,0.00000e+00,-7.34925e-01,3.25621e-01,9.26391e-01
1.20500e+03,3.75014e+01,-2.86413e+00,-7.44636e-01,3.19682e-01,9.27940e-01
1.20500e+03,3.72488e+01,-5.72827e+00,-7.51746e-01,3.13599e-01,9.27445e-01
1.20500e+03,3.69938e+01,-8.59240e+00,-7.58752e-01,3.07377e-01,9.26902e-01
1.20500e+03,3.66834e+01,-1.14565e+01,-7.63463e-01,3.01028e-01,9.24516e-01
1.20500e+03,3.63602e+01,-1.43207e+01,-7.67641e-01,2.94561e-01,9.21722e-01
1.20500e+03,3.59944e+01,-1.71848e+01,-7.70057e-01,2.87986e-01,9.17494e-01
1.20500e+03,3.56080e+01,-2.00489e+01,-7.71618e-01,2.81311e-01,9.12580e-01
1.20500e+03,3.51875e+01,-2.29131e+01,-7.71762e-01,2.74546e-01,9.06501e-01
1.20500e+03,3.47390e+01,-2.57772e+01,-7.70744e-01,2.67701e-01,8.99465e-01
1.20500e+03,3.42596e+01,-2.86413e+01,-7.68447e-01,2.60782e-01,8.91366e-01
1.20500e+03,3.37428e+01,-3.15055e+01,-7.64601e-01,2.53801e-01,8.81963e-01
1.20500e+03,3.31878e+01,-3.43696e+01,-7.59169e-01,2.46765e-01,8.71216e-01
1.20500e+03,3.25787e+01,-3.72337e+01,-7.51492e-01,2.39687e-01,8.58540e-01
1.20500e+03,3.19168e+01,-4.00979e+01,-7.41628e-01,2.32581e-01,8.43976e-01
1.20500e+03,3.11919e+01,-4.29620e+01,-7.29150e-01,2.25458e-01,8.27135e-01
1.20500e+03,3.03815e+01,-4.58261e+01,-7.13130e-01,2.18341e-01,8.07201e-01
1.20500e+03,2.95118e+01,-4.86903e+01,-6.94646e-01,2.11238e-01,7.85110e-01
1.20500e+03,2.85084e+01,-5.15544e+01,-6.70619e-01,2.04185e-01,7.58159e-01
1.20500e+03,2.74495e+01,-5.44186e+01,-6.44294e-01,1.97198e-01,7.29230e-01
1.20500e+03,2.62363e+01,-5.72827e+01,-6.11568e-01,1.90297e-01,6.94733e-01
1.20500e+03,2.48993e+01,-6.01468e+01,-5.73712e-01,1.83538e-01,6.55899e-01
1.20500e+03,2.34365e+01,-6.30110e+01,-5.30634e-01,1.76933e-01,6.12771e-01
1.20500e+03,2.17623e+01,-6.58751e+01,-4.78793e-01,1.70506e-01,5.62548e-01
1.20500e+03,1.98433e+01,-6.87392e+01,-4.16801e-01,1.64335e-01,5.04719e-01
1.20500e+03,1.76476e+01,-7.16034e+01,-3.43336e-01,1.58495e-01,4.39592e-01
1.20500e+03,1.50506e+01,-7.44675e+01,-2.53230e-01,1.53033e-01,3.66582e-01
1.20500e+03,1.17172e+01,-7.73316e+01,-1.32585e-01,1.48217e-01,2.88936e-01
1.20500e+03,7.20885e+00,-8.01958e+01,3.67792e-02,1.45272e-01,2.54292e-01
1.20500e+03,-2.92097e+00,-8.30599e+01,4.39247e-01,1.46433e-01,5.07214e-01
1.20500e+03,-3.65204e+00,-8.30665e+01,4.69521e-01,1.50050e-01,5.36652e-01
1.20500e+03,-1.03126e+01,-8.00999e+01,7.63926e-01,1.56911e-01,8.10830e-01
1.20500e+03,-1.11191e+01,-7.71332e+01,8.15577e-01,1.61980e-01,8.62484e-01
1.20500e+03,-1.13974e+01,-7.41666e+01,8.45328e-01,1.67315e-01,8.93623e-01
1.20500e+03,-1.14396e+01,-7.11999e+01,8.65291e-01,1.72897e-01,9.15646e-01
1.20500e+03,-1.13040e+01,-6.82332e+01,8.77878e-01,1.78683e-01,9.30835e-01
1.20500e+03,-1.10567e+01,-6.52666e+01,8.85838e-01,1.84638e-01,9.41798e-01
1.20500e+03,-1.06975e+01,-6.22999e+01,8.89152e-01,1.90730e-01,9.48538e-01
1.20500e+03,-1.02698e+01,-5.93332e+01,8.89630e-01,1.96926e-01,9.52776e-01
1.20500e+03,-9.80253e+00,-5.63666e+01,8.88465e-01,2.03212e-01,9.55643e-01
1.20500e+03,-9.27551e+00,-5.33999e+01,8.84822e-01,2.09570e-01,9.56383e-01
1.20500e+03,-8.71115e+00,-5.04333e+01,8.79632e-01,2.15983e-01,9.55875e-01
1.20500e+03,-8.11045e+00,-4.74666e+01,8.72934e-01,2.22438e-01,9.54175e-01
1.20500e+03,-7.47352e+00,-4.44999e+01,8.64734e-01,2.28921e-01,9.51304e-01
1.20500e+03,-6.81389e+00,-4.15333e+01,8.55593e-01,2.35422e-01,9.47792e-01
1.20500e+03,-6.12518e+00,-3.85666e+01,8.45246e-01,2.41930e-01,9.43415e-01
1.20500e+03,-5.41785e+00,-3.55999e+01,8.34126e-01,2.48437e-01,9.38578e-01
1.20500e+03,-4.69381e+00,-3.26333e+01,8.22314e-01,2.54934e-01,9.33367e-01
1.20500e+03,-3.95486e+00,-2.96666e+01,8.09884e-01,2.61414e-01,9.27860e-01
1.20500e+03,-3.20961e+00,-2.67000e+01,7.97192e-01,2.67873e-01,9.22380e-01
1.20500e+03,-2.45457e+00,-2.37333e+01,7.84095e-01,2.74308e-01,9.16809e-01
1.20500e+03,-1.69790e+00,-2.07666e+01,7.70930e-01,2.80714e-01,9.11446e-01
1.20500e+03,-9.35389e-01,-1.78000e+01,7.57522e-01,2.87092e-01,9.06149e-01
1.20500e+03,-1.72956e-01,-1.48333e+01,7.44118e-01,2.93437e-01,9.01126e-01
1.20500e+03,5.86594e-01,-1.18666e+01,7.30834e-01,2.99752e-01,8.96477e-01
1.20500e+03,1.34615e+00,-8.89999e+00,7.17549e-01,3.06033e-01,8.92101e-01
1.20500e+03,2.08771e+00,-5.93332e+00,7.05010e-01,3.12284e-01,8.88596e-01
1.20500e+03,2.82592e+00,-2.96666e+00,6.92611e-01,3.18508e-01,8.85467e-01
1.29010e+03,3.63234e+01,0.00000e+00,-5.98447e-01,2.91809e-01,7.83324e-01
1.29010e+03,3.61405e+01,-2.76019e+00,-6.06318e-01,2.86616e-01,7.83625e-01
1.29010e+03,3.58971e+01,-5.52039e+00,-6.12070e-01,2.81296e-01,7.82312e-01
1.29010e+03,3.56513e+01,-8.28058e+00,-6.17737e-01,2.75855e-01,7.80952e-01
1.29010e+03,3.53522e+01,-1.10408e+01,-6.21533e-01,2.70303e-01,7.78135e-01
1.29010e+03,3.50407e+01,-1.38010e+01,-6.24896e-01,2.64647e-01,7.74990e-01
1.29010e+03,3.46882e+01,-1.65612e+01,-6.26821e-01,2.58897e-01,7.70706e-01
1.29010e+03,3.43158e+01,-1.93214e+01,-6.28050e-01,2.53061e-01,7.65876e-01
1.29010e+03,3.39106e+01,-2.20816e+01,-6.28125e-01,2.47145e-01,7.60121e-01
1.29010e+03,3.34783e+01,-2.48418e+01,-6.27252e-01,2.41159e-01,7.53603e-01
1.29010e+03,3.30163e+01,-2.76019e+01,-6.25337e-01,2.35109e-01,7.46240e-01
1.29010e+03,3.25183e+01,-3.03621e+01,-6.22159e-01,2.29004e-01,7.37842e-01
1.29010e+03,3.19834e+01,-3.31223e+01,-6.17690e-01,2.22852e-01,7.28374e-01
1.29010e+03,3.13964e+01,-3.58825e+01,-6.11390e-01,2.16663e-01,7.17374e-01
1.29010e+03,3.07585e+01,-3.86427e+01,-6.03308e-01,2.10449e-01,7.04874e-01
1.29010e+03,3.00599e+01,-4.14029e+01,-5.93095e-01,2.04220e-01,6.90565e-01
1.29010e+03,2.92790e+01,-4.41631e+01,-5.79996e-01,1.97998e-01,6.73799e-01
1.29010e+03,2.84408e+01,-4.69233e+01,-5.64890e-01,1.91786e-01,6.55321e-01
1.29010e+03,2.74738e+01,-4.96835e+01,-5.45265e-01,1.85619e-01,6.32990e-01
1.29010e+03,2.64534e+01,-5.24437e+01,-5.23768e-01,1.79510e-01,6.09101e-01
1.29010e+03,2.52842e+01,-5.52039e+01,-4.97053e-01,1.73475e-01,5.80812e-01
1.29010e+03,2.39957e+01,-5.79641e+01,-4.66158e-01,1.67565e-01,5.49124e-01
1.29010e+03,2.25860e+01,-6.07243e+01,-4.31007e-01,1.61790e-01,5.14096e-01
1.29010e+03,2.09725e+01,-6.34845e+01,-3.88715e-01,1.56171e-01,4.73568e-01
1.29010e+03,1.91232e+01,-6.62447e+01,-3.38150e-01,1.50775e-01,4.27252e-01
1.29010e+03,1.70072e+01,-6.90049e+01,-2.78234e-01,1.45669e-01,3.75595e-01
1.29010e+03,1.45045e+01,-7.17651e+01,-2.04755e-01,1.40893e-01,3.18556e-01
1.29010e+03,1.12920e+01,-7.45253e+01,-1.06389e-01,1.36683e-01,2.59548e-01
1.29010e+03,6.94724e+00,-7.72855e+01,3.16826e-02,1.34108e-01,2.34433e-01
1.29010e+03,-2.81497e+00,-8.00457e+01,3.59730e-01,1.35125e-01,4.29164e-01
1.29010e+03,-3.51951e+00,-8.00521e+01,3.84403e-01,1.38288e-01,4.52919e-01
1.29010e+03,-9.93839e+00,-7.71931e+01,6.24292e-01,1.44287e-01,6.72456e-01
1.29010e+03,-1.07156e+01,-7.43341e+01,6.66343e-01,1.48720e-01,7.14399e-01
1.29010e+03,-1.09838e+01,-7.14751e+01,6.90545e-01,1.53385e-01,7.39887e-01
1.29010e+03,-1.10244e+01,-6.86160e+01,7.06769e-01,1.58266e-01,7.58068e-01
1.29010e+03,-1.08937e+01,-6.57570e+01,7.16984e-01,1.63325e-01,7.70773e-01
1.29010e+03,-1.06555e+01,-6.28980e+01,7.23426e-01,1.68533e-01,7.80100e-01
1.29010e+03,-1.03093e+01,-6.00390e+01,7.26082e-01,1.73859e-01,7.86051e-01
1.29010e+03,-9.89713e+00,-5.71800e+01,7.26427e-01,1.79277e-01,7.90011e-01
1.29010e+03,-9.44680e+00,-5.43210e+01,7.25433e-01,1.84774e-01,7.92891e-01
1.29010e+03,-8.93890e+00,-5.14620e+01,7.22420e-01,1.90333e-01,7.94085e-01
1.29010e+03,-8.39503e+00,-4.86030e+01,7.18145e-01,1.95940e-01,7.94299e-01
1.29010e+03,-7.81612e+00,-4.57440e+01,7.12642e-01,2.01584e-01,7.93579e-01
1.29010e+03,-7.20231e+00,-4.28850e+01,7.05915e-01,2.07253e-01,7.91945e-01
1.29010e+03,-6.56662e+00,-4.00260e+01,6.98420e-01,2.12937e-01,7.89821e-01
1.29010e+03,-5.90290e+00,-3.71670e+01,6.89943e-01,2.18628e-01,7.87030e-01
1.29010e+03,-5.22123e+00,-3.43080e+01,6.80836e-01,2.24317e-01,7.83895e-01
1.29010e+03,-4.52347e+00,-3.14490e+01,6.71165e-01,2.29997e-01,7.80486e-01
1.29010e+03,-3.81134e+00,-2.85900e+01,6.60990e-01,2.35663e-01,7.76865e-01
1.29010e+03,-3.09313e+00,-2.57310e+01,6.50602e-01,2.41311e-01,7.73289e-01
1.29010e+03,-2.36549e+00,-2.28720e+01,6.39883e-01,2.46936e-01,7.69664e-01
1.29010e+03,-1.63628e+00,-2.00130e+01,6.29109e-01,2.52538e-01,7.66227e-01
1.29010e+03,-9.01444e-01,-1.71540e+01,6.18138e-01,2.58113e-01,7.62865e-01
1.29010e+03,-1.66680e-01,-1.42950e+01,6.07169e-01,2.63661e-01,7.59741e-01
1.29010e+03,5.65307e-01,-1.14360e+01,5.96298e-01,2.69182e-01,7.56934e-01
1.29010e+03,1.29729e+00,-8.57701e+00,5.85427e-01,2.74673e-01,7.54361e-01
1.29010e+03,2.01195e+00,-5.71800e+00,5.75163e-01,2.80138e-01,7.52493e-01
1.29010e+03,2.72337e+00,-2.85900e+00,5.65013e-01,2.85580e-01,7.50938e-01
1.37170e+03,3.50118e+01,0.00000e+00,-4.78386e-01,2.59328e-01,6.56206e-01
1.37170e+03,3.48355e+01,-2.66053e+00,-4.84667e-01,2.54833e-01,6.55532e-01
1.37170e+03,3.46009e+01,-5.32106e+00,-4.89253e-01,2.50229e-01,6.53615e-01
1.37170e+03,3.43640e+01,-7.98159e+00,-4.93772e-01,2.45520e-01,6.51652e-01
1.37170e+03,3.40757e+01,-1.06421e+01,-4.96793e-01,2.40715e-01,6.48563e-01
1.37170e+03,3.37754e+01,-1.33027e+01,-4.99467e-01,2.35820e-01,6.45213e-01
1.37170e+03,3.34357e+01,-1.59632e+01,-5.00991e-01,2.30844e-01,6.40983e-01
1.37170e+03,3.30768e+01,-1.86237e+01,-5.01958e-01,2.25792e-01,6.36324e-01
1.37170e+03,3.26861e+01,-2.12842e+01,-5.02002e-01,2.20673e-01,6.30948e-01
1.37170e+03,3.22695e+01,-2.39448e+01,-5.01287e-01,2.15492e-01,6.24980e-01
1.37170e+03,3.18241e+01,-2.66053e+01,-4.99738e-01,2.10256e-01,6.18354e-01
1.37170e+03,3.13441e+01,-2.92658e+01,-4.97180e-01,2.04973e-01,6.10925e-01
1.37170e+03,3.08286e+01,-3.19264e+01,-4.93587e-01,1.99649e-01,6.02667e-01
1.37170e+03,3.02627e+01,-3.45869e+01,-4.88531e-01,1.94293e-01,5.93221e-01
1.37170e+03,2.96479e+01,-3.72474e+01,-4.82048e-01,1.88916e-01,5.82612e-01
1.37170e+03,2.89745e+01,-3.99080e+01,-4.73860e-01,1.83525e-01,5.70602e-01
1.37170e+03,2.82218e+01,-4.25685e+01,-4.63362e-01,1.78140e-01,5.56692e-01
1.37170e+03,2.74139e+01,-4.52290e+01,-4.51259e-01,1.72764e-01,5.41459e-01
1.37170e+03,2.64818e+01,-4.78895e+01,-4.35541e-01,1.67427e-01,5.23251e-01
1.37170e+03,2.54982e+01,-5.05501e+01,-4.18324e-01,1.62141e-01,5.03849e-01
1.37170e+03,2.43712e+01,-5.32106e+01,-3.96932e-01,1.56919e-01,4.81067e-01
1.37170e+03,2.31293e+01,-5.58711e+01,-3.72196e-01,1.51804e-01,4.55701e-01
1.37170e+03,2.17704e+01,-5.85317e+01,-3.44055e-01,1.46807e-01,4.27820e-01
1.37170e+03,2.02153e+01,-6.11922e+01,-3.10199e-01,1.41944e-01,3.95813e-01
1.37170e+03,1.84327e+01,-6.38527e+01,-2.69724e-01,1.37275e-01,3.59561e-01
1.37170e+03,1.63931e+01,-6.65133e+01,-2.21767e-01,1.32856e-01,3.19582e-01
1.37170e+03,1.39807e+01,-6.91738e+01,-1.62959e-01,1.28724e-01,2.76162e-01
1.37170e+03,1.08843e+01,-7.18343e+01,-8.42368e-02,1.25081e-01,2.32447e-01
1.37170e+03,6.69639e+00,-7.44949e+01,2.62552e-02,1.22854e-01,2.14402e-01
1.37170e+03,-2.71333e+00,-7.71554e+01,2.88752e-01,1.23734e-01,3.59594e-01
1.37170e+03,-3.39243e+00,-7.71616e+01,3.08494e-01,1.26471e-01,3.78356e-01
1.37170e+03,-9.57954e+00,-7.44058e+01,5.00420e-01,1.31664e-01,5.49933e-01
1.37170e+03,-1.03287e+01,-7.16500e+01,5.34049e-01,1.35500e-01,5.83343e-01
1.37170e+03,-1.05872e+01,-6.88942e+01,5.53397e-01,1.39537e-01,6.03871e-01
1.37170e+03,-1.06264e+01,-6.61385e+01,5.66362e-01,1.43761e-01,6.18682e-01
1.37170e+03,-1.05004e+01,-6.33827e+01,5.74517e-01,1.48140e-01,6.29211e-01
1.37170e+03,-1.02708e+01,-6.06269e+01,5.79656e-01,1.52647e-01,6.37106e-01
1.37170e+03,-9.93701e+00,-5.78712e+01,5.81764e-01,1.57256e-01,6.42368e-01
1.37170e+03,-9.53977e+00,-5.51154e+01,5.82023e-01,1.61944e-01,6.46087e-01
1.37170e+03,-9.10569e+00,-5.23596e+01,5.81211e-01,1.66701e-01,6.48979e-01
1.37170e+03,-8.61613e+00,-4.96039e+01,5.78783e-01,1.71512e-01,6.50568e-01
1.37170e+03,-8.09190e+00,-4.68481e+01,5.75346e-01,1.76364e-01,6.51410e-01
1.37170e+03,-7.53389e+00,-4.40923e+01,5.70926e-01,1.81248e-01,6.51543e-01
1.37170e+03,-6.94225e+00,-4.13365e+01,5.65526e-01,1.86153e-01,6.50983e-01
1.37170e+03,-6.32951e+00,-3.85808e+01,5.59513e-01,1.91072e-01,6.50062e-01
1.37170e+03,-5.68976e+00,-3.58250e+01,5.52713e-01,1.95997e-01,6.48641e-01
1.37170e+03,-5.03271e+00,-3.30692e+01,5.45410e-01,2.00919e-01,6.46975e-01
1.37170e+03,-4.36014e+00,-3.03135e+01,5.37655e-01,2.05835e-01,6.45117e-01
1.37170e+03,-3.67372e+00,-2.75577e+01,5.29497e-01,2.10738e-01,6.43116e-01
1.37170e+03,-2.98144e+00,-2.48019e+01,5.21168e-01,2.15624e-01,6.41169e-01
1.37170e+03,-2.28008e+00,-2.20462e+01,5.12575e-01,2.20492e-01,6.39205e-01
1.37170e+03,-1.57720e+00,-1.92904e+01,5.03937e-01,2.25339e-01,6.37406e-01
1.37170e+03,-8.68894e-01,-1.65346e+01,4.95142e-01,2.30164e-01,6.35682e-01
1.37170e+03,-1.60661e-01,-1.37788e+01,4.86349e-01,2.34964e-01,6.34161e-01
1.37170e+03,5.44895e-01,-1.10231e+01,4.77633e-01,2.39741e-01,6.32899e-01
1.37170e+03,1.25045e+00,-8.26731e+00,4.68918e-01,2.44493e-01,6.31834e-01
1.37170e+03,1.93930e+00,-5.51154e+00,4.60689e-01,2.49221e-01,6.31323e-01
1.37170e+03,2.62503e+00,-2.75577e+00,4.52551e-01,2.53930e-01,6.31066e-01
1.44960e+03,3.37597e+01,0.00000e+00,-3.74325e-01,2.28082e-01,5.44228e-01
1.44960e+03,3.35897e+01,-2.56538e+00,-3.79244e-01,2.24232e-01,5.42831e-01
1.44960e+03,3.33635e+01,-5.13077e+00,-3.82834e-01,2.20287e-01,5.40501e-01
1.44960e+03,3.31351e+01,-7.69615e+00,-3.86371e-01,2.16253e-01,5.38125e-01
1.44960e+03,3.28571e+01,-1.02615e+01,-3.88735e-01,2.12137e-01,5.34903e-01
1.44960e+03,3.25675e+01,-1.28269e+01,-3.90828e-01,2.07944e-01,5.31478e-01
1.44960e+03,3.22399e+01,-1.53923e+01,-3.92020e-01,2.03681e-01,5.27388e-01
1.44960e+03,3.18939e+01,-1.79577e+01,-3.92776e-01,1.99354e-01,5.22971e-01
1.44960e+03,3.15172e+01,-2.05231e+01,-3.92808e-01,1.94968e-01,5.18012e-01
1.44960e+03,3.11155e+01,-2.30885e+01,-3.92247e-01,1.90530e-01,5.12604e-01
1.44960e+03,3.06860e+01,-2.56538e+01,-3.91032e-01,1.86045e-01,5.06700e-01
1.44960e+03,3.02232e+01,-2.82192e+01,-3.89026e-01,1.81520e-01,5.00189e-01
1.44960e+03,2.97261e+01,-3.07846e+01,-3.86210e-01,1.76959e-01,4.93053e-01
1.44960e+03,2.91805e+01,-3.33500e+01,-3.82248e-01,1.72371e-01,4.85024e-01
1.44960e+03,2.85877e+01,-3.59154e+01,-3.77168e-01,1.67765e-01,4.76120e-01
1.44960e+03,2.79383e+01,-3.84808e+01,-3.70753e-01,1.63147e-01,4.66164e-01
1.44960e+03,2.72125e+01,-4.10462e+01,-3.62529e-01,1.58534e-01,4.54782e-01
1.44960e+03,2.64335e+01,-4.36115e+01,-3.53047e-01,1.53930e-01,4.42409e-01
1.44960e+03,2.55347e+01,-4.61769e+01,-3.40734e-01,1.49358e-01,4.27812e-01
1.44960e+03,2.45863e+01,-4.87423e+01,-3.27246e-01,1.44830e-01,4.12332e-01
1.44960e+03,2.34997e+01,-5.13077e+01,-3.10490e-01,1.40357e-01,3.94340e-01
1.44960e+03,2.23022e+01,-5.38731e+01,-2.91113e-01,1.35976e-01,3.74454e-01
1.44960e+03,2.09919e+01,-5.64385e+01,-2.69069e-01,1.31696e-01,3.52745e-01
1.44960e+03,1.94923e+01,-5.90039e+01,-2.42550e-01,1.27530e-01,3.28059e-01
1.44960e+03,1.77735e+01,-6.15692e+01,-2.10845e-01,1.23531e-01,3.00393e-01
1.44960e+03,1.58069e+01,-6.41346e+01,-1.73281e-01,1.19747e-01,2.70267e-01
1.44960e+03,1.34808e+01,-6.67000e+01,-1.27217e-01,1.16208e-01,2.38111e-01
1.44960e+03,1.04950e+01,-6.92654e+01,-6.55558e-02,1.13087e-01,2.06552e-01
1.44960e+03,6.45692e+00,-7.18308e+01,2.09897e-02,1.11180e-01,1.93710e-01
1.44960e+03,-2.61629e+00,-7.43962e+01,2.26594e-01,1.11935e-01,2.98216e-01
1.44960e+03,-3.27111e+00,-7.44021e+01,2.42057e-01,1.14280e-01,3.12684e-01
1.44960e+03,-9.23696e+00,-7.17449e+01,3.92383e-01,1.18728e-01,4.43004e-01
1.44960e+03,-9.95928e+00,-6.90877e+01,4.18721e-01,1.22014e-01,4.69030e-01
1.44960e+03,-1.02085e+01,-6.64305e+01,4.33874e-01,1.25472e-01,4.85259e-01
1.44960e+03,-1.02464e+01,-6.37732e+01,4.44026e-01,1.29091e-01,4.97144e-01
1.44960e+03,-1.01249e+01,-6.11160e+01,4.50413e-01,1.32841e-01,5.05779e-01
1.44960e+03,-9.90345e+00,-5.84588e+01,4.54435e-01,1.36702e-01,5.12419e-01
1.44960e+03,-9.58164e+00,-5.58016e+01,4.56085e-01,1.40650e-01,5.17069e-01
1.44960e+03,-9.19861e+00,-5.31444e+01,4.56286e-01,1.44666e-01,5.20559e-01
1.44960e+03,-8.78006e+00,-5.04872e+01,4.55648e-01,1.48740e-01,5.23436e-01
1.44960e+03,-8.30801e+00,-4.78299e+01,4.53744e-01,1.52861e-01,5.25341e-01
1.44960e+03,-7.80252e+00,-4.51727e+01,4.51050e-01,1.57017e-01,5.26697e-01
1.44960e+03,-7.26447e+00,-4.25155e+01,4.47586e-01,1.61201e-01,5.27532e-01
1.44960e+03,-6.69398e+00,-3.98583e+01,4.43355e-01,1.65402e-01,5.27861e-01
1.44960e+03,-6.10316e+00,-3.72011e+01,4.38643e-01,1.69615e-01,5.27936e-01
1.44960e+03,-5.48628e+00,-3.45438e+01,4.33315e-01,1.73833e-01,5.27652e-01
1.44960e+03,-4.85273e+00,-3.18866e+01,4.27593e-01,1.78049e-01,5.27201e-01
1.44960e+03,-4.20421e+00,-2.92294e+01,4.21517e-01,1.82260e-01,5.26624e-01
1.44960e+03,-3.54234e+00,-2.65722e+01,4.15125e-01,1.86459e-01,5.25956e-01
1.44960e+03,-2.87482e+00,-2.39150e+01,4.08600e-01,1.90645e-01,5.25347e-01
1.44960e+03,-2.19854e+00,-2.12577e+01,4.01867e-01,1.94814e-01,5.24742e-01
1.44960e+03,-1.52080e+00,-1.86005e+01,3.95100e-01,1.98965e-01,5.24276e-01
1.44960e+03,-8.37821e-01,-1.59433e+01,3.88209e-01,2.03097e-01,5.23882e-01
1.44960e+03,-1.54916e-01,-1.32861e+01,3.81320e-01,2.07209e-01,5.23652e-01
1.44960e+03,5.25408e-01,-1.06289e+01,3.74492e-01,2.11300e-01,5.23629e-01
1.44960e+03,1.20573e+00,-7.97166e+00,3.67664e-01,2.15370e-01,5.23764e-01
1.44960e+03,1.86995e+00,-5.31444e+00,3.61216e-01,2.19420e-01,5.24321e-01
1.44960e+03,2.53116e+00,-2.65722e+00,3.54840e-01,2.23452e-01,5.25075e-01
1.52340e+03,3.25736e+01,0.00000e+00,-2.85959e-01,1.97842e-01,4.46315e-01
1.52340e+03,3.24095e+01,-2.47525e+00,-2.89724e-01,1.94591e-01,4.44452e-01
1.52340e+03,3.21913e+01,-4.95049e+00,-2.92473e-01,1.91261e-01,4.41908e-01
1.52340e+03,3.19709e+01,-7.42574e+00,-2.95181e-01,1.87855e-01,4.39318e-01
1.52340e+03,3.17026e+01,-9.90099e+00,-2.96993e-01,1.84380e-01,4.36111e-01
1.52340e+03,3.14232e+01,-1.23762e+01,-2.98596e-01,1.80840e-01,4.32746e-01
1.52340e+03,3.11072e+01,-1.48515e+01,-2.99511e-01,1.77241e-01,4.28895e-01
1.52340e+03,3.07733e+01,-1.73267e+01,-3.00093e-01,1.73588e-01,4.24799e-01
1.52340e+03,3.04098e+01,-1.98020e+01,-3.00121e-01,1.69886e-01,4.20305e-01
1.52340e+03,3.00222e+01,-2.22772e+01,-2.99695e-01,1.66139e-01,4.15480e-01
1.52340e+03,2.96079e+01,-2.47525e+01,-2.98769e-01,1.62353e-01,4.10291e-01
1.52340e+03,2.91613e+01,-2.72277e+01,-2.97239e-01,1.58532e-01,4.04658e-01
1.52340e+03,2.86816e+01,-2.97030e+01,-2.95089e-01,1.54682e-01,3.98569e-01
1.52340e+03,2.81552e+01,-3.21782e+01,-2.92062e-01,1.50809e-01,3.91829e-01
1.52340e+03,2.75832e+01,-3.46535e+01,-2.88181e-01,1.46920e-01,3.84455e-01
1.52340e+03,2.69567e+01,-3.71287e+01,-2.83279e-01,1.43022e-01,3.76315e-01
1.52340e+03,2.62564e+01,-3.96040e+01,-2.76994e-01,1.39128e-01,3.67145e-01
1.52340e+03,2.55047e+01,-4.20792e+01,-2.69747e-01,1.35241e-01,3.57259e-01
1.52340e+03,2.46375e+01,-4.45544e+01,-2.60334e-01,1.31382e-01,3.45771e-01
1.52340e+03,2.37225e+01,-4.70297e+01,-2.50024e-01,1.27559e-01,3.33656e-01
1.52340e+03,2.26740e+01,-4.95049e+01,-2.37213e-01,1.23783e-01,3.19745e-01
1.52340e+03,2.15185e+01,-5.19802e+01,-2.22399e-01,1.20085e-01,3.04504e-01
1.52340e+03,2.02543e+01,-5.44554e+01,-2.05546e-01,1.16472e-01,2.88003e-01
1.52340e+03,1.88075e+01,-5.69307e+01,-1.85270e-01,1.12956e-01,2.69447e-01
1.52340e+03,1.71490e+01,-5.94059e+01,-1.61029e-01,1.09580e-01,2.48905e-01
1.52340e+03,1.52515e+01,-6.18812e+01,-1.32307e-01,1.06385e-01,2.26844e-01
1.52340e+03,1.30071e+01,-6.43564e+01,-9.70848e-02,1.03398e-01,2.03712e-01
1.52340e+03,1.01263e+01,-6.68317e+01,-4.99356e-02,1.00764e-01,1.81531e-01
1.52340e+03,6.23005e+00,-6.93069e+01,1.62425e-02,9.91545e-02,1.72507e-01
1.52340e+03,-2.52437e+00,-7.17822e+01,1.73465e-01,9.97919e-02,2.44879e-01
1.52340e+03,-3.15618e+00,-7.17879e+01,1.85290e-01,1.01772e-01,2.55744e-01
1.52340e+03,-8.91241e+00,-6.92241e+01,3.00248e-01,1.05527e-01,3.51506e-01
1.52340e+03,-9.60935e+00,-6.66602e+01,3.20393e-01,1.08301e-01,3.71267e-01
1.52340e+03,-9.84985e+00,-6.40963e+01,3.31984e-01,1.11221e-01,3.83827e-01
1.52340e+03,-9.88634e+00,-6.15325e+01,3.39751e-01,1.14276e-01,3.93202e-01
1.52340e+03,-9.76914e+00,-5.89686e+01,3.44638e-01,1.17442e-01,4.00191e-01
1.52340e+03,-9.55548e+00,-5.64048e+01,3.47718e-01,1.20701e-01,4.05726e-01
1.52340e+03,-9.24498e+00,-5.38409e+01,3.48983e-01,1.24034e-01,4.09807e-01
1.52340e+03,-8.87540e+00,-5.12771e+01,3.49140e-01,1.27424e-01,4.13049e-01
1.52340e+03,-8.47156e+00,-4.87132e+01,3.48656e-01,1.30863e-01,4.15856e-01
1.52340e+03,-8.01609e+00,-4.61494e+01,3.47204e-01,1.34342e-01,4.17964e-01
1.52340e+03,-7.52837e+00,-4.35855e+01,3.45147e-01,1.37850e-01,4.19684e-01
1.52340e+03,-7.00922e+00,-4.10217e+01,3.42502e-01,1.41382e-01,4.21039e-01
1.52340e+03,-6.45878e+00,-3.84578e+01,3.39270e-01,1.44929e-01,4.22039e-01
1.52340e+03,-5.88872e+00,-3.58940e+01,3.35670e-01,1.48485e-01,4.22869e-01
1.52340e+03,-5.29352e+00,-3.33301e+01,3.31600e-01,1.52046e-01,4.23453e-01
1.52340e+03,-4.68222e+00,-3.07662e+01,3.27227e-01,1.55605e-01,4.23930e-01
1.52340e+03,-4.05649e+00,-2.82024e+01,3.22585e-01,1.59159e-01,4.24329e-01
1.52340e+03,-3.41788e+00,-2.56385e+01,3.17700e-01,1.62703e-01,4.24677e-01
1.52340e+03,-2.77381e+00,-2.30747e+01,3.12714e-01,1.66237e-01,4.25081e-01
1.52340e+03,-2.12129e+00,-2.05108e+01,3.07569e-01,1.69756e-01,4.25500e-01
1.52340e+03,-1.46736e+00,-1.79470e+01,3.02398e-01,1.73260e-01,4.26030e-01
1.52340e+03,-8.08383e-01,-1.53831e+01,2.97132e-01,1.76748e-01,4.26623e-01
1.52340e+03,-1.49473e-01,-1.28193e+01,2.91867e-01,1.80218e-01,4.27344e-01
1.52340e+03,5.06948e-01,-1.02554e+01,2.86649e-01,1.83672e-01,4.28222e-01
1.52340e+03,1.16337e+00,-7.69156e+00,2.81431e-01,1.87107e-01,4.29221e-01
1.52340e+03,1.80424e+00,-5.12771e+00,2.76505e-01,1.90525e-01,4.30528e-01
1.52340e+03,2.44222e+00,-2.56385e+00,2.71632e-01,1.93929e-01,4.31983e-01
1.59310e+03,3.14533e+01,0.00000e+00,-2.12385e-01,1.68550e-01,3.61019e-01
1.59310e+03,3.12949e+01,-2.39012e+00,-2.15185e-01,1.65850e-01,3.58920e-01
1.59310e+03,3.10841e+01,-4.78023e+00,-2.17230e-01,1.63085e-01,3.56342e-01
1.59310e+03,3.08713e+01,-7.17035e+00,-2.19244e-01,1.60258e-01,3.53717e-01
1.59310e+03,3.06123e+01,-9.56047e+00,-2.20592e-01,1.57372e-01,3.50655e-01
1.59310e+03,3.03425e+01,-1.19506e+01,-2.21786e-01,1.54433e-01,3.47474e-01
1.59310e+03,3.00373e+01,-1.43407e+01,-2.22467e-01,1.51445e-01,3.43946e-01
1.59310e+03,2.97149e+01,-1.67308e+01,-2.22901e-01,1.48412e-01,3.40240e-01
1.59310e+03,2.93640e+01,-1.91209e+01,-2.22923e-01,1.45338e-01,3.36250e-01
1.59310e+03,2.89896e+01,-2.15111e+01,-2.22607e-01,1.42228e-01,3.32025e-01
1.59310e+03,2.85896e+01,-2.39012e+01,-2.21920e-01,1.39084e-01,3.27539e-01
1.59310e+03,2.81583e+01,-2.62913e+01,-2.20784e-01,1.35912e-01,3.22741e-01
1.59310e+03,2.76952e+01,-2.86814e+01,-2.19187e-01,1.32716e-01,3.17621e-01
1.59310e+03,2.71869e+01,-3.10715e+01,-2.16938e-01,1.29500e-01,3.12046e-01
1.59310e+03,2.66345e+01,-3.34616e+01,-2.14054e-01,1.26272e-01,3.06028e-01
1.59310e+03,2.60296e+01,-3.58518e+01,-2.10411e-01,1.23036e-01,2.99476e-01
1.59310e+03,2.53533e+01,-3.82419e+01,-2.05739e-01,1.19803e-01,2.92210e-01
1.59310e+03,2.46276e+01,-4.06320e+01,-2.00352e-01,1.16576e-01,2.84449e-01
1.59310e+03,2.37902e+01,-4.30221e+01,-1.93356e-01,1.13372e-01,2.75584e-01
1.59310e+03,2.29066e+01,-4.54122e+01,-1.85692e-01,1.10199e-01,2.66295e-01
1.59310e+03,2.18941e+01,-4.78023e+01,-1.76170e-01,1.07064e-01,2.55781e-01
1.59310e+03,2.07785e+01,-5.01925e+01,-1.65158e-01,1.03994e-01,2.44380e-01
1.59310e+03,1.95577e+01,-5.25826e+01,-1.52630e-01,1.00994e-01,2.32154e-01
1.59310e+03,1.81606e+01,-5.49727e+01,-1.37558e-01,9.80750e-02,2.18583e-01
1.59310e+03,1.65592e+01,-5.73628e+01,-1.19538e-01,9.52727e-02,2.03764e-01
1.59310e+03,1.47269e+01,-5.97529e+01,-9.81866e-02,9.26205e-02,1.88086e-01
1.59310e+03,1.25597e+01,-6.21430e+01,-7.20033e-02,9.01406e-02,1.71932e-01
1.59310e+03,9.77800e+00,-6.45332e+01,-3.69531e-02,8.79543e-02,1.56759e-01
1.59310e+03,6.01578e+00,-6.69233e+01,1.22437e-02,8.66186e-02,1.50527e-01
1.59310e+03,-2.43755e+00,-6.93134e+01,1.29125e-01,8.71480e-02,1.98639e-01
1.59310e+03,-3.04763e+00,-6.93189e+01,1.37915e-01,8.87920e-02,2.06574e-01
1.59310e+03,-8.60589e+00,-6.68433e+01,2.23378e-01,9.19098e-02,2.74299e-01
1.59310e+03,-9.27886e+00,-6.43676e+01,2.38355e-01,9.42131e-02,2.88862e-01
1.59310e+03,-9.51109e+00,-6.18919e+01,2.46973e-01,9.66369e-02,2.98348e-01
1.59310e+03,-9.54632e+00,-5.94162e+01,2.52749e-01,9.91730e-02,3.05594e-01
1.59310e+03,-9.43315e+00,-5.69406e+01,2.56383e-01,1.01802e-01,3.11164e-01
1.59310e+03,-9.22684e+00,-5.44649e+01,2.58674e-01,1.04507e-01,3.15717e-01
1.59310e+03,-8.92702e+00,-5.19892e+01,2.59615e-01,1.07274e-01,3.19254e-01
1.59310e+03,-8.57016e+00,-4.95135e+01,2.59734e-01,1.10089e-01,3.22212e-01
1.59310e+03,-8.18020e+00,-4.70379e+01,2.59375e-01,1.12944e-01,3.24876e-01
1.59310e+03,-7.74040e+00,-4.45622e+01,2.58297e-01,1.15832e-01,3.27060e-01
1.59310e+03,-7.26945e+00,-4.20865e+01,2.56769e-01,1.18745e-01,3.28985e-01
1.59310e+03,-6.76816e+00,-3.96108e+01,2.54803e-01,1.21676e-01,3.30666e-01
1.59310e+03,-6.23665e+00,-3.71351e+01,2.52402e-01,1.24621e-01,3.32111e-01
1.59310e+03,-5.68619e+00,-3.46595e+01,2.49727e-01,1.27573e-01,3.33449e-01
1.59310e+03,-5.11146e+00,-3.21838e+01,2.46702e-01,1.30529e-01,3.34627e-01
1.59310e+03,-4.52119e+00,-2.97081e+01,2.43453e-01,1.33484e-01,3.35742e-01
1.59310e+03,-3.91698e+00,-2.72324e+01,2.40003e-01,1.36434e-01,3.36814e-01
1.59310e+03,-3.30033e+00,-2.47568e+01,2.36373e-01,1.39377e-01,3.37860e-01
1.59310e+03,-2.67841e+00,-2.22811e+01,2.32667e-01,1.42309e-01,3.38954e-01
1.59310e+03,-2.04833e+00,-1.98054e+01,2.28844e-01,1.45231e-01,3.40067e-01
1.59310e+03,-1.41689e+00,-1.73297e+01,2.25000e-01,1.48140e-01,3.41264e-01
1.59310e+03,-7.80581e-01,-1.48541e+01,2.21087e-01,1.51035e-01,3.42512e-01
1.59310e+03,-1.44332e-01,-1.23784e+01,2.17174e-01,1.53916e-01,3.43853e-01
1.59310e+03,4.89512e-01,-9.90271e+00,2.13296e-01,1.56783e-01,3.45308e-01
1.59310e+03,1.12336e+00,-7.42703e+00,2.09418e-01,1.59634e-01,3.46850e-01
1.59310e+03,1.74219e+00,-4.95135e+00,2.05757e-01,1.62472e-01,3.48607e-01
1.59310e+03,2.35823e+00,-2.47568e+00,2.02136e-01,1.65297e-01,3.50469e-01
1.65850e+03,3.04021e+01,0.00000e+00,-1.52702e-01,1.40172e-01,2.86814e-01
1.65850e+03,3.02490e+01,-2.31024e+00,-1.54713e-01,1.37975e-01,2.84689e-01
1.65850e+03,3.00453e+01,-4.62048e+00,-1.56180e-01,1.35725e-01,2.82235e-01
1.65850e+03,2.98396e+01,-6.93072e+00,-1.57626e-01,1.33424e-01,2.79736e-01
1.65850e+03,2.95892e+01,-9.24096e+00,-1.58592e-01,1.31076e-01,2.76938e-01
1.65850e+03,2.93285e+01,-1.15512e+01,-1.59447e-01,1.28685e-01,2.74049e-01
1.65850e+03,2.90335e+01,-1.38614e+01,-1.59933e-01,1.26253e-01,2.70921e-01
1.65850e+03,2.87218e+01,-1.61717e+01,-1.60241e-01,1.23786e-01,2.67667e-01
1.65850e+03,2.83826e+01,-1.84819e+01,-1.60253e-01,1.21284e-01,2.64217e-01
1.65850e+03,2.80208e+01,-2.07921e+01,-1.60022e-01,1.18753e-01,2.60603e-01
1.65850e+03,2.76341e+01,-2.31024e+01,-1.59524e-01,1.16195e-01,2.56811e-01
1.65850e+03,2.72173e+01,-2.54126e+01,-1.58702e-01,1.13614e-01,2.52806e-01
1.65850e+03,2.67696e+01,-2.77229e+01,-1.57549e-01,1.11013e-01,2.48583e-01
1.65850e+03,2.62783e+01,-3.00331e+01,-1.55926e-01,1.08397e-01,2.44055e-01
1.65850e+03,2.57444e+01,-3.23433e+01,-1.53847e-01,1.05770e-01,2.39230e-01
1.65850e+03,2.51597e+01,-3.46536e+01,-1.51222e-01,1.03137e-01,2.34051e-01
1.65850e+03,2.45060e+01,-3.69638e+01,-1.47856e-01,1.00507e-01,2.28399e-01
1.65850e+03,2.38045e+01,-3.92741e+01,-1.43976e-01,9.78810e-02,2.22421e-01
1.65850e+03,2.29951e+01,-4.15843e+01,-1.38938e-01,9.52741e-02,2.15720e-01
1.65850e+03,2.21410e+01,-4.38945e+01,-1.33419e-01,9.26921e-02,2.08749e-01
1.65850e+03,2.11624e+01,-4.62048e+01,-1.26563e-01,9.01414e-02,2.00984e-01
1.65850e+03,2.00840e+01,-4.85150e+01,-1.18635e-01,8.76436e-02,1.92662e-01
1.65850e+03,1.89041e+01,-5.08253e+01,-1.09617e-01,8.52026e-02,1.83832e-01
1.65850e+03,1.75537e+01,-5.31355e+01,-9.87669e-02,8.28278e-02,1.74173e-01
1.65850e+03,1.60058e+01,-5.54457e+01,-8.57962e-02,8.05477e-02,1.63783e-01
1.65850e+03,1.42348e+01,-5.77560e+01,-7.04283e-02,7.83899e-02,1.52954e-01
1.65850e+03,1.21400e+01,-6.00662e+01,-5.15835e-02,7.63723e-02,1.41982e-01
1.65850e+03,9.45122e+00,-6.23764e+01,-2.63583e-02,7.45935e-02,1.31861e-01
1.65850e+03,5.81473e+00,-6.46867e+01,9.04645e-03,7.35071e-02,1.27639e-01
1.65850e+03,-2.35608e+00,-6.69969e+01,9.31549e-02,7.39381e-02,1.58362e-01
1.65850e+03,-2.94577e+00,-6.70023e+01,9.94804e-02,7.52760e-02,1.63999e-01
1.65850e+03,-8.31828e+00,-6.46093e+01,1.60973e-01,7.78129e-02,2.09945e-01
1.65850e+03,-8.96876e+00,-6.22164e+01,1.71746e-01,7.96871e-02,2.20334e-01
1.65850e+03,-9.19322e+00,-5.98235e+01,1.77943e-01,8.16594e-02,2.27307e-01
1.65850e+03,-9.22728e+00,-5.74305e+01,1.82095e-01,8.37230e-02,2.32782e-01
1.65850e+03,-9.11789e+00,-5.50376e+01,1.84706e-01,8.58618e-02,2.37135e-01
1.65850e+03,-8.91848e+00,-5.26447e+01,1.86351e-01,8.80632e-02,2.40815e-01
1.65850e+03,-8.62868e+00,-5.02517e+01,1.87024e-01,9.03146e-02,2.43820e-01
1.65850e+03,-8.28374e+00,-4.78588e+01,1.87105e-01,9.26048e-02,2.46445e-01
1.65850e+03,-7.90682e+00,-4.54658e+01,1.86843e-01,9.49280e-02,2.48886e-01
1.65850e+03,-7.48171e+00,-4.30729e+01,1.86063e-01,9.72777e-02,2.51014e-01
1.65850e+03,-7.02650e+00,-4.06800e+01,1.84959e-01,9.96476e-02,2.52980e-01
1.65850e+03,-6.54196e+00,-3.82870e+01,1.83541e-01,1.02033e-01,2.54793e-01
1.65850e+03,-6.02822e+00,-3.58941e+01,1.81809e-01,1.04429e-01,2.56458e-01
1.65850e+03,-5.49615e+00,-3.35011e+01,1.79880e-01,1.06831e-01,2.58061e-01
1.65850e+03,-4.94063e+00,-3.11082e+01,1.77699e-01,1.09236e-01,2.59565e-01
1.65850e+03,-4.37009e+00,-2.87153e+01,1.75357e-01,1.11640e-01,2.61037e-01
1.65850e+03,-3.78607e+00,-2.63223e+01,1.72870e-01,1.14040e-01,2.62487e-01
1.65850e+03,-3.19003e+00,-2.39294e+01,1.70254e-01,1.16434e-01,2.63926e-01
1.65850e+03,-2.58890e+00,-2.15364e+01,1.67583e-01,1.18820e-01,2.65403e-01
1.65850e+03,-1.97988e+00,-1.91435e+01,1.64828e-01,1.21197e-01,2.66898e-01
1.65850e+03,-1.36954e+00,-1.67506e+01,1.62058e-01,1.23564e-01,2.68453e-01
1.65850e+03,-7.54494e-01,-1.43576e+01,1.59238e-01,1.25920e-01,2.70044e-01
1.65850e+03,-1.39508e-01,-1.19647e+01,1.56418e-01,1.28263e-01,2.71701e-01
1.65850e+03,4.73153e-01,-9.57176e+00,1.53624e-01,1.30596e-01,2.73434e-01
1.65850e+03,1.08581e+00,-7.17882e+00,1.50829e-01,1.32915e-01,2.75225e-01
1.65850e+03,1.68397e+00,-4.78588e+00,1.48191e-01,1.35224e-01,2.77159e-01
1.65850e+03,2.27942e+00,-2.39294e+00,1.45581e-01,1.37522e-01,2.79161e-01
1.71930e+03,2.94249e+01,0.00000e+00,-1.05871e-01,1.12677e-01,2.22029e-01
1.71930e+03,2.92767e+01,-2.23598e+00,-1.07259e-01,1.10934e-01,2.20053e-01
1.71930e+03,2.90795e+01,-4.47196e+00,-1.08271e-01,1.09148e-01,2.17858e-01
1.71930e+03,2.88804e+01,-6.70794e+00,-1.09267e-01,1.07321e-01,2.15622e-01
1.71930e+03,2.86381e+01,-8.94392e+00,-1.09931e-01,1.05458e-01,2.13187e-01
1.71930e+03,2.83857e+01,-1.11799e+01,-1.10517e-01,1.03560e-01,2.10685e-01
1.71930e+03,2.81002e+01,-1.34159e+01,-1.10848e-01,1.01630e-01,2.08023e-01
1.71930e+03,2.77986e+01,-1.56519e+01,-1.11055e-01,9.96717e-02,2.05272e-01
1.71930e+03,2.74703e+01,-1.78878e+01,-1.11057e-01,9.76866e-02,2.02390e-01
1.71930e+03,2.71201e+01,-2.01238e+01,-1.10890e-01,9.56778e-02,1.99397e-01
1.71930e+03,2.67458e+01,-2.23598e+01,-1.10537e-01,9.36478e-02,1.96286e-01
1.71930e+03,2.63424e+01,-2.45958e+01,-1.09961e-01,9.15995e-02,1.93036e-01
1.71930e+03,2.59091e+01,-2.68317e+01,-1.09154e-01,8.95352e-02,1.89642e-01
1.71930e+03,2.54336e+01,-2.90677e+01,-1.08022e-01,8.74587e-02,1.86053e-01
1.71930e+03,2.49169e+01,-3.13037e+01,-1.06573e-01,8.53741e-02,1.82275e-01
1.71930e+03,2.43509e+01,-3.35397e+01,-1.04745e-01,8.32843e-02,1.78270e-01
1.71930e+03,2.37183e+01,-3.57757e+01,-1.02403e-01,8.11968e-02,1.73969e-01
1.71930e+03,2.30393e+01,-3.80116e+01,-9.97049e-02,7.91130e-02,1.69463e-01
1.71930e+03,2.22560e+01,-4.02476e+01,-9.62028e-02,7.70442e-02,1.64507e-01
1.71930e+03,2.14293e+01,-4.24836e+01,-9.23675e-02,7.49951e-02,1.59388e-01
1.71930e+03,2.04822e+01,-4.47196e+01,-8.76044e-02,7.29709e-02,1.53782e-01
1.71930e+03,1.94385e+01,-4.69556e+01,-8.20976e-02,7.09886e-02,1.47845e-01
1.71930e+03,1.82964e+01,-4.91915e+01,-7.58340e-02,6.90515e-02,1.41616e-01
1.71930e+03,1.69894e+01,-5.14275e+01,-6.83001e-02,6.71669e-02,1.34904e-01
1.71930e+03,1.54913e+01,-5.36635e+01,-5.92947e-02,6.53575e-02,1.27791e-01
1.71930e+03,1.37772e+01,-5.58995e+01,-4.86262e-02,6.36451e-02,1.20485e-01
1.71930e+03,1.17498e+01,-5.81355e+01,-3.55454e-02,6.20440e-02,1.13189e-01
1.71930e+03,9.14742e+00,-6.03714e+01,-1.80380e-02,6.06325e-02,1.06556e-01
1.71930e+03,5.62782e+00,-6.26074e+01,6.53171e-03,5.97706e-02,1.03732e-01
1.71930e+03,-2.28035e+00,-6.48434e+01,6.48912e-02,6.01129e-02,1.22685e-01
1.71930e+03,-2.85109e+00,-6.48486e+01,6.92798e-02,6.11747e-02,1.26597e-01
1.71930e+03,-8.05090e+00,-6.25326e+01,1.11936e-01,6.31882e-02,1.56550e-01
1.71930e+03,-8.68047e+00,-6.02165e+01,1.19403e-01,6.46757e-02,1.63725e-01
1.71930e+03,-8.89772e+00,-5.79005e+01,1.23696e-01,6.62409e-02,1.68713e-01
1.71930e+03,-8.93068e+00,-5.55845e+01,1.26569e-01,6.78787e-02,1.72749e-01
1.71930e+03,-8.82481e+00,-5.32685e+01,1.28374e-01,6.95761e-02,1.76075e-01
1.71930e+03,-8.63181e+00,-5.09525e+01,1.29508e-01,7.13232e-02,1.78978e-01
1.71930e+03,-8.35132e+00,-4.86364e+01,1.29968e-01,7.31099e-02,1.81458e-01
1.71930e+03,-8.01747e+00,-4.63204e+01,1.30018e-01,7.49274e-02,1.83703e-01
1.71930e+03,-7.65266e+00,-4.40044e+01,1.29829e-01,7.67711e-02,1.85841e-01
1.71930e+03,-7.24122e+00,-4.16884e+01,1.29281e-01,7.86359e-02,1.87788e-01
1.71930e+03,-6.80064e+00,-3.93724e+01,1.28509e-01,8.05166e-02,1.89640e-01
1.71930e+03,-6.33168e+00,-3.70563e+01,1.27518e-01,8.24096e-02,1.91402e-01
1.71930e+03,-5.83445e+00,-3.47403e+01,1.26309e-01,8.43108e-02,1.93078e-01
1.71930e+03,-5.31949e+00,-3.24243e+01,1.24964e-01,8.62171e-02,1.94721e-01
1.71930e+03,-4.78182e+00,-3.01083e+01,1.23444e-01,8.81256e-02,1.96308e-01
1.71930e+03,-4.22962e+00,-2.77922e+01,1.21813e-01,9.00332e-02,1.97879e-01
1.71930e+03,-3.66437e+00,-2.54762e+01,1.20080e-01,9.19381e-02,1.99442e-01
1.71930e+03,-3.08749e+00,-2.31602e+01,1.18259e-01,9.38380e-02,2.01002e-01
1.71930e+03,-2.50568e+00,-2.08442e+01,1.16399e-01,9.57316e-02,2.02589e-01
1.71930e+03,-1.91624e+00,-1.85282e+01,1.14480e-01,9.76178e-02,2.04190e-01
1.71930e+03,-1.32552e+00,-1.62121e+01,1.12552e-01,9.94959e-02,2.05831e-01
1.71930e+03,-7.30242e-01,-1.38961e+01,1.10589e-01,1.01365e-01,2.07496e-01
1.71930e+03,-1.35024e-01,-1.15801e+01,1.08626e-01,1.03225e-01,2.09203e-01
1.71930e+03,4.57944e-01,-9.26408e+00,1.06680e-01,1.05076e-01,2.10958e-01
1.71930e+03,1.05091e+00,-6.94806e+00,1.04735e-01,1.06917e-01,2.12750e-01
1.71930e+03,1.62984e+00,-4.63204e+00,1.02897e-01,1.08748e-01,2.14631e-01
1.71930e+03,2.20615e+00,-2.31602e+00,1.01080e-01,1.10572e-01,2.16555e-01
1.77540e+03,2.77303e+01,0.00000e+00,-1.26330e-01,1.11511e-01,2.30788e-01
1.77540e+03,2.75906e+01,-2.10721e+00,-1.28584e-01,1.09170e-01,2.28666e-01
1.77540e+03,2.74048e+01,-4.21442e+00,-1.30389e-01,1.06771e-01,2.26277e-01
1.77540e+03,2.72172e+01,-6.32163e+00,-1.32176e-01,1.04317e-01,2.23867e-01
1.77540e+03,2.69888e+01,-8.42884e+00,-1.33565e-01,1.01813e-01,2.21218e-01
1.77540e+03,2.67510e+01,-1.05361e+01,-1.34862e-01,9.92620e-02,2.18510e-01
1.77540e+03,2.64819e+01,-1.26433e+01,-1.35855e-01,9.66680e-02,2.15617e-01
1.77540e+03,2.61977e+01,-1.47505e+01,-1.36699e-01,9.40346e-02,2.12636e-01
1.77540e+03,2.58883e+01,-1.68577e+01,-1.37299e-01,9.13653e-02,2.09508e-01
1.77540e+03,2.55583e+01,-1.89649e+01,-1.37697e-01,8.86638e-02,2.06262e-01
1.77540e+03,2.52056e+01,-2.10721e+01,-1.37873e-01,8.59334e-02,2.02886e-01
1.77540e+03,2.48254e+01,-2.31793e+01,-1.37782e-01,8.31778e-02,1.99348e-01
1.77540e+03,2.44171e+01,-2.52865e+01,-1.37416e-01,8.04006e-02,1.95643e-01
1.77540e+03,2.39689e+01,-2.73937e+01,-1.36662e-01,7.76065e-02,1.91690e-01
1.77540e+03,2.34819e+01,-2.95009e+01,-1.35530e-01,7.48012e-02,1.87494e-01
1.77540e+03,2.29486e+01,-3.16082e+01,-1.33945e-01,7.19886e-02,1.82998e-01
1.77540e+03,2.23524e+01,-3.37154e+01,-1.31747e-01,6.91786e-02,1.78085e-01
1.77540e+03,2.17125e+01,-3.58226e+01,-1.29123e-01,6.63734e-02,1.72884e-01
1.77540e+03,2.09743e+01,-3.79298e+01,-1.25539e-01,6.35880e-02,1.67004e-01
1.77540e+03,2.01952e+01,-4.00370e+01,-1.21558e-01,6.08287e-02,1.60863e-01
1.77540e+03,1.93026e+01,-4.21442e+01,-1.16469e-01,5.81027e-02,1.53925e-01
1.77540e+03,1.83190e+01,-4.42514e+01,-1.10493e-01,5.54327e-02,1.46380e-01
1.77540e+03,1.72428e+01,-4.63586e+01,-1.03613e-01,5.28231e-02,1.38226e-01
1.77540e+03,1.60110e+01,-4.84658e+01,-9.52164e-02,5.02838e-02,1.29041e-01
1.77540e+03,1.45992e+01,-5.05731e+01,-8.50634e-02,4.78454e-02,1.18757e-01
1.77540e+03,1.29838e+01,-5.26803e+01,-7.29249e-02,4.55370e-02,1.07419e-01
1.77540e+03,1.10731e+01,-5.47875e+01,-5.79069e-02,4.33778e-02,9.48584e-02
1.77540e+03,8.62063e+00,-5.68947e+01,-3.76044e-02,4.14729e-02,8.10808e-02
1.77540e+03,5.30372e+00,-5.90019e+01,-8.87123e-03,4.03044e-02,7.03707e-02
1.77540e+03,-2.14903e+00,-6.11091e+01,6.01990e-02,4.07596e-02,9.27790e-02
1.77540e+03,-2.68689e+00,-6.11140e+01,6.54365e-02,4.21854e-02,9.80855e-02
1.77540e+03,-7.58725e+00,-5.89314e+01,1.16976e-01,4.48921e-02,1.40461e-01
1.77540e+03,-8.18057e+00,-5.67487e+01,1.26509e-01,4.68928e-02,1.50337e-01
1.77540e+03,-8.38530e+00,-5.45661e+01,1.32252e-01,4.89986e-02,1.57141e-01
1.77540e+03,-8.41637e+00,-5.23834e+01,1.36301e-01,5.12025e-02,1.62613e-01
1.77540e+03,-8.31659e+00,-5.02008e+01,1.39074e-01,5.34871e-02,1.67106e-01
1.77540e+03,-8.13471e+00,-4.80181e+01,1.41047e-01,5.58390e-02,1.71021e-01
1.77540e+03,-7.87037e+00,-4.58355e+01,1.42215e-01,5.82446e-02,1.74363e-01
1.77540e+03,-7.55575e+00,-4.36529e+01,1.42893e-01,6.06920e-02,1.77395e-01
1.77540e+03,-7.21195e+00,-4.14702e+01,1.43286e-01,6.31750e-02,1.80289e-01
1.77540e+03,-6.82421e+00,-3.92876e+01,1.43250e-01,6.56868e-02,1.82934e-01
1.77540e+03,-6.40900e+00,-3.71049e+01,1.42947e-01,6.82204e-02,1.85461e-01
1.77540e+03,-5.96704e+00,-3.49223e+01,1.42383e-01,7.07710e-02,1.87879e-01
1.77540e+03,-5.49844e+00,-3.27396e+01,1.41559e-01,7.33330e-02,1.90189e-01
1.77540e+03,-5.01314e+00,-3.05570e+01,1.40572e-01,7.59022e-02,1.92468e-01
1.77540e+03,-4.50644e+00,-2.83744e+01,1.39376e-01,7.84747e-02,1.94681e-01
1.77540e+03,-3.98604e+00,-2.61917e+01,1.38047e-01,8.10465e-02,1.96882e-01
1.77540e+03,-3.45334e+00,-2.40091e+01,1.36598e-01,8.36149e-02,1.99081e-01
1.77540e+03,-2.90969e+00,-2.18264e+01,1.35042e-01,8.61770e-02,2.01285e-01
1.77540e+03,-2.36138e+00,-1.96438e+01,1.33440e-01,8.87310e-02,2.03533e-01
1.77540e+03,-1.80588e+00,-1.74611e+01,1.31769e-01,9.12754e-02,2.05807e-01
1.77540e+03,-1.24918e+00,-1.52785e+01,1.30085e-01,9.38092e-02,2.08141e-01
1.77540e+03,-6.88187e-01,-1.30959e+01,1.28360e-01,9.63316e-02,2.10513e-01
1.77540e+03,-1.27248e-01,-1.09132e+01,1.26635e-01,9.88417e-02,2.12945e-01
1.77540e+03,4.31571e-01,-8.73057e+00,1.24931e-01,1.01340e-01,2.15446e-01
1.77540e+03,9.90390e-01,-6.54793e+00,1.23227e-01,1.03825e-01,2.18000e-01
1.77540e+03,1.53598e+00,-4.36529e+00,1.21653e-01,1.06298e-01,2.20675e-01
1.77540e+03,2.07910e+00,-2.18264e+00,1.20102e-01,1.08762e-01,2.23409e-01
1.82660e+03,2.53092e+01,0.00000e+00,-8.67890e-02,8.87899e-02,1.76588e-01
1.82660e+03,2.51817e+01,-1.92323e+00,-8.83402e-02,8.69981e-02,1.74671e-01
1.82660e+03,2.50121e+01,-3.84646e+00,-8.95817e-02,8.51623e-02,1.72577e-01
1.82660e+03,2.48409e+01,-5.76969e+00,-9.08109e-02,8.32846e-02,1.70457e-01
1.82660e+03,2.46324e+01,-7.69292e+00,-9.17666e-02,8.13683e-02,1.68177e-01
1.82660e+03,2.44154e+01,-9.61614e+00,-9.26588e-02,7.94163e-02,1.65851e-01
1.82660e+03,2.41698e+01,-1.15394e+01,-9.33412e-02,7.74314e-02,1.63400e-01
1.82660e+03,2.39103e+01,-1.34626e+01,-9.39216e-02,7.54165e-02,1.60886e-01
1.82660e+03,2.36280e+01,-1.53858e+01,-9.43335e-02,7.33741e-02,1.58272e-01
1.82660e+03,2.33268e+01,-1.73091e+01,-9.46068e-02,7.13071e-02,1.55578e-01
1.82660e+03,2.30049e+01,-1.92323e+01,-9.47277e-02,6.92181e-02,1.52796e-01
1.82660e+03,2.26579e+01,-2.11555e+01,-9.46642e-02,6.71098e-02,1.49908e-01
1.82660e+03,2.22852e+01,-2.30787e+01,-9.44118e-02,6.49851e-02,1.46911e-01
1.82660e+03,2.18762e+01,-2.50020e+01,-9.38920e-02,6.28474e-02,1.43754e-01
1.82660e+03,2.14317e+01,-2.69252e+01,-9.31117e-02,6.07013e-02,1.40441e-01
1.82660e+03,2.09449e+01,-2.88484e+01,-9.20199e-02,5.85495e-02,1.36937e-01
1.82660e+03,2.04008e+01,-3.07717e+01,-9.05063e-02,5.63999e-02,1.33170e-01
1.82660e+03,1.98168e+01,-3.26949e+01,-8.86994e-02,5.42540e-02,1.29221e-01
1.82660e+03,1.91430e+01,-3.46181e+01,-8.62321e-02,5.21232e-02,1.24846e-01
1.82660e+03,1.84320e+01,-3.65413e+01,-8.34911e-02,5.00125e-02,1.20310e-01
1.82660e+03,1.76173e+01,-3.84646e+01,-7.99876e-02,4.79272e-02,1.15278e-01
1.82660e+03,1.67196e+01,-4.03878e+01,-7.58730e-02,4.58849e-02,1.09877e-01
1.82660e+03,1.57373e+01,-4.23110e+01,-7.11366e-02,4.38889e-02,1.04111e-01
1.82660e+03,1.46131e+01,-4.42343e+01,-6.53564e-02,4.19466e-02,9.77242e-02
1.82660e+03,1.33245e+01,-4.61575e+01,-5.83670e-02,4.00816e-02,9.06989e-02
1.82660e+03,1.18502e+01,-4.80807e+01,-5.00110e-02,3.83161e-02,8.30991e-02
1.82660e+03,1.01063e+01,-5.00040e+01,-3.96729e-02,3.66648e-02,7.48790e-02
1.82660e+03,7.86795e+00,-5.19272e+01,-2.56974e-02,3.52082e-02,6.61756e-02
1.82660e+03,4.84065e+00,-5.38504e+01,-5.91872e-03,3.43154e-02,5.97299e-02
1.82660e+03,-1.96139e+00,-5.57736e+01,4.16252e-02,3.46642e-02,7.30581e-02
1.82660e+03,-2.45230e+00,-5.57781e+01,4.52303e-02,3.57554e-02,7.66885e-02
1.82660e+03,-6.92480e+00,-5.37860e+01,8.07059e-02,3.78264e-02,1.03952e-01
1.82660e+03,-7.46632e+00,-5.17940e+01,8.72669e-02,3.93571e-02,1.10736e-01
1.82660e+03,-7.65318e+00,-4.98019e+01,9.12193e-02,4.09682e-02,1.15569e-01
1.82660e+03,-7.68153e+00,-4.78098e+01,9.40058e-02,4.26542e-02,1.19563e-01
1.82660e+03,-7.59047e+00,-4.58177e+01,9.59138e-02,4.44019e-02,1.22939e-01
1.82660e+03,-7.42446e+00,-4.38257e+01,9.72707e-02,4.62011e-02,1.25957e-01
1.82660e+03,-7.18321e+00,-4.18336e+01,9.80740e-02,4.80412e-02,1.28617e-01
1.82660e+03,-6.89605e+00,-3.98415e+01,9.85397e-02,4.99133e-02,1.31088e-01
1.82660e+03,-6.58227e+00,-3.78494e+01,9.88096e-02,5.18126e-02,1.33480e-01
1.82660e+03,-6.22838e+00,-3.58574e+01,9.87845e-02,5.37339e-02,1.35722e-01
1.82660e+03,-5.84943e+00,-3.38653e+01,9.85750e-02,5.56718e-02,1.37895e-01
1.82660e+03,-5.44606e+00,-3.18732e+01,9.81859e-02,5.76227e-02,1.40006e-01
1.82660e+03,-5.01837e+00,-2.98811e+01,9.76179e-02,5.95821e-02,1.42054e-01
1.82660e+03,-4.57544e+00,-2.78891e+01,9.69378e-02,6.15471e-02,1.44087e-01
1.82660e+03,-4.11298e+00,-2.58970e+01,9.61141e-02,6.35145e-02,1.46083e-01
1.82660e+03,-3.63801e+00,-2.39049e+01,9.51983e-02,6.54814e-02,1.48075e-01
1.82660e+03,-3.15183e+00,-2.19128e+01,9.42001e-02,6.74456e-02,1.50068e-01
1.82660e+03,-2.65564e+00,-1.99208e+01,9.31282e-02,6.94049e-02,1.52066e-01
1.82660e+03,-2.15521e+00,-1.79287e+01,9.20252e-02,7.13580e-02,1.54093e-01
1.82660e+03,-1.64821e+00,-1.59366e+01,9.08739e-02,7.33037e-02,1.56136e-01
1.82660e+03,-1.14012e+00,-1.39445e+01,8.97145e-02,7.52413e-02,1.58216e-01
1.82660e+03,-6.28101e-01,-1.19525e+01,8.85262e-02,7.71701e-02,1.60320e-01
1.82660e+03,-1.16138e-01,-9.96038e+00,8.73383e-02,7.90894e-02,1.62460e-01
1.82660e+03,3.93890e-01,-7.96830e+00,8.61647e-02,8.09994e-02,1.64642e-01
1.82660e+03,9.03919e-01,-5.97623e+00,8.49911e-02,8.28995e-02,1.66855e-01
1.82660e+03,1.40187e+00,-3.98415e+00,8.39063e-02,8.47907e-02,1.69141e-01
1.82660e+03,1.89757e+00,-1.99208e+00,8.28380e-02,8.66740e-02,1.71462e-01
1.87280e+03,2.31244e+01,0.00000e+00,-5.62009e-02,6.97523e-02,1.33247e-01
1.87280e+03,2.30080e+01,-1.75721e+00,-5.72317e-02,6.84247e-02,1.31610e-01
1.87280e+03,2.28531e+01,-3.51443e+00,-5.80611e-02,6.70645e-02,1.29862e-01
1.87280e+03,2.26966e+01,-5.27164e+00,-5.88825e-02,6.56733e-02,1.28086e-01
1.87280e+03,2.25061e+01,-7.02886e+00,-5.95262e-02,6.42536e-02,1.26210e-01
1.87280e+03,2.23078e+01,-8.78607e+00,-6.01288e-02,6.28074e-02,1.24297e-01
1.87280e+03,2.20834e+01,-1.05433e+01,-6.05949e-02,6.13369e-02,1.22304e-01
1.87280e+03,2.18464e+01,-1.23005e+01,-6.09948e-02,5.98442e-02,1.20268e-01
1.87280e+03,2.15884e+01,-1.40577e+01,-6.12852e-02,5.83312e-02,1.18167e-01
1.87280e+03,2.13132e+01,-1.58149e+01,-6.14855e-02,5.68000e-02,1.16014e-01
1.87280e+03,2.10191e+01,-1.75721e+01,-6.15868e-02,5.52525e-02,1.13804e-01
1.87280e+03,2.07020e+01,-1.93294e+01,-6.15683e-02,5.36908e-02,1.11529e-01
1.87280e+03,2.03615e+01,-2.10866e+01,-6.14271e-02,5.21169e-02,1.09187e-01
1.87280e+03,1.99878e+01,-2.28438e+01,-6.11122e-02,5.05335e-02,1.06750e-01
1.87280e+03,1.95817e+01,-2.46010e+01,-6.06279e-02,4.89438e-02,1.04222e-01
1.87280e+03,1.91369e+01,-2.63582e+01,-5.99413e-02,4.73500e-02,1.01583e-01
1.87280e+03,1.86398e+01,-2.81154e+01,-5.89806e-02,4.57578e-02,9.87930e-02
1.87280e+03,1.81062e+01,-2.98726e+01,-5.78293e-02,4.41684e-02,9.58998e-02
1.87280e+03,1.74905e+01,-3.16299e+01,-5.62490e-02,4.25902e-02,9.27670e-02
1.87280e+03,1.68409e+01,-3.33871e+01,-5.44908e-02,4.10269e-02,8.95481e-02
1.87280e+03,1.60966e+01,-3.51443e+01,-5.22372e-02,3.94825e-02,8.60542e-02
1.87280e+03,1.52763e+01,-3.69015e+01,-4.95865e-02,3.79699e-02,8.23649e-02
1.87280e+03,1.43788e+01,-3.86587e+01,-4.65318e-02,3.64917e-02,7.84866e-02
1.87280e+03,1.33517e+01,-4.04159e+01,-4.27989e-02,3.50533e-02,7.42829e-02
1.87280e+03,1.21743e+01,-4.21731e+01,-3.82803e-02,3.36722e-02,6.97626e-02
1.87280e+03,1.08272e+01,-4.39304e+01,-3.28738e-02,3.23648e-02,6.49856e-02
1.87280e+03,9.23393e+00,-4.56876e+01,-2.61794e-02,3.11421e-02,5.99571e-02
1.87280e+03,7.18879e+00,-4.74448e+01,-1.71216e-02,3.00636e-02,5.48144e-02
1.87280e+03,4.42280e+00,-4.92020e+01,-4.29316e-03,2.94030e-02,5.11082e-02
1.87280e+03,-1.79208e+00,-5.09592e+01,2.65757e-02,2.96619e-02,5.78425e-02
1.87280e+03,-2.24062e+00,-5.09633e+01,2.89180e-02,3.04704e-02,6.01797e-02
1.87280e+03,-6.32705e+00,-4.91432e+01,5.19919e-02,3.20047e-02,7.60004e-02
1.87280e+03,-6.82182e+00,-4.73231e+01,5.62785e-02,3.31386e-02,8.03851e-02
1.87280e+03,-6.99255e+00,-4.55029e+01,5.88701e-02,3.43319e-02,8.36764e-02
1.87280e+03,-7.01846e+00,-4.36828e+01,6.07042e-02,3.55808e-02,8.65042e-02
1.87280e+03,-6.93525e+00,-4.18627e+01,6.19675e-02,3.68753e-02,8.89906e-02
1.87280e+03,-6.78358e+00,-4.00426e+01,6.28727e-02,3.82078e-02,9.12825e-02
1.87280e+03,-6.56315e+00,-3.82225e+01,6.34183e-02,3.95707e-02,9.33778e-02
1.87280e+03,-6.30078e+00,-3.64024e+01,6.37445e-02,4.09572e-02,9.53721e-02
1.87280e+03,-6.01408e+00,-3.45822e+01,6.39434e-02,4.23639e-02,9.73286e-02
1.87280e+03,-5.69074e+00,-3.27621e+01,6.39507e-02,4.37868e-02,9.92045e-02
1.87280e+03,-5.34450e+00,-3.09420e+01,6.38381e-02,4.52219e-02,1.01046e-01
1.87280e+03,-4.97595e+00,-2.91219e+01,6.36089e-02,4.66666e-02,1.02856e-01
1.87280e+03,-4.58518e+00,-2.73018e+01,6.32634e-02,4.81177e-02,1.04634e-01
1.87280e+03,-4.18049e+00,-2.54816e+01,6.28451e-02,4.95728e-02,1.06404e-01
1.87280e+03,-3.75794e+00,-2.36615e+01,6.23335e-02,5.10297e-02,1.08155e-01
1.87280e+03,-3.32398e+00,-2.18414e+01,6.17621e-02,5.24861e-02,1.09904e-01
1.87280e+03,-2.87976e+00,-2.00213e+01,6.11371e-02,5.39406e-02,1.11653e-01
1.87280e+03,-2.42640e+00,-1.82012e+01,6.04642e-02,5.53914e-02,1.13404e-01
1.87280e+03,-1.96917e+00,-1.63811e+01,5.97711e-02,5.68375e-02,1.15170e-01
1.87280e+03,-1.50594e+00,-1.45609e+01,5.90466e-02,5.82781e-02,1.16942e-01
1.87280e+03,-1.04170e+00,-1.27408e+01,5.83169e-02,5.97127e-02,1.18734e-01
1.87280e+03,-5.73883e-01,-1.09207e+01,5.75684e-02,6.11407e-02,1.20535e-01
1.87280e+03,-1.06113e-01,-9.10059e+00,5.68202e-02,6.25617e-02,1.22354e-01
1.87280e+03,3.59890e-01,-7.28047e+00,5.60812e-02,6.39758e-02,1.24193e-01
1.87280e+03,8.25892e-01,-5.46035e+00,5.53422e-02,6.53825e-02,1.26045e-01
1.87280e+03,1.28086e+00,-3.64024e+00,5.46609e-02,6.67825e-02,1.27936e-01
1.87280e+03,1.73377e+00,-1.82012e+00,5.39904e-02,6.81767e-02,1.29843e-01
1.91380e+03,2.11856e+01,0.00000e+00,-3.37894e-02,5.30014e-02,9.78222e-02
1.91380e+03,2.10789e+01,-1.60989e+00,-3.44452e-02,5.20569e-02,9.65207e-02
1.91380e+03,2.09370e+01,-3.21977e+00,-3.49793e-02,5.10893e-02,9.51521e-02
1.91380e+03,2.07936e+01,-4.82966e+00,-3.55086e-02,5.00996e-02,9.37592e-02
1.91380e+03,2.06192e+01,-6.43954e+00,-3.59305e-02,4.90898e-02,9.23061e-02
1.91380e+03,2.04375e+01,-8.04943e+00,-3.63275e-02,4.80610e-02,9.08255e-02
1.91380e+03,2.02319e+01,-9.65931e+00,-3.66421e-02,4.70150e-02,8.92966e-02
1.91380e+03,2.00147e+01,-1.12692e+01,-3.69167e-02,4.59533e-02,8.77380e-02
1.91380e+03,1.97784e+01,-1.28791e+01,-3.71251e-02,4.48771e-02,8.61402e-02
1.91380e+03,1.95262e+01,-1.44890e+01,-3.72791e-02,4.37880e-02,8.45097e-02
1.91380e+03,1.92568e+01,-1.60989e+01,-3.73733e-02,4.26873e-02,8.28455e-02
1.91380e+03,1.89663e+01,-1.77087e+01,-3.73950e-02,4.15766e-02,8.11432e-02
1.91380e+03,1.86544e+01,-1.93186e+01,-3.73426e-02,4.04572e-02,7.94029e-02
1.91380e+03,1.83120e+01,-2.09285e+01,-3.71852e-02,3.93310e-02,7.76114e-02
1.91380e+03,1.79399e+01,-2.25384e+01,-3.69256e-02,3.82004e-02,7.57715e-02
1.91380e+03,1.75325e+01,-2.41483e+01,-3.65436e-02,3.70670e-02,7.38736e-02
1.91380e+03,1.70770e+01,-2.57582e+01,-3.59960e-02,3.59346e-02,7.19000e-02
1.91380e+03,1.65881e+01,-2.73680e+01,-3.53333e-02,3.48043e-02,6.98746e-02
1.91380e+03,1.60241e+01,-2.89779e+01,-3.44113e-02,3.36820e-02,6.77315e-02
1.91380e+03,1.54289e+01,-3.05878e+01,-3.33818e-02,3.25702e-02,6.55500e-02
1.91380e+03,1.47470e+01,-3.21977e+01,-3.20530e-02,3.14720e-02,6.32365e-02
1.91380e+03,1.39955e+01,-3.38076e+01,-3.04842e-02,3.03964e-02,6.08367e-02
1.91380e+03,1.31733e+01,-3.54175e+01,-2.86713e-02,2.93452e-02,5.83564e-02
1.91380e+03,1.22322e+01,-3.70274e+01,-2.64486e-02,2.83224e-02,5.57315e-02
1.91380e+03,1.11536e+01,-3.86372e+01,-2.37511e-02,2.73403e-02,5.29773e-02
1.91380e+03,9.91946e+00,-4.02471e+01,-2.05171e-02,2.64108e-02,5.01352e-02
1.91380e+03,8.45973e+00,-4.18570e+01,-1.65049e-02,2.55414e-02,4.72176e-02
1.91380e+03,6.58606e+00,-4.34669e+01,-1.10645e-02,2.47747e-02,4.43146e-02
1.91380e+03,4.05198e+00,-4.50768e+01,-3.34577e-03,2.43054e-02,4.22309e-02
1.91380e+03,-1.64183e+00,-4.66867e+01,1.52741e-02,2.44898e-02,4.50838e-02
1.91380e+03,-2.05276e+00,-4.66904e+01,1.66895e-02,2.50650e-02,4.65113e-02
1.91380e+03,-5.79657e+00,-4.50229e+01,3.06662e-02,2.61563e-02,5.47072e-02
1.91380e+03,-6.24986e+00,-4.33554e+01,3.32905e-02,2.69628e-02,5.73519e-02
1.91380e+03,-6.40628e+00,-4.16879e+01,3.48907e-02,2.78115e-02,5.94794e-02
1.91380e+03,-6.43001e+00,-4.00204e+01,3.60330e-02,2.86997e-02,6.13954e-02
1.91380e+03,-6.35378e+00,-3.83528e+01,3.68306e-02,2.96203e-02,6.31552e-02
1.91380e+03,-6.21483e+00,-3.66853e+01,3.74116e-02,3.05680e-02,6.48293e-02
1.91380e+03,-6.01288e+00,-3.50178e+01,3.77754e-02,3.15372e-02,6.64136e-02
1.91380e+03,-5.77251e+00,-3.33503e+01,3.80066e-02,3.25232e-02,6.79543e-02
1.91380e+03,-5.50985e+00,-3.16828e+01,3.81610e-02,3.35235e-02,6.94819e-02
1.91380e+03,-5.21362e+00,-3.00153e+01,3.81995e-02,3.45353e-02,7.09736e-02
1.91380e+03,-4.89640e+00,-2.83477e+01,3.81656e-02,3.55558e-02,7.24517e-02
1.91380e+03,-4.55876e+00,-2.66802e+01,3.80612e-02,3.65831e-02,7.39163e-02
1.91380e+03,-4.20075e+00,-2.50127e+01,3.78865e-02,3.76149e-02,7.53660e-02
1.91380e+03,-3.82998e+00,-2.33452e+01,3.76679e-02,3.86495e-02,7.68129e-02
1.91380e+03,-3.44287e+00,-2.16777e+01,3.73928e-02,3.96854e-02,7.82497e-02
1.91380e+03,-3.04529e+00,-2.00102e+01,3.70817e-02,4.07209e-02,7.96846e-02
1.91380e+03,-2.63832e+00,-1.83427e+01,3.67381e-02,4.17551e-02,8.11181e-02
1.91380e+03,-2.22297e+00,-1.66751e+01,3.63657e-02,4.27865e-02,8.25501e-02
1.91380e+03,-1.80407e+00,-1.50076e+01,3.59809e-02,4.38147e-02,8.39870e-02
1.91380e+03,-1.37967e+00,-1.33401e+01,3.55773e-02,4.48389e-02,8.54244e-02
1.91380e+03,-9.54362e-01,-1.16726e+01,3.51704e-02,4.58588e-02,8.68679e-02
1.91380e+03,-5.25768e-01,-1.00051e+01,3.47523e-02,4.68740e-02,8.83132e-02
1.91380e+03,-9.72161e-02,-8.33757e+00,3.43343e-02,4.78841e-02,8.97637e-02
1.91380e+03,3.29716e-01,-6.67006e+00,3.39218e-02,4.88894e-02,9.12207e-02
1.91380e+03,7.56647e-01,-5.00254e+00,3.35094e-02,4.98894e-02,9.26808e-02
1.91380e+03,1.17347e+00,-3.33503e+00,3.31319e-02,5.08846e-02,9.41565e-02
1.91380e+03,1.58841e+00,-1.66751e+00,3.27608e-02,5.18756e-02,9.56374e-02
1.94970e+03,1.94880e+01,0.00000e+00,-1.83331e-02,3.96366e-02,7.10584e-02
1.94970e+03,1.93899e+01,-1.48088e+00,-1.87213e-02,3.89961e-02,7.00897e-02
1.94970e+03,1.92593e+01,-2.96177e+00,-1.90431e-02,3.83398e-02,6.90830e-02
1.94970e+03,1.91274e+01,-4.44265e+00,-1.93622e-02,3.76686e-02,6.80563e-02
1.94970e+03,1.89669e+01,-5.92353e+00,-1.96227e-02,3.69837e-02,6.69958e-02
1.94970e+03,1.87998e+01,-7.40441e+00,-1.98696e-02,3.62861e-02,6.59154e-02
1.94970e+03,1.86107e+01,-8.88530e+00,-2.00714e-02,3.55767e-02,6.48072e-02
1.94970e+03,1.84109e+01,-1.03662e+01,-2.02514e-02,3.48567e-02,6.36796e-02
1.94970e+03,1.81935e+01,-1.18471e+01,-2.03953e-02,3.41269e-02,6.25292e-02
1.94970e+03,1.79616e+01,-1.33279e+01,-2.05094e-02,3.33884e-02,6.13595e-02
1.94970e+03,1.77137e+01,-1.48088e+01,-2.05909e-02,3.26420e-02,6.01705e-02
1.94970e+03,1.74465e+01,-1.62897e+01,-2.06328e-02,3.18888e-02,5.89610e-02
1.94970e+03,1.71596e+01,-1.77706e+01,-2.06342e-02,3.11298e-02,5.77318e-02
1.94970e+03,1.68446e+01,-1.92515e+01,-2.05783e-02,3.03662e-02,5.64781e-02
1.94970e+03,1.65024e+01,-2.07324e+01,-2.04665e-02,2.95996e-02,5.52022e-02
1.94970e+03,1.61276e+01,-2.22132e+01,-2.02879e-02,2.88310e-02,5.39006e-02
1.94970e+03,1.57086e+01,-2.36941e+01,-2.00188e-02,2.80633e-02,5.25680e-02
1.94970e+03,1.52589e+01,-2.51750e+01,-1.96869e-02,2.72969e-02,5.12145e-02
1.94970e+03,1.47401e+01,-2.66559e+01,-1.92133e-02,2.65359e-02,4.98158e-02
1.94970e+03,1.41926e+01,-2.81368e+01,-1.86811e-02,2.57821e-02,4.84060e-02
1.94970e+03,1.35653e+01,-2.96177e+01,-1.79853e-02,2.50375e-02,4.69479e-02
1.94970e+03,1.28740e+01,-3.10985e+01,-1.71585e-02,2.43083e-02,4.54653e-02
1.94970e+03,1.21177e+01,-3.25794e+01,-1.61984e-02,2.35956e-02,4.39619e-02
1.94970e+03,1.12521e+01,-3.40603e+01,-1.50144e-02,2.29022e-02,4.24142e-02
1.94970e+03,1.02599e+01,-3.55412e+01,-1.35711e-02,2.22364e-02,4.08357e-02
1.94970e+03,9.12460e+00,-3.70221e+01,-1.18348e-02,2.16063e-02,3.92499e-02
1.94970e+03,7.78184e+00,-3.85029e+01,-9.67341e-03,2.10170e-02,3.76658e-02
1.94970e+03,6.05831e+00,-3.99838e+01,-6.73202e-03,2.04973e-02,3.61350e-02
1.94970e+03,3.72729e+00,-4.14647e+01,-2.54620e-03,2.01794e-02,3.50443e-02
1.94970e+03,-1.51027e+00,-4.29456e+01,7.59362e-03,2.03046e-02,3.59791e-02
1.94970e+03,-1.88827e+00,-4.29490e+01,8.36657e-03,2.06947e-02,3.68078e-02
1.94970e+03,-5.33209e+00,-4.14151e+01,1.60315e-02,2.14348e-02,4.04396e-02
1.94970e+03,-5.74905e+00,-3.98812e+01,1.74960e-02,2.19817e-02,4.19009e-02
1.94970e+03,-5.89293e+00,-3.83473e+01,1.84010e-02,2.25572e-02,4.31865e-02
1.94970e+03,-5.91477e+00,-3.68135e+01,1.90561e-02,2.31594e-02,4.44096e-02
1.94970e+03,-5.84465e+00,-3.52796e+01,1.95228e-02,2.37836e-02,4.55864e-02
1.94970e+03,-5.71682e+00,-3.37457e+01,1.98713e-02,2.44262e-02,4.67416e-02
1.94970e+03,-5.53106e+00,-3.22118e+01,2.01011e-02,2.50833e-02,4.78703e-02
1.94970e+03,-5.30995e+00,-3.06779e+01,2.02585e-02,2.57518e-02,4.89885e-02
1.94970e+03,-5.06834e+00,-2.91440e+01,2.03738e-02,2.64300e-02,5.01071e-02
1.94970e+03,-4.79584e+00,-2.76101e+01,2.04260e-02,2.71160e-02,5.12157e-02
1.94970e+03,-4.50405e+00,-2.60762e+01,2.04386e-02,2.78078e-02,5.23217e-02
1.94970e+03,-4.19345e+00,-2.45423e+01,2.04127e-02,2.85043e-02,5.34243e-02
1.94970e+03,-3.86414e+00,-2.30084e+01,2.03484e-02,2.92038e-02,5.45219e-02
1.94970e+03,-3.52308e+00,-2.14745e+01,2.02601e-02,2.99052e-02,5.56186e-02
1.94970e+03,-3.16699e+00,-1.99406e+01,2.01409e-02,3.06074e-02,5.67106e-02
1.94970e+03,-2.80126e+00,-1.84067e+01,2.00021e-02,3.13094e-02,5.78007e-02
1.94970e+03,-2.42690e+00,-1.68728e+01,1.98455e-02,3.20104e-02,5.88884e-02
1.94970e+03,-2.04484e+00,-1.53389e+01,1.96732e-02,3.27096e-02,5.99732e-02
1.94970e+03,-1.65951e+00,-1.38050e+01,1.94942e-02,3.34066e-02,6.10575e-02
1.94970e+03,-1.26912e+00,-1.22712e+01,1.93048e-02,3.41008e-02,6.21391e-02
1.94970e+03,-8.77888e-01,-1.07373e+01,1.91137e-02,3.47921e-02,6.32203e-02
1.94970e+03,-4.83637e-01,-9.20336e+00,1.89164e-02,3.54802e-02,6.42991e-02
1.94970e+03,-8.94260e-02,-7.66947e+00,1.87192e-02,3.61649e-02,6.53767e-02
1.94970e+03,3.03295e-01,-6.13558e+00,1.85251e-02,3.68463e-02,6.64539e-02
1.94970e+03,6.96016e-01,-4.60168e+00,1.83309e-02,3.75240e-02,6.75291e-02
1.94970e+03,1.07944e+00,-3.06779e+00,1.81558e-02,3.81985e-02,6.86077e-02
1.94970e+03,1.46113e+00,-1.53389e+00,1.79843e-02,3.88702e-02,6.96858e-02
1.98010e+03,1.80504e+01,0.00000e+00,-8.67700e-03,2.75900e-02,4.85687e-02
1.98010e+03,1.79595e+01,-1.37164e+00,-8.88123e-03,2.71875e-02,4.79203e-02
1.98010e+03,1.78386e+01,-2.74329e+00,-9.05378e-03,2.67751e-02,4.72514e-02
1.98010e+03,1.77165e+01,-4.11493e+00,-9.22507e-03,2.63533e-02,4.65682e-02
1.98010e+03,1.75678e+01,-5.48657e+00,-9.36839e-03,2.59230e-02,4.58669e-02
1.98010e+03,1.74130e+01,-6.85822e+00,-9.50522e-03,2.54846e-02,4.51525e-02
1.98010e+03,1.72378e+01,-8.22986e+00,-9.62058e-03,2.50389e-02,4.44229e-02
1.98010e+03,1.70528e+01,-9.60150e+00,-9.72553e-03,2.45865e-02,4.36815e-02
1.98010e+03,1.68514e+01,-1.09731e+01,-9.81324e-03,2.41279e-02,4.29275e-02
1.98010e+03,1.66366e+01,-1.23448e+01,-9.88677e-03,2.36639e-02,4.21627e-02
1.98010e+03,1.64070e+01,-1.37164e+01,-9.94472e-03,2.31950e-02,4.13874e-02
1.98010e+03,1.61595e+01,-1.50881e+01,-9.98381e-03,2.27217e-02,4.06018e-02
1.98010e+03,1.58938e+01,-1.64597e+01,-1.00036e-02,2.22449e-02,3.98067e-02
1.98010e+03,1.56020e+01,-1.78314e+01,-9.99602e-03,2.17651e-02,3.90010e-02
1.98010e+03,1.52851e+01,-1.92030e+01,-9.96180e-03,2.12835e-02,3.81863e-02
1.98010e+03,1.49379e+01,-2.05747e+01,-9.89574e-03,2.08006e-02,3.73620e-02
1.98010e+03,1.45498e+01,-2.19463e+01,-9.78654e-03,2.03183e-02,3.65277e-02
1.98010e+03,1.41333e+01,-2.33179e+01,-9.64733e-03,1.98368e-02,3.56871e-02
1.98010e+03,1.36527e+01,-2.46896e+01,-9.44060e-03,1.93587e-02,3.48340e-02
1.98010e+03,1.31457e+01,-2.60612e+01,-9.20587e-03,1.88852e-02,3.39809e-02
1.98010e+03,1.25646e+01,-2.74329e+01,-8.89317e-03,1.84174e-02,3.31164e-02
1.98010e+03,1.19244e+01,-2.88045e+01,-8.51798e-03,1.79593e-02,3.22516e-02
1.98010e+03,1.12238e+01,-3.01762e+01,-8.07919e-03,1.75116e-02,3.13886e-02
1.98010e+03,1.04220e+01,-3.15478e+01,-7.53365e-03,1.70761e-02,3.05210e-02
1.98010e+03,9.50303e+00,-3.29194e+01,-6.86447e-03,1.66578e-02,2.96575e-02
1.98010e+03,8.45151e+00,-3.42911e+01,-6.05552e-03,1.62620e-02,2.88102e-02
1.98010e+03,7.20780e+00,-3.56627e+01,-5.04387e-03,1.58918e-02,2.79838e-02
1.98010e+03,5.61141e+00,-3.70344e+01,-3.66024e-03,1.55655e-02,2.72075e-02
1.98010e+03,3.45234e+00,-3.84060e+01,-1.68314e-03,1.53659e-02,2.66676e-02
1.98010e+03,-1.39886e+00,-3.97777e+01,3.13339e-03,1.54446e-02,2.69338e-02
1.98010e+03,-1.74898e+00,-3.97808e+01,3.50197e-03,1.56898e-02,2.74002e-02
1.98010e+03,-4.93876e+00,-3.83601e+01,7.17713e-03,1.61548e-02,2.88868e-02
1.98010e+03,-5.32496e+00,-3.69394e+01,7.89532e-03,1.64984e-02,2.96468e-02
1.98010e+03,-5.45823e+00,-3.55186e+01,8.34673e-03,1.68600e-02,3.03718e-02
1.98010e+03,-5.47846e+00,-3.40979e+01,8.67891e-03,1.72384e-02,3.10935e-02
1.98010e+03,-5.41351e+00,-3.26771e+01,8.92125e-03,1.76305e-02,3.18135e-02
1.98010e+03,-5.29511e+00,-3.12564e+01,9.10723e-03,1.80342e-02,3.25367e-02
1.98010e+03,-5.12305e+00,-2.98356e+01,9.23660e-03,1.84470e-02,3.32595e-02
1.98010e+03,-4.91825e+00,-2.84149e+01,9.33145e-03,1.88670e-02,3.39848e-02
1.98010e+03,-4.69446e+00,-2.69941e+01,9.40626e-03,1.92931e-02,3.47152e-02
1.98010e+03,-4.44207e+00,-2.55734e+01,9.45091e-03,1.97240e-02,3.54461e-02
1.98010e+03,-4.17180e+00,-2.41527e+01,9.47670e-03,2.01586e-02,3.61789e-02
1.98010e+03,-3.88412e+00,-2.27319e+01,9.48413e-03,2.05961e-02,3.69127e-02
1.98010e+03,-3.57909e+00,-2.13112e+01,9.47326e-03,2.10355e-02,3.76460e-02
1.98010e+03,-3.26320e+00,-1.98904e+01,9.45093e-03,2.14761e-02,3.83795e-02
1.98010e+03,-2.93337e+00,-1.84697e+01,9.41391e-03,2.19172e-02,3.91116e-02
1.98010e+03,-2.59462e+00,-1.70489e+01,9.36748e-03,2.23582e-02,3.98423e-02
1.98010e+03,-2.24788e+00,-1.56282e+01,9.31261e-03,2.27985e-02,4.05714e-02
1.98010e+03,-1.89400e+00,-1.42074e+01,9.25021e-03,2.32377e-02,4.12981e-02
1.98010e+03,-1.53709e+00,-1.27867e+01,9.18463e-03,2.36754e-02,4.20230e-02
1.98010e+03,-1.17550e+00,-1.13660e+01,9.11410e-03,2.41115e-02,4.27453e-02
1.98010e+03,-8.13129e-01,-9.94521e+00,9.04275e-03,2.45457e-02,4.34654e-02
1.98010e+03,-4.47961e-01,-8.52447e+00,8.96845e-03,2.49779e-02,4.41827e-02
1.98010e+03,-8.28294e-02,-7.10372e+00,8.89419e-03,2.54079e-02,4.48976e-02
1.98010e+03,2.80922e-01,-5.68298e+00,8.82139e-03,2.58358e-02,4.56102e-02
1.98010e+03,6.44673e-01,-4.26223e+00,8.74858e-03,2.62615e-02,4.63199e-02
1.98010e+03,9.99811e-01,-2.84149e+00,8.68486e-03,2.66851e-02,4.70288e-02
1.98010e+03,1.35334e+00,-1.42074e+00,8.62284e-03,2.71069e-02,4.77358e-02
2.00520e+03,1.68635e+01,0.00000e+00,-3.34757e-03,1.76769e-02,3.07997e-02
2.00520e+03,1.67786e+01,-1.28145e+00,-3.43753e-03,1.74506e-02,3.04202e-02
2.00520e+03,1.66656e+01,-2.56290e+00,-3.51516e-03,1.72188e-02,3.00304e-02
2.00520e+03,1.65515e+01,-3.84435e+00,-3.59230e-03,1.69818e-02,2.96319e-02
2.00520e+03,1.64126e+01,-5.12580e+00,-3.65855e-03,1.67399e-02,2.92243e-02
2.00520e+03,1.62680e+01,-6.40725e+00,-3.72226e-03,1.64936e-02,2.88092e-02
2.00520e+03,1.61044e+01,-7.68870e+00,-3.77762e-03,1.62431e-02,2.83863e-02
2.00520e+03,1.59315e+01,-8.97015e+00,-3.82892e-03,1.59888e-02,2.79569e-02
2.00520e+03,1.57433e+01,-1.02516e+01,-3.87351e-03,1.57311e-02,2.75211e-02
2.00520e+03,1.55427e+01,-1.15330e+01,-3.91258e-03,1.54704e-02,2.70796e-02
2.00520e+03,1.53282e+01,-1.28145e+01,-3.94558e-03,1.52068e-02,2.66329e-02
2.00520e+03,1.50970e+01,-1.40959e+01,-3.97123e-03,1.49409e-02,2.61813e-02
2.00520e+03,1.48486e+01,-1.53774e+01,-3.98937e-03,1.46729e-02,2.57254e-02
2.00520e+03,1.45761e+01,-1.66588e+01,-3.99685e-03,1.44033e-02,2.52654e-02
2.00520e+03,1.42800e+01,-1.79403e+01,-3.99395e-03,1.41327e-02,2.48022e-02
2.00520e+03,1.39556e+01,-1.92217e+01,-3.97866e-03,1.38613e-02,2.43360e-02
2.00520e+03,1.35931e+01,-2.05032e+01,-3.94656e-03,1.35903e-02,2.38676e-02
2.00520e+03,1.32039e+01,-2.17846e+01,-3.90278e-03,1.33197e-02,2.33983e-02
2.00520e+03,1.27550e+01,-2.30661e+01,-3.83270e-03,1.30511e-02,2.29278e-02
2.00520e+03,1.22812e+01,-2.43475e+01,-3.75172e-03,1.27850e-02,2.24599e-02
2.00520e+03,1.17384e+01,-2.56290e+01,-3.64038e-03,1.25222e-02,2.19925e-02
2.00520e+03,1.11403e+01,-2.69104e+01,-3.50469e-03,1.22648e-02,2.15304e-02
2.00520e+03,1.04858e+01,-2.81919e+01,-3.34424e-03,1.20133e-02,2.10746e-02
2.00520e+03,9.73672e+00,-2.94733e+01,-3.14222e-03,1.17685e-02,2.06244e-02
2.00520e+03,8.87814e+00,-3.07548e+01,-2.89204e-03,1.15335e-02,2.01849e-02
2.00520e+03,7.89577e+00,-3.20362e+01,-2.58744e-03,1.13111e-02,1.97616e-02
2.00520e+03,6.73385e+00,-3.33177e+01,-2.20390e-03,1.11032e-02,1.93571e-02
2.00520e+03,5.24243e+00,-3.45991e+01,-1.67549e-03,1.09198e-02,1.89877e-02
2.00520e+03,3.22533e+00,-3.58806e+01,-9.15968e-04,1.08077e-02,1.87419e-02
2.00520e+03,-1.30688e+00,-3.71620e+01,9.49340e-04,1.08520e-02,1.88203e-02
2.00520e+03,-1.63397e+00,-3.71650e+01,1.09285e-03,1.09898e-02,1.90663e-02
2.00520e+03,-4.61400e+00,-3.58377e+01,2.53490e-03,1.12512e-02,1.96518e-02
2.00520e+03,-4.97481e+00,-3.45104e+01,2.82539e-03,1.14443e-02,2.00224e-02
2.00520e+03,-5.09932e+00,-3.31830e+01,3.01200e-03,1.16475e-02,2.03976e-02
2.00520e+03,-5.11821e+00,-3.18557e+01,3.15216e-03,1.18601e-02,2.07827e-02
2.00520e+03,-5.05754e+00,-3.05284e+01,3.25735e-03,1.20805e-02,2.11760e-02
2.00520e+03,-4.94693e+00,-2.92011e+01,3.34058e-03,1.23073e-02,2.15770e-02
2.00520e+03,-4.78618e+00,-2.78738e+01,3.40176e-03,1.25393e-02,2.19834e-02
2.00520e+03,-4.59485e+00,-2.65464e+01,3.44950e-03,1.27752e-02,2.23946e-02
2.00520e+03,-4.38577e+00,-2.52191e+01,3.48945e-03,1.30146e-02,2.28105e-02
2.00520e+03,-4.14998e+00,-2.38918e+01,3.51764e-03,1.32568e-02,2.32293e-02
2.00520e+03,-3.89748e+00,-2.25645e+01,3.53849e-03,1.35010e-02,2.36506e-02
2.00520e+03,-3.62871e+00,-2.12371e+01,3.55218e-03,1.37468e-02,2.40737e-02
2.00520e+03,-3.34375e+00,-1.99098e+01,3.55876e-03,1.39937e-02,2.44976e-02
2.00520e+03,-3.04862e+00,-1.85825e+01,3.56086e-03,1.42412e-02,2.49223e-02
2.00520e+03,-2.74048e+00,-1.72552e+01,3.55725e-03,1.44891e-02,2.53467e-02
2.00520e+03,-2.42401e+00,-1.59279e+01,3.54997e-03,1.47368e-02,2.57706e-02
2.00520e+03,-2.10007e+00,-1.46005e+01,3.53941e-03,1.49842e-02,2.61936e-02
2.00520e+03,-1.76946e+00,-1.32732e+01,3.52591e-03,1.52310e-02,2.66154e-02
2.00520e+03,-1.43602e+00,-1.19459e+01,3.51118e-03,1.54769e-02,2.70358e-02
2.00520e+03,-1.09820e+00,-1.06186e+01,3.49452e-03,1.57219e-02,2.74544e-02
2.00520e+03,-7.59661e-01,-9.29125e+00,3.47753e-03,1.59658e-02,2.78714e-02
2.00520e+03,-4.18505e-01,-7.96393e+00,3.45940e-03,1.62086e-02,2.82865e-02
2.00520e+03,-7.73829e-02,-6.63661e+00,3.44129e-03,1.64502e-02,2.86997e-02
2.00520e+03,2.62450e-01,-5.30929e+00,3.42374e-03,1.66906e-02,2.91110e-02
2.00520e+03,6.02282e-01,-3.98196e+00,3.40619e-03,1.69297e-02,2.95203e-02
2.00520e+03,9.34067e-01,-2.65464e+00,3.39218e-03,1.71677e-02,2.99282e-02
2.00520e+03,1.26435e+00,-1.32732e+00,3.37883e-03,1.74047e-02,3.03345e-02
2.02480e+03,1.59367e+01,0.00000e+00,-9.45406e-04,9.53038e-03,1.65342e-02
2.02480e+03,1.58564e+01,-1.21102e+00,-9.74918e-04,9.42442e-03,1.63527e-02
2.02480e+03,1.57496e+01,-2.42204e+00,-1.00091e-03,9.31587e-03,1.61666e-02
2.02480e+03,1.56418e+01,-3.63306e+00,-1.02676e-03,9.20485e-03,1.59763e-02
2.02480e+03,1.55106e+01,-4.84408e+00,-1.04950e-03,9.09157e-03,1.57820e-02
2.02480e+03,1.53739e+01,-6.05509e+00,-1.07151e-03,8.97619e-03,1.55841e-02
2.02480e+03,1.52192e+01,-7.26611e+00,-1.09114e-03,8.85888e-03,1.53828e-02
2.02480e+03,1.50559e+01,-8.47713e+00,-1.10962e-03,8.73981e-03,1.51784e-02
2.02480e+03,1.48781e+01,-9.68815e+00,-1.12617e-03,8.61912e-03,1.49712e-02
2.02480e+03,1.46884e+01,-1.08992e+01,-1.14115e-03,8.49700e-03,1.47614e-02
2.02480e+03,1.44857e+01,-1.21102e+01,-1.15439e-03,8.37359e-03,1.45493e-02
2.02480e+03,1.42672e+01,-1.33212e+01,-1.16554e-03,8.24905e-03,1.43352e-02
2.02480e+03,1.40325e+01,-1.45322e+01,-1.17454e-03,8.12355e-03,1.41193e-02
2.02480e+03,1.37750e+01,-1.57432e+01,-1.18050e-03,7.99730e-03,1.39019e-02
2.02480e+03,1.34951e+01,-1.69543e+01,-1.18350e-03,7.87056e-03,1.36835e-02
2.02480e+03,1.31886e+01,-1.81653e+01,-1.18295e-03,7.74350e-03,1.34642e-02
2.02480e+03,1.28460e+01,-1.93763e+01,-1.17761e-03,7.61658e-03,1.32448e-02
2.02480e+03,1.24782e+01,-2.05873e+01,-1.16893e-03,7.48988e-03,1.30254e-02
2.02480e+03,1.20540e+01,-2.17983e+01,-1.15274e-03,7.36409e-03,1.28070e-02
2.02480e+03,1.16063e+01,-2.30094e+01,-1.13344e-03,7.23949e-03,1.25903e-02
2.02480e+03,1.10933e+01,-2.42204e+01,-1.10546e-03,7.11641e-03,1.23755e-02
2.02480e+03,1.05280e+01,-2.54314e+01,-1.07054e-03,6.99588e-03,1.21644e-02
2.02480e+03,9.90946e+00,-2.66424e+01,-1.02854e-03,6.87809e-03,1.19575e-02
2.02480e+03,9.20158e+00,-2.78534e+01,-9.74677e-04,6.76349e-03,1.17552e-02
2.02480e+03,8.39019e+00,-2.90645e+01,-9.07059e-04,6.65346e-03,1.15598e-02
2.02480e+03,7.46181e+00,-3.02755e+01,-8.23899e-04,6.54933e-03,1.13736e-02
2.02480e+03,6.36374e+00,-3.14865e+01,-7.18197e-04,6.45196e-03,1.11982e-02
2.02480e+03,4.95429e+00,-3.26975e+01,-5.71128e-04,6.36611e-03,1.10412e-02
2.02480e+03,3.04806e+00,-3.39085e+01,-3.58062e-04,6.31365e-03,1.09414e-02
2.02480e+03,-1.23505e+00,-3.51195e+01,1.70771e-04,6.33443e-03,1.09729e-02
2.02480e+03,-1.54416e+00,-3.51224e+01,2.11744e-04,6.39897e-03,1.10854e-02
2.02480e+03,-4.36041e+00,-3.38680e+01,6.27493e-04,6.52136e-03,1.13127e-02
2.02480e+03,-4.70139e+00,-3.26136e+01,7.14405e-04,6.61179e-03,1.14742e-02
2.02480e+03,-4.81905e+00,-3.13592e+01,7.71649e-04,6.70695e-03,1.16424e-02
2.02480e+03,-4.83691e+00,-3.01049e+01,8.15634e-04,6.80651e-03,1.18174e-02
2.02480e+03,-4.77957e+00,-2.88505e+01,8.49629e-04,6.90971e-03,1.19981e-02
2.02480e+03,-4.67504e+00,-2.75961e+01,8.77355e-04,7.01593e-03,1.21836e-02
2.02480e+03,-4.52312e+00,-2.63418e+01,8.98787e-04,7.12456e-03,1.23728e-02
2.02480e+03,-4.34231e+00,-2.50874e+01,9.16379e-04,7.23507e-03,1.25650e-02
2.02480e+03,-4.14473e+00,-2.38330e+01,9.31743e-04,7.34717e-03,1.27597e-02
2.02480e+03,-3.92189e+00,-2.25787e+01,9.43752e-04,7.46055e-03,1.29565e-02
2.02480e+03,-3.68327e+00,-2.13243e+01,9.53665e-04,7.57490e-03,1.31547e-02
2.02480e+03,-3.42927e+00,-2.00699e+01,9.61535e-04,7.69001e-03,1.33541e-02
2.02480e+03,-3.15997e+00,-1.88155e+01,9.67371e-04,7.80561e-03,1.35543e-02
2.02480e+03,-2.88106e+00,-1.75612e+01,9.71932e-04,7.92153e-03,1.37549e-02
2.02480e+03,-2.58986e+00,-1.63068e+01,9.74859e-04,8.03757e-03,1.39556e-02
2.02480e+03,-2.29078e+00,-1.50524e+01,9.76740e-04,8.15358e-03,1.41561e-02
2.02480e+03,-1.98465e+00,-1.37981e+01,9.77683e-04,8.26941e-03,1.43564e-02
2.02480e+03,-1.67220e+00,-1.25437e+01,9.77788e-04,8.38494e-03,1.45560e-02
2.02480e+03,-1.35709e+00,-1.12893e+01,9.77539e-04,8.50010e-03,1.47550e-02
2.02480e+03,-1.03784e+00,-1.00350e+01,9.76740e-04,8.61480e-03,1.49532e-02
2.02480e+03,-7.17909e-01,-8.78059e+00,9.75850e-04,8.72901e-03,1.51506e-02
2.02480e+03,-3.95503e-01,-7.52622e+00,9.74632e-04,8.84269e-03,1.53470e-02
2.02480e+03,-7.31298e-02,-6.27185e+00,9.73418e-04,8.95581e-03,1.55424e-02
2.02480e+03,2.48025e-01,-5.01748e+00,9.72365e-04,9.06836e-03,1.57369e-02
2.02480e+03,5.69180e-01,-3.76311e+00,9.71313e-04,9.18031e-03,1.59304e-02
2.02480e+03,8.82730e-01,-2.50874e+00,9.71272e-04,9.29172e-03,1.61230e-02
2.02480e+03,1.19486e+00,-1.25437e+00,9.71418e-04,9.40266e-03,1.63148e-02
2.03880e+03,1.52746e+01,0.00000e+00,-1.61359e-04,3.71843e-03,6.44253e-03
2.03880e+03,1.51977e+01,-1.16071e+00,-1.67427e-04,3.68275e-03,6.38090e-03
2.03880e+03,1.50954e+01,-2.32142e+00,-1.72884e-04,3.64619e-03,6.31776e-03
2.03880e+03,1.49920e+01,-3.48213e+00,-1.78318e-04,3.60881e-03,6.25319e-03
2.03880e+03,1.48662e+01,-4.64285e+00,-1.83212e-04,3.57067e-03,6.18729e-03
2.03880e+03,1.47352e+01,-5.80356e+00,-1.87981e-04,3.53182e-03,6.12018e-03
2.03880e+03,1.45870e+01,-6.96427e+00,-1.92337e-04,3.49232e-03,6.05193e-03
2.03880e+03,1.44304e+01,-8.12498e+00,-1.96491e-04,3.45223e-03,5.98266e-03
2.03880e+03,1.42600e+01,-9.28569e+00,-2.00314e-04,3.41159e-03,5.91244e-03
2.03880e+03,1.40782e+01,-1.04464e+01,-2.03863e-04,3.37047e-03,5.84139e-03
2.03880e+03,1.38839e+01,-1.16071e+01,-2.07112e-04,3.32892e-03,5.76958e-03
2.03880e+03,1.36745e+01,-1.27678e+01,-2.09998e-04,3.28699e-03,5.69710e-03
2.03880e+03,1.34496e+01,-1.39285e+01,-2.12511e-04,3.24473e-03,5.62406e-03
2.03880e+03,1.32028e+01,-1.50892e+01,-2.14497e-04,3.20223e-03,5.55056e-03
2.03880e+03,1.29345e+01,-1.62500e+01,-2.15969e-04,3.15955e-03,5.47676e-03
2.03880e+03,1.26407e+01,-1.74107e+01,-2.16828e-04,3.11677e-03,5.40276e-03
2.03880e+03,1.23123e+01,-1.85714e+01,-2.16856e-04,3.07404e-03,5.32881e-03
2.03880e+03,1.19599e+01,-1.97321e+01,-2.16305e-04,3.03138e-03,5.25496e-03
2.03880e+03,1.15532e+01,-2.08928e+01,-2.14452e-04,2.98903e-03,5.18159e-03
2.03880e+03,1.11241e+01,-2.20535e+01,-2.12061e-04,2.94708e-03,5.10890e-03
2.03880e+03,1.06324e+01,-2.32142e+01,-2.08166e-04,2.90564e-03,5.03703e-03
2.03880e+03,1.00906e+01,-2.43749e+01,-2.03067e-04,2.86506e-03,4.96659e-03
2.03880e+03,9.49781e+00,-2.55357e+01,-1.96742e-04,2.82541e-03,4.89770e-03
2.03880e+03,8.81933e+00,-2.66964e+01,-1.88360e-04,2.78682e-03,4.83059e-03
2.03880e+03,8.04165e+00,-2.78571e+01,-1.77595e-04,2.74978e-03,4.76607e-03
2.03880e+03,7.15183e+00,-2.90178e+01,-1.64136e-04,2.71472e-03,4.70490e-03
2.03880e+03,6.09938e+00,-3.01785e+01,-1.46770e-04,2.68194e-03,4.64758e-03
2.03880e+03,4.74849e+00,-3.13392e+01,-1.22236e-04,2.65304e-03,4.59683e-03
2.03880e+03,2.92144e+00,-3.24999e+01,-8.62630e-05,2.63539e-03,4.56544e-03
2.03880e+03,-1.18374e+00,-3.36606e+01,4.43420e-06,2.64239e-03,4.57675e-03
2.03880e+03,-1.48002e+00,-3.36633e+01,1.15328e-05,2.66412e-03,4.61441e-03
2.03880e+03,-4.17927e+00,-3.24611e+01,8.45727e-05,2.70533e-03,4.68654e-03
2.03880e+03,-4.50609e+00,-3.12588e+01,1.00623e-04,2.73578e-03,4.73958e-03
2.03880e+03,-4.61886e+00,-3.00565e+01,1.11531e-04,2.76782e-03,4.79530e-03
2.03880e+03,-4.63598e+00,-2.88543e+01,1.20142e-04,2.80134e-03,4.85356e-03
2.03880e+03,-4.58102e+00,-2.76520e+01,1.27021e-04,2.83609e-03,4.91389e-03
2.03880e+03,-4.48083e+00,-2.64498e+01,1.32813e-04,2.87185e-03,4.97597e-03
2.03880e+03,-4.33523e+00,-2.52475e+01,1.37515e-04,2.90843e-03,5.03942e-03
2.03880e+03,-4.16192e+00,-2.40452e+01,1.41552e-04,2.94563e-03,5.10395e-03
2.03880e+03,-3.97255e+00,-2.28430e+01,1.45202e-04,2.98338e-03,5.16940e-03
2.03880e+03,-3.75897e+00,-2.16407e+01,1.48271e-04,3.02155e-03,5.23557e-03
2.03880e+03,-3.53026e+00,-2.04384e+01,1.50976e-04,3.06005e-03,5.30231e-03
2.03880e+03,-3.28682e+00,-1.92362e+01,1.53328e-04,3.09880e-03,5.36947e-03
2.03880e+03,-3.02870e+00,-1.80339e+01,1.55327e-04,3.13772e-03,5.43691e-03
2.03880e+03,-2.76138e+00,-1.68317e+01,1.57105e-04,3.17675e-03,5.50453e-03
2.03880e+03,-2.48228e+00,-1.56294e+01,1.58599e-04,3.21581e-03,5.57221e-03
2.03880e+03,-2.19562e+00,-1.44271e+01,1.59913e-04,3.25487e-03,5.63986e-03
2.03880e+03,-1.90220e+00,-1.32249e+01,1.61064e-04,3.29387e-03,5.70741e-03
2.03880e+03,-1.60274e+00,-1.20226e+01,1.62070e-04,3.33276e-03,5.77478e-03
2.03880e+03,-1.30072e+00,-1.08204e+01,1.63014e-04,3.37153e-03,5.84193e-03
2.03880e+03,-9.94731e-01,-9.61809e+00,1.63863e-04,3.41014e-03,5.90881e-03
2.03880e+03,-6.88086e-01,-8.41583e+00,1.64696e-04,3.44859e-03,5.97540e-03
2.03880e+03,-3.79073e-01,-7.21357e+00,1.65473e-04,3.48686e-03,6.04169e-03
2.03880e+03,-7.00919e-02,-6.01131e+00,1.66250e-04,3.52494e-03,6.10764e-03
2.03880e+03,2.37722e-01,-4.80905e+00,1.67055e-04,3.56283e-03,6.17326e-03
2.03880e+03,5.45535e-01,-3.60678e+00,1.67860e-04,3.60052e-03,6.23854e-03
2.03880e+03,8.46060e-01,-2.40452e+00,1.68841e-04,3.63802e-03,6.30350e-03
2.03880e+03,1.14523e+00,-1.20226e+00,1.69853e-04,3.67537e-03,6.36819e-03
2.04720e+03,1.48774e+01,0.00000e+00,-1.89253e-05,6.81356e-04,1.18030e-03
2.04720e+03,1.48025e+01,-1.13053e+00,-1.98193e-05,6.76033e-04,1.17109e-03
2.04720e+03,1.47028e+01,-2.26105e+00,-2.06401e-05,6.70580e-04,1.16166e-03
2.04720e+03,1.46021e+01,-3.39158e+00,-2.14580e-05,6.65003e-04,1.15202e-03
2.04720e+03,1.44796e+01,-4.52211e+00,-2.22112e-05,6.59312e-04,1.14218e-03
2.04720e+03,1.43520e+01,-5.65264e+00,-2.29495e-05,6.53516e-04,1.13216e-03
2.04720e+03,1.42077e+01,-6.78316e+00,-2.36381e-05,6.47623e-04,1.12197e-03
2.04720e+03,1.40552e+01,-7.91369e+00,-2.43026e-05,6.41642e-04,1.11162e-03
2.04720e+03,1.38892e+01,-9.04422e+00,-2.49273e-05,6.35580e-04,1.10114e-03
2.04720e+03,1.37121e+01,-1.01747e+01,-2.55193e-05,6.29445e-04,1.09053e-03
2.04720e+03,1.35229e+01,-1.13053e+01,-2.60752e-05,6.23246e-04,1.07981e-03
2.04720e+03,1.33189e+01,-1.24358e+01,-2.65875e-05,6.16991e-04,1.06899e-03
2.04720e+03,1.30998e+01,-1.35663e+01,-2.70552e-05,6.10687e-04,1.05809e-03
2.04720e+03,1.28594e+01,-1.46969e+01,-2.74597e-05,6.04346e-04,1.04712e-03
2.04720e+03,1.25982e+01,-1.58274e+01,-2.78026e-05,5.97979e-04,1.03610e-03
2.04720e+03,1.23120e+01,-1.69579e+01,-2.80718e-05,5.91597e-04,1.02506e-03
2.04720e+03,1.19922e+01,-1.80884e+01,-2.82414e-05,5.85222e-04,1.01403e-03
2.04720e+03,1.16489e+01,-1.92190e+01,-2.83416e-05,5.78859e-04,1.00301e-03
2.04720e+03,1.12528e+01,-2.03495e+01,-2.82858e-05,5.72541e-04,9.92073e-04
2.04720e+03,1.08348e+01,-2.14800e+01,-2.81652e-05,5.66283e-04,9.81235e-04
2.04720e+03,1.03559e+01,-2.26105e+01,-2.78644e-05,5.60101e-04,9.70524e-04
2.04720e+03,9.82823e+00,-2.37411e+01,-2.74192e-05,5.54047e-04,9.60030e-04
2.04720e+03,9.25081e+00,-2.48716e+01,-2.68270e-05,5.48132e-04,9.49771e-04
2.04720e+03,8.58998e+00,-2.60021e+01,-2.59881e-05,5.42376e-04,9.39782e-04
2.04720e+03,7.83252e+00,-2.71326e+01,-2.48633e-05,5.36850e-04,9.30184e-04
2.04720e+03,6.96585e+00,-2.82632e+01,-2.34156e-05,5.31620e-04,9.21091e-04
2.04720e+03,5.94077e+00,-2.93937e+01,-2.14993e-05,5.26730e-04,9.12577e-04
2.04720e+03,4.62500e+00,-3.05242e+01,-1.87233e-05,5.22420e-04,9.05051e-04
2.04720e+03,2.84547e+00,-3.16548e+01,-1.45755e-05,5.19787e-04,9.00415e-04
2.04720e+03,-1.15296e+00,-3.27853e+01,-3.86492e-06,5.20831e-04,9.02114e-04
2.04720e+03,-1.44153e+00,-3.27879e+01,-3.01401e-06,5.24074e-04,9.07727e-04
2.04720e+03,-4.07059e+00,-3.16169e+01,5.91756e-06,5.30222e-04,9.18391e-04
2.04720e+03,-4.38891e+00,-3.04459e+01,8.01461e-06,5.34764e-04,9.26274e-04
2.04720e+03,-4.49875e+00,-2.92749e+01,9.49505e-06,5.39544e-04,9.34566e-04
2.04720e+03,-4.51542e+00,-2.81039e+01,1.06999e-05,5.44545e-04,9.43241e-04
2.04720e+03,-4.46189e+00,-2.69329e+01,1.16971e-05,5.49729e-04,9.52230e-04
2.04720e+03,-4.36430e+00,-2.57619e+01,1.25641e-05,5.55064e-04,9.61481e-04
2.04720e+03,-4.22249e+00,-2.45909e+01,1.33002e-05,5.60520e-04,9.70941e-04
2.04720e+03,-4.05369e+00,-2.34199e+01,1.39564e-05,5.66071e-04,9.80562e-04
2.04720e+03,-3.86924e+00,-2.22489e+01,1.45665e-05,5.71701e-04,9.90322e-04
2.04720e+03,-3.66121e+00,-2.10779e+01,1.51067e-05,5.77396e-04,1.00019e-03
2.04720e+03,-3.43845e+00,-1.99069e+01,1.56034e-05,5.83139e-04,1.01015e-03
2.04720e+03,-3.20134e+00,-1.87359e+01,1.60577e-05,5.88920e-04,1.02017e-03
2.04720e+03,-2.94994e+00,-1.75649e+01,1.64696e-05,5.94726e-04,1.03023e-03
2.04720e+03,-2.68957e+00,-1.63940e+01,1.68551e-05,6.00548e-04,1.04032e-03
2.04720e+03,-2.41772e+00,-1.52230e+01,1.72066e-05,6.06376e-04,1.05041e-03
2.04720e+03,-2.13852e+00,-1.40520e+01,1.75364e-05,6.12201e-04,1.06051e-03
2.04720e+03,-1.85273e+00,-1.28810e+01,1.78466e-05,6.18019e-04,1.07059e-03
2.04720e+03,-1.56106e+00,-1.17100e+01,1.81395e-05,6.23821e-04,1.08064e-03
2.04720e+03,-1.26689e+00,-1.05390e+01,1.84250e-05,6.29604e-04,1.09066e-03
2.04720e+03,-9.68863e-01,-9.36797e+00,1.86991e-05,6.35364e-04,1.10064e-03
2.04720e+03,-6.70192e-01,-8.19698e+00,1.89712e-05,6.41100e-04,1.11058e-03
2.04720e+03,-3.69215e-01,-7.02598e+00,1.92366e-05,6.46808e-04,1.12047e-03
2.04720e+03,-6.82691e-02,-5.85498e+00,1.95020e-05,6.52488e-04,1.13031e-03
2.04720e+03,2.31540e-01,-4.68399e+00,1.97708e-05,6.58140e-04,1.14010e-03
2.04720e+03,5.31348e-01,-3.51299e+00,2.00396e-05,6.63762e-04,1.14984e-03
2.04720e+03,8.24058e-01,-2.34199e+00,2.03294e-05,6.69357e-04,1.15954e-03
2.04720e+03,1.11544e+00,-1.17100e+00,2.06231e-05,6.74927e-04,1.16919e-03
2.05000e+03,1.47450e+01,0.00000e+00,0.00000e+00,0.00000e+00,0.00000e+00
2.05000e+03,1.46708e+01,-1.12047e+00,0.00000e+00,0.00000e+00,0.00000e+00
2.05000e+03,1.45720e+01,-2.24093e+00,0.00000e+00,0.00000e+00,0.00000e+00
2.05000e+03,1.44722e+01,-3.36140e+00,0.00000e+00,0.00000e+00,0.00000e+00
2.05000e+03,1.43508e+01,-4.48186e+00,0.00000e+00,0.00000e+00,0.00000e+00
2.05000e+03,1.42243e+01,-5.60233e+00,0.00000e+00,0.00000e+00,0.00000e+00
2.05000e+03,1.40812e+01,-6.72279e+00,0.00000e+00,0.00000e+00,0.00000e+00
2.05000e+03,1.39301e+01,-7.84326e+00,0.00000e+00,0.00000e+00,0.00000e+00
2.05000e+03,1.37656e+01,-8.96372e+00,0.00000e+00,0.00000e+00,0.00000e+00
2.05000e+03,1.35901e+01,-1.00842e+01,0.00000e+00,0.00000e+00,0.00000e+00
2.05000e+03,1.34025e+01,-1.12047e+01,0.00000e+00,0.00000e+00,0.00000e+00
2.05000e+03,1.32004e+01,-1.23251e+01,0.00000e+00,0.00000e+00,0.00000e+00
2.05000e+03,1.29833e+01,-1.34456e+01,0.00000e+00,0.00000e+00,0.00000e+00
2.05000e+03,1.27450e+01,-1.45661e+01,0.00000e+00,0.00000e+00,0.00000e+00
2.05000e+03,1.24860e+01,-1.56865e+01,0.00000e+00,0.00000e+00,0.00000e+00
2.05000e+03,1.22024e+01,-1.68070e+01,0.00000e+00,0.00000e+00,0.00000e+00
2.05000e+03,1.18854e+01,-1.79274e+01,0.00000e+00,0.00000e+00,0.00000e+00
2.05000e+03,1.15452e+01,-1.90479e+01,0.00000e+00,0.00000e+00,0.00000e+00
2.05000e+03,1.11526e+01,-2.01684e+01,0.00000e+00,0.00000e+00,0.00000e+00
2.05000e+03,1.07384e+01,-2.12888e+01,0.00000e+00,0.00000e+00,0.00000e+00
2.05000e+03,1.02638e+01,-2.24093e+01,0.00000e+00,0.00000e+00,0.00000e+00
2.05000e+03,9.74076e+00,-2.35298e+01,0.00000e+00,0.00000e+00,0.00000e+00
2.05000e+03,9.16848e+00,-2.46502e+01,0.00000e+00,0.00000e+00,0.00000e+00
2.05000e+03,8.51353e+00,-2.57707e+01,0.00000e+00,0.00000e+00,0.00000e+00
2.05000e+03,7.76281e+00,-2.68912e+01,0.00000e+00,0.00000e+00,0.00000e+00
2.05000e+03,6.90385e+00,-2.80116e+01,0.00000e+00,0.00000e+00,0.00000e+00
2.05000e+03,5.88790e+00,-2.91321e+01,0.00000e+00,0.00000e+00,0.00000e+00
2.05000e+03,4.58384e+00,-3.02526e+01,0.00000e+00,0.00000e+00,0.00000e+00
2.05000e+03,2.82014e+00,-3.13730e+01,0.00000e+00,0.00000e+00,0.00000e+00
2.05000e+03,-1.14270e+00,-3.24935e+01,0.00000e+00,0.00000e+00,0.00000e+00
2.05000e+03,-1.42870e+00,-3.24961e+01,0.00000e+00,0.00000e+00,0.00000e+00
2.05000e+03,-4.03436e+00,-3.13355e+01,0.00000e+00,0.00000e+00,0.00000e+00
2.05000e+03,-4.34985e+00,-3.01749e+01,0.00000e+00,0.00000e+00,0.00000e+00
2.05000e+03,-4.45871e+00,-2.90144e+01,0.00000e+00,0.00000e+00,0.00000e+00
2.05000e+03,-4.47523e+00,-2.78538e+01,0.00000e+00,0.00000e+00,0.00000e+00
2.05000e+03,-4.42218e+00,-2.66932e+01,0.00000e+00,0.00000e+00,0.00000e+00
2.05000e+03,-4.32546e+00,-2.55327e+01,0.00000e+00,0.00000e+00,0.00000e+00
2.05000e+03,-4.18491e+00,-2.43721e+01,0.00000e+00,0.00000e+00,0.00000e+00
2.05000e+03,-4.01761e+00,-2.32115e+01,0.00000e+00,0.00000e+00,0.00000e+00
2.05000e+03,-3.83480e+00,-2.20509e+01,0.00000e+00,0.00000e+00,0.00000e+00
2.05000e+03,-3.62863e+00,-2.08903e+01,0.00000e+00,0.00000e+00,0.00000e+00
2.05000e+03,-3.40785e+00,-1.97298e+01,0.00000e+00,0.00000e+00,0.00000e+00
2.05000e+03,-3.17285e+00,-1.85692e+01,0.00000e+00,0.00000e+00,0.00000e+00
2.05000e+03,-2.92368e+00,-1.74086e+01,0.00000e+00,0.00000e+00,0.00000e+00
2.05000e+03,-2.66563e+00,-1.62480e+01,0.00000e+00,0.00000e+00,0.00000e+00
2.05000e+03,-2.39621e+00,-1.50875e+01,0.00000e+00,0.00000e+00,0.00000e+00
2.05000e+03,-2.11949e+00,-1.39269e+01,0.00000e+00,0.00000e+00,0.00000e+00
2.05000e+03,-1.83624e+00,-1.27663e+01,0.00000e+00,0.00000e+00,0.00000e+00
2.05000e+03,-1.54717e+00,-1.16057e+01,0.00000e+00,0.00000e+00,0.00000e+00
2.05000e+03,-1.25562e+00,-1.04452e+01,0.00000e+00,0.00000e+00,0.00000e+00
2.05000e+03,-9.60241e-01,-9.28460e+00,0.00000e+00,0.00000e+00,0.00000e+00
2.05000e+03,-6.64227e-01,-8.12402e+00,0.00000e+00,0.00000e+00,0.00000e+00
2.05000e+03,-3.65929e-01,-6.96345e+00,0.00000e+00,0.00000e+00,0.00000e+00
2.05000e+03,-6.76615e-02,-5.80287e+00,0.00000e+00,0.00000e+00,0.00000e+00
2.05000e+03,2.29479e-01,-4.64230e+00,0.00000e+00,0.00000e+00,0.00000e+00
2.05000e+03,5.26620e-01,-3.48173e+00,0.00000e+00,0.00000e+00,0.00000e+00
2.05000e+03,8.16724e-01,-2.32115e+00,0.00000e+00,0.00000e+00,0.00000e+00
2.05000e+03,1.10552e+00,-1.16058e+00,0.00000e+00,0.00000e+00,0.00000e+00
--------------------------------------------------------------------------------------------------------------------------------------------------------------------------------------------------------------------------------------------------------------------------------------------------------------------------------------------------------------------------------

LAMINADO 
--------------------------------------------------------------------------------------------------------------------------------------------------------------------------------------------------------------------------------------------------------------------------------------------------------------------------------------------------------------------------------
X,Y,Z,Sigma,Tau,Von Mises
0.00000e+00,4.31008e+01,0.00000e+00,0.00000e+00,0.00000e+00,0.00000e+00
0.00000e+00,4.28837e+01,-3.27521e+00,0.00000e+00,0.00000e+00,0.00000e+00
0.00000e+00,4.25950e+01,-6.55041e+00,0.00000e+00,0.00000e+00,0.00000e+00
0.00000e+00,4.23033e+01,-9.82562e+00,0.00000e+00,0.00000e+00,0.00000e+00
0.00000e+00,4.19484e+01,-1.31008e+01,0.00000e+00,0.00000e+00,0.00000e+00
0.00000e+00,4.15787e+01,-1.63760e+01,0.00000e+00,0.00000e+00,0.00000e+00
0.00000e+00,4.11605e+01,-1.96512e+01,0.00000e+00,0.00000e+00,0.00000e+00
0.00000e+00,4.07187e+01,-2.29264e+01,0.00000e+00,0.00000e+00,0.00000e+00
0.00000e+00,4.02378e+01,-2.62017e+01,0.00000e+00,0.00000e+00,0.00000e+00
0.00000e+00,3.97249e+01,-2.94769e+01,0.00000e+00,0.00000e+00,0.00000e+00
0.00000e+00,3.91766e+01,-3.27521e+01,0.00000e+00,0.00000e+00,0.00000e+00
0.00000e+00,3.85857e+01,-3.60273e+01,0.00000e+00,0.00000e+00,0.00000e+00
0.00000e+00,3.79511e+01,-3.93025e+01,0.00000e+00,0.00000e+00,0.00000e+00
0.00000e+00,3.72545e+01,-4.25777e+01,0.00000e+00,0.00000e+00,0.00000e+00
0.00000e+00,3.64976e+01,-4.58529e+01,0.00000e+00,0.00000e+00,0.00000e+00
0.00000e+00,3.56687e+01,-4.91281e+01,0.00000e+00,0.00000e+00,0.00000e+00
0.00000e+00,3.47420e+01,-5.24033e+01,0.00000e+00,0.00000e+00,0.00000e+00
0.00000e+00,3.37474e+01,-5.56785e+01,0.00000e+00,0.00000e+00,0.00000e+00
0.00000e+00,3.26000e+01,-5.89537e+01,0.00000e+00,0.00000e+00,0.00000e+00
0.00000e+00,3.13892e+01,-6.22289e+01,0.00000e+00,0.00000e+00,0.00000e+00
0.00000e+00,3.00018e+01,-6.55041e+01,0.00000e+00,0.00000e+00,0.00000e+00
0.00000e+00,2.84730e+01,-6.87793e+01,0.00000e+00,0.00000e+00,0.00000e+00
0.00000e+00,2.68002e+01,-7.20546e+01,0.00000e+00,0.00000e+00,0.00000e+00
0.00000e+00,2.48857e+01,-7.53298e+01,0.00000e+00,0.00000e+00,0.00000e+00
0.00000e+00,2.26913e+01,-7.86050e+01,0.00000e+00,0.00000e+00,0.00000e+00
0.00000e+00,2.01805e+01,-8.18802e+01,0.00000e+00,0.00000e+00,0.00000e+00
0.00000e+00,1.72108e+01,-8.51554e+01,0.00000e+00,0.00000e+00,0.00000e+00
0.00000e+00,1.33989e+01,-8.84306e+01,0.00000e+00,0.00000e+00,0.00000e+00
0.00000e+00,8.24350e+00,-9.17058e+01,0.00000e+00,0.00000e+00,0.00000e+00
0.00000e+00,-3.34020e+00,-9.49810e+01,0.00000e+00,0.00000e+00,0.00000e+00
0.00000e+00,-4.17620e+00,-9.49886e+01,0.00000e+00,0.00000e+00,0.00000e+00
0.00000e+00,-1.17928e+01,-9.15961e+01,0.00000e+00,0.00000e+00,0.00000e+00
0.00000e+00,-1.27149e+01,-8.82037e+01,0.00000e+00,0.00000e+00,0.00000e+00
0.00000e+00,-1.30332e+01,-8.48113e+01,0.00000e+00,0.00000e+00,0.00000e+00
0.00000e+00,-1.30814e+01,-8.14188e+01,0.00000e+00,0.00000e+00,0.00000e+00
0.00000e+00,-1.29264e+01,-7.80264e+01,0.00000e+00,0.00000e+00,0.00000e+00
0.00000e+00,-1.26437e+01,-7.46339e+01,0.00000e+00,0.00000e+00,0.00000e+00
0.00000e+00,-1.22328e+01,-7.12415e+01,0.00000e+00,0.00000e+00,0.00000e+00
0.00000e+00,-1.17438e+01,-6.78490e+01,0.00000e+00,0.00000e+00,0.00000e+00
0.00000e+00,-1.12094e+01,-6.44565e+01,0.00000e+00,0.00000e+00,0.00000e+00
0.00000e+00,-1.06068e+01,-6.10641e+01,0.00000e+00,0.00000e+00,0.00000e+00
0.00000e+00,-9.96142e+00,-5.76716e+01,0.00000e+00,0.00000e+00,0.00000e+00
0.00000e+00,-9.27449e+00,-5.42792e+01,0.00000e+00,0.00000e+00,0.00000e+00
0.00000e+00,-8.54615e+00,-5.08867e+01,0.00000e+00,0.00000e+00,0.00000e+00
0.00000e+00,-7.79185e+00,-4.74943e+01,0.00000e+00,0.00000e+00,0.00000e+00
0.00000e+00,-7.00429e+00,-4.41018e+01,0.00000e+00,0.00000e+00,0.00000e+00
0.00000e+00,-6.19544e+00,-4.07094e+01,0.00000e+00,0.00000e+00,0.00000e+00
0.00000e+00,-5.36748e+00,-3.73169e+01,0.00000e+00,0.00000e+00,0.00000e+00
0.00000e+00,-4.52248e+00,-3.39245e+01,0.00000e+00,0.00000e+00,0.00000e+00
0.00000e+00,-3.67026e+00,-3.05320e+01,0.00000e+00,0.00000e+00,0.00000e+00
0.00000e+00,-2.80686e+00,-2.71396e+01,0.00000e+00,0.00000e+00,0.00000e+00
0.00000e+00,-1.94159e+00,-2.37472e+01,0.00000e+00,0.00000e+00,0.00000e+00
0.00000e+00,-1.06964e+00,-2.03547e+01,0.00000e+00,0.00000e+00,0.00000e+00
0.00000e+00,-1.97780e-01,-1.69622e+01,0.00000e+00,0.00000e+00,0.00000e+00
0.00000e+00,6.70785e-01,-1.35698e+01,0.00000e+00,0.00000e+00,0.00000e+00
0.00000e+00,1.53935e+00,-1.01774e+01,0.00000e+00,0.00000e+00,0.00000e+00
0.00000e+00,2.38735e+00,-6.78490e+00,0.00000e+00,0.00000e+00,0.00000e+00
0.00000e+00,3.23151e+00,-3.39245e+00,0.00000e+00,0.00000e+00,0.00000e+00
1.07300e+02,4.26785e+01,0.00000e+00,0.00000e+00,0.00000e+00,0.00000e+00
1.07300e+02,4.24636e+01,-3.24312e+00,0.00000e+00,0.00000e+00,0.00000e+00
1.07300e+02,4.21777e+01,-6.48624e+00,0.00000e+00,0.00000e+00,0.00000e+00
1.07300e+02,4.18889e+01,-9.72936e+00,0.00000e+00,0.00000e+00,0.00000e+00
1.07300e+02,4.15374e+01,-1.29725e+01,0.00000e+00,0.00000e+00,0.00000e+00
1.07300e+02,4.11714e+01,-1.62156e+01,0.00000e+00,0.00000e+00,0.00000e+00
1.07300e+02,4.07572e+01,-1.94587e+01,0.00000e+00,0.00000e+00,0.00000e+00
1.07300e+02,4.03197e+01,-2.27018e+01,0.00000e+00,0.00000e+00,0.00000e+00
1.07300e+02,3.98436e+01,-2.59450e+01,0.00000e+00,0.00000e+00,0.00000e+00
1.07300e+02,3.93357e+01,-2.91881e+01,0.00000e+00,0.00000e+00,0.00000e+00
1.07300e+02,3.87928e+01,-3.24312e+01,0.00000e+00,0.00000e+00,0.00000e+00
1.07300e+02,3.82077e+01,-3.56743e+01,0.00000e+00,0.00000e+00,0.00000e+00
1.07300e+02,3.75793e+01,-3.89174e+01,0.00000e+00,0.00000e+00,0.00000e+00
1.07300e+02,3.68895e+01,-4.21606e+01,0.00000e+00,0.00000e+00,0.00000e+00
1.07300e+02,3.61401e+01,-4.54037e+01,0.00000e+00,0.00000e+00,0.00000e+00
1.07300e+02,3.53192e+01,-4.86468e+01,0.00000e+00,0.00000e+00,0.00000e+00
1.07300e+02,3.44016e+01,-5.18899e+01,0.00000e+00,0.00000e+00,0.00000e+00
1.07300e+02,3.34168e+01,-5.51330e+01,0.00000e+00,0.00000e+00,0.00000e+00
1.07300e+02,3.22806e+01,-5.83762e+01,0.00000e+00,0.00000e+00,0.00000e+00
1.07300e+02,3.10816e+01,-6.16193e+01,0.00000e+00,0.00000e+00,0.00000e+00
1.07300e+02,2.97079e+01,-6.48624e+01,0.00000e+00,0.00000e+00,0.00000e+00
1.07300e+02,2.81940e+01,-6.81055e+01,0.00000e+00,0.00000e+00,0.00000e+00
1.07300e+02,2.65376e+01,-7.13486e+01,0.00000e+00,0.00000e+00,0.00000e+00
1.07300e+02,2.46419e+01,-7.45918e+01,0.00000e+00,0.00000e+00,0.00000e+00
1.07300e+02,2.24690e+01,-7.78349e+01,0.00000e+00,0.00000e+00,0.00000e+00
1.07300e+02,1.99828e+01,-8.10780e+01,0.00000e+00,0.00000e+00,0.00000e+00
1.07300e+02,1.70422e+01,-8.43211e+01,0.00000e+00,0.00000e+00,0.00000e+00
1.07300e+02,1.32676e+01,-8.75642e+01,0.00000e+00,0.00000e+00,0.00000e+00
1.07300e+02,8.16273e+00,-9.08074e+01,0.00000e+00,0.00000e+00,0.00000e+00
1.07300e+02,-3.30748e+00,-9.40505e+01,0.00000e+00,0.00000e+00,0.00000e+00
1.07300e+02,-4.13529e+00,-9.40580e+01,0.00000e+00,0.00000e+00,0.00000e+00
1.07300e+02,-1.16772e+01,-9.06988e+01,0.00000e+00,0.00000e+00,0.00000e+00
1.07300e+02,-1.25904e+01,-8.73396e+01,0.00000e+00,0.00000e+00,0.00000e+00
1.07300e+02,-1.29055e+01,-8.39804e+01,0.00000e+00,0.00000e+00,0.00000e+00
1.07300e+02,-1.29533e+01,-8.06211e+01,0.00000e+00,0.00000e+00,0.00000e+00
1.07300e+02,-1.27997e+01,-7.72619e+01,0.00000e+00,0.00000e+00,0.00000e+00
1.07300e+02,-1.25198e+01,-7.39027e+01,0.00000e+00,0.00000e+00,0.00000e+00
1.07300e+02,-1.21130e+01,-7.05435e+01,0.00000e+00,0.00000e+00,0.00000e+00
1.07300e+02,-1.16287e+01,-6.71843e+01,0.00000e+00,0.00000e+00,0.00000e+00
1.07300e+02,-1.10996e+01,-6.38251e+01,0.00000e+00,0.00000e+00,0.00000e+00
1.07300e+02,-1.05029e+01,-6.04659e+01,0.00000e+00,0.00000e+00,0.00000e+00
1.07300e+02,-9.86382e+00,-5.71066e+01,0.00000e+00,0.00000e+00,0.00000e+00
1.07300e+02,-9.18363e+00,-5.37474e+01,0.00000e+00,0.00000e+00,0.00000e+00
1.07300e+02,-8.46243e+00,-5.03882e+01,0.00000e+00,0.00000e+00,0.00000e+00
1.07300e+02,-7.71552e+00,-4.70290e+01,0.00000e+00,0.00000e+00,0.00000e+00
1.07300e+02,-6.93567e+00,-4.36698e+01,0.00000e+00,0.00000e+00,0.00000e+00
1.07300e+02,-6.13474e+00,-4.03106e+01,0.00000e+00,0.00000e+00,0.00000e+00
1.07300e+02,-5.31490e+00,-3.69514e+01,0.00000e+00,0.00000e+00,0.00000e+00
1.07300e+02,-4.47818e+00,-3.35921e+01,0.00000e+00,0.00000e+00,0.00000e+00
1.07300e+02,-3.63431e+00,-3.02329e+01,0.00000e+00,0.00000e+00,0.00000e+00
1.07300e+02,-2.77936e+00,-2.68737e+01,0.00000e+00,0.00000e+00,0.00000e+00
1.07300e+02,-1.92257e+00,-2.35145e+01,0.00000e+00,0.00000e+00,0.00000e+00
1.07300e+02,-1.05916e+00,-2.01553e+01,0.00000e+00,0.00000e+00,0.00000e+00
1.07300e+02,-1.95842e-01,-1.67961e+01,0.00000e+00,0.00000e+00,0.00000e+00
1.07300e+02,6.64213e-01,-1.34369e+01,0.00000e+00,0.00000e+00,0.00000e+00
1.07300e+02,1.52427e+00,-1.00776e+01,0.00000e+00,0.00000e+00,0.00000e+00
1.07300e+02,2.36396e+00,-6.71843e+00,0.00000e+00,0.00000e+00,0.00000e+00
1.07300e+02,3.19985e+00,-3.35921e+00,0.00000e+00,0.00000e+00,0.00000e+00
2.14300e+02,4.22575e+01,0.00000e+00,0.00000e+00,0.00000e+00,0.00000e+00
2.14300e+02,4.20447e+01,-3.21112e+00,0.00000e+00,0.00000e+00,0.00000e+00
2.14300e+02,4.17615e+01,-6.42224e+00,0.00000e+00,0.00000e+00,0.00000e+00
2.14300e+02,4.14756e+01,-9.63337e+00,0.00000e+00,0.00000e+00,0.00000e+00
2.14300e+02,4.11276e+01,-1.28445e+01,0.00000e+00,0.00000e+00,0.00000e+00
2.14300e+02,4.07652e+01,-1.60556e+01,0.00000e+00,0.00000e+00,0.00000e+00
2.14300e+02,4.03551e+01,-1.92667e+01,0.00000e+00,0.00000e+00,0.00000e+00
2.14300e+02,3.99219e+01,-2.24779e+01,0.00000e+00,0.00000e+00,0.00000e+00
2.14300e+02,3.94505e+01,-2.56890e+01,0.00000e+00,0.00000e+00,0.00000e+00
2.14300e+02,3.89476e+01,-2.89001e+01,0.00000e+00,0.00000e+00,0.00000e+00
2.14300e+02,3.84101e+01,-3.21112e+01,0.00000e+00,0.00000e+00,0.00000e+00
2.14300e+02,3.78307e+01,-3.53223e+01,0.00000e+00,0.00000e+00,0.00000e+00
2.14300e+02,3.72085e+01,-3.85335e+01,0.00000e+00,0.00000e+00,0.00000e+00
2.14300e+02,3.65256e+01,-4.17446e+01,0.00000e+00,0.00000e+00,0.00000e+00
2.14300e+02,3.57835e+01,-4.49557e+01,0.00000e+00,0.00000e+00,0.00000e+00
2.14300e+02,3.49707e+01,-4.81668e+01,0.00000e+00,0.00000e+00,0.00000e+00
2.14300e+02,3.40622e+01,-5.13780e+01,0.00000e+00,0.00000e+00,0.00000e+00
2.14300e+02,3.30871e+01,-5.45891e+01,0.00000e+00,0.00000e+00,0.00000e+00
2.14300e+02,3.19621e+01,-5.78002e+01,0.00000e+00,0.00000e+00,0.00000e+00
2.14300e+02,3.07750e+01,-6.10113e+01,0.00000e+00,0.00000e+00,0.00000e+00
2.14300e+02,2.94148e+01,-6.42224e+01,0.00000e+00,0.00000e+00,0.00000e+00
2.14300e+02,2.79159e+01,-6.74336e+01,0.00000e+00,0.00000e+00,0.00000e+00
2.14300e+02,2.62758e+01,-7.06447e+01,0.00000e+00,0.00000e+00,0.00000e+00
2.14300e+02,2.43988e+01,-7.38558e+01,0.00000e+00,0.00000e+00,0.00000e+00
2.14300e+02,2.22473e+01,-7.70669e+01,0.00000e+00,0.00000e+00,0.00000e+00
2.14300e+02,1.97856e+01,-8.02781e+01,0.00000e+00,0.00000e+00,0.00000e+00
2.14300e+02,1.68740e+01,-8.34892e+01,0.00000e+00,0.00000e+00,0.00000e+00
2.14300e+02,1.31367e+01,-8.67003e+01,0.00000e+00,0.00000e+00,0.00000e+00
2.14300e+02,8.08220e+00,-8.99114e+01,0.00000e+00,0.00000e+00,0.00000e+00
2.14300e+02,-3.27484e+00,-9.31226e+01,0.00000e+00,0.00000e+00,0.00000e+00
2.14300e+02,-4.09449e+00,-9.31300e+01,0.00000e+00,0.00000e+00,0.00000e+00
2.14300e+02,-1.15620e+01,-8.98039e+01,0.00000e+00,0.00000e+00,0.00000e+00
2.14300e+02,-1.24661e+01,-8.64779e+01,0.00000e+00,0.00000e+00,0.00000e+00
2.14300e+02,-1.27781e+01,-8.31518e+01,0.00000e+00,0.00000e+00,0.00000e+00
2.14300e+02,-1.28255e+01,-7.98257e+01,0.00000e+00,0.00000e+00,0.00000e+00
2.14300e+02,-1.26734e+01,-7.64996e+01,0.00000e+00,0.00000e+00,0.00000e+00
2.14300e+02,-1.23963e+01,-7.31736e+01,0.00000e+00,0.00000e+00,0.00000e+00
2.14300e+02,-1.19935e+01,-6.98475e+01,0.00000e+00,0.00000e+00,0.00000e+00
2.14300e+02,-1.15140e+01,-6.65214e+01,0.00000e+00,0.00000e+00,0.00000e+00
2.14300e+02,-1.09901e+01,-6.31954e+01,0.00000e+00,0.00000e+00,0.00000e+00
2.14300e+02,-1.03992e+01,-5.98693e+01,0.00000e+00,0.00000e+00,0.00000e+00
2.14300e+02,-9.76651e+00,-5.65432e+01,0.00000e+00,0.00000e+00,0.00000e+00
2.14300e+02,-9.09302e+00,-5.32171e+01,0.00000e+00,0.00000e+00,0.00000e+00
2.14300e+02,-8.37893e+00,-4.98911e+01,0.00000e+00,0.00000e+00,0.00000e+00
2.14300e+02,-7.63939e+00,-4.65650e+01,0.00000e+00,0.00000e+00,0.00000e+00
2.14300e+02,-6.86724e+00,-4.32389e+01,0.00000e+00,0.00000e+00,0.00000e+00
2.14300e+02,-6.07421e+00,-3.99129e+01,0.00000e+00,0.00000e+00,0.00000e+00
2.14300e+02,-5.26246e+00,-3.65868e+01,0.00000e+00,0.00000e+00,0.00000e+00
2.14300e+02,-4.43399e+00,-3.32607e+01,0.00000e+00,0.00000e+00,0.00000e+00
2.14300e+02,-3.59845e+00,-2.99346e+01,0.00000e+00,0.00000e+00,0.00000e+00
2.14300e+02,-2.75194e+00,-2.66086e+01,0.00000e+00,0.00000e+00,0.00000e+00
2.14300e+02,-1.90360e+00,-2.32825e+01,0.00000e+00,0.00000e+00,0.00000e+00
2.14300e+02,-1.04871e+00,-1.99564e+01,0.00000e+00,0.00000e+00,0.00000e+00
2.14300e+02,-1.93910e-01,-1.66304e+01,0.00000e+00,0.00000e+00,0.00000e+00
2.14300e+02,6.57660e-01,-1.33043e+01,0.00000e+00,0.00000e+00,0.00000e+00
2.14300e+02,1.50923e+00,-9.97821e+00,0.00000e+00,0.00000e+00,0.00000e+00
2.14300e+02,2.34063e+00,-6.65214e+00,0.00000e+00,0.00000e+00,0.00000e+00
2.14300e+02,3.16828e+00,-3.32607e+00,0.00000e+00,0.00000e+00,0.00000e+00
3.20700e+02,4.18388e+01,0.00000e+00,0.00000e+00,0.00000e+00,0.00000e+00
3.20700e+02,4.16280e+01,-3.17930e+00,0.00000e+00,0.00000e+00,0.00000e+00
3.20700e+02,4.13477e+01,-6.35861e+00,0.00000e+00,0.00000e+00,0.00000e+00
3.20700e+02,4.10646e+01,-9.53791e+00,0.00000e+00,0.00000e+00,0.00000e+00
3.20700e+02,4.07201e+01,-1.27172e+01,0.00000e+00,0.00000e+00,0.00000e+00
3.20700e+02,4.03613e+01,-1.58965e+01,0.00000e+00,0.00000e+00,0.00000e+00
3.20700e+02,3.99553e+01,-1.90758e+01,0.00000e+00,0.00000e+00,0.00000e+00
3.20700e+02,3.95264e+01,-2.22551e+01,0.00000e+00,0.00000e+00,0.00000e+00
3.20700e+02,3.90596e+01,-2.54344e+01,0.00000e+00,0.00000e+00,0.00000e+00
3.20700e+02,3.85617e+01,-2.86137e+01,0.00000e+00,0.00000e+00,0.00000e+00
3.20700e+02,3.80295e+01,-3.17930e+01,0.00000e+00,0.00000e+00,0.00000e+00
3.20700e+02,3.74559e+01,-3.49724e+01,0.00000e+00,0.00000e+00,0.00000e+00
3.20700e+02,3.68398e+01,-3.81517e+01,0.00000e+00,0.00000e+00,0.00000e+00
3.20700e+02,3.61637e+01,-4.13310e+01,0.00000e+00,0.00000e+00,0.00000e+00
3.20700e+02,3.54289e+01,-4.45103e+01,0.00000e+00,0.00000e+00,0.00000e+00
3.20700e+02,3.46242e+01,-4.76896e+01,0.00000e+00,0.00000e+00,0.00000e+00
3.20700e+02,3.37247e+01,-5.08689e+01,0.00000e+00,0.00000e+00,0.00000e+00
3.20700e+02,3.27593e+01,-5.40482e+01,0.00000e+00,0.00000e+00,0.00000e+00
3.20700e+02,3.16454e+01,-5.72275e+01,0.00000e+00,0.00000e+00,0.00000e+00
3.20700e+02,3.04701e+01,-6.04068e+01,0.00000e+00,0.00000e+00,0.00000e+00
3.20700e+02,2.91233e+01,-6.35861e+01,0.00000e+00,0.00000e+00,0.00000e+00
3.20700e+02,2.76393e+01,-6.67654e+01,0.00000e+00,0.00000e+00,0.00000e+00
3.20700e+02,2.60154e+01,-6.99447e+01,0.00000e+00,0.00000e+00,0.00000e+00
3.20700e+02,2.41570e+01,-7.31240e+01,0.00000e+00,0.00000e+00,0.00000e+00
3.20700e+02,2.20269e+01,-7.63033e+01,0.00000e+00,0.00000e+00,0.00000e+00
3.20700e+02,1.95896e+01,-7.94826e+01,0.00000e+00,0.00000e+00,0.00000e+00
3.20700e+02,1.67068e+01,-8.26619e+01,0.00000e+00,0.00000e+00,0.00000e+00
3.20700e+02,1.30066e+01,-8.58412e+01,0.00000e+00,0.00000e+00,0.00000e+00
3.20700e+02,8.00212e+00,-8.90205e+01,0.00000e+00,0.00000e+00,0.00000e+00
3.20700e+02,-3.24239e+00,-9.21998e+01,0.00000e+00,0.00000e+00,0.00000e+00
3.20700e+02,-4.05392e+00,-9.22072e+01,0.00000e+00,0.00000e+00,0.00000e+00
3.20700e+02,-1.14474e+01,-8.89141e+01,0.00000e+00,0.00000e+00,0.00000e+00
3.20700e+02,-1.23426e+01,-8.56210e+01,0.00000e+00,0.00000e+00,0.00000e+00
3.20700e+02,-1.26515e+01,-8.23279e+01,0.00000e+00,0.00000e+00,0.00000e+00
3.20700e+02,-1.26984e+01,-7.90348e+01,0.00000e+00,0.00000e+00,0.00000e+00
3.20700e+02,-1.25479e+01,-7.57416e+01,0.00000e+00,0.00000e+00,0.00000e+00
3.20700e+02,-1.22734e+01,-7.24485e+01,0.00000e+00,0.00000e+00,0.00000e+00
3.20700e+02,-1.18746e+01,-6.91554e+01,0.00000e+00,0.00000e+00,0.00000e+00
3.20700e+02,-1.13999e+01,-6.58623e+01,0.00000e+00,0.00000e+00,0.00000e+00
3.20700e+02,-1.08812e+01,-6.25692e+01,0.00000e+00,0.00000e+00,0.00000e+00
3.20700e+02,-1.02962e+01,-5.92761e+01,0.00000e+00,0.00000e+00,0.00000e+00
3.20700e+02,-9.66973e+00,-5.59829e+01,0.00000e+00,0.00000e+00,0.00000e+00
3.20700e+02,-9.00292e+00,-5.26898e+01,0.00000e+00,0.00000e+00,0.00000e+00
3.20700e+02,-8.29591e+00,-4.93967e+01,0.00000e+00,0.00000e+00,0.00000e+00
3.20700e+02,-7.56370e+00,-4.61036e+01,0.00000e+00,0.00000e+00,0.00000e+00
3.20700e+02,-6.79920e+00,-4.28105e+01,0.00000e+00,0.00000e+00,0.00000e+00
3.20700e+02,-6.01403e+00,-3.95174e+01,0.00000e+00,0.00000e+00,0.00000e+00
3.20700e+02,-5.21032e+00,-3.62243e+01,0.00000e+00,0.00000e+00,0.00000e+00
3.20700e+02,-4.39006e+00,-3.29311e+01,0.00000e+00,0.00000e+00,0.00000e+00
3.20700e+02,-3.56279e+00,-2.96380e+01,0.00000e+00,0.00000e+00,0.00000e+00
3.20700e+02,-2.72467e+00,-2.63449e+01,0.00000e+00,0.00000e+00,0.00000e+00
3.20700e+02,-1.88474e+00,-2.30518e+01,0.00000e+00,0.00000e+00,0.00000e+00
3.20700e+02,-1.03832e+00,-1.97587e+01,0.00000e+00,0.00000e+00,0.00000e+00
3.20700e+02,-1.91989e-01,-1.64656e+01,0.00000e+00,0.00000e+00,0.00000e+00
3.20700e+02,6.51143e-01,-1.31725e+01,0.00000e+00,0.00000e+00,0.00000e+00
3.20700e+02,1.49428e+00,-9.87934e+00,0.00000e+00,0.00000e+00,0.00000e+00
3.20700e+02,2.31744e+00,-6.58623e+00,0.00000e+00,0.00000e+00,0.00000e+00
3.20700e+02,3.13689e+00,-3.29311e+00,0.00000e+00,0.00000e+00,0.00000e+00
4.26200e+02,4.14236e+01,0.00000e+00,0.00000e+00,0.00000e+00,0.00000e+00
4.26200e+02,4.12150e+01,-3.14776e+00,0.00000e+00,0.00000e+00,0.00000e+00
4.26200e+02,4.09374e+01,-6.29551e+00,0.00000e+00,0.00000e+00,0.00000e+00
4.26200e+02,4.06571e+01,-9.44327e+00,0.00000e+00,0.00000e+00,0.00000e+00
4.26200e+02,4.03160e+01,-1.25910e+01,0.00000e+00,0.00000e+00,0.00000e+00
4.26200e+02,3.99607e+01,-1.57388e+01,0.00000e+00,0.00000e+00,0.00000e+00
4.26200e+02,3.95588e+01,-1.88865e+01,0.00000e+00,0.00000e+00,0.00000e+00
4.26200e+02,3.91341e+01,-2.20343e+01,0.00000e+00,0.00000e+00,0.00000e+00
4.26200e+02,3.86720e+01,-2.51820e+01,0.00000e+00,0.00000e+00,0.00000e+00
4.26200e+02,3.81790e+01,-2.83298e+01,0.00000e+00,0.00000e+00,0.00000e+00
4.26200e+02,3.76521e+01,-3.14776e+01,0.00000e+00,0.00000e+00,0.00000e+00
4.26200e+02,3.70842e+01,-3.46253e+01,0.00000e+00,0.00000e+00,0.00000e+00
4.26200e+02,3.64743e+01,-3.77731e+01,0.00000e+00,0.00000e+00,0.00000e+00
4.26200e+02,3.58048e+01,-4.09208e+01,0.00000e+00,0.00000e+00,0.00000e+00
4.26200e+02,3.50774e+01,-4.40686e+01,0.00000e+00,0.00000e+00,0.00000e+00
4.26200e+02,3.42806e+01,-4.72163e+01,0.00000e+00,0.00000e+00,0.00000e+00
4.26200e+02,3.33901e+01,-5.03641e+01,0.00000e+00,0.00000e+00,0.00000e+00
4.26200e+02,3.24342e+01,-5.35118e+01,0.00000e+00,0.00000e+00,0.00000e+00
4.26200e+02,3.13314e+01,-5.66596e+01,0.00000e+00,0.00000e+00,0.00000e+00
4.26200e+02,3.01677e+01,-5.98074e+01,0.00000e+00,0.00000e+00,0.00000e+00
4.26200e+02,2.88343e+01,-6.29551e+01,0.00000e+00,0.00000e+00,0.00000e+00
4.26200e+02,2.73650e+01,-6.61029e+01,0.00000e+00,0.00000e+00,0.00000e+00
4.26200e+02,2.57573e+01,-6.92506e+01,0.00000e+00,0.00000e+00,0.00000e+00
4.26200e+02,2.39173e+01,-7.23984e+01,0.00000e+00,0.00000e+00,0.00000e+00
4.26200e+02,2.18083e+01,-7.55461e+01,0.00000e+00,0.00000e+00,0.00000e+00
4.26200e+02,1.93952e+01,-7.86939e+01,0.00000e+00,0.00000e+00,0.00000e+00
4.26200e+02,1.65410e+01,-8.18417e+01,0.00000e+00,0.00000e+00,0.00000e+00
4.26200e+02,1.28775e+01,-8.49894e+01,0.00000e+00,0.00000e+00,0.00000e+00
4.26200e+02,7.92271e+00,-8.81372e+01,0.00000e+00,0.00000e+00,0.00000e+00
4.26200e+02,-3.21022e+00,-9.12849e+01,0.00000e+00,0.00000e+00,0.00000e+00
4.26200e+02,-4.01369e+00,-9.12922e+01,0.00000e+00,0.00000e+00,0.00000e+00
4.26200e+02,-1.13339e+01,-8.80318e+01,0.00000e+00,0.00000e+00,0.00000e+00
4.26200e+02,-1.22201e+01,-8.47713e+01,0.00000e+00,0.00000e+00,0.00000e+00
4.26200e+02,-1.25260e+01,-8.15109e+01,0.00000e+00,0.00000e+00,0.00000e+00
4.26200e+02,-1.25724e+01,-7.82505e+01,0.00000e+00,0.00000e+00,0.00000e+00
4.26200e+02,-1.24233e+01,-7.49900e+01,0.00000e+00,0.00000e+00,0.00000e+00
4.26200e+02,-1.21516e+01,-7.17296e+01,0.00000e+00,0.00000e+00,0.00000e+00
4.26200e+02,-1.17568e+01,-6.84692e+01,0.00000e+00,0.00000e+00,0.00000e+00
4.26200e+02,-1.12868e+01,-6.52087e+01,0.00000e+00,0.00000e+00,0.00000e+00
4.26200e+02,-1.07732e+01,-6.19483e+01,0.00000e+00,0.00000e+00,0.00000e+00
4.26200e+02,-1.01940e+01,-5.86879e+01,0.00000e+00,0.00000e+00,0.00000e+00
4.26200e+02,-9.57378e+00,-5.54274e+01,0.00000e+00,0.00000e+00,0.00000e+00
4.26200e+02,-8.91358e+00,-5.21670e+01,0.00000e+00,0.00000e+00,0.00000e+00
4.26200e+02,-8.21359e+00,-4.89065e+01,0.00000e+00,0.00000e+00,0.00000e+00
4.26200e+02,-7.48864e+00,-4.56461e+01,0.00000e+00,0.00000e+00,0.00000e+00
4.26200e+02,-6.73173e+00,-4.23857e+01,0.00000e+00,0.00000e+00,0.00000e+00
4.26200e+02,-5.95435e+00,-3.91252e+01,0.00000e+00,0.00000e+00,0.00000e+00
4.26200e+02,-5.15861e+00,-3.58648e+01,0.00000e+00,0.00000e+00,0.00000e+00
4.26200e+02,-4.34650e+00,-3.26044e+01,0.00000e+00,0.00000e+00,0.00000e+00
4.26200e+02,-3.52744e+00,-2.93439e+01,0.00000e+00,0.00000e+00,0.00000e+00
4.26200e+02,-2.69763e+00,-2.60835e+01,0.00000e+00,0.00000e+00,0.00000e+00
4.26200e+02,-1.86603e+00,-2.28231e+01,0.00000e+00,0.00000e+00,0.00000e+00
4.26200e+02,-1.02802e+00,-1.95626e+01,0.00000e+00,0.00000e+00,0.00000e+00
4.26200e+02,-1.90083e-01,-1.63022e+01,0.00000e+00,0.00000e+00,0.00000e+00
4.26200e+02,6.44682e-01,-1.30417e+01,0.00000e+00,0.00000e+00,0.00000e+00
4.26200e+02,1.47945e+00,-9.78131e+00,0.00000e+00,0.00000e+00,0.00000e+00
4.26200e+02,2.29445e+00,-6.52087e+00,0.00000e+00,0.00000e+00,0.00000e+00
4.26200e+02,3.10576e+00,-3.26044e+00,0.00000e+00,0.00000e+00,0.00000e+00
5.30600e+02,4.10127e+01,0.00000e+00,0.00000e+00,0.00000e+00,0.00000e+00
5.30600e+02,4.08062e+01,-3.11654e+00,0.00000e+00,0.00000e+00,0.00000e+00
5.30600e+02,4.05314e+01,-6.23307e+00,0.00000e+00,0.00000e+00,0.00000e+00
5.30600e+02,4.02539e+01,-9.34961e+00,0.00000e+00,0.00000e+00,0.00000e+00
5.30600e+02,3.99161e+01,-1.24661e+01,0.00000e+00,0.00000e+00,0.00000e+00
5.30600e+02,3.95644e+01,-1.55827e+01,0.00000e+00,0.00000e+00,0.00000e+00
5.30600e+02,3.91664e+01,-1.86992e+01,0.00000e+00,0.00000e+00,0.00000e+00
5.30600e+02,3.87460e+01,-2.18158e+01,0.00000e+00,0.00000e+00,0.00000e+00
5.30600e+02,3.82884e+01,-2.49323e+01,0.00000e+00,0.00000e+00,0.00000e+00
5.30600e+02,3.78003e+01,-2.80488e+01,0.00000e+00,0.00000e+00,0.00000e+00
5.30600e+02,3.72787e+01,-3.11654e+01,0.00000e+00,0.00000e+00,0.00000e+00
5.30600e+02,3.67164e+01,-3.42819e+01,0.00000e+00,0.00000e+00,0.00000e+00
5.30600e+02,3.61125e+01,-3.73984e+01,0.00000e+00,0.00000e+00,0.00000e+00
5.30600e+02,3.54497e+01,-4.05150e+01,0.00000e+00,0.00000e+00,0.00000e+00
5.30600e+02,3.47295e+01,-4.36315e+01,0.00000e+00,0.00000e+00,0.00000e+00
5.30600e+02,3.39406e+01,-4.67480e+01,0.00000e+00,0.00000e+00,0.00000e+00
5.30600e+02,3.30589e+01,-4.98646e+01,0.00000e+00,0.00000e+00,0.00000e+00
5.30600e+02,3.21125e+01,-5.29811e+01,0.00000e+00,0.00000e+00,0.00000e+00
5.30600e+02,3.10206e+01,-5.60976e+01,0.00000e+00,0.00000e+00,0.00000e+00
5.30600e+02,2.98685e+01,-5.92142e+01,0.00000e+00,0.00000e+00,0.00000e+00
5.30600e+02,2.85484e+01,-6.23307e+01,0.00000e+00,0.00000e+00,0.00000e+00
5.30600e+02,2.70936e+01,-6.54473e+01,0.00000e+00,0.00000e+00,0.00000e+00
5.30600e+02,2.55018e+01,-6.85638e+01,0.00000e+00,0.00000e+00,0.00000e+00
5.30600e+02,2.36801e+01,-7.16803e+01,0.00000e+00,0.00000e+00,0.00000e+00
5.30600e+02,2.15920e+01,-7.47969e+01,0.00000e+00,0.00000e+00,0.00000e+00
5.30600e+02,1.92028e+01,-7.79134e+01,0.00000e+00,0.00000e+00,0.00000e+00
5.30600e+02,1.63770e+01,-8.10299e+01,0.00000e+00,0.00000e+00,0.00000e+00
5.30600e+02,1.27498e+01,-8.41465e+01,0.00000e+00,0.00000e+00,0.00000e+00
5.30600e+02,7.84413e+00,-8.72630e+01,0.00000e+00,0.00000e+00,0.00000e+00
5.30600e+02,-3.17838e+00,-9.03795e+01,0.00000e+00,0.00000e+00,0.00000e+00
5.30600e+02,-3.97388e+00,-9.03868e+01,0.00000e+00,0.00000e+00,0.00000e+00
5.30600e+02,-1.12214e+01,-8.71587e+01,0.00000e+00,0.00000e+00,0.00000e+00
5.30600e+02,-1.20989e+01,-8.39306e+01,0.00000e+00,0.00000e+00,0.00000e+00
5.30600e+02,-1.24018e+01,-8.07025e+01,0.00000e+00,0.00000e+00,0.00000e+00
5.30600e+02,-1.24477e+01,-7.74744e+01,0.00000e+00,0.00000e+00,0.00000e+00
5.30600e+02,-1.23001e+01,-7.42463e+01,0.00000e+00,0.00000e+00,0.00000e+00
5.30600e+02,-1.20311e+01,-7.10182e+01,0.00000e+00,0.00000e+00,0.00000e+00
5.30600e+02,-1.16402e+01,-6.77901e+01,0.00000e+00,0.00000e+00,0.00000e+00
5.30600e+02,-1.11748e+01,-6.45620e+01,0.00000e+00,0.00000e+00,0.00000e+00
5.30600e+02,-1.06664e+01,-6.13339e+01,0.00000e+00,0.00000e+00,0.00000e+00
5.30600e+02,-1.00929e+01,-5.81058e+01,0.00000e+00,0.00000e+00,0.00000e+00
5.30600e+02,-9.47882e+00,-5.48777e+01,0.00000e+00,0.00000e+00,0.00000e+00
5.30600e+02,-8.82518e+00,-5.16496e+01,0.00000e+00,0.00000e+00,0.00000e+00
5.30600e+02,-8.13212e+00,-4.84215e+01,0.00000e+00,0.00000e+00,0.00000e+00
5.30600e+02,-7.41437e+00,-4.51934e+01,0.00000e+00,0.00000e+00,0.00000e+00
5.30600e+02,-6.66496e+00,-4.19653e+01,0.00000e+00,0.00000e+00,0.00000e+00
5.30600e+02,-5.89529e+00,-3.87372e+01,0.00000e+00,0.00000e+00,0.00000e+00
5.30600e+02,-5.10745e+00,-3.55091e+01,0.00000e+00,0.00000e+00,0.00000e+00
5.30600e+02,-4.30339e+00,-3.22810e+01,0.00000e+00,0.00000e+00,0.00000e+00
5.30600e+02,-3.49245e+00,-2.90529e+01,0.00000e+00,0.00000e+00,0.00000e+00
5.30600e+02,-2.67088e+00,-2.58248e+01,0.00000e+00,0.00000e+00,0.00000e+00
5.30600e+02,-1.84753e+00,-2.25967e+01,0.00000e+00,0.00000e+00,0.00000e+00
5.30600e+02,-1.01782e+00,-1.93686e+01,0.00000e+00,0.00000e+00,0.00000e+00
5.30600e+02,-1.88198e-01,-1.61405e+01,0.00000e+00,0.00000e+00,0.00000e+00
5.30600e+02,6.38288e-01,-1.29124e+01,0.00000e+00,0.00000e+00,0.00000e+00
5.30600e+02,1.46477e+00,-9.68430e+00,0.00000e+00,0.00000e+00,0.00000e+00
5.30600e+02,2.27169e+00,-6.45620e+00,0.00000e+00,0.00000e+00,0.00000e+00
5.30600e+02,3.07496e+00,-3.22810e+00,0.00000e+00,0.00000e+00,0.00000e+00
6.33500e+02,4.06078e+01,0.00000e+00,0.00000e+00,0.00000e+00,0.00000e+00
6.33500e+02,4.04033e+01,-3.08576e+00,0.00000e+00,0.00000e+00,0.00000e+00
6.33500e+02,4.01312e+01,-6.17153e+00,0.00000e+00,0.00000e+00,0.00000e+00
6.33500e+02,3.98564e+01,-9.25729e+00,0.00000e+00,0.00000e+00,0.00000e+00
6.33500e+02,3.95220e+01,-1.23431e+01,0.00000e+00,0.00000e+00,0.00000e+00
6.33500e+02,3.91738e+01,-1.54288e+01,0.00000e+00,0.00000e+00,0.00000e+00
6.33500e+02,3.87797e+01,-1.85146e+01,0.00000e+00,0.00000e+00,0.00000e+00
6.33500e+02,3.83634e+01,-2.16004e+01,0.00000e+00,0.00000e+00,0.00000e+00
6.33500e+02,3.79104e+01,-2.46861e+01,0.00000e+00,0.00000e+00,0.00000e+00
6.33500e+02,3.74271e+01,-2.77719e+01,0.00000e+00,0.00000e+00,0.00000e+00
6.33500e+02,3.69106e+01,-3.08576e+01,0.00000e+00,0.00000e+00,0.00000e+00
6.33500e+02,3.63539e+01,-3.39434e+01,0.00000e+00,0.00000e+00,0.00000e+00
6.33500e+02,3.57559e+01,-3.70292e+01,0.00000e+00,0.00000e+00,0.00000e+00
6.33500e+02,3.50997e+01,-4.01149e+01,0.00000e+00,0.00000e+00,0.00000e+00
6.33500e+02,3.43866e+01,-4.32007e+01,0.00000e+00,0.00000e+00,0.00000e+00
6.33500e+02,3.36055e+01,-4.62865e+01,0.00000e+00,0.00000e+00,0.00000e+00
6.33500e+02,3.27325e+01,-4.93722e+01,0.00000e+00,0.00000e+00,0.00000e+00
6.33500e+02,3.17954e+01,-5.24580e+01,0.00000e+00,0.00000e+00,0.00000e+00
6.33500e+02,3.07144e+01,-5.55438e+01,0.00000e+00,0.00000e+00,0.00000e+00
6.33500e+02,2.95736e+01,-5.86295e+01,0.00000e+00,0.00000e+00,0.00000e+00
6.33500e+02,2.82665e+01,-6.17153e+01,0.00000e+00,0.00000e+00,0.00000e+00
6.33500e+02,2.68261e+01,-6.48011e+01,0.00000e+00,0.00000e+00,0.00000e+00
6.33500e+02,2.52500e+01,-6.78868e+01,0.00000e+00,0.00000e+00,0.00000e+00
6.33500e+02,2.34463e+01,-7.09726e+01,0.00000e+00,0.00000e+00,0.00000e+00
6.33500e+02,2.13788e+01,-7.40584e+01,0.00000e+00,0.00000e+00,0.00000e+00
6.33500e+02,1.90132e+01,-7.71441e+01,0.00000e+00,0.00000e+00,0.00000e+00
6.33500e+02,1.62153e+01,-8.02299e+01,0.00000e+00,0.00000e+00,0.00000e+00
6.33500e+02,1.26239e+01,-8.33156e+01,0.00000e+00,0.00000e+00,0.00000e+00
6.33500e+02,7.76668e+00,-8.64014e+01,0.00000e+00,0.00000e+00,0.00000e+00
6.33500e+02,-3.14700e+00,-8.94872e+01,0.00000e+00,0.00000e+00,0.00000e+00
6.33500e+02,-3.93464e+00,-8.94943e+01,0.00000e+00,0.00000e+00,0.00000e+00
6.33500e+02,-1.11106e+01,-8.62981e+01,0.00000e+00,0.00000e+00,0.00000e+00
6.33500e+02,-1.19795e+01,-8.31019e+01,0.00000e+00,0.00000e+00,0.00000e+00
6.33500e+02,-1.22793e+01,-7.99057e+01,0.00000e+00,0.00000e+00,0.00000e+00
6.33500e+02,-1.23248e+01,-7.67094e+01,0.00000e+00,0.00000e+00,0.00000e+00
6.33500e+02,-1.21787e+01,-7.35132e+01,0.00000e+00,0.00000e+00,0.00000e+00
6.33500e+02,-1.19123e+01,-7.03170e+01,0.00000e+00,0.00000e+00,0.00000e+00
6.33500e+02,-1.15252e+01,-6.71208e+01,0.00000e+00,0.00000e+00,0.00000e+00
6.33500e+02,-1.10645e+01,-6.39245e+01,0.00000e+00,0.00000e+00,0.00000e+00
6.33500e+02,-1.05611e+01,-6.07283e+01,0.00000e+00,0.00000e+00,0.00000e+00
6.33500e+02,-9.99326e+00,-5.75321e+01,0.00000e+00,0.00000e+00,0.00000e+00
6.33500e+02,-9.38524e+00,-5.43358e+01,0.00000e+00,0.00000e+00,0.00000e+00
6.33500e+02,-8.73804e+00,-5.11396e+01,0.00000e+00,0.00000e+00,0.00000e+00
6.33500e+02,-8.05183e+00,-4.79434e+01,0.00000e+00,0.00000e+00,0.00000e+00
6.33500e+02,-7.34116e+00,-4.47472e+01,0.00000e+00,0.00000e+00,0.00000e+00
6.33500e+02,-6.59916e+00,-4.15509e+01,0.00000e+00,0.00000e+00,0.00000e+00
6.33500e+02,-5.83709e+00,-3.83547e+01,0.00000e+00,0.00000e+00,0.00000e+00
6.33500e+02,-5.05702e+00,-3.51585e+01,0.00000e+00,0.00000e+00,0.00000e+00
6.33500e+02,-4.26090e+00,-3.19623e+01,0.00000e+00,0.00000e+00,0.00000e+00
6.33500e+02,-3.45797e+00,-2.87660e+01,0.00000e+00,0.00000e+00,0.00000e+00
6.33500e+02,-2.64450e+00,-2.55698e+01,0.00000e+00,0.00000e+00,0.00000e+00
6.33500e+02,-1.82928e+00,-2.23736e+01,0.00000e+00,0.00000e+00,0.00000e+00
6.33500e+02,-1.00777e+00,-1.91774e+01,0.00000e+00,0.00000e+00,0.00000e+00
6.33500e+02,-1.86340e-01,-1.59811e+01,0.00000e+00,0.00000e+00,0.00000e+00
6.33500e+02,6.31986e-01,-1.27849e+01,0.00000e+00,0.00000e+00,0.00000e+00
6.33500e+02,1.45031e+00,-9.58868e+00,0.00000e+00,0.00000e+00,0.00000e+00
6.33500e+02,2.24926e+00,-6.39245e+00,0.00000e+00,0.00000e+00,0.00000e+00
6.33500e+02,3.04460e+00,-3.19623e+00,0.00000e+00,0.00000e+00,0.00000e+00
7.34700e+02,4.02095e+01,0.00000e+00,0.00000e+00,0.00000e+00,0.00000e+00
7.34700e+02,4.00070e+01,-3.05550e+00,0.00000e+00,0.00000e+00,0.00000e+00
7.34700e+02,3.97376e+01,-6.11100e+00,0.00000e+00,0.00000e+00,0.00000e+00
7.34700e+02,3.94656e+01,-9.16651e+00,0.00000e+00,0.00000e+00,0.00000e+00
7.34700e+02,3.91344e+01,-1.22220e+01,0.00000e+00,0.00000e+00,0.00000e+00
7.34700e+02,3.87896e+01,-1.52775e+01,0.00000e+00,0.00000e+00,0.00000e+00
7.34700e+02,3.83994e+01,-1.83330e+01,0.00000e+00,0.00000e+00,0.00000e+00
7.34700e+02,3.79872e+01,-2.13885e+01,0.00000e+00,0.00000e+00,0.00000e+00
7.34700e+02,3.75386e+01,-2.44440e+01,0.00000e+00,0.00000e+00,0.00000e+00
7.34700e+02,3.70601e+01,-2.74995e+01,0.00000e+00,0.00000e+00,0.00000e+00
7.34700e+02,3.65486e+01,-3.05550e+01,0.00000e+00,0.00000e+00,0.00000e+00
7.34700e+02,3.59973e+01,-3.36105e+01,0.00000e+00,0.00000e+00,0.00000e+00
7.34700e+02,3.54053e+01,-3.66660e+01,0.00000e+00,0.00000e+00,0.00000e+00
7.34700e+02,3.47554e+01,-3.97215e+01,0.00000e+00,0.00000e+00,0.00000e+00
7.34700e+02,3.40493e+01,-4.27770e+01,0.00000e+00,0.00000e+00,0.00000e+00
7.34700e+02,3.32760e+01,-4.58325e+01,0.00000e+00,0.00000e+00,0.00000e+00
7.34700e+02,3.24115e+01,-4.88880e+01,0.00000e+00,0.00000e+00,0.00000e+00
7.34700e+02,3.14836e+01,-5.19435e+01,0.00000e+00,0.00000e+00,0.00000e+00
7.34700e+02,3.04131e+01,-5.49990e+01,0.00000e+00,0.00000e+00,0.00000e+00
7.34700e+02,2.92835e+01,-5.80545e+01,0.00000e+00,0.00000e+00,0.00000e+00
7.34700e+02,2.79893e+01,-6.11100e+01,0.00000e+00,0.00000e+00,0.00000e+00
7.34700e+02,2.65630e+01,-6.41655e+01,0.00000e+00,0.00000e+00,0.00000e+00
7.34700e+02,2.50024e+01,-6.72210e+01,0.00000e+00,0.00000e+00,0.00000e+00
7.34700e+02,2.32164e+01,-7.02765e+01,0.00000e+00,0.00000e+00,0.00000e+00
7.34700e+02,2.11691e+01,-7.33320e+01,0.00000e+00,0.00000e+00,0.00000e+00
7.34700e+02,1.88268e+01,-7.63875e+01,0.00000e+00,0.00000e+00,0.00000e+00
7.34700e+02,1.60563e+01,-7.94430e+01,0.00000e+00,0.00000e+00,0.00000e+00
7.34700e+02,1.25001e+01,-8.24985e+01,0.00000e+00,0.00000e+00,0.00000e+00
7.34700e+02,7.69051e+00,-8.55540e+01,0.00000e+00,0.00000e+00,0.00000e+00
7.34700e+02,-3.11614e+00,-8.86096e+01,0.00000e+00,0.00000e+00,0.00000e+00
7.34700e+02,-3.89606e+00,-8.86166e+01,0.00000e+00,0.00000e+00,0.00000e+00
7.34700e+02,-1.10017e+01,-8.54518e+01,0.00000e+00,0.00000e+00,0.00000e+00
7.34700e+02,-1.18620e+01,-8.22869e+01,0.00000e+00,0.00000e+00,0.00000e+00
7.34700e+02,-1.21589e+01,-7.91220e+01,0.00000e+00,0.00000e+00,0.00000e+00
7.34700e+02,-1.22039e+01,-7.59571e+01,0.00000e+00,0.00000e+00,0.00000e+00
7.34700e+02,-1.20592e+01,-7.27922e+01,0.00000e+00,0.00000e+00,0.00000e+00
7.34700e+02,-1.17955e+01,-6.96274e+01,0.00000e+00,0.00000e+00,0.00000e+00
7.34700e+02,-1.14122e+01,-6.64625e+01,0.00000e+00,0.00000e+00,0.00000e+00
7.34700e+02,-1.09560e+01,-6.32976e+01,0.00000e+00,0.00000e+00,0.00000e+00
7.34700e+02,-1.04575e+01,-6.01327e+01,0.00000e+00,0.00000e+00,0.00000e+00
7.34700e+02,-9.89525e+00,-5.69678e+01,0.00000e+00,0.00000e+00,0.00000e+00
7.34700e+02,-9.29319e+00,-5.38030e+01,0.00000e+00,0.00000e+00,0.00000e+00
7.34700e+02,-8.65235e+00,-5.06381e+01,0.00000e+00,0.00000e+00,0.00000e+00
7.34700e+02,-7.97287e+00,-4.74732e+01,0.00000e+00,0.00000e+00,0.00000e+00
7.34700e+02,-7.26917e+00,-4.43083e+01,0.00000e+00,0.00000e+00,0.00000e+00
7.34700e+02,-6.53444e+00,-4.11434e+01,0.00000e+00,0.00000e+00,0.00000e+00
7.34700e+02,-5.77984e+00,-3.79786e+01,0.00000e+00,0.00000e+00,0.00000e+00
7.34700e+02,-5.00742e+00,-3.48137e+01,0.00000e+00,0.00000e+00,0.00000e+00
7.34700e+02,-4.21911e+00,-3.16488e+01,0.00000e+00,0.00000e+00,0.00000e+00
7.34700e+02,-3.42406e+00,-2.84839e+01,0.00000e+00,0.00000e+00,0.00000e+00
7.34700e+02,-2.61857e+00,-2.53190e+01,0.00000e+00,0.00000e+00,0.00000e+00
7.34700e+02,-1.81134e+00,-2.21542e+01,0.00000e+00,0.00000e+00,0.00000e+00
7.34700e+02,-9.97887e-01,-1.89893e+01,0.00000e+00,0.00000e+00,0.00000e+00
7.34700e+02,-1.84513e-01,-1.58244e+01,0.00000e+00,0.00000e+00,0.00000e+00
7.34700e+02,6.25788e-01,-1.26595e+01,0.00000e+00,0.00000e+00,0.00000e+00
7.34700e+02,1.43609e+00,-9.49464e+00,0.00000e+00,0.00000e+00,0.00000e+00
7.34700e+02,2.22720e+00,-6.32976e+00,0.00000e+00,0.00000e+00,0.00000e+00
7.34700e+02,3.01474e+00,-3.16488e+00,0.00000e+00,0.00000e+00,0.00000e+00
8.33800e+02,3.98196e+01,0.00000e+00,0.00000e+00,0.00000e+00,0.00000e+00
8.33800e+02,3.96190e+01,-3.02587e+00,0.00000e+00,0.00000e+00,0.00000e+00
8.33800e+02,3.93522e+01,-6.05173e+00,0.00000e+00,0.00000e+00,0.00000e+00
8.33800e+02,3.90828e+01,-9.07760e+00,0.00000e+00,0.00000e+00,0.00000e+00
8.33800e+02,3.87549e+01,-1.21035e+01,0.00000e+00,0.00000e+00,0.00000e+00
8.33800e+02,3.84134e+01,-1.51293e+01,0.00000e+00,0.00000e+00,0.00000e+00
8.33800e+02,3.80270e+01,-1.81552e+01,0.00000e+00,0.00000e+00,0.00000e+00
8.33800e+02,3.76188e+01,-2.11811e+01,0.00000e+00,0.00000e+00,0.00000e+00
8.33800e+02,3.71745e+01,-2.42069e+01,0.00000e+00,0.00000e+00,0.00000e+00
8.33800e+02,3.67006e+01,-2.72328e+01,0.00000e+00,0.00000e+00,0.00000e+00
8.33800e+02,3.61941e+01,-3.02587e+01,0.00000e+00,0.00000e+00,0.00000e+00
8.33800e+02,3.56482e+01,-3.32845e+01,0.00000e+00,0.00000e+00,0.00000e+00
8.33800e+02,3.50619e+01,-3.63104e+01,0.00000e+00,0.00000e+00,0.00000e+00
8.33800e+02,3.44183e+01,-3.93363e+01,0.00000e+00,0.00000e+00,0.00000e+00
8.33800e+02,3.37191e+01,-4.23621e+01,0.00000e+00,0.00000e+00,0.00000e+00
8.33800e+02,3.29532e+01,-4.53880e+01,0.00000e+00,0.00000e+00,0.00000e+00
8.33800e+02,3.20971e+01,-4.84139e+01,0.00000e+00,0.00000e+00,0.00000e+00
8.33800e+02,3.11783e+01,-5.14397e+01,0.00000e+00,0.00000e+00,0.00000e+00
8.33800e+02,3.01182e+01,-5.44656e+01,0.00000e+00,0.00000e+00,0.00000e+00
8.33800e+02,2.89995e+01,-5.74915e+01,0.00000e+00,0.00000e+00,0.00000e+00
8.33800e+02,2.77178e+01,-6.05173e+01,0.00000e+00,0.00000e+00,0.00000e+00
8.33800e+02,2.63054e+01,-6.35432e+01,0.00000e+00,0.00000e+00,0.00000e+00
8.33800e+02,2.47599e+01,-6.65691e+01,0.00000e+00,0.00000e+00,0.00000e+00
8.33800e+02,2.29912e+01,-6.95949e+01,0.00000e+00,0.00000e+00,0.00000e+00
8.33800e+02,2.09638e+01,-7.26208e+01,0.00000e+00,0.00000e+00,0.00000e+00
8.33800e+02,1.86442e+01,-7.56467e+01,0.00000e+00,0.00000e+00,0.00000e+00
8.33800e+02,1.59005e+01,-7.86725e+01,0.00000e+00,0.00000e+00,0.00000e+00
8.33800e+02,1.23789e+01,-8.16984e+01,0.00000e+00,0.00000e+00,0.00000e+00
8.33800e+02,7.61592e+00,-8.47243e+01,0.00000e+00,0.00000e+00,0.00000e+00
8.33800e+02,-3.08591e+00,-8.77501e+01,0.00000e+00,0.00000e+00,0.00000e+00
8.33800e+02,-3.85827e+00,-8.77572e+01,0.00000e+00,0.00000e+00,0.00000e+00
8.33800e+02,-1.08950e+01,-8.46230e+01,0.00000e+00,0.00000e+00,0.00000e+00
8.33800e+02,-1.17470e+01,-8.14888e+01,0.00000e+00,0.00000e+00,0.00000e+00
8.33800e+02,-1.20409e+01,-7.83546e+01,0.00000e+00,0.00000e+00,0.00000e+00
8.33800e+02,-1.20856e+01,-7.52204e+01,0.00000e+00,0.00000e+00,0.00000e+00
8.33800e+02,-1.19423e+01,-7.20862e+01,0.00000e+00,0.00000e+00,0.00000e+00
8.33800e+02,-1.16811e+01,-6.89521e+01,0.00000e+00,0.00000e+00,0.00000e+00
8.33800e+02,-1.13015e+01,-6.58179e+01,0.00000e+00,0.00000e+00,0.00000e+00
8.33800e+02,-1.08497e+01,-6.26837e+01,0.00000e+00,0.00000e+00,0.00000e+00
8.33800e+02,-1.03561e+01,-5.95495e+01,0.00000e+00,0.00000e+00,0.00000e+00
8.33800e+02,-9.79928e+00,-5.64153e+01,0.00000e+00,0.00000e+00,0.00000e+00
8.33800e+02,-9.20306e+00,-5.32811e+01,0.00000e+00,0.00000e+00,0.00000e+00
8.33800e+02,-8.56843e+00,-5.01469e+01,0.00000e+00,0.00000e+00,0.00000e+00
8.33800e+02,-7.89554e+00,-4.70128e+01,0.00000e+00,0.00000e+00,0.00000e+00
8.33800e+02,-7.19866e+00,-4.38786e+01,0.00000e+00,0.00000e+00,0.00000e+00
8.33800e+02,-6.47106e+00,-4.07444e+01,0.00000e+00,0.00000e+00,0.00000e+00
8.33800e+02,-5.72378e+00,-3.76102e+01,0.00000e+00,0.00000e+00,0.00000e+00
8.33800e+02,-4.95886e+00,-3.44760e+01,0.00000e+00,0.00000e+00,0.00000e+00
8.33800e+02,-4.17819e+00,-3.13418e+01,0.00000e+00,0.00000e+00,0.00000e+00
8.33800e+02,-3.39085e+00,-2.82077e+01,0.00000e+00,0.00000e+00,0.00000e+00
8.33800e+02,-2.59317e+00,-2.50735e+01,0.00000e+00,0.00000e+00,0.00000e+00
8.33800e+02,-1.79378e+00,-2.19393e+01,0.00000e+00,0.00000e+00,0.00000e+00
8.33800e+02,-9.88209e-01,-1.88051e+01,0.00000e+00,0.00000e+00,0.00000e+00
8.33800e+02,-1.82723e-01,-1.56709e+01,0.00000e+00,0.00000e+00,0.00000e+00
8.33800e+02,6.19718e-01,-1.25367e+01,0.00000e+00,0.00000e+00,0.00000e+00
8.33800e+02,1.42216e+00,-9.40255e+00,0.00000e+00,0.00000e+00,0.00000e+00
8.33800e+02,2.20560e+00,-6.26837e+00,0.00000e+00,0.00000e+00,0.00000e+00
8.33800e+02,2.98550e+00,-3.13418e+00,0.00000e+00,0.00000e+00,0.00000e+00
9.30700e+02,3.94382e+01,0.00000e+00,0.00000e+00,0.00000e+00,0.00000e+00
9.30700e+02,3.92396e+01,-2.99689e+00,0.00000e+00,0.00000e+00,0.00000e+00
9.30700e+02,3.89754e+01,-5.99378e+00,0.00000e+00,0.00000e+00,0.00000e+00
9.30700e+02,3.87085e+01,-8.99067e+00,0.00000e+00,0.00000e+00,0.00000e+00
9.30700e+02,3.83837e+01,-1.19876e+01,0.00000e+00,0.00000e+00,0.00000e+00
9.30700e+02,3.80455e+01,-1.49844e+01,0.00000e+00,0.00000e+00,0.00000e+00
9.30700e+02,3.76628e+01,-1.79813e+01,0.00000e+00,0.00000e+00,0.00000e+00
9.30700e+02,3.72585e+01,-2.09782e+01,0.00000e+00,0.00000e+00,0.00000e+00
9.30700e+02,3.68185e+01,-2.39751e+01,0.00000e+00,0.00000e+00,0.00000e+00
9.30700e+02,3.63492e+01,-2.69720e+01,0.00000e+00,0.00000e+00,0.00000e+00
9.30700e+02,3.58475e+01,-2.99689e+01,0.00000e+00,0.00000e+00,0.00000e+00
9.30700e+02,3.53068e+01,-3.29658e+01,0.00000e+00,0.00000e+00,0.00000e+00
9.30700e+02,3.47261e+01,-3.59627e+01,0.00000e+00,0.00000e+00,0.00000e+00
9.30700e+02,3.40887e+01,-3.89596e+01,0.00000e+00,0.00000e+00,0.00000e+00
9.30700e+02,3.33962e+01,-4.19565e+01,0.00000e+00,0.00000e+00,0.00000e+00
9.30700e+02,3.26376e+01,-4.49533e+01,0.00000e+00,0.00000e+00,0.00000e+00
9.30700e+02,3.17897e+01,-4.79502e+01,0.00000e+00,0.00000e+00,0.00000e+00
9.30700e+02,3.08797e+01,-5.09471e+01,0.00000e+00,0.00000e+00,0.00000e+00
9.30700e+02,2.98297e+01,-5.39440e+01,0.00000e+00,0.00000e+00,0.00000e+00
9.30700e+02,2.87218e+01,-5.69409e+01,0.00000e+00,0.00000e+00,0.00000e+00
9.30700e+02,2.74524e+01,-5.99378e+01,0.00000e+00,0.00000e+00,0.00000e+00
9.30700e+02,2.60534e+01,-6.29347e+01,0.00000e+00,0.00000e+00,0.00000e+00
9.30700e+02,2.45228e+01,-6.59316e+01,0.00000e+00,0.00000e+00,0.00000e+00
9.30700e+02,2.27710e+01,-6.89285e+01,0.00000e+00,0.00000e+00,0.00000e+00
9.30700e+02,2.07631e+01,-7.19254e+01,0.00000e+00,0.00000e+00,0.00000e+00
9.30700e+02,1.84656e+01,-7.49222e+01,0.00000e+00,0.00000e+00,0.00000e+00
9.30700e+02,1.57483e+01,-7.79191e+01,0.00000e+00,0.00000e+00,0.00000e+00
9.30700e+02,1.22603e+01,-8.09160e+01,0.00000e+00,0.00000e+00,0.00000e+00
9.30700e+02,7.54299e+00,-8.39129e+01,0.00000e+00,0.00000e+00,0.00000e+00
9.30700e+02,-3.05636e+00,-8.69098e+01,0.00000e+00,0.00000e+00,0.00000e+00
9.30700e+02,-3.82132e+00,-8.69168e+01,0.00000e+00,0.00000e+00,0.00000e+00
9.30700e+02,-1.07906e+01,-8.38126e+01,0.00000e+00,0.00000e+00,0.00000e+00
9.30700e+02,-1.16345e+01,-8.07084e+01,0.00000e+00,0.00000e+00,0.00000e+00
9.30700e+02,-1.19256e+01,-7.76042e+01,0.00000e+00,0.00000e+00,0.00000e+00
9.30700e+02,-1.19698e+01,-7.45001e+01,0.00000e+00,0.00000e+00,0.00000e+00
9.30700e+02,-1.18279e+01,-7.13959e+01,0.00000e+00,0.00000e+00,0.00000e+00
9.30700e+02,-1.15692e+01,-6.82917e+01,0.00000e+00,0.00000e+00,0.00000e+00
9.30700e+02,-1.11933e+01,-6.51876e+01,0.00000e+00,0.00000e+00,0.00000e+00
9.30700e+02,-1.07458e+01,-6.20834e+01,0.00000e+00,0.00000e+00,0.00000e+00
9.30700e+02,-1.02569e+01,-5.89792e+01,0.00000e+00,0.00000e+00,0.00000e+00
9.30700e+02,-9.70544e+00,-5.58751e+01,0.00000e+00,0.00000e+00,0.00000e+00
9.30700e+02,-9.11493e+00,-5.27709e+01,0.00000e+00,0.00000e+00,0.00000e+00
9.30700e+02,-8.48637e+00,-4.96667e+01,0.00000e+00,0.00000e+00,0.00000e+00
9.30700e+02,-7.81993e+00,-4.65625e+01,0.00000e+00,0.00000e+00,0.00000e+00
9.30700e+02,-7.12973e+00,-4.34584e+01,0.00000e+00,0.00000e+00,0.00000e+00
9.30700e+02,-6.40909e+00,-4.03542e+01,0.00000e+00,0.00000e+00,0.00000e+00
9.30700e+02,-5.66897e+00,-3.72500e+01,0.00000e+00,0.00000e+00,0.00000e+00
9.30700e+02,-4.91137e+00,-3.41459e+01,0.00000e+00,0.00000e+00,0.00000e+00
9.30700e+02,-4.13818e+00,-3.10417e+01,0.00000e+00,0.00000e+00,0.00000e+00
9.30700e+02,-3.35837e+00,-2.79375e+01,0.00000e+00,0.00000e+00,0.00000e+00
9.30700e+02,-2.56834e+00,-2.48334e+01,0.00000e+00,0.00000e+00,0.00000e+00
9.30700e+02,-1.77660e+00,-2.17292e+01,0.00000e+00,0.00000e+00,0.00000e+00
9.30700e+02,-9.78745e-01,-1.86250e+01,0.00000e+00,0.00000e+00,0.00000e+00
9.30700e+02,-1.80973e-01,-1.55208e+01,0.00000e+00,0.00000e+00,0.00000e+00
9.30700e+02,6.13784e-01,-1.24167e+01,0.00000e+00,0.00000e+00,0.00000e+00
9.30700e+02,1.40854e+00,-9.31251e+00,0.00000e+00,0.00000e+00,0.00000e+00
9.30700e+02,2.18448e+00,-6.20834e+00,0.00000e+00,0.00000e+00,0.00000e+00
9.30700e+02,2.95691e+00,-3.10417e+00,0.00000e+00,0.00000e+00,0.00000e+00
1.02500e+03,3.90671e+01,0.00000e+00,0.00000e+00,0.00000e+00,0.00000e+00
1.02500e+03,3.88704e+01,-2.96869e+00,0.00000e+00,0.00000e+00,0.00000e+00
1.02500e+03,3.86086e+01,-5.93738e+00,0.00000e+00,0.00000e+00,0.00000e+00
1.02500e+03,3.83443e+01,-8.90607e+00,0.00000e+00,0.00000e+00,0.00000e+00
1.02500e+03,3.80226e+01,-1.18748e+01,0.00000e+00,0.00000e+00,0.00000e+00
1.02500e+03,3.76875e+01,-1.48435e+01,0.00000e+00,0.00000e+00,0.00000e+00
1.02500e+03,3.73084e+01,-1.78121e+01,0.00000e+00,0.00000e+00,0.00000e+00
1.02500e+03,3.69079e+01,-2.07808e+01,0.00000e+00,0.00000e+00,0.00000e+00
1.02500e+03,3.64721e+01,-2.37495e+01,0.00000e+00,0.00000e+00,0.00000e+00
1.02500e+03,3.60071e+01,-2.67182e+01,0.00000e+00,0.00000e+00,0.00000e+00
1.02500e+03,3.55102e+01,-2.96869e+01,0.00000e+00,0.00000e+00,0.00000e+00
1.02500e+03,3.49746e+01,-3.26556e+01,0.00000e+00,0.00000e+00,0.00000e+00
1.02500e+03,3.43994e+01,-3.56243e+01,0.00000e+00,0.00000e+00,0.00000e+00
1.02500e+03,3.37680e+01,-3.85930e+01,0.00000e+00,0.00000e+00,0.00000e+00
1.02500e+03,3.30819e+01,-4.15617e+01,0.00000e+00,0.00000e+00,0.00000e+00
1.02500e+03,3.23305e+01,-4.45304e+01,0.00000e+00,0.00000e+00,0.00000e+00
1.02500e+03,3.14906e+01,-4.74990e+01,0.00000e+00,0.00000e+00,0.00000e+00
1.02500e+03,3.05891e+01,-5.04677e+01,0.00000e+00,0.00000e+00,0.00000e+00
1.02500e+03,2.95491e+01,-5.34364e+01,0.00000e+00,0.00000e+00,0.00000e+00
1.02500e+03,2.84516e+01,-5.64051e+01,0.00000e+00,0.00000e+00,0.00000e+00
1.02500e+03,2.71940e+01,-5.93738e+01,0.00000e+00,0.00000e+00,0.00000e+00
1.02500e+03,2.58083e+01,-6.23425e+01,0.00000e+00,0.00000e+00,0.00000e+00
1.02500e+03,2.42920e+01,-6.53112e+01,0.00000e+00,0.00000e+00,0.00000e+00
1.02500e+03,2.25567e+01,-6.82799e+01,0.00000e+00,0.00000e+00,0.00000e+00
1.02500e+03,2.05677e+01,-7.12486e+01,0.00000e+00,0.00000e+00,0.00000e+00
1.02500e+03,1.82919e+01,-7.42173e+01,0.00000e+00,0.00000e+00,0.00000e+00
1.02500e+03,1.56001e+01,-7.71859e+01,0.00000e+00,0.00000e+00,0.00000e+00
1.02500e+03,1.21450e+01,-8.01546e+01,0.00000e+00,0.00000e+00,0.00000e+00
1.02500e+03,7.47201e+00,-8.31233e+01,0.00000e+00,0.00000e+00,0.00000e+00
1.02500e+03,-3.02760e+00,-8.60920e+01,0.00000e+00,0.00000e+00,0.00000e+00
1.02500e+03,-3.78536e+00,-8.60989e+01,0.00000e+00,0.00000e+00,0.00000e+00
1.02500e+03,-1.06891e+01,-8.30239e+01,0.00000e+00,0.00000e+00,0.00000e+00
1.02500e+03,-1.15250e+01,-7.99490e+01,0.00000e+00,0.00000e+00,0.00000e+00
1.02500e+03,-1.18134e+01,-7.68740e+01,0.00000e+00,0.00000e+00,0.00000e+00
1.02500e+03,-1.18572e+01,-7.37991e+01,0.00000e+00,0.00000e+00,0.00000e+00
1.02500e+03,-1.17166e+01,-7.07241e+01,0.00000e+00,0.00000e+00,0.00000e+00
1.02500e+03,-1.14604e+01,-6.76491e+01,0.00000e+00,0.00000e+00,0.00000e+00
1.02500e+03,-1.10880e+01,-6.45742e+01,0.00000e+00,0.00000e+00,0.00000e+00
1.02500e+03,-1.06447e+01,-6.14992e+01,0.00000e+00,0.00000e+00,0.00000e+00
1.02500e+03,-1.01604e+01,-5.84243e+01,0.00000e+00,0.00000e+00,0.00000e+00
1.02500e+03,-9.61411e+00,-5.53493e+01,0.00000e+00,0.00000e+00,0.00000e+00
1.02500e+03,-9.02916e+00,-5.22743e+01,0.00000e+00,0.00000e+00,0.00000e+00
1.02500e+03,-8.40652e+00,-4.91994e+01,0.00000e+00,0.00000e+00,0.00000e+00
1.02500e+03,-7.74634e+00,-4.61244e+01,0.00000e+00,0.00000e+00,0.00000e+00
1.02500e+03,-7.06264e+00,-4.30495e+01,0.00000e+00,0.00000e+00,0.00000e+00
1.02500e+03,-6.34878e+00,-3.99745e+01,0.00000e+00,0.00000e+00,0.00000e+00
1.02500e+03,-5.61563e+00,-3.68995e+01,0.00000e+00,0.00000e+00,0.00000e+00
1.02500e+03,-4.86516e+00,-3.38246e+01,0.00000e+00,0.00000e+00,0.00000e+00
1.02500e+03,-4.09924e+00,-3.07496e+01,0.00000e+00,0.00000e+00,0.00000e+00
1.02500e+03,-3.32677e+00,-2.76746e+01,0.00000e+00,0.00000e+00,0.00000e+00
1.02500e+03,-2.54417e+00,-2.45997e+01,0.00000e+00,0.00000e+00,0.00000e+00
1.02500e+03,-1.75988e+00,-2.15247e+01,0.00000e+00,0.00000e+00,0.00000e+00
1.02500e+03,-9.69535e-01,-1.84498e+01,0.00000e+00,0.00000e+00,0.00000e+00
1.02500e+03,-1.79270e-01,-1.53748e+01,0.00000e+00,0.00000e+00,0.00000e+00
1.02500e+03,6.08008e-01,-1.22998e+01,0.00000e+00,0.00000e+00,0.00000e+00
1.02500e+03,1.39529e+00,-9.22488e+00,0.00000e+00,0.00000e+00,0.00000e+00
1.02500e+03,2.16392e+00,-6.14992e+00,0.00000e+00,0.00000e+00,0.00000e+00
1.02500e+03,2.92908e+00,-3.07496e+00,0.00000e+00,0.00000e+00,0.00000e+00
1.11650e+03,3.87070e+01,0.00000e+00,0.00000e+00,0.00000e+00,0.00000e+00
1.11650e+03,3.85121e+01,-2.94133e+00,0.00000e+00,0.00000e+00,0.00000e+00
1.11650e+03,3.82528e+01,-5.88266e+00,0.00000e+00,0.00000e+00,0.00000e+00
1.11650e+03,3.79909e+01,-8.82398e+00,0.00000e+00,0.00000e+00,0.00000e+00
1.11650e+03,3.76721e+01,-1.17653e+01,0.00000e+00,0.00000e+00,0.00000e+00
1.11650e+03,3.73401e+01,-1.47066e+01,0.00000e+00,0.00000e+00,0.00000e+00
1.11650e+03,3.69645e+01,-1.76480e+01,0.00000e+00,0.00000e+00,0.00000e+00
1.11650e+03,3.65678e+01,-2.05893e+01,0.00000e+00,0.00000e+00,0.00000e+00
1.11650e+03,3.61359e+01,-2.35306e+01,0.00000e+00,0.00000e+00,0.00000e+00
1.11650e+03,3.56753e+01,-2.64720e+01,0.00000e+00,0.00000e+00,0.00000e+00
1.11650e+03,3.51829e+01,-2.94133e+01,0.00000e+00,0.00000e+00,0.00000e+00
1.11650e+03,3.46522e+01,-3.23546e+01,0.00000e+00,0.00000e+00,0.00000e+00
1.11650e+03,3.40823e+01,-3.52959e+01,0.00000e+00,0.00000e+00,0.00000e+00
1.11650e+03,3.34567e+01,-3.82373e+01,0.00000e+00,0.00000e+00,0.00000e+00
1.11650e+03,3.27770e+01,-4.11786e+01,0.00000e+00,0.00000e+00,0.00000e+00
1.11650e+03,3.20325e+01,-4.41199e+01,0.00000e+00,0.00000e+00,0.00000e+00
1.11650e+03,3.12004e+01,-4.70612e+01,0.00000e+00,0.00000e+00,0.00000e+00
1.11650e+03,3.03072e+01,-5.00026e+01,0.00000e+00,0.00000e+00,0.00000e+00
1.11650e+03,2.92767e+01,-5.29439e+01,0.00000e+00,0.00000e+00,0.00000e+00
1.11650e+03,2.81893e+01,-5.58852e+01,0.00000e+00,0.00000e+00,0.00000e+00
1.11650e+03,2.69434e+01,-5.88266e+01,0.00000e+00,0.00000e+00,0.00000e+00
1.11650e+03,2.55704e+01,-6.17679e+01,0.00000e+00,0.00000e+00,0.00000e+00
1.11650e+03,2.40681e+01,-6.47092e+01,0.00000e+00,0.00000e+00,0.00000e+00
1.11650e+03,2.23488e+01,-6.76505e+01,0.00000e+00,0.00000e+00,0.00000e+00
1.11650e+03,2.03781e+01,-7.05919e+01,0.00000e+00,0.00000e+00,0.00000e+00
1.11650e+03,1.81233e+01,-7.35332e+01,0.00000e+00,0.00000e+00,0.00000e+00
1.11650e+03,1.54563e+01,-7.64745e+01,0.00000e+00,0.00000e+00,0.00000e+00
1.11650e+03,1.20330e+01,-7.94159e+01,0.00000e+00,0.00000e+00,0.00000e+00
1.11650e+03,7.40314e+00,-8.23572e+01,0.00000e+00,0.00000e+00,0.00000e+00
1.11650e+03,-2.99970e+00,-8.52985e+01,0.00000e+00,0.00000e+00,0.00000e+00
1.11650e+03,-3.75047e+00,-8.53053e+01,0.00000e+00,0.00000e+00,0.00000e+00
1.11650e+03,-1.05906e+01,-8.22587e+01,0.00000e+00,0.00000e+00,0.00000e+00
1.11650e+03,-1.14188e+01,-7.92121e+01,0.00000e+00,0.00000e+00,0.00000e+00
1.11650e+03,-1.17045e+01,-7.61655e+01,0.00000e+00,0.00000e+00,0.00000e+00
1.11650e+03,-1.17479e+01,-7.31189e+01,0.00000e+00,0.00000e+00,0.00000e+00
1.11650e+03,-1.16086e+01,-7.00722e+01,0.00000e+00,0.00000e+00,0.00000e+00
1.11650e+03,-1.13547e+01,-6.70256e+01,0.00000e+00,0.00000e+00,0.00000e+00
1.11650e+03,-1.09858e+01,-6.39790e+01,0.00000e+00,0.00000e+00,0.00000e+00
1.11650e+03,-1.05466e+01,-6.09324e+01,0.00000e+00,0.00000e+00,0.00000e+00
1.11650e+03,-1.00667e+01,-5.78858e+01,0.00000e+00,0.00000e+00,0.00000e+00
1.11650e+03,-9.52550e+00,-5.48391e+01,0.00000e+00,0.00000e+00,0.00000e+00
1.11650e+03,-8.94594e+00,-5.17925e+01,0.00000e+00,0.00000e+00,0.00000e+00
1.11650e+03,-8.32904e+00,-4.87459e+01,0.00000e+00,0.00000e+00,0.00000e+00
1.11650e+03,-7.67495e+00,-4.56993e+01,0.00000e+00,0.00000e+00,0.00000e+00
1.11650e+03,-6.99754e+00,-4.26527e+01,0.00000e+00,0.00000e+00,0.00000e+00
1.11650e+03,-6.29027e+00,-3.96060e+01,0.00000e+00,0.00000e+00,0.00000e+00
1.11650e+03,-5.56387e+00,-3.65594e+01,0.00000e+00,0.00000e+00,0.00000e+00
1.11650e+03,-4.82031e+00,-3.35128e+01,0.00000e+00,0.00000e+00,0.00000e+00
1.11650e+03,-4.06146e+00,-3.04662e+01,0.00000e+00,0.00000e+00,0.00000e+00
1.11650e+03,-3.29611e+00,-2.74196e+01,0.00000e+00,0.00000e+00,0.00000e+00
1.11650e+03,-2.52072e+00,-2.43730e+01,0.00000e+00,0.00000e+00,0.00000e+00
1.11650e+03,-1.74366e+00,-2.13263e+01,0.00000e+00,0.00000e+00,0.00000e+00
1.11650e+03,-9.60599e-01,-1.82797e+01,0.00000e+00,0.00000e+00,0.00000e+00
1.11650e+03,-1.77618e-01,-1.52331e+01,0.00000e+00,0.00000e+00,0.00000e+00
1.11650e+03,6.02404e-01,-1.21865e+01,0.00000e+00,0.00000e+00,0.00000e+00
1.11650e+03,1.38243e+00,-9.13986e+00,0.00000e+00,0.00000e+00,0.00000e+00
1.11650e+03,2.14398e+00,-6.09324e+00,0.00000e+00,0.00000e+00,0.00000e+00
1.11650e+03,2.90209e+00,-3.04662e+00,0.00000e+00,0.00000e+00,0.00000e+00
1.20500e+03,3.76912e+01,0.00000e+00,0.00000e+00,0.00000e+00,0.00000e+00
1.20500e+03,3.75014e+01,-2.86413e+00,0.00000e+00,0.00000e+00,0.00000e+00
1.20500e+03,3.72488e+01,-5.72827e+00,0.00000e+00,0.00000e+00,0.00000e+00
1.20500e+03,3.69938e+01,-8.59240e+00,0.00000e+00,0.00000e+00,0.00000e+00
1.20500e+03,3.66834e+01,-1.14565e+01,0.00000e+00,0.00000e+00,0.00000e+00
1.20500e+03,3.63602e+01,-1.43207e+01,0.00000e+00,0.00000e+00,0.00000e+00
1.20500e+03,3.59944e+01,-1.71848e+01,0.00000e+00,0.00000e+00,0.00000e+00
1.20500e+03,3.56080e+01,-2.00489e+01,0.00000e+00,0.00000e+00,0.00000e+00
1.20500e+03,3.51875e+01,-2.29131e+01,0.00000e+00,0.00000e+00,0.00000e+00
1.20500e+03,3.47390e+01,-2.57772e+01,0.00000e+00,0.00000e+00,0.00000e+00
1.20500e+03,3.42596e+01,-2.86413e+01,0.00000e+00,0.00000e+00,0.00000e+00
1.20500e+03,3.37428e+01,-3.15055e+01,0.00000e+00,0.00000e+00,0.00000e+00
1.20500e+03,3.31878e+01,-3.43696e+01,0.00000e+00,0.00000e+00,0.00000e+00
1.20500e+03,3.25787e+01,-3.72337e+01,0.00000e+00,0.00000e+00,0.00000e+00
1.20500e+03,3.19168e+01,-4.00979e+01,0.00000e+00,0.00000e+00,0.00000e+00
1.20500e+03,3.11919e+01,-4.29620e+01,0.00000e+00,0.00000e+00,0.00000e+00
1.20500e+03,3.03815e+01,-4.58261e+01,0.00000e+00,0.00000e+00,0.00000e+00
1.20500e+03,2.95118e+01,-4.86903e+01,0.00000e+00,0.00000e+00,0.00000e+00
1.20500e+03,2.85084e+01,-5.15544e+01,0.00000e+00,0.00000e+00,0.00000e+00
1.20500e+03,2.74495e+01,-5.44186e+01,0.00000e+00,0.00000e+00,0.00000e+00
1.20500e+03,2.62363e+01,-5.72827e+01,0.00000e+00,0.00000e+00,0.00000e+00
1.20500e+03,2.48993e+01,-6.01468e+01,0.00000e+00,0.00000e+00,0.00000e+00
1.20500e+03,2.34365e+01,-6.30110e+01,0.00000e+00,0.00000e+00,0.00000e+00
1.20500e+03,2.17623e+01,-6.58751e+01,0.00000e+00,0.00000e+00,0.00000e+00
1.20500e+03,1.98433e+01,-6.87392e+01,0.00000e+00,0.00000e+00,0.00000e+00
1.20500e+03,1.76476e+01,-7.16034e+01,0.00000e+00,0.00000e+00,0.00000e+00
1.20500e+03,1.50506e+01,-7.44675e+01,0.00000e+00,0.00000e+00,0.00000e+00
1.20500e+03,1.17172e+01,-7.73316e+01,0.00000e+00,0.00000e+00,0.00000e+00
1.20500e+03,7.20885e+00,-8.01958e+01,0.00000e+00,0.00000e+00,0.00000e+00
1.20500e+03,-2.92097e+00,-8.30599e+01,0.00000e+00,0.00000e+00,0.00000e+00
1.20500e+03,-3.65204e+00,-8.30665e+01,0.00000e+00,0.00000e+00,0.00000e+00
1.20500e+03,-1.03126e+01,-8.00999e+01,0.00000e+00,0.00000e+00,0.00000e+00
1.20500e+03,-1.11191e+01,-7.71332e+01,0.00000e+00,0.00000e+00,0.00000e+00
1.20500e+03,-1.13974e+01,-7.41666e+01,0.00000e+00,0.00000e+00,0.00000e+00
1.20500e+03,-1.14396e+01,-7.11999e+01,0.00000e+00,0.00000e+00,0.00000e+00
1.20500e+03,-1.13040e+01,-6.82332e+01,0.00000e+00,0.00000e+00,0.00000e+00
1.20500e+03,-1.10567e+01,-6.52666e+01,0.00000e+00,0.00000e+00,0.00000e+00
1.20500e+03,-1.06975e+01,-6.22999e+01,0.00000e+00,0.00000e+00,0.00000e+00
1.20500e+03,-1.02698e+01,-5.93332e+01,0.00000e+00,0.00000e+00,0.00000e+00
1.20500e+03,-9.80253e+00,-5.63666e+01,0.00000e+00,0.00000e+00,0.00000e+00
1.20500e+03,-9.27551e+00,-5.33999e+01,0.00000e+00,0.00000e+00,0.00000e+00
1.20500e+03,-8.71115e+00,-5.04333e+01,0.00000e+00,0.00000e+00,0.00000e+00
1.20500e+03,-8.11045e+00,-4.74666e+01,0.00000e+00,0.00000e+00,0.00000e+00
1.20500e+03,-7.47352e+00,-4.44999e+01,0.00000e+00,0.00000e+00,0.00000e+00
1.20500e+03,-6.81389e+00,-4.15333e+01,0.00000e+00,0.00000e+00,0.00000e+00
1.20500e+03,-6.12518e+00,-3.85666e+01,0.00000e+00,0.00000e+00,0.00000e+00
1.20500e+03,-5.41785e+00,-3.55999e+01,0.00000e+00,0.00000e+00,0.00000e+00
1.20500e+03,-4.69381e+00,-3.26333e+01,0.00000e+00,0.00000e+00,0.00000e+00
1.20500e+03,-3.95486e+00,-2.96666e+01,0.00000e+00,0.00000e+00,0.00000e+00
1.20500e+03,-3.20961e+00,-2.67000e+01,0.00000e+00,0.00000e+00,0.00000e+00
1.20500e+03,-2.45457e+00,-2.37333e+01,0.00000e+00,0.00000e+00,0.00000e+00
1.20500e+03,-1.69790e+00,-2.07666e+01,0.00000e+00,0.00000e+00,0.00000e+00
1.20500e+03,-9.35389e-01,-1.78000e+01,0.00000e+00,0.00000e+00,0.00000e+00
1.20500e+03,-1.72956e-01,-1.48333e+01,0.00000e+00,0.00000e+00,0.00000e+00
1.20500e+03,5.86594e-01,-1.18666e+01,0.00000e+00,0.00000e+00,0.00000e+00
1.20500e+03,1.34615e+00,-8.89999e+00,0.00000e+00,0.00000e+00,0.00000e+00
1.20500e+03,2.08771e+00,-5.93332e+00,0.00000e+00,0.00000e+00,0.00000e+00
1.20500e+03,2.82592e+00,-2.96666e+00,0.00000e+00,0.00000e+00,0.00000e+00
1.29010e+03,3.63234e+01,0.00000e+00,0.00000e+00,0.00000e+00,0.00000e+00
1.29010e+03,3.61405e+01,-2.76019e+00,0.00000e+00,0.00000e+00,0.00000e+00
1.29010e+03,3.58971e+01,-5.52039e+00,0.00000e+00,0.00000e+00,0.00000e+00
1.29010e+03,3.56513e+01,-8.28058e+00,0.00000e+00,0.00000e+00,0.00000e+00
1.29010e+03,3.53522e+01,-1.10408e+01,0.00000e+00,0.00000e+00,0.00000e+00
1.29010e+03,3.50407e+01,-1.38010e+01,0.00000e+00,0.00000e+00,0.00000e+00
1.29010e+03,3.46882e+01,-1.65612e+01,0.00000e+00,0.00000e+00,0.00000e+00
1.29010e+03,3.43158e+01,-1.93214e+01,0.00000e+00,0.00000e+00,0.00000e+00
1.29010e+03,3.39106e+01,-2.20816e+01,0.00000e+00,0.00000e+00,0.00000e+00
1.29010e+03,3.34783e+01,-2.48418e+01,0.00000e+00,0.00000e+00,0.00000e+00
1.29010e+03,3.30163e+01,-2.76019e+01,0.00000e+00,0.00000e+00,0.00000e+00
1.29010e+03,3.25183e+01,-3.03621e+01,0.00000e+00,0.00000e+00,0.00000e+00
1.29010e+03,3.19834e+01,-3.31223e+01,0.00000e+00,0.00000e+00,0.00000e+00
1.29010e+03,3.13964e+01,-3.58825e+01,0.00000e+00,0.00000e+00,0.00000e+00
1.29010e+03,3.07585e+01,-3.86427e+01,0.00000e+00,0.00000e+00,0.00000e+00
1.29010e+03,3.00599e+01,-4.14029e+01,0.00000e+00,0.00000e+00,0.00000e+00
1.29010e+03,2.92790e+01,-4.41631e+01,0.00000e+00,0.00000e+00,0.00000e+00
1.29010e+03,2.84408e+01,-4.69233e+01,0.00000e+00,0.00000e+00,0.00000e+00
1.29010e+03,2.74738e+01,-4.96835e+01,0.00000e+00,0.00000e+00,0.00000e+00
1.29010e+03,2.64534e+01,-5.24437e+01,0.00000e+00,0.00000e+00,0.00000e+00
1.29010e+03,2.52842e+01,-5.52039e+01,0.00000e+00,0.00000e+00,0.00000e+00
1.29010e+03,2.39957e+01,-5.79641e+01,0.00000e+00,0.00000e+00,0.00000e+00
1.29010e+03,2.25860e+01,-6.07243e+01,0.00000e+00,0.00000e+00,0.00000e+00
1.29010e+03,2.09725e+01,-6.34845e+01,0.00000e+00,0.00000e+00,0.00000e+00
1.29010e+03,1.91232e+01,-6.62447e+01,0.00000e+00,0.00000e+00,0.00000e+00
1.29010e+03,1.70072e+01,-6.90049e+01,0.00000e+00,0.00000e+00,0.00000e+00
1.29010e+03,1.45045e+01,-7.17651e+01,0.00000e+00,0.00000e+00,0.00000e+00
1.29010e+03,1.12920e+01,-7.45253e+01,0.00000e+00,0.00000e+00,0.00000e+00
1.29010e+03,6.94724e+00,-7.72855e+01,0.00000e+00,0.00000e+00,0.00000e+00
1.29010e+03,-2.81497e+00,-8.00457e+01,0.00000e+00,0.00000e+00,0.00000e+00
1.29010e+03,-3.51951e+00,-8.00521e+01,0.00000e+00,0.00000e+00,0.00000e+00
1.29010e+03,-9.93839e+00,-7.71931e+01,0.00000e+00,0.00000e+00,0.00000e+00
1.29010e+03,-1.07156e+01,-7.43341e+01,0.00000e+00,0.00000e+00,0.00000e+00
1.29010e+03,-1.09838e+01,-7.14751e+01,0.00000e+00,0.00000e+00,0.00000e+00
1.29010e+03,-1.10244e+01,-6.86160e+01,0.00000e+00,0.00000e+00,0.00000e+00
1.29010e+03,-1.08937e+01,-6.57570e+01,0.00000e+00,0.00000e+00,0.00000e+00
1.29010e+03,-1.06555e+01,-6.28980e+01,0.00000e+00,0.00000e+00,0.00000e+00
1.29010e+03,-1.03093e+01,-6.00390e+01,0.00000e+00,0.00000e+00,0.00000e+00
1.29010e+03,-9.89713e+00,-5.71800e+01,0.00000e+00,0.00000e+00,0.00000e+00
1.29010e+03,-9.44680e+00,-5.43210e+01,0.00000e+00,0.00000e+00,0.00000e+00
1.29010e+03,-8.93890e+00,-5.14620e+01,0.00000e+00,0.00000e+00,0.00000e+00
1.29010e+03,-8.39503e+00,-4.86030e+01,0.00000e+00,0.00000e+00,0.00000e+00
1.29010e+03,-7.81612e+00,-4.57440e+01,0.00000e+00,0.00000e+00,0.00000e+00
1.29010e+03,-7.20231e+00,-4.28850e+01,0.00000e+00,0.00000e+00,0.00000e+00
1.29010e+03,-6.56662e+00,-4.00260e+01,0.00000e+00,0.00000e+00,0.00000e+00
1.29010e+03,-5.90290e+00,-3.71670e+01,0.00000e+00,0.00000e+00,0.00000e+00
1.29010e+03,-5.22123e+00,-3.43080e+01,0.00000e+00,0.00000e+00,0.00000e+00
1.29010e+03,-4.52347e+00,-3.14490e+01,0.00000e+00,0.00000e+00,0.00000e+00
1.29010e+03,-3.81134e+00,-2.85900e+01,0.00000e+00,0.00000e+00,0.00000e+00
1.29010e+03,-3.09313e+00,-2.57310e+01,0.00000e+00,0.00000e+00,0.00000e+00
1.29010e+03,-2.36549e+00,-2.28720e+01,0.00000e+00,0.00000e+00,0.00000e+00
1.29010e+03,-1.63628e+00,-2.00130e+01,0.00000e+00,0.00000e+00,0.00000e+00
1.29010e+03,-9.01444e-01,-1.71540e+01,0.00000e+00,0.00000e+00,0.00000e+00
1.29010e+03,-1.66680e-01,-1.42950e+01,0.00000e+00,0.00000e+00,0.00000e+00
1.29010e+03,5.65307e-01,-1.14360e+01,0.00000e+00,0.00000e+00,0.00000e+00
1.29010e+03,1.29729e+00,-8.57701e+00,0.00000e+00,0.00000e+00,0.00000e+00
1.29010e+03,2.01195e+00,-5.71800e+00,0.00000e+00,0.00000e+00,0.00000e+00
1.29010e+03,2.72337e+00,-2.85900e+00,0.00000e+00,0.00000e+00,0.00000e+00
1.37170e+03,3.50118e+01,0.00000e+00,0.00000e+00,0.00000e+00,0.00000e+00
1.37170e+03,3.48355e+01,-2.66053e+00,0.00000e+00,0.00000e+00,0.00000e+00
1.37170e+03,3.46009e+01,-5.32106e+00,0.00000e+00,0.00000e+00,0.00000e+00
1.37170e+03,3.43640e+01,-7.98159e+00,0.00000e+00,0.00000e+00,0.00000e+00
1.37170e+03,3.40757e+01,-1.06421e+01,0.00000e+00,0.00000e+00,0.00000e+00
1.37170e+03,3.37754e+01,-1.33027e+01,0.00000e+00,0.00000e+00,0.00000e+00
1.37170e+03,3.34357e+01,-1.59632e+01,0.00000e+00,0.00000e+00,0.00000e+00
1.37170e+03,3.30768e+01,-1.86237e+01,0.00000e+00,0.00000e+00,0.00000e+00
1.37170e+03,3.26861e+01,-2.12842e+01,0.00000e+00,0.00000e+00,0.00000e+00
1.37170e+03,3.22695e+01,-2.39448e+01,0.00000e+00,0.00000e+00,0.00000e+00
1.37170e+03,3.18241e+01,-2.66053e+01,0.00000e+00,0.00000e+00,0.00000e+00
1.37170e+03,3.13441e+01,-2.92658e+01,0.00000e+00,0.00000e+00,0.00000e+00
1.37170e+03,3.08286e+01,-3.19264e+01,0.00000e+00,0.00000e+00,0.00000e+00
1.37170e+03,3.02627e+01,-3.45869e+01,0.00000e+00,0.00000e+00,0.00000e+00
1.37170e+03,2.96479e+01,-3.72474e+01,0.00000e+00,0.00000e+00,0.00000e+00
1.37170e+03,2.89745e+01,-3.99080e+01,0.00000e+00,0.00000e+00,0.00000e+00
1.37170e+03,2.82218e+01,-4.25685e+01,0.00000e+00,0.00000e+00,0.00000e+00
1.37170e+03,2.74139e+01,-4.52290e+01,0.00000e+00,0.00000e+00,0.00000e+00
1.37170e+03,2.64818e+01,-4.78895e+01,0.00000e+00,0.00000e+00,0.00000e+00
1.37170e+03,2.54982e+01,-5.05501e+01,0.00000e+00,0.00000e+00,0.00000e+00
1.37170e+03,2.43712e+01,-5.32106e+01,0.00000e+00,0.00000e+00,0.00000e+00
1.37170e+03,2.31293e+01,-5.58711e+01,0.00000e+00,0.00000e+00,0.00000e+00
1.37170e+03,2.17704e+01,-5.85317e+01,0.00000e+00,0.00000e+00,0.00000e+00
1.37170e+03,2.02153e+01,-6.11922e+01,0.00000e+00,0.00000e+00,0.00000e+00
1.37170e+03,1.84327e+01,-6.38527e+01,0.00000e+00,0.00000e+00,0.00000e+00
1.37170e+03,1.63931e+01,-6.65133e+01,0.00000e+00,0.00000e+00,0.00000e+00
1.37170e+03,1.39807e+01,-6.91738e+01,0.00000e+00,0.00000e+00,0.00000e+00
1.37170e+03,1.08843e+01,-7.18343e+01,0.00000e+00,0.00000e+00,0.00000e+00
1.37170e+03,6.69639e+00,-7.44949e+01,0.00000e+00,0.00000e+00,0.00000e+00
1.37170e+03,-2.71333e+00,-7.71554e+01,0.00000e+00,0.00000e+00,0.00000e+00
1.37170e+03,-3.39243e+00,-7.71616e+01,0.00000e+00,0.00000e+00,0.00000e+00
1.37170e+03,-9.57954e+00,-7.44058e+01,0.00000e+00,0.00000e+00,0.00000e+00
1.37170e+03,-1.03287e+01,-7.16500e+01,0.00000e+00,0.00000e+00,0.00000e+00
1.37170e+03,-1.05872e+01,-6.88942e+01,0.00000e+00,0.00000e+00,0.00000e+00
1.37170e+03,-1.06264e+01,-6.61385e+01,0.00000e+00,0.00000e+00,0.00000e+00
1.37170e+03,-1.05004e+01,-6.33827e+01,0.00000e+00,0.00000e+00,0.00000e+00
1.37170e+03,-1.02708e+01,-6.06269e+01,0.00000e+00,0.00000e+00,0.00000e+00
1.37170e+03,-9.93701e+00,-5.78712e+01,0.00000e+00,0.00000e+00,0.00000e+00
1.37170e+03,-9.53977e+00,-5.51154e+01,0.00000e+00,0.00000e+00,0.00000e+00
1.37170e+03,-9.10569e+00,-5.23596e+01,0.00000e+00,0.00000e+00,0.00000e+00
1.37170e+03,-8.61613e+00,-4.96039e+01,0.00000e+00,0.00000e+00,0.00000e+00
1.37170e+03,-8.09190e+00,-4.68481e+01,0.00000e+00,0.00000e+00,0.00000e+00
1.37170e+03,-7.53389e+00,-4.40923e+01,0.00000e+00,0.00000e+00,0.00000e+00
1.37170e+03,-6.94225e+00,-4.13365e+01,0.00000e+00,0.00000e+00,0.00000e+00
1.37170e+03,-6.32951e+00,-3.85808e+01,0.00000e+00,0.00000e+00,0.00000e+00
1.37170e+03,-5.68976e+00,-3.58250e+01,0.00000e+00,0.00000e+00,0.00000e+00
1.37170e+03,-5.03271e+00,-3.30692e+01,0.00000e+00,0.00000e+00,0.00000e+00
1.37170e+03,-4.36014e+00,-3.03135e+01,0.00000e+00,0.00000e+00,0.00000e+00
1.37170e+03,-3.67372e+00,-2.75577e+01,0.00000e+00,0.00000e+00,0.00000e+00
1.37170e+03,-2.98144e+00,-2.48019e+01,0.00000e+00,0.00000e+00,0.00000e+00
1.37170e+03,-2.28008e+00,-2.20462e+01,0.00000e+00,0.00000e+00,0.00000e+00
1.37170e+03,-1.57720e+00,-1.92904e+01,0.00000e+00,0.00000e+00,0.00000e+00
1.37170e+03,-8.68894e-01,-1.65346e+01,0.00000e+00,0.00000e+00,0.00000e+00
1.37170e+03,-1.60661e-01,-1.37788e+01,0.00000e+00,0.00000e+00,0.00000e+00
1.37170e+03,5.44895e-01,-1.10231e+01,0.00000e+00,0.00000e+00,0.00000e+00
1.37170e+03,1.25045e+00,-8.26731e+00,0.00000e+00,0.00000e+00,0.00000e+00
1.37170e+03,1.93930e+00,-5.51154e+00,0.00000e+00,0.00000e+00,0.00000e+00
1.37170e+03,2.62503e+00,-2.75577e+00,0.00000e+00,0.00000e+00,0.00000e+00
1.44960e+03,3.37597e+01,0.00000e+00,0.00000e+00,0.00000e+00,0.00000e+00
1.44960e+03,3.35897e+01,-2.56538e+00,0.00000e+00,0.00000e+00,0.00000e+00
1.44960e+03,3.33635e+01,-5.13077e+00,0.00000e+00,0.00000e+00,0.00000e+00
1.44960e+03,3.31351e+01,-7.69615e+00,0.00000e+00,0.00000e+00,0.00000e+00
1.44960e+03,3.28571e+01,-1.02615e+01,0.00000e+00,0.00000e+00,0.00000e+00
1.44960e+03,3.25675e+01,-1.28269e+01,0.00000e+00,0.00000e+00,0.00000e+00
1.44960e+03,3.22399e+01,-1.53923e+01,0.00000e+00,0.00000e+00,0.00000e+00
1.44960e+03,3.18939e+01,-1.79577e+01,0.00000e+00,0.00000e+00,0.00000e+00
1.44960e+03,3.15172e+01,-2.05231e+01,0.00000e+00,0.00000e+00,0.00000e+00
1.44960e+03,3.11155e+01,-2.30885e+01,0.00000e+00,0.00000e+00,0.00000e+00
1.44960e+03,3.06860e+01,-2.56538e+01,0.00000e+00,0.00000e+00,0.00000e+00
1.44960e+03,3.02232e+01,-2.82192e+01,0.00000e+00,0.00000e+00,0.00000e+00
1.44960e+03,2.97261e+01,-3.07846e+01,0.00000e+00,0.00000e+00,0.00000e+00
1.44960e+03,2.91805e+01,-3.33500e+01,0.00000e+00,0.00000e+00,0.00000e+00
1.44960e+03,2.85877e+01,-3.59154e+01,0.00000e+00,0.00000e+00,0.00000e+00
1.44960e+03,2.79383e+01,-3.84808e+01,0.00000e+00,0.00000e+00,0.00000e+00
1.44960e+03,2.72125e+01,-4.10462e+01,0.00000e+00,0.00000e+00,0.00000e+00
1.44960e+03,2.64335e+01,-4.36115e+01,0.00000e+00,0.00000e+00,0.00000e+00
1.44960e+03,2.55347e+01,-4.61769e+01,0.00000e+00,0.00000e+00,0.00000e+00
1.44960e+03,2.45863e+01,-4.87423e+01,0.00000e+00,0.00000e+00,0.00000e+00
1.44960e+03,2.34997e+01,-5.13077e+01,0.00000e+00,0.00000e+00,0.00000e+00
1.44960e+03,2.23022e+01,-5.38731e+01,0.00000e+00,0.00000e+00,0.00000e+00
1.44960e+03,2.09919e+01,-5.64385e+01,0.00000e+00,0.00000e+00,0.00000e+00
1.44960e+03,1.94923e+01,-5.90039e+01,0.00000e+00,0.00000e+00,0.00000e+00
1.44960e+03,1.77735e+01,-6.15692e+01,0.00000e+00,0.00000e+00,0.00000e+00
1.44960e+03,1.58069e+01,-6.41346e+01,0.00000e+00,0.00000e+00,0.00000e+00
1.44960e+03,1.34808e+01,-6.67000e+01,0.00000e+00,0.00000e+00,0.00000e+00
1.44960e+03,1.04950e+01,-6.92654e+01,0.00000e+00,0.00000e+00,0.00000e+00
1.44960e+03,6.45692e+00,-7.18308e+01,0.00000e+00,0.00000e+00,0.00000e+00
1.44960e+03,-2.61629e+00,-7.43962e+01,0.00000e+00,0.00000e+00,0.00000e+00
1.44960e+03,-3.27111e+00,-7.44021e+01,0.00000e+00,0.00000e+00,0.00000e+00
1.44960e+03,-9.23696e+00,-7.17449e+01,0.00000e+00,0.00000e+00,0.00000e+00
1.44960e+03,-9.95928e+00,-6.90877e+01,0.00000e+00,0.00000e+00,0.00000e+00
1.44960e+03,-1.02085e+01,-6.64305e+01,0.00000e+00,0.00000e+00,0.00000e+00
1.44960e+03,-1.02464e+01,-6.37732e+01,0.00000e+00,0.00000e+00,0.00000e+00
1.44960e+03,-1.01249e+01,-6.11160e+01,0.00000e+00,0.00000e+00,0.00000e+00
1.44960e+03,-9.90345e+00,-5.84588e+01,0.00000e+00,0.00000e+00,0.00000e+00
1.44960e+03,-9.58164e+00,-5.58016e+01,0.00000e+00,0.00000e+00,0.00000e+00
1.44960e+03,-9.19861e+00,-5.31444e+01,0.00000e+00,0.00000e+00,0.00000e+00
1.44960e+03,-8.78006e+00,-5.04872e+01,0.00000e+00,0.00000e+00,0.00000e+00
1.44960e+03,-8.30801e+00,-4.78299e+01,0.00000e+00,0.00000e+00,0.00000e+00
1.44960e+03,-7.80252e+00,-4.51727e+01,0.00000e+00,0.00000e+00,0.00000e+00
1.44960e+03,-7.26447e+00,-4.25155e+01,0.00000e+00,0.00000e+00,0.00000e+00
1.44960e+03,-6.69398e+00,-3.98583e+01,0.00000e+00,0.00000e+00,0.00000e+00
1.44960e+03,-6.10316e+00,-3.72011e+01,0.00000e+00,0.00000e+00,0.00000e+00
1.44960e+03,-5.48628e+00,-3.45438e+01,0.00000e+00,0.00000e+00,0.00000e+00
1.44960e+03,-4.85273e+00,-3.18866e+01,0.00000e+00,0.00000e+00,0.00000e+00
1.44960e+03,-4.20421e+00,-2.92294e+01,0.00000e+00,0.00000e+00,0.00000e+00
1.44960e+03,-3.54234e+00,-2.65722e+01,0.00000e+00,0.00000e+00,0.00000e+00
1.44960e+03,-2.87482e+00,-2.39150e+01,0.00000e+00,0.00000e+00,0.00000e+00
1.44960e+03,-2.19854e+00,-2.12577e+01,0.00000e+00,0.00000e+00,0.00000e+00
1.44960e+03,-1.52080e+00,-1.86005e+01,0.00000e+00,0.00000e+00,0.00000e+00
1.44960e+03,-8.37821e-01,-1.59433e+01,0.00000e+00,0.00000e+00,0.00000e+00
1.44960e+03,-1.54916e-01,-1.32861e+01,0.00000e+00,0.00000e+00,0.00000e+00
1.44960e+03,5.25408e-01,-1.06289e+01,0.00000e+00,0.00000e+00,0.00000e+00
1.44960e+03,1.20573e+00,-7.97166e+00,0.00000e+00,0.00000e+00,0.00000e+00
1.44960e+03,1.86995e+00,-5.31444e+00,0.00000e+00,0.00000e+00,0.00000e+00
1.44960e+03,2.53116e+00,-2.65722e+00,0.00000e+00,0.00000e+00,0.00000e+00
1.52340e+03,3.25736e+01,0.00000e+00,0.00000e+00,0.00000e+00,0.00000e+00
1.52340e+03,3.24095e+01,-2.47525e+00,0.00000e+00,0.00000e+00,0.00000e+00
1.52340e+03,3.21913e+01,-4.95049e+00,0.00000e+00,0.00000e+00,0.00000e+00
1.52340e+03,3.19709e+01,-7.42574e+00,0.00000e+00,0.00000e+00,0.00000e+00
1.52340e+03,3.17026e+01,-9.90099e+00,0.00000e+00,0.00000e+00,0.00000e+00
1.52340e+03,3.14232e+01,-1.23762e+01,0.00000e+00,0.00000e+00,0.00000e+00
1.52340e+03,3.11072e+01,-1.48515e+01,0.00000e+00,0.00000e+00,0.00000e+00
1.52340e+03,3.07733e+01,-1.73267e+01,0.00000e+00,0.00000e+00,0.00000e+00
1.52340e+03,3.04098e+01,-1.98020e+01,0.00000e+00,0.00000e+00,0.00000e+00
1.52340e+03,3.00222e+01,-2.22772e+01,0.00000e+00,0.00000e+00,0.00000e+00
1.52340e+03,2.96079e+01,-2.47525e+01,0.00000e+00,0.00000e+00,0.00000e+00
1.52340e+03,2.91613e+01,-2.72277e+01,0.00000e+00,0.00000e+00,0.00000e+00
1.52340e+03,2.86816e+01,-2.97030e+01,0.00000e+00,0.00000e+00,0.00000e+00
1.52340e+03,2.81552e+01,-3.21782e+01,0.00000e+00,0.00000e+00,0.00000e+00
1.52340e+03,2.75832e+01,-3.46535e+01,0.00000e+00,0.00000e+00,0.00000e+00
1.52340e+03,2.69567e+01,-3.71287e+01,0.00000e+00,0.00000e+00,0.00000e+00
1.52340e+03,2.62564e+01,-3.96040e+01,0.00000e+00,0.00000e+00,0.00000e+00
1.52340e+03,2.55047e+01,-4.20792e+01,0.00000e+00,0.00000e+00,0.00000e+00
1.52340e+03,2.46375e+01,-4.45544e+01,0.00000e+00,0.00000e+00,0.00000e+00
1.52340e+03,2.37225e+01,-4.70297e+01,0.00000e+00,0.00000e+00,0.00000e+00
1.52340e+03,2.26740e+01,-4.95049e+01,0.00000e+00,0.00000e+00,0.00000e+00
1.52340e+03,2.15185e+01,-5.19802e+01,0.00000e+00,0.00000e+00,0.00000e+00
1.52340e+03,2.02543e+01,-5.44554e+01,0.00000e+00,0.00000e+00,0.00000e+00
1.52340e+03,1.88075e+01,-5.69307e+01,0.00000e+00,0.00000e+00,0.00000e+00
1.52340e+03,1.71490e+01,-5.94059e+01,0.00000e+00,0.00000e+00,0.00000e+00
1.52340e+03,1.52515e+01,-6.18812e+01,0.00000e+00,0.00000e+00,0.00000e+00
1.52340e+03,1.30071e+01,-6.43564e+01,0.00000e+00,0.00000e+00,0.00000e+00
1.52340e+03,1.01263e+01,-6.68317e+01,0.00000e+00,0.00000e+00,0.00000e+00
1.52340e+03,6.23005e+00,-6.93069e+01,0.00000e+00,0.00000e+00,0.00000e+00
1.52340e+03,-2.52437e+00,-7.17822e+01,0.00000e+00,0.00000e+00,0.00000e+00
1.52340e+03,-3.15618e+00,-7.17879e+01,0.00000e+00,0.00000e+00,0.00000e+00
1.52340e+03,-8.91241e+00,-6.92241e+01,0.00000e+00,0.00000e+00,0.00000e+00
1.52340e+03,-9.60935e+00,-6.66602e+01,0.00000e+00,0.00000e+00,0.00000e+00
1.52340e+03,-9.84985e+00,-6.40963e+01,0.00000e+00,0.00000e+00,0.00000e+00
1.52340e+03,-9.88634e+00,-6.15325e+01,0.00000e+00,0.00000e+00,0.00000e+00
1.52340e+03,-9.76914e+00,-5.89686e+01,0.00000e+00,0.00000e+00,0.00000e+00
1.52340e+03,-9.55548e+00,-5.64048e+01,0.00000e+00,0.00000e+00,0.00000e+00
1.52340e+03,-9.24498e+00,-5.38409e+01,0.00000e+00,0.00000e+00,0.00000e+00
1.52340e+03,-8.87540e+00,-5.12771e+01,0.00000e+00,0.00000e+00,0.00000e+00
1.52340e+03,-8.47156e+00,-4.87132e+01,0.00000e+00,0.00000e+00,0.00000e+00
1.52340e+03,-8.01609e+00,-4.61494e+01,0.00000e+00,0.00000e+00,0.00000e+00
1.52340e+03,-7.52837e+00,-4.35855e+01,0.00000e+00,0.00000e+00,0.00000e+00
1.52340e+03,-7.00922e+00,-4.10217e+01,0.00000e+00,0.00000e+00,0.00000e+00
1.52340e+03,-6.45878e+00,-3.84578e+01,0.00000e+00,0.00000e+00,0.00000e+00
1.52340e+03,-5.88872e+00,-3.58940e+01,0.00000e+00,0.00000e+00,0.00000e+00
1.52340e+03,-5.29352e+00,-3.33301e+01,0.00000e+00,0.00000e+00,0.00000e+00
1.52340e+03,-4.68222e+00,-3.07662e+01,0.00000e+00,0.00000e+00,0.00000e+00
1.52340e+03,-4.05649e+00,-2.82024e+01,0.00000e+00,0.00000e+00,0.00000e+00
1.52340e+03,-3.41788e+00,-2.56385e+01,0.00000e+00,0.00000e+00,0.00000e+00
1.52340e+03,-2.77381e+00,-2.30747e+01,0.00000e+00,0.00000e+00,0.00000e+00
1.52340e+03,-2.12129e+00,-2.05108e+01,0.00000e+00,0.00000e+00,0.00000e+00
1.52340e+03,-1.46736e+00,-1.79470e+01,0.00000e+00,0.00000e+00,0.00000e+00
1.52340e+03,-8.08383e-01,-1.53831e+01,0.00000e+00,0.00000e+00,0.00000e+00
1.52340e+03,-1.49473e-01,-1.28193e+01,0.00000e+00,0.00000e+00,0.00000e+00
1.52340e+03,5.06948e-01,-1.02554e+01,0.00000e+00,0.00000e+00,0.00000e+00
1.52340e+03,1.16337e+00,-7.69156e+00,0.00000e+00,0.00000e+00,0.00000e+00
1.52340e+03,1.80424e+00,-5.12771e+00,0.00000e+00,0.00000e+00,0.00000e+00
1.52340e+03,2.44222e+00,-2.56385e+00,0.00000e+00,0.00000e+00,0.00000e+00
1.59310e+03,3.14533e+01,0.00000e+00,0.00000e+00,0.00000e+00,0.00000e+00
1.59310e+03,3.12949e+01,-2.39012e+00,0.00000e+00,0.00000e+00,0.00000e+00
1.59310e+03,3.10841e+01,-4.78023e+00,0.00000e+00,0.00000e+00,0.00000e+00
1.59310e+03,3.08713e+01,-7.17035e+00,0.00000e+00,0.00000e+00,0.00000e+00
1.59310e+03,3.06123e+01,-9.56047e+00,0.00000e+00,0.00000e+00,0.00000e+00
1.59310e+03,3.03425e+01,-1.19506e+01,0.00000e+00,0.00000e+00,0.00000e+00
1.59310e+03,3.00373e+01,-1.43407e+01,0.00000e+00,0.00000e+00,0.00000e+00
1.59310e+03,2.97149e+01,-1.67308e+01,0.00000e+00,0.00000e+00,0.00000e+00
1.59310e+03,2.93640e+01,-1.91209e+01,0.00000e+00,0.00000e+00,0.00000e+00
1.59310e+03,2.89896e+01,-2.15111e+01,0.00000e+00,0.00000e+00,0.00000e+00
1.59310e+03,2.85896e+01,-2.39012e+01,0.00000e+00,0.00000e+00,0.00000e+00
1.59310e+03,2.81583e+01,-2.62913e+01,0.00000e+00,0.00000e+00,0.00000e+00
1.59310e+03,2.76952e+01,-2.86814e+01,0.00000e+00,0.00000e+00,0.00000e+00
1.59310e+03,2.71869e+01,-3.10715e+01,0.00000e+00,0.00000e+00,0.00000e+00
1.59310e+03,2.66345e+01,-3.34616e+01,0.00000e+00,0.00000e+00,0.00000e+00
1.59310e+03,2.60296e+01,-3.58518e+01,0.00000e+00,0.00000e+00,0.00000e+00
1.59310e+03,2.53533e+01,-3.82419e+01,0.00000e+00,0.00000e+00,0.00000e+00
1.59310e+03,2.46276e+01,-4.06320e+01,0.00000e+00,0.00000e+00,0.00000e+00
1.59310e+03,2.37902e+01,-4.30221e+01,0.00000e+00,0.00000e+00,0.00000e+00
1.59310e+03,2.29066e+01,-4.54122e+01,0.00000e+00,0.00000e+00,0.00000e+00
1.59310e+03,2.18941e+01,-4.78023e+01,0.00000e+00,0.00000e+00,0.00000e+00
1.59310e+03,2.07785e+01,-5.01925e+01,0.00000e+00,0.00000e+00,0.00000e+00
1.59310e+03,1.95577e+01,-5.25826e+01,0.00000e+00,0.00000e+00,0.00000e+00
1.59310e+03,1.81606e+01,-5.49727e+01,0.00000e+00,0.00000e+00,0.00000e+00
1.59310e+03,1.65592e+01,-5.73628e+01,0.00000e+00,0.00000e+00,0.00000e+00
1.59310e+03,1.47269e+01,-5.97529e+01,0.00000e+00,0.00000e+00,0.00000e+00
1.59310e+03,1.25597e+01,-6.21430e+01,0.00000e+00,0.00000e+00,0.00000e+00
1.59310e+03,9.77800e+00,-6.45332e+01,0.00000e+00,0.00000e+00,0.00000e+00
1.59310e+03,6.01578e+00,-6.69233e+01,0.00000e+00,0.00000e+00,0.00000e+00
1.59310e+03,-2.43755e+00,-6.93134e+01,0.00000e+00,0.00000e+00,0.00000e+00
1.59310e+03,-3.04763e+00,-6.93189e+01,0.00000e+00,0.00000e+00,0.00000e+00
1.59310e+03,-8.60589e+00,-6.68433e+01,0.00000e+00,0.00000e+00,0.00000e+00
1.59310e+03,-9.27886e+00,-6.43676e+01,0.00000e+00,0.00000e+00,0.00000e+00
1.59310e+03,-9.51109e+00,-6.18919e+01,0.00000e+00,0.00000e+00,0.00000e+00
1.59310e+03,-9.54632e+00,-5.94162e+01,0.00000e+00,0.00000e+00,0.00000e+00
1.59310e+03,-9.43315e+00,-5.69406e+01,0.00000e+00,0.00000e+00,0.00000e+00
1.59310e+03,-9.22684e+00,-5.44649e+01,0.00000e+00,0.00000e+00,0.00000e+00
1.59310e+03,-8.92702e+00,-5.19892e+01,0.00000e+00,0.00000e+00,0.00000e+00
1.59310e+03,-8.57016e+00,-4.95135e+01,0.00000e+00,0.00000e+00,0.00000e+00
1.59310e+03,-8.18020e+00,-4.70379e+01,0.00000e+00,0.00000e+00,0.00000e+00
1.59310e+03,-7.74040e+00,-4.45622e+01,0.00000e+00,0.00000e+00,0.00000e+00
1.59310e+03,-7.26945e+00,-4.20865e+01,0.00000e+00,0.00000e+00,0.00000e+00
1.59310e+03,-6.76816e+00,-3.96108e+01,0.00000e+00,0.00000e+00,0.00000e+00
1.59310e+03,-6.23665e+00,-3.71351e+01,0.00000e+00,0.00000e+00,0.00000e+00
1.59310e+03,-5.68619e+00,-3.46595e+01,0.00000e+00,0.00000e+00,0.00000e+00
1.59310e+03,-5.11146e+00,-3.21838e+01,0.00000e+00,0.00000e+00,0.00000e+00
1.59310e+03,-4.52119e+00,-2.97081e+01,0.00000e+00,0.00000e+00,0.00000e+00
1.59310e+03,-3.91698e+00,-2.72324e+01,0.00000e+00,0.00000e+00,0.00000e+00
1.59310e+03,-3.30033e+00,-2.47568e+01,0.00000e+00,0.00000e+00,0.00000e+00
1.59310e+03,-2.67841e+00,-2.22811e+01,0.00000e+00,0.00000e+00,0.00000e+00
1.59310e+03,-2.04833e+00,-1.98054e+01,0.00000e+00,0.00000e+00,0.00000e+00
1.59310e+03,-1.41689e+00,-1.73297e+01,0.00000e+00,0.00000e+00,0.00000e+00
1.59310e+03,-7.80581e-01,-1.48541e+01,0.00000e+00,0.00000e+00,0.00000e+00
1.59310e+03,-1.44332e-01,-1.23784e+01,0.00000e+00,0.00000e+00,0.00000e+00
1.59310e+03,4.89512e-01,-9.90271e+00,0.00000e+00,0.00000e+00,0.00000e+00
1.59310e+03,1.12336e+00,-7.42703e+00,0.00000e+00,0.00000e+00,0.00000e+00
1.59310e+03,1.74219e+00,-4.95135e+00,0.00000e+00,0.00000e+00,0.00000e+00
1.59310e+03,2.35823e+00,-2.47568e+00,0.00000e+00,0.00000e+00,0.00000e+00
1.65850e+03,3.04021e+01,0.00000e+00,0.00000e+00,0.00000e+00,0.00000e+00
1.65850e+03,3.02490e+01,-2.31024e+00,0.00000e+00,0.00000e+00,0.00000e+00
1.65850e+03,3.00453e+01,-4.62048e+00,0.00000e+00,0.00000e+00,0.00000e+00
1.65850e+03,2.98396e+01,-6.93072e+00,0.00000e+00,0.00000e+00,0.00000e+00
1.65850e+03,2.95892e+01,-9.24096e+00,0.00000e+00,0.00000e+00,0.00000e+00
1.65850e+03,2.93285e+01,-1.15512e+01,0.00000e+00,0.00000e+00,0.00000e+00
1.65850e+03,2.90335e+01,-1.38614e+01,0.00000e+00,0.00000e+00,0.00000e+00
1.65850e+03,2.87218e+01,-1.61717e+01,0.00000e+00,0.00000e+00,0.00000e+00
1.65850e+03,2.83826e+01,-1.84819e+01,0.00000e+00,0.00000e+00,0.00000e+00
1.65850e+03,2.80208e+01,-2.07921e+01,0.00000e+00,0.00000e+00,0.00000e+00
1.65850e+03,2.76341e+01,-2.31024e+01,0.00000e+00,0.00000e+00,0.00000e+00
1.65850e+03,2.72173e+01,-2.54126e+01,0.00000e+00,0.00000e+00,0.00000e+00
1.65850e+03,2.67696e+01,-2.77229e+01,0.00000e+00,0.00000e+00,0.00000e+00
1.65850e+03,2.62783e+01,-3.00331e+01,0.00000e+00,0.00000e+00,0.00000e+00
1.65850e+03,2.57444e+01,-3.23433e+01,0.00000e+00,0.00000e+00,0.00000e+00
1.65850e+03,2.51597e+01,-3.46536e+01,0.00000e+00,0.00000e+00,0.00000e+00
1.65850e+03,2.45060e+01,-3.69638e+01,0.00000e+00,0.00000e+00,0.00000e+00
1.65850e+03,2.38045e+01,-3.92741e+01,0.00000e+00,0.00000e+00,0.00000e+00
1.65850e+03,2.29951e+01,-4.15843e+01,0.00000e+00,0.00000e+00,0.00000e+00
1.65850e+03,2.21410e+01,-4.38945e+01,0.00000e+00,0.00000e+00,0.00000e+00
1.65850e+03,2.11624e+01,-4.62048e+01,0.00000e+00,0.00000e+00,0.00000e+00
1.65850e+03,2.00840e+01,-4.85150e+01,0.00000e+00,0.00000e+00,0.00000e+00
1.65850e+03,1.89041e+01,-5.08253e+01,0.00000e+00,0.00000e+00,0.00000e+00
1.65850e+03,1.75537e+01,-5.31355e+01,0.00000e+00,0.00000e+00,0.00000e+00
1.65850e+03,1.60058e+01,-5.54457e+01,0.00000e+00,0.00000e+00,0.00000e+00
1.65850e+03,1.42348e+01,-5.77560e+01,0.00000e+00,0.00000e+00,0.00000e+00
1.65850e+03,1.21400e+01,-6.00662e+01,0.00000e+00,0.00000e+00,0.00000e+00
1.65850e+03,9.45122e+00,-6.23764e+01,0.00000e+00,0.00000e+00,0.00000e+00
1.65850e+03,5.81473e+00,-6.46867e+01,0.00000e+00,0.00000e+00,0.00000e+00
1.65850e+03,-2.35608e+00,-6.69969e+01,0.00000e+00,0.00000e+00,0.00000e+00
1.65850e+03,-2.94577e+00,-6.70023e+01,0.00000e+00,0.00000e+00,0.00000e+00
1.65850e+03,-8.31828e+00,-6.46093e+01,0.00000e+00,0.00000e+00,0.00000e+00
1.65850e+03,-8.96876e+00,-6.22164e+01,0.00000e+00,0.00000e+00,0.00000e+00
1.65850e+03,-9.19322e+00,-5.98235e+01,0.00000e+00,0.00000e+00,0.00000e+00
1.65850e+03,-9.22728e+00,-5.74305e+01,0.00000e+00,0.00000e+00,0.00000e+00
1.65850e+03,-9.11789e+00,-5.50376e+01,0.00000e+00,0.00000e+00,0.00000e+00
1.65850e+03,-8.91848e+00,-5.26447e+01,0.00000e+00,0.00000e+00,0.00000e+00
1.65850e+03,-8.62868e+00,-5.02517e+01,0.00000e+00,0.00000e+00,0.00000e+00
1.65850e+03,-8.28374e+00,-4.78588e+01,0.00000e+00,0.00000e+00,0.00000e+00
1.65850e+03,-7.90682e+00,-4.54658e+01,0.00000e+00,0.00000e+00,0.00000e+00
1.65850e+03,-7.48171e+00,-4.30729e+01,0.00000e+00,0.00000e+00,0.00000e+00
1.65850e+03,-7.02650e+00,-4.06800e+01,0.00000e+00,0.00000e+00,0.00000e+00
1.65850e+03,-6.54196e+00,-3.82870e+01,0.00000e+00,0.00000e+00,0.00000e+00
1.65850e+03,-6.02822e+00,-3.58941e+01,0.00000e+00,0.00000e+00,0.00000e+00
1.65850e+03,-5.49615e+00,-3.35011e+01,0.00000e+00,0.00000e+00,0.00000e+00
1.65850e+03,-4.94063e+00,-3.11082e+01,0.00000e+00,0.00000e+00,0.00000e+00
1.65850e+03,-4.37009e+00,-2.87153e+01,0.00000e+00,0.00000e+00,0.00000e+00
1.65850e+03,-3.78607e+00,-2.63223e+01,0.00000e+00,0.00000e+00,0.00000e+00
1.65850e+03,-3.19003e+00,-2.39294e+01,0.00000e+00,0.00000e+00,0.00000e+00
1.65850e+03,-2.58890e+00,-2.15364e+01,0.00000e+00,0.00000e+00,0.00000e+00
1.65850e+03,-1.97988e+00,-1.91435e+01,0.00000e+00,0.00000e+00,0.00000e+00
1.65850e+03,-1.36954e+00,-1.67506e+01,0.00000e+00,0.00000e+00,0.00000e+00
1.65850e+03,-7.54494e-01,-1.43576e+01,0.00000e+00,0.00000e+00,0.00000e+00
1.65850e+03,-1.39508e-01,-1.19647e+01,0.00000e+00,0.00000e+00,0.00000e+00
1.65850e+03,4.73153e-01,-9.57176e+00,0.00000e+00,0.00000e+00,0.00000e+00
1.65850e+03,1.08581e+00,-7.17882e+00,0.00000e+00,0.00000e+00,0.00000e+00
1.65850e+03,1.68397e+00,-4.78588e+00,0.00000e+00,0.00000e+00,0.00000e+00
1.65850e+03,2.27942e+00,-2.39294e+00,0.00000e+00,0.00000e+00,0.00000e+00
1.71930e+03,2.94249e+01,0.00000e+00,0.00000e+00,0.00000e+00,0.00000e+00
1.71930e+03,2.92767e+01,-2.23598e+00,0.00000e+00,0.00000e+00,0.00000e+00
1.71930e+03,2.90795e+01,-4.47196e+00,0.00000e+00,0.00000e+00,0.00000e+00
1.71930e+03,2.88804e+01,-6.70794e+00,0.00000e+00,0.00000e+00,0.00000e+00
1.71930e+03,2.86381e+01,-8.94392e+00,0.00000e+00,0.00000e+00,0.00000e+00
1.71930e+03,2.83857e+01,-1.11799e+01,0.00000e+00,0.00000e+00,0.00000e+00
1.71930e+03,2.81002e+01,-1.34159e+01,0.00000e+00,0.00000e+00,0.00000e+00
1.71930e+03,2.77986e+01,-1.56519e+01,0.00000e+00,0.00000e+00,0.00000e+00
1.71930e+03,2.74703e+01,-1.78878e+01,0.00000e+00,0.00000e+00,0.00000e+00
1.71930e+03,2.71201e+01,-2.01238e+01,0.00000e+00,0.00000e+00,0.00000e+00
1.71930e+03,2.67458e+01,-2.23598e+01,0.00000e+00,0.00000e+00,0.00000e+00
1.71930e+03,2.63424e+01,-2.45958e+01,0.00000e+00,0.00000e+00,0.00000e+00
1.71930e+03,2.59091e+01,-2.68317e+01,0.00000e+00,0.00000e+00,0.00000e+00
1.71930e+03,2.54336e+01,-2.90677e+01,0.00000e+00,0.00000e+00,0.00000e+00
1.71930e+03,2.49169e+01,-3.13037e+01,0.00000e+00,0.00000e+00,0.00000e+00
1.71930e+03,2.43509e+01,-3.35397e+01,0.00000e+00,0.00000e+00,0.00000e+00
1.71930e+03,2.37183e+01,-3.57757e+01,0.00000e+00,0.00000e+00,0.00000e+00
1.71930e+03,2.30393e+01,-3.80116e+01,0.00000e+00,0.00000e+00,0.00000e+00
1.71930e+03,2.22560e+01,-4.02476e+01,0.00000e+00,0.00000e+00,0.00000e+00
1.71930e+03,2.14293e+01,-4.24836e+01,0.00000e+00,0.00000e+00,0.00000e+00
1.71930e+03,2.04822e+01,-4.47196e+01,0.00000e+00,0.00000e+00,0.00000e+00
1.71930e+03,1.94385e+01,-4.69556e+01,0.00000e+00,0.00000e+00,0.00000e+00
1.71930e+03,1.82964e+01,-4.91915e+01,0.00000e+00,0.00000e+00,0.00000e+00
1.71930e+03,1.69894e+01,-5.14275e+01,0.00000e+00,0.00000e+00,0.00000e+00
1.71930e+03,1.54913e+01,-5.36635e+01,0.00000e+00,0.00000e+00,0.00000e+00
1.71930e+03,1.37772e+01,-5.58995e+01,0.00000e+00,0.00000e+00,0.00000e+00
1.71930e+03,1.17498e+01,-5.81355e+01,0.00000e+00,0.00000e+00,0.00000e+00
1.71930e+03,9.14742e+00,-6.03714e+01,0.00000e+00,0.00000e+00,0.00000e+00
1.71930e+03,5.62782e+00,-6.26074e+01,0.00000e+00,0.00000e+00,0.00000e+00
1.71930e+03,-2.28035e+00,-6.48434e+01,0.00000e+00,0.00000e+00,0.00000e+00
1.71930e+03,-2.85109e+00,-6.48486e+01,0.00000e+00,0.00000e+00,0.00000e+00
1.71930e+03,-8.05090e+00,-6.25326e+01,0.00000e+00,0.00000e+00,0.00000e+00
1.71930e+03,-8.68047e+00,-6.02165e+01,0.00000e+00,0.00000e+00,0.00000e+00
1.71930e+03,-8.89772e+00,-5.79005e+01,0.00000e+00,0.00000e+00,0.00000e+00
1.71930e+03,-8.93068e+00,-5.55845e+01,0.00000e+00,0.00000e+00,0.00000e+00
1.71930e+03,-8.82481e+00,-5.32685e+01,0.00000e+00,0.00000e+00,0.00000e+00
1.71930e+03,-8.63181e+00,-5.09525e+01,0.00000e+00,0.00000e+00,0.00000e+00
1.71930e+03,-8.35132e+00,-4.86364e+01,0.00000e+00,0.00000e+00,0.00000e+00
1.71930e+03,-8.01747e+00,-4.63204e+01,0.00000e+00,0.00000e+00,0.00000e+00
1.71930e+03,-7.65266e+00,-4.40044e+01,0.00000e+00,0.00000e+00,0.00000e+00
1.71930e+03,-7.24122e+00,-4.16884e+01,0.00000e+00,0.00000e+00,0.00000e+00
1.71930e+03,-6.80064e+00,-3.93724e+01,0.00000e+00,0.00000e+00,0.00000e+00
1.71930e+03,-6.33168e+00,-3.70563e+01,0.00000e+00,0.00000e+00,0.00000e+00
1.71930e+03,-5.83445e+00,-3.47403e+01,0.00000e+00,0.00000e+00,0.00000e+00
1.71930e+03,-5.31949e+00,-3.24243e+01,0.00000e+00,0.00000e+00,0.00000e+00
1.71930e+03,-4.78182e+00,-3.01083e+01,0.00000e+00,0.00000e+00,0.00000e+00
1.71930e+03,-4.22962e+00,-2.77922e+01,0.00000e+00,0.00000e+00,0.00000e+00
1.71930e+03,-3.66437e+00,-2.54762e+01,0.00000e+00,0.00000e+00,0.00000e+00
1.71930e+03,-3.08749e+00,-2.31602e+01,0.00000e+00,0.00000e+00,0.00000e+00
1.71930e+03,-2.50568e+00,-2.08442e+01,0.00000e+00,0.00000e+00,0.00000e+00
1.71930e+03,-1.91624e+00,-1.85282e+01,0.00000e+00,0.00000e+00,0.00000e+00
1.71930e+03,-1.32552e+00,-1.62121e+01,0.00000e+00,0.00000e+00,0.00000e+00
1.71930e+03,-7.30242e-01,-1.38961e+01,0.00000e+00,0.00000e+00,0.00000e+00
1.71930e+03,-1.35024e-01,-1.15801e+01,0.00000e+00,0.00000e+00,0.00000e+00
1.71930e+03,4.57944e-01,-9.26408e+00,0.00000e+00,0.00000e+00,0.00000e+00
1.71930e+03,1.05091e+00,-6.94806e+00,0.00000e+00,0.00000e+00,0.00000e+00
1.71930e+03,1.62984e+00,-4.63204e+00,0.00000e+00,0.00000e+00,0.00000e+00
1.71930e+03,2.20615e+00,-2.31602e+00,0.00000e+00,0.00000e+00,0.00000e+00
1.77540e+03,2.77303e+01,0.00000e+00,0.00000e+00,0.00000e+00,0.00000e+00
1.77540e+03,2.75906e+01,-2.10721e+00,0.00000e+00,0.00000e+00,0.00000e+00
1.77540e+03,2.74048e+01,-4.21442e+00,0.00000e+00,0.00000e+00,0.00000e+00
1.77540e+03,2.72172e+01,-6.32163e+00,0.00000e+00,0.00000e+00,0.00000e+00
1.77540e+03,2.69888e+01,-8.42884e+00,0.00000e+00,0.00000e+00,0.00000e+00
1.77540e+03,2.67510e+01,-1.05361e+01,0.00000e+00,0.00000e+00,0.00000e+00
1.77540e+03,2.64819e+01,-1.26433e+01,0.00000e+00,0.00000e+00,0.00000e+00
1.77540e+03,2.61977e+01,-1.47505e+01,0.00000e+00,0.00000e+00,0.00000e+00
1.77540e+03,2.58883e+01,-1.68577e+01,0.00000e+00,0.00000e+00,0.00000e+00
1.77540e+03,2.55583e+01,-1.89649e+01,0.00000e+00,0.00000e+00,0.00000e+00
1.77540e+03,2.52056e+01,-2.10721e+01,0.00000e+00,0.00000e+00,0.00000e+00
1.77540e+03,2.48254e+01,-2.31793e+01,0.00000e+00,0.00000e+00,0.00000e+00
1.77540e+03,2.44171e+01,-2.52865e+01,0.00000e+00,0.00000e+00,0.00000e+00
1.77540e+03,2.39689e+01,-2.73937e+01,0.00000e+00,0.00000e+00,0.00000e+00
1.77540e+03,2.34819e+01,-2.95009e+01,0.00000e+00,0.00000e+00,0.00000e+00
1.77540e+03,2.29486e+01,-3.16082e+01,0.00000e+00,0.00000e+00,0.00000e+00
1.77540e+03,2.23524e+01,-3.37154e+01,0.00000e+00,0.00000e+00,0.00000e+00
1.77540e+03,2.17125e+01,-3.58226e+01,0.00000e+00,0.00000e+00,0.00000e+00
1.77540e+03,2.09743e+01,-3.79298e+01,0.00000e+00,0.00000e+00,0.00000e+00
1.77540e+03,2.01952e+01,-4.00370e+01,0.00000e+00,0.00000e+00,0.00000e+00
1.77540e+03,1.93026e+01,-4.21442e+01,0.00000e+00,0.00000e+00,0.00000e+00
1.77540e+03,1.83190e+01,-4.42514e+01,0.00000e+00,0.00000e+00,0.00000e+00
1.77540e+03,1.72428e+01,-4.63586e+01,0.00000e+00,0.00000e+00,0.00000e+00
1.77540e+03,1.60110e+01,-4.84658e+01,0.00000e+00,0.00000e+00,0.00000e+00
1.77540e+03,1.45992e+01,-5.05731e+01,0.00000e+00,0.00000e+00,0.00000e+00
1.77540e+03,1.29838e+01,-5.26803e+01,0.00000e+00,0.00000e+00,0.00000e+00
1.77540e+03,1.10731e+01,-5.47875e+01,0.00000e+00,0.00000e+00,0.00000e+00
1.77540e+03,8.62063e+00,-5.68947e+01,0.00000e+00,0.00000e+00,0.00000e+00
1.77540e+03,5.30372e+00,-5.90019e+01,0.00000e+00,0.00000e+00,0.00000e+00
1.77540e+03,-2.14903e+00,-6.11091e+01,0.00000e+00,0.00000e+00,0.00000e+00
1.77540e+03,-2.68689e+00,-6.11140e+01,0.00000e+00,0.00000e+00,0.00000e+00
1.77540e+03,-7.58725e+00,-5.89314e+01,0.00000e+00,0.00000e+00,0.00000e+00
1.77540e+03,-8.18057e+00,-5.67487e+01,0.00000e+00,0.00000e+00,0.00000e+00
1.77540e+03,-8.38530e+00,-5.45661e+01,0.00000e+00,0.00000e+00,0.00000e+00
1.77540e+03,-8.41637e+00,-5.23834e+01,0.00000e+00,0.00000e+00,0.00000e+00
1.77540e+03,-8.31659e+00,-5.02008e+01,0.00000e+00,0.00000e+00,0.00000e+00
1.77540e+03,-8.13471e+00,-4.80181e+01,0.00000e+00,0.00000e+00,0.00000e+00
1.77540e+03,-7.87037e+00,-4.58355e+01,0.00000e+00,0.00000e+00,0.00000e+00
1.77540e+03,-7.55575e+00,-4.36529e+01,0.00000e+00,0.00000e+00,0.00000e+00
1.77540e+03,-7.21195e+00,-4.14702e+01,0.00000e+00,0.00000e+00,0.00000e+00
1.77540e+03,-6.82421e+00,-3.92876e+01,0.00000e+00,0.00000e+00,0.00000e+00
1.77540e+03,-6.40900e+00,-3.71049e+01,0.00000e+00,0.00000e+00,0.00000e+00
1.77540e+03,-5.96704e+00,-3.49223e+01,0.00000e+00,0.00000e+00,0.00000e+00
1.77540e+03,-5.49844e+00,-3.27396e+01,0.00000e+00,0.00000e+00,0.00000e+00
1.77540e+03,-5.01314e+00,-3.05570e+01,0.00000e+00,0.00000e+00,0.00000e+00
1.77540e+03,-4.50644e+00,-2.83744e+01,0.00000e+00,0.00000e+00,0.00000e+00
1.77540e+03,-3.98604e+00,-2.61917e+01,0.00000e+00,0.00000e+00,0.00000e+00
1.77540e+03,-3.45334e+00,-2.40091e+01,0.00000e+00,0.00000e+00,0.00000e+00
1.77540e+03,-2.90969e+00,-2.18264e+01,0.00000e+00,0.00000e+00,0.00000e+00
1.77540e+03,-2.36138e+00,-1.96438e+01,0.00000e+00,0.00000e+00,0.00000e+00
1.77540e+03,-1.80588e+00,-1.74611e+01,0.00000e+00,0.00000e+00,0.00000e+00
1.77540e+03,-1.24918e+00,-1.52785e+01,0.00000e+00,0.00000e+00,0.00000e+00
1.77540e+03,-6.88187e-01,-1.30959e+01,0.00000e+00,0.00000e+00,0.00000e+00
1.77540e+03,-1.27248e-01,-1.09132e+01,0.00000e+00,0.00000e+00,0.00000e+00
1.77540e+03,4.31571e-01,-8.73057e+00,0.00000e+00,0.00000e+00,0.00000e+00
1.77540e+03,9.90390e-01,-6.54793e+00,0.00000e+00,0.00000e+00,0.00000e+00
1.77540e+03,1.53598e+00,-4.36529e+00,0.00000e+00,0.00000e+00,0.00000e+00
1.77540e+03,2.07910e+00,-2.18264e+00,0.00000e+00,0.00000e+00,0.00000e+00
1.82660e+03,2.53092e+01,0.00000e+00,0.00000e+00,0.00000e+00,0.00000e+00
1.82660e+03,2.51817e+01,-1.92323e+00,0.00000e+00,0.00000e+00,0.00000e+00
1.82660e+03,2.50121e+01,-3.84646e+00,0.00000e+00,0.00000e+00,0.00000e+00
1.82660e+03,2.48409e+01,-5.76969e+00,0.00000e+00,0.00000e+00,0.00000e+00
1.82660e+03,2.46324e+01,-7.69292e+00,0.00000e+00,0.00000e+00,0.00000e+00
1.82660e+03,2.44154e+01,-9.61614e+00,0.00000e+00,0.00000e+00,0.00000e+00
1.82660e+03,2.41698e+01,-1.15394e+01,0.00000e+00,0.00000e+00,0.00000e+00
1.82660e+03,2.39103e+01,-1.34626e+01,0.00000e+00,0.00000e+00,0.00000e+00
1.82660e+03,2.36280e+01,-1.53858e+01,0.00000e+00,0.00000e+00,0.00000e+00
1.82660e+03,2.33268e+01,-1.73091e+01,0.00000e+00,0.00000e+00,0.00000e+00
1.82660e+03,2.30049e+01,-1.92323e+01,0.00000e+00,0.00000e+00,0.00000e+00
1.82660e+03,2.26579e+01,-2.11555e+01,0.00000e+00,0.00000e+00,0.00000e+00
1.82660e+03,2.22852e+01,-2.30787e+01,0.00000e+00,0.00000e+00,0.00000e+00
1.82660e+03,2.18762e+01,-2.50020e+01,0.00000e+00,0.00000e+00,0.00000e+00
1.82660e+03,2.14317e+01,-2.69252e+01,0.00000e+00,0.00000e+00,0.00000e+00
1.82660e+03,2.09449e+01,-2.88484e+01,0.00000e+00,0.00000e+00,0.00000e+00
1.82660e+03,2.04008e+01,-3.07717e+01,0.00000e+00,0.00000e+00,0.00000e+00
1.82660e+03,1.98168e+01,-3.26949e+01,0.00000e+00,0.00000e+00,0.00000e+00
1.82660e+03,1.91430e+01,-3.46181e+01,0.00000e+00,0.00000e+00,0.00000e+00
1.82660e+03,1.84320e+01,-3.65413e+01,0.00000e+00,0.00000e+00,0.00000e+00
1.82660e+03,1.76173e+01,-3.84646e+01,0.00000e+00,0.00000e+00,0.00000e+00
1.82660e+03,1.67196e+01,-4.03878e+01,0.00000e+00,0.00000e+00,0.00000e+00
1.82660e+03,1.57373e+01,-4.23110e+01,0.00000e+00,0.00000e+00,0.00000e+00
1.82660e+03,1.46131e+01,-4.42343e+01,0.00000e+00,0.00000e+00,0.00000e+00
1.82660e+03,1.33245e+01,-4.61575e+01,0.00000e+00,0.00000e+00,0.00000e+00
1.82660e+03,1.18502e+01,-4.80807e+01,0.00000e+00,0.00000e+00,0.00000e+00
1.82660e+03,1.01063e+01,-5.00040e+01,0.00000e+00,0.00000e+00,0.00000e+00
1.82660e+03,7.86795e+00,-5.19272e+01,0.00000e+00,0.00000e+00,0.00000e+00
1.82660e+03,4.84065e+00,-5.38504e+01,0.00000e+00,0.00000e+00,0.00000e+00
1.82660e+03,-1.96139e+00,-5.57736e+01,0.00000e+00,0.00000e+00,0.00000e+00
1.82660e+03,-2.45230e+00,-5.57781e+01,0.00000e+00,0.00000e+00,0.00000e+00
1.82660e+03,-6.92480e+00,-5.37860e+01,0.00000e+00,0.00000e+00,0.00000e+00
1.82660e+03,-7.46632e+00,-5.17940e+01,0.00000e+00,0.00000e+00,0.00000e+00
1.82660e+03,-7.65318e+00,-4.98019e+01,0.00000e+00,0.00000e+00,0.00000e+00
1.82660e+03,-7.68153e+00,-4.78098e+01,0.00000e+00,0.00000e+00,0.00000e+00
1.82660e+03,-7.59047e+00,-4.58177e+01,0.00000e+00,0.00000e+00,0.00000e+00
1.82660e+03,-7.42446e+00,-4.38257e+01,0.00000e+00,0.00000e+00,0.00000e+00
1.82660e+03,-7.18321e+00,-4.18336e+01,0.00000e+00,0.00000e+00,0.00000e+00
1.82660e+03,-6.89605e+00,-3.98415e+01,0.00000e+00,0.00000e+00,0.00000e+00
1.82660e+03,-6.58227e+00,-3.78494e+01,0.00000e+00,0.00000e+00,0.00000e+00
1.82660e+03,-6.22838e+00,-3.58574e+01,0.00000e+00,0.00000e+00,0.00000e+00
1.82660e+03,-5.84943e+00,-3.38653e+01,0.00000e+00,0.00000e+00,0.00000e+00
1.82660e+03,-5.44606e+00,-3.18732e+01,0.00000e+00,0.00000e+00,0.00000e+00
1.82660e+03,-5.01837e+00,-2.98811e+01,0.00000e+00,0.00000e+00,0.00000e+00
1.82660e+03,-4.57544e+00,-2.78891e+01,0.00000e+00,0.00000e+00,0.00000e+00
1.82660e+03,-4.11298e+00,-2.58970e+01,0.00000e+00,0.00000e+00,0.00000e+00
1.82660e+03,-3.63801e+00,-2.39049e+01,0.00000e+00,0.00000e+00,0.00000e+00
1.82660e+03,-3.15183e+00,-2.19128e+01,0.00000e+00,0.00000e+00,0.00000e+00
1.82660e+03,-2.65564e+00,-1.99208e+01,0.00000e+00,0.00000e+00,0.00000e+00
1.82660e+03,-2.15521e+00,-1.79287e+01,0.00000e+00,0.00000e+00,0.00000e+00
1.82660e+03,-1.64821e+00,-1.59366e+01,0.00000e+00,0.00000e+00,0.00000e+00
1.82660e+03,-1.14012e+00,-1.39445e+01,0.00000e+00,0.00000e+00,0.00000e+00
1.82660e+03,-6.28101e-01,-1.19525e+01,0.00000e+00,0.00000e+00,0.00000e+00
1.82660e+03,-1.16138e-01,-9.96038e+00,0.00000e+00,0.00000e+00,0.00000e+00
1.82660e+03,3.93890e-01,-7.96830e+00,0.00000e+00,0.00000e+00,0.00000e+00
1.82660e+03,9.03919e-01,-5.97623e+00,0.00000e+00,0.00000e+00,0.00000e+00
1.82660e+03,1.40187e+00,-3.98415e+00,0.00000e+00,0.00000e+00,0.00000e+00
1.82660e+03,1.89757e+00,-1.99208e+00,0.00000e+00,0.00000e+00,0.00000e+00
1.87280e+03,2.31244e+01,0.00000e+00,0.00000e+00,0.00000e+00,0.00000e+00
1.87280e+03,2.30080e+01,-1.75721e+00,0.00000e+00,0.00000e+00,0.00000e+00
1.87280e+03,2.28531e+01,-3.51443e+00,0.00000e+00,0.00000e+00,0.00000e+00
1.87280e+03,2.26966e+01,-5.27164e+00,0.00000e+00,0.00000e+00,0.00000e+00
1.87280e+03,2.25061e+01,-7.02886e+00,0.00000e+00,0.00000e+00,0.00000e+00
1.87280e+03,2.23078e+01,-8.78607e+00,0.00000e+00,0.00000e+00,0.00000e+00
1.87280e+03,2.20834e+01,-1.05433e+01,0.00000e+00,0.00000e+00,0.00000e+00
1.87280e+03,2.18464e+01,-1.23005e+01,0.00000e+00,0.00000e+00,0.00000e+00
1.87280e+03,2.15884e+01,-1.40577e+01,0.00000e+00,0.00000e+00,0.00000e+00
1.87280e+03,2.13132e+01,-1.58149e+01,0.00000e+00,0.00000e+00,0.00000e+00
1.87280e+03,2.10191e+01,-1.75721e+01,0.00000e+00,0.00000e+00,0.00000e+00
1.87280e+03,2.07020e+01,-1.93294e+01,0.00000e+00,0.00000e+00,0.00000e+00
1.87280e+03,2.03615e+01,-2.10866e+01,0.00000e+00,0.00000e+00,0.00000e+00
1.87280e+03,1.99878e+01,-2.28438e+01,0.00000e+00,0.00000e+00,0.00000e+00
1.87280e+03,1.95817e+01,-2.46010e+01,0.00000e+00,0.00000e+00,0.00000e+00
1.87280e+03,1.91369e+01,-2.63582e+01,0.00000e+00,0.00000e+00,0.00000e+00
1.87280e+03,1.86398e+01,-2.81154e+01,0.00000e+00,0.00000e+00,0.00000e+00
1.87280e+03,1.81062e+01,-2.98726e+01,0.00000e+00,0.00000e+00,0.00000e+00
1.87280e+03,1.74905e+01,-3.16299e+01,0.00000e+00,0.00000e+00,0.00000e+00
1.87280e+03,1.68409e+01,-3.33871e+01,0.00000e+00,0.00000e+00,0.00000e+00
1.87280e+03,1.60966e+01,-3.51443e+01,0.00000e+00,0.00000e+00,0.00000e+00
1.87280e+03,1.52763e+01,-3.69015e+01,0.00000e+00,0.00000e+00,0.00000e+00
1.87280e+03,1.43788e+01,-3.86587e+01,0.00000e+00,0.00000e+00,0.00000e+00
1.87280e+03,1.33517e+01,-4.04159e+01,0.00000e+00,0.00000e+00,0.00000e+00
1.87280e+03,1.21743e+01,-4.21731e+01,0.00000e+00,0.00000e+00,0.00000e+00
1.87280e+03,1.08272e+01,-4.39304e+01,0.00000e+00,0.00000e+00,0.00000e+00
1.87280e+03,9.23393e+00,-4.56876e+01,0.00000e+00,0.00000e+00,0.00000e+00
1.87280e+03,7.18879e+00,-4.74448e+01,0.00000e+00,0.00000e+00,0.00000e+00
1.87280e+03,4.42280e+00,-4.92020e+01,0.00000e+00,0.00000e+00,0.00000e+00
1.87280e+03,-1.79208e+00,-5.09592e+01,0.00000e+00,0.00000e+00,0.00000e+00
1.87280e+03,-2.24062e+00,-5.09633e+01,0.00000e+00,0.00000e+00,0.00000e+00
1.87280e+03,-6.32705e+00,-4.91432e+01,0.00000e+00,0.00000e+00,0.00000e+00
1.87280e+03,-6.82182e+00,-4.73231e+01,0.00000e+00,0.00000e+00,0.00000e+00
1.87280e+03,-6.99255e+00,-4.55029e+01,0.00000e+00,0.00000e+00,0.00000e+00
1.87280e+03,-7.01846e+00,-4.36828e+01,0.00000e+00,0.00000e+00,0.00000e+00
1.87280e+03,-6.93525e+00,-4.18627e+01,0.00000e+00,0.00000e+00,0.00000e+00
1.87280e+03,-6.78358e+00,-4.00426e+01,0.00000e+00,0.00000e+00,0.00000e+00
1.87280e+03,-6.56315e+00,-3.82225e+01,0.00000e+00,0.00000e+00,0.00000e+00
1.87280e+03,-6.30078e+00,-3.64024e+01,0.00000e+00,0.00000e+00,0.00000e+00
1.87280e+03,-6.01408e+00,-3.45822e+01,0.00000e+00,0.00000e+00,0.00000e+00
1.87280e+03,-5.69074e+00,-3.27621e+01,0.00000e+00,0.00000e+00,0.00000e+00
1.87280e+03,-5.34450e+00,-3.09420e+01,0.00000e+00,0.00000e+00,0.00000e+00
1.87280e+03,-4.97595e+00,-2.91219e+01,0.00000e+00,0.00000e+00,0.00000e+00
1.87280e+03,-4.58518e+00,-2.73018e+01,0.00000e+00,0.00000e+00,0.00000e+00
1.87280e+03,-4.18049e+00,-2.54816e+01,0.00000e+00,0.00000e+00,0.00000e+00
1.87280e+03,-3.75794e+00,-2.36615e+01,0.00000e+00,0.00000e+00,0.00000e+00
1.87280e+03,-3.32398e+00,-2.18414e+01,0.00000e+00,0.00000e+00,0.00000e+00
1.87280e+03,-2.87976e+00,-2.00213e+01,0.00000e+00,0.00000e+00,0.00000e+00
1.87280e+03,-2.42640e+00,-1.82012e+01,0.00000e+00,0.00000e+00,0.00000e+00
1.87280e+03,-1.96917e+00,-1.63811e+01,0.00000e+00,0.00000e+00,0.00000e+00
1.87280e+03,-1.50594e+00,-1.45609e+01,0.00000e+00,0.00000e+00,0.00000e+00
1.87280e+03,-1.04170e+00,-1.27408e+01,0.00000e+00,0.00000e+00,0.00000e+00
1.87280e+03,-5.73883e-01,-1.09207e+01,0.00000e+00,0.00000e+00,0.00000e+00
1.87280e+03,-1.06113e-01,-9.10059e+00,0.00000e+00,0.00000e+00,0.00000e+00
1.87280e+03,3.59890e-01,-7.28047e+00,0.00000e+00,0.00000e+00,0.00000e+00
1.87280e+03,8.25892e-01,-5.46035e+00,0.00000e+00,0.00000e+00,0.00000e+00
1.87280e+03,1.28086e+00,-3.64024e+00,0.00000e+00,0.00000e+00,0.00000e+00
1.87280e+03,1.73377e+00,-1.82012e+00,0.00000e+00,0.00000e+00,0.00000e+00
1.91380e+03,2.11856e+01,0.00000e+00,0.00000e+00,0.00000e+00,0.00000e+00
1.91380e+03,2.10789e+01,-1.60989e+00,0.00000e+00,0.00000e+00,0.00000e+00
1.91380e+03,2.09370e+01,-3.21977e+00,0.00000e+00,0.00000e+00,0.00000e+00
1.91380e+03,2.07936e+01,-4.82966e+00,0.00000e+00,0.00000e+00,0.00000e+00
1.91380e+03,2.06192e+01,-6.43954e+00,0.00000e+00,0.00000e+00,0.00000e+00
1.91380e+03,2.04375e+01,-8.04943e+00,0.00000e+00,0.00000e+00,0.00000e+00
1.91380e+03,2.02319e+01,-9.65931e+00,0.00000e+00,0.00000e+00,0.00000e+00
1.91380e+03,2.00147e+01,-1.12692e+01,0.00000e+00,0.00000e+00,0.00000e+00
1.91380e+03,1.97784e+01,-1.28791e+01,0.00000e+00,0.00000e+00,0.00000e+00
1.91380e+03,1.95262e+01,-1.44890e+01,0.00000e+00,0.00000e+00,0.00000e+00
1.91380e+03,1.92568e+01,-1.60989e+01,0.00000e+00,0.00000e+00,0.00000e+00
1.91380e+03,1.89663e+01,-1.77087e+01,0.00000e+00,0.00000e+00,0.00000e+00
1.91380e+03,1.86544e+01,-1.93186e+01,0.00000e+00,0.00000e+00,0.00000e+00
1.91380e+03,1.83120e+01,-2.09285e+01,0.00000e+00,0.00000e+00,0.00000e+00
1.91380e+03,1.79399e+01,-2.25384e+01,0.00000e+00,0.00000e+00,0.00000e+00
1.91380e+03,1.75325e+01,-2.41483e+01,0.00000e+00,0.00000e+00,0.00000e+00
1.91380e+03,1.70770e+01,-2.57582e+01,0.00000e+00,0.00000e+00,0.00000e+00
1.91380e+03,1.65881e+01,-2.73680e+01,0.00000e+00,0.00000e+00,0.00000e+00
1.91380e+03,1.60241e+01,-2.89779e+01,0.00000e+00,0.00000e+00,0.00000e+00
1.91380e+03,1.54289e+01,-3.05878e+01,0.00000e+00,0.00000e+00,0.00000e+00
1.91380e+03,1.47470e+01,-3.21977e+01,0.00000e+00,0.00000e+00,0.00000e+00
1.91380e+03,1.39955e+01,-3.38076e+01,0.00000e+00,0.00000e+00,0.00000e+00
1.91380e+03,1.31733e+01,-3.54175e+01,0.00000e+00,0.00000e+00,0.00000e+00
1.91380e+03,1.22322e+01,-3.70274e+01,0.00000e+00,0.00000e+00,0.00000e+00
1.91380e+03,1.11536e+01,-3.86372e+01,0.00000e+00,0.00000e+00,0.00000e+00
1.91380e+03,9.91946e+00,-4.02471e+01,0.00000e+00,0.00000e+00,0.00000e+00
1.91380e+03,8.45973e+00,-4.18570e+01,0.00000e+00,0.00000e+00,0.00000e+00
1.91380e+03,6.58606e+00,-4.34669e+01,0.00000e+00,0.00000e+00,0.00000e+00
1.91380e+03,4.05198e+00,-4.50768e+01,0.00000e+00,0.00000e+00,0.00000e+00
1.91380e+03,-1.64183e+00,-4.66867e+01,0.00000e+00,0.00000e+00,0.00000e+00
1.91380e+03,-2.05276e+00,-4.66904e+01,0.00000e+00,0.00000e+00,0.00000e+00
1.91380e+03,-5.79657e+00,-4.50229e+01,0.00000e+00,0.00000e+00,0.00000e+00
1.91380e+03,-6.24986e+00,-4.33554e+01,0.00000e+00,0.00000e+00,0.00000e+00
1.91380e+03,-6.40628e+00,-4.16879e+01,0.00000e+00,0.00000e+00,0.00000e+00
1.91380e+03,-6.43001e+00,-4.00204e+01,0.00000e+00,0.00000e+00,0.00000e+00
1.91380e+03,-6.35378e+00,-3.83528e+01,0.00000e+00,0.00000e+00,0.00000e+00
1.91380e+03,-6.21483e+00,-3.66853e+01,0.00000e+00,0.00000e+00,0.00000e+00
1.91380e+03,-6.01288e+00,-3.50178e+01,0.00000e+00,0.00000e+00,0.00000e+00
1.91380e+03,-5.77251e+00,-3.33503e+01,0.00000e+00,0.00000e+00,0.00000e+00
1.91380e+03,-5.50985e+00,-3.16828e+01,0.00000e+00,0.00000e+00,0.00000e+00
1.91380e+03,-5.21362e+00,-3.00153e+01,0.00000e+00,0.00000e+00,0.00000e+00
1.91380e+03,-4.89640e+00,-2.83477e+01,0.00000e+00,0.00000e+00,0.00000e+00
1.91380e+03,-4.55876e+00,-2.66802e+01,0.00000e+00,0.00000e+00,0.00000e+00
1.91380e+03,-4.20075e+00,-2.50127e+01,0.00000e+00,0.00000e+00,0.00000e+00
1.91380e+03,-3.82998e+00,-2.33452e+01,0.00000e+00,0.00000e+00,0.00000e+00
1.91380e+03,-3.44287e+00,-2.16777e+01,0.00000e+00,0.00000e+00,0.00000e+00
1.91380e+03,-3.04529e+00,-2.00102e+01,0.00000e+00,0.00000e+00,0.00000e+00
1.91380e+03,-2.63832e+00,-1.83427e+01,0.00000e+00,0.00000e+00,0.00000e+00
1.91380e+03,-2.22297e+00,-1.66751e+01,0.00000e+00,0.00000e+00,0.00000e+00
1.91380e+03,-1.80407e+00,-1.50076e+01,0.00000e+00,0.00000e+00,0.00000e+00
1.91380e+03,-1.37967e+00,-1.33401e+01,0.00000e+00,0.00000e+00,0.00000e+00
1.91380e+03,-9.54362e-01,-1.16726e+01,0.00000e+00,0.00000e+00,0.00000e+00
1.91380e+03,-5.25768e-01,-1.00051e+01,0.00000e+00,0.00000e+00,0.00000e+00
1.91380e+03,-9.72161e-02,-8.33757e+00,0.00000e+00,0.00000e+00,0.00000e+00
1.91380e+03,3.29716e-01,-6.67006e+00,0.00000e+00,0.00000e+00,0.00000e+00
1.91380e+03,7.56647e-01,-5.00254e+00,0.00000e+00,0.00000e+00,0.00000e+00
1.91380e+03,1.17347e+00,-3.33503e+00,0.00000e+00,0.00000e+00,0.00000e+00
1.91380e+03,1.58841e+00,-1.66751e+00,0.00000e+00,0.00000e+00,0.00000e+00
1.94970e+03,1.94880e+01,0.00000e+00,0.00000e+00,0.00000e+00,0.00000e+00
1.94970e+03,1.93899e+01,-1.48088e+00,0.00000e+00,0.00000e+00,0.00000e+00
1.94970e+03,1.92593e+01,-2.96177e+00,0.00000e+00,0.00000e+00,0.00000e+00
1.94970e+03,1.91274e+01,-4.44265e+00,0.00000e+00,0.00000e+00,0.00000e+00
1.94970e+03,1.89669e+01,-5.92353e+00,0.00000e+00,0.00000e+00,0.00000e+00
1.94970e+03,1.87998e+01,-7.40441e+00,0.00000e+00,0.00000e+00,0.00000e+00
1.94970e+03,1.86107e+01,-8.88530e+00,0.00000e+00,0.00000e+00,0.00000e+00
1.94970e+03,1.84109e+01,-1.03662e+01,0.00000e+00,0.00000e+00,0.00000e+00
1.94970e+03,1.81935e+01,-1.18471e+01,0.00000e+00,0.00000e+00,0.00000e+00
1.94970e+03,1.79616e+01,-1.33279e+01,0.00000e+00,0.00000e+00,0.00000e+00
1.94970e+03,1.77137e+01,-1.48088e+01,0.00000e+00,0.00000e+00,0.00000e+00
1.94970e+03,1.74465e+01,-1.62897e+01,0.00000e+00,0.00000e+00,0.00000e+00
1.94970e+03,1.71596e+01,-1.77706e+01,0.00000e+00,0.00000e+00,0.00000e+00
1.94970e+03,1.68446e+01,-1.92515e+01,0.00000e+00,0.00000e+00,0.00000e+00
1.94970e+03,1.65024e+01,-2.07324e+01,0.00000e+00,0.00000e+00,0.00000e+00
1.94970e+03,1.61276e+01,-2.22132e+01,0.00000e+00,0.00000e+00,0.00000e+00
1.94970e+03,1.57086e+01,-2.36941e+01,0.00000e+00,0.00000e+00,0.00000e+00
1.94970e+03,1.52589e+01,-2.51750e+01,0.00000e+00,0.00000e+00,0.00000e+00
1.94970e+03,1.47401e+01,-2.66559e+01,0.00000e+00,0.00000e+00,0.00000e+00
1.94970e+03,1.41926e+01,-2.81368e+01,0.00000e+00,0.00000e+00,0.00000e+00
1.94970e+03,1.35653e+01,-2.96177e+01,0.00000e+00,0.00000e+00,0.00000e+00
1.94970e+03,1.28740e+01,-3.10985e+01,0.00000e+00,0.00000e+00,0.00000e+00
1.94970e+03,1.21177e+01,-3.25794e+01,0.00000e+00,0.00000e+00,0.00000e+00
1.94970e+03,1.12521e+01,-3.40603e+01,0.00000e+00,0.00000e+00,0.00000e+00
1.94970e+03,1.02599e+01,-3.55412e+01,0.00000e+00,0.00000e+00,0.00000e+00
1.94970e+03,9.12460e+00,-3.70221e+01,0.00000e+00,0.00000e+00,0.00000e+00
1.94970e+03,7.78184e+00,-3.85029e+01,0.00000e+00,0.00000e+00,0.00000e+00
1.94970e+03,6.05831e+00,-3.99838e+01,0.00000e+00,0.00000e+00,0.00000e+00
1.94970e+03,3.72729e+00,-4.14647e+01,0.00000e+00,0.00000e+00,0.00000e+00
1.94970e+03,-1.51027e+00,-4.29456e+01,0.00000e+00,0.00000e+00,0.00000e+00
1.94970e+03,-1.88827e+00,-4.29490e+01,0.00000e+00,0.00000e+00,0.00000e+00
1.94970e+03,-5.33209e+00,-4.14151e+01,0.00000e+00,0.00000e+00,0.00000e+00
1.94970e+03,-5.74905e+00,-3.98812e+01,0.00000e+00,0.00000e+00,0.00000e+00
1.94970e+03,-5.89293e+00,-3.83473e+01,0.00000e+00,0.00000e+00,0.00000e+00
1.94970e+03,-5.91477e+00,-3.68135e+01,0.00000e+00,0.00000e+00,0.00000e+00
1.94970e+03,-5.84465e+00,-3.52796e+01,0.00000e+00,0.00000e+00,0.00000e+00
1.94970e+03,-5.71682e+00,-3.37457e+01,0.00000e+00,0.00000e+00,0.00000e+00
1.94970e+03,-5.53106e+00,-3.22118e+01,0.00000e+00,0.00000e+00,0.00000e+00
1.94970e+03,-5.30995e+00,-3.06779e+01,0.00000e+00,0.00000e+00,0.00000e+00
1.94970e+03,-5.06834e+00,-2.91440e+01,0.00000e+00,0.00000e+00,0.00000e+00
1.94970e+03,-4.79584e+00,-2.76101e+01,0.00000e+00,0.00000e+00,0.00000e+00
1.94970e+03,-4.50405e+00,-2.60762e+01,0.00000e+00,0.00000e+00,0.00000e+00
1.94970e+03,-4.19345e+00,-2.45423e+01,0.00000e+00,0.00000e+00,0.00000e+00
1.94970e+03,-3.86414e+00,-2.30084e+01,0.00000e+00,0.00000e+00,0.00000e+00
1.94970e+03,-3.52308e+00,-2.14745e+01,0.00000e+00,0.00000e+00,0.00000e+00
1.94970e+03,-3.16699e+00,-1.99406e+01,0.00000e+00,0.00000e+00,0.00000e+00
1.94970e+03,-2.80126e+00,-1.84067e+01,0.00000e+00,0.00000e+00,0.00000e+00
1.94970e+03,-2.42690e+00,-1.68728e+01,0.00000e+00,0.00000e+00,0.00000e+00
1.94970e+03,-2.04484e+00,-1.53389e+01,0.00000e+00,0.00000e+00,0.00000e+00
1.94970e+03,-1.65951e+00,-1.38050e+01,0.00000e+00,0.00000e+00,0.00000e+00
1.94970e+03,-1.26912e+00,-1.22712e+01,0.00000e+00,0.00000e+00,0.00000e+00
1.94970e+03,-8.77888e-01,-1.07373e+01,0.00000e+00,0.00000e+00,0.00000e+00
1.94970e+03,-4.83637e-01,-9.20336e+00,0.00000e+00,0.00000e+00,0.00000e+00
1.94970e+03,-8.94260e-02,-7.66947e+00,0.00000e+00,0.00000e+00,0.00000e+00
1.94970e+03,3.03295e-01,-6.13558e+00,0.00000e+00,0.00000e+00,0.00000e+00
1.94970e+03,6.96016e-01,-4.60168e+00,0.00000e+00,0.00000e+00,0.00000e+00
1.94970e+03,1.07944e+00,-3.06779e+00,0.00000e+00,0.00000e+00,0.00000e+00
1.94970e+03,1.46113e+00,-1.53389e+00,0.00000e+00,0.00000e+00,0.00000e+00
1.98010e+03,1.80504e+01,0.00000e+00,0.00000e+00,0.00000e+00,0.00000e+00
1.98010e+03,1.79595e+01,-1.37164e+00,0.00000e+00,0.00000e+00,0.00000e+00
1.98010e+03,1.78386e+01,-2.74329e+00,0.00000e+00,0.00000e+00,0.00000e+00
1.98010e+03,1.77165e+01,-4.11493e+00,0.00000e+00,0.00000e+00,0.00000e+00
1.98010e+03,1.75678e+01,-5.48657e+00,0.00000e+00,0.00000e+00,0.00000e+00
1.98010e+03,1.74130e+01,-6.85822e+00,0.00000e+00,0.00000e+00,0.00000e+00
1.98010e+03,1.72378e+01,-8.22986e+00,0.00000e+00,0.00000e+00,0.00000e+00
1.98010e+03,1.70528e+01,-9.60150e+00,0.00000e+00,0.00000e+00,0.00000e+00
1.98010e+03,1.68514e+01,-1.09731e+01,0.00000e+00,0.00000e+00,0.00000e+00
1.98010e+03,1.66366e+01,-1.23448e+01,0.00000e+00,0.00000e+00,0.00000e+00
1.98010e+03,1.64070e+01,-1.37164e+01,0.00000e+00,0.00000e+00,0.00000e+00
1.98010e+03,1.61595e+01,-1.50881e+01,0.00000e+00,0.00000e+00,0.00000e+00
1.98010e+03,1.58938e+01,-1.64597e+01,0.00000e+00,0.00000e+00,0.00000e+00
1.98010e+03,1.56020e+01,-1.78314e+01,0.00000e+00,0.00000e+00,0.00000e+00
1.98010e+03,1.52851e+01,-1.92030e+01,0.00000e+00,0.00000e+00,0.00000e+00
1.98010e+03,1.49379e+01,-2.05747e+01,0.00000e+00,0.00000e+00,0.00000e+00
1.98010e+03,1.45498e+01,-2.19463e+01,0.00000e+00,0.00000e+00,0.00000e+00
1.98010e+03,1.41333e+01,-2.33179e+01,0.00000e+00,0.00000e+00,0.00000e+00
1.98010e+03,1.36527e+01,-2.46896e+01,0.00000e+00,0.00000e+00,0.00000e+00
1.98010e+03,1.31457e+01,-2.60612e+01,0.00000e+00,0.00000e+00,0.00000e+00
1.98010e+03,1.25646e+01,-2.74329e+01,0.00000e+00,0.00000e+00,0.00000e+00
1.98010e+03,1.19244e+01,-2.88045e+01,0.00000e+00,0.00000e+00,0.00000e+00
1.98010e+03,1.12238e+01,-3.01762e+01,0.00000e+00,0.00000e+00,0.00000e+00
1.98010e+03,1.04220e+01,-3.15478e+01,0.00000e+00,0.00000e+00,0.00000e+00
1.98010e+03,9.50303e+00,-3.29194e+01,0.00000e+00,0.00000e+00,0.00000e+00
1.98010e+03,8.45151e+00,-3.42911e+01,0.00000e+00,0.00000e+00,0.00000e+00
1.98010e+03,7.20780e+00,-3.56627e+01,0.00000e+00,0.00000e+00,0.00000e+00
1.98010e+03,5.61141e+00,-3.70344e+01,0.00000e+00,0.00000e+00,0.00000e+00
1.98010e+03,3.45234e+00,-3.84060e+01,0.00000e+00,0.00000e+00,0.00000e+00
1.98010e+03,-1.39886e+00,-3.97777e+01,0.00000e+00,0.00000e+00,0.00000e+00
1.98010e+03,-1.74898e+00,-3.97808e+01,0.00000e+00,0.00000e+00,0.00000e+00
1.98010e+03,-4.93876e+00,-3.83601e+01,0.00000e+00,0.00000e+00,0.00000e+00
1.98010e+03,-5.32496e+00,-3.69394e+01,0.00000e+00,0.00000e+00,0.00000e+00
1.98010e+03,-5.45823e+00,-3.55186e+01,0.00000e+00,0.00000e+00,0.00000e+00
1.98010e+03,-5.47846e+00,-3.40979e+01,0.00000e+00,0.00000e+00,0.00000e+00
1.98010e+03,-5.41351e+00,-3.26771e+01,0.00000e+00,0.00000e+00,0.00000e+00
1.98010e+03,-5.29511e+00,-3.12564e+01,0.00000e+00,0.00000e+00,0.00000e+00
1.98010e+03,-5.12305e+00,-2.98356e+01,0.00000e+00,0.00000e+00,0.00000e+00
1.98010e+03,-4.91825e+00,-2.84149e+01,0.00000e+00,0.00000e+00,0.00000e+00
1.98010e+03,-4.69446e+00,-2.69941e+01,0.00000e+00,0.00000e+00,0.00000e+00
1.98010e+03,-4.44207e+00,-2.55734e+01,0.00000e+00,0.00000e+00,0.00000e+00
1.98010e+03,-4.17180e+00,-2.41527e+01,0.00000e+00,0.00000e+00,0.00000e+00
1.98010e+03,-3.88412e+00,-2.27319e+01,0.00000e+00,0.00000e+00,0.00000e+00
1.98010e+03,-3.57909e+00,-2.13112e+01,0.00000e+00,0.00000e+00,0.00000e+00
1.98010e+03,-3.26320e+00,-1.98904e+01,0.00000e+00,0.00000e+00,0.00000e+00
1.98010e+03,-2.93337e+00,-1.84697e+01,0.00000e+00,0.00000e+00,0.00000e+00
1.98010e+03,-2.59462e+00,-1.70489e+01,0.00000e+00,0.00000e+00,0.00000e+00
1.98010e+03,-2.24788e+00,-1.56282e+01,0.00000e+00,0.00000e+00,0.00000e+00
1.98010e+03,-1.89400e+00,-1.42074e+01,0.00000e+00,0.00000e+00,0.00000e+00
1.98010e+03,-1.53709e+00,-1.27867e+01,0.00000e+00,0.00000e+00,0.00000e+00
1.98010e+03,-1.17550e+00,-1.13660e+01,0.00000e+00,0.00000e+00,0.00000e+00
1.98010e+03,-8.13129e-01,-9.94521e+00,0.00000e+00,0.00000e+00,0.00000e+00
1.98010e+03,-4.47961e-01,-8.52447e+00,0.00000e+00,0.00000e+00,0.00000e+00
1.98010e+03,-8.28294e-02,-7.10372e+00,0.00000e+00,0.00000e+00,0.00000e+00
1.98010e+03,2.80922e-01,-5.68298e+00,0.00000e+00,0.00000e+00,0.00000e+00
1.98010e+03,6.44673e-01,-4.26223e+00,0.00000e+00,0.00000e+00,0.00000e+00
1.98010e+03,9.99811e-01,-2.84149e+00,0.00000e+00,0.00000e+00,0.00000e+00
1.98010e+03,1.35334e+00,-1.42074e+00,0.00000e+00,0.00000e+00,0.00000e+00
2.00520e+03,1.68635e+01,0.00000e+00,0.00000e+00,0.00000e+00,0.00000e+00
2.00520e+03,1.67786e+01,-1.28145e+00,0.00000e+00,0.00000e+00,0.00000e+00
2.00520e+03,1.66656e+01,-2.56290e+00,0.00000e+00,0.00000e+00,0.00000e+00
2.00520e+03,1.65515e+01,-3.84435e+00,0.00000e+00,0.00000e+00,0.00000e+00
2.00520e+03,1.64126e+01,-5.12580e+00,0.00000e+00,0.00000e+00,0.00000e+00
2.00520e+03,1.62680e+01,-6.40725e+00,0.00000e+00,0.00000e+00,0.00000e+00
2.00520e+03,1.61044e+01,-7.68870e+00,0.00000e+00,0.00000e+00,0.00000e+00
2.00520e+03,1.59315e+01,-8.97015e+00,0.00000e+00,0.00000e+00,0.00000e+00
2.00520e+03,1.57433e+01,-1.02516e+01,0.00000e+00,0.00000e+00,0.00000e+00
2.00520e+03,1.55427e+01,-1.15330e+01,0.00000e+00,0.00000e+00,0.00000e+00
2.00520e+03,1.53282e+01,-1.28145e+01,0.00000e+00,0.00000e+00,0.00000e+00
2.00520e+03,1.50970e+01,-1.40959e+01,0.00000e+00,0.00000e+00,0.00000e+00
2.00520e+03,1.48486e+01,-1.53774e+01,0.00000e+00,0.00000e+00,0.00000e+00
2.00520e+03,1.45761e+01,-1.66588e+01,0.00000e+00,0.00000e+00,0.00000e+00
2.00520e+03,1.42800e+01,-1.79403e+01,0.00000e+00,0.00000e+00,0.00000e+00
2.00520e+03,1.39556e+01,-1.92217e+01,0.00000e+00,0.00000e+00,0.00000e+00
2.00520e+03,1.35931e+01,-2.05032e+01,0.00000e+00,0.00000e+00,0.00000e+00
2.00520e+03,1.32039e+01,-2.17846e+01,0.00000e+00,0.00000e+00,0.00000e+00
2.00520e+03,1.27550e+01,-2.30661e+01,0.00000e+00,0.00000e+00,0.00000e+00
2.00520e+03,1.22812e+01,-2.43475e+01,0.00000e+00,0.00000e+00,0.00000e+00
2.00520e+03,1.17384e+01,-2.56290e+01,0.00000e+00,0.00000e+00,0.00000e+00
2.00520e+03,1.11403e+01,-2.69104e+01,0.00000e+00,0.00000e+00,0.00000e+00
2.00520e+03,1.04858e+01,-2.81919e+01,0.00000e+00,0.00000e+00,0.00000e+00
2.00520e+03,9.73672e+00,-2.94733e+01,0.00000e+00,0.00000e+00,0.00000e+00
2.00520e+03,8.87814e+00,-3.07548e+01,0.00000e+00,0.00000e+00,0.00000e+00
2.00520e+03,7.89577e+00,-3.20362e+01,0.00000e+00,0.00000e+00,0.00000e+00
2.00520e+03,6.73385e+00,-3.33177e+01,0.00000e+00,0.00000e+00,0.00000e+00
2.00520e+03,5.24243e+00,-3.45991e+01,0.00000e+00,0.00000e+00,0.00000e+00
2.00520e+03,3.22533e+00,-3.58806e+01,0.00000e+00,0.00000e+00,0.00000e+00
2.00520e+03,-1.30688e+00,-3.71620e+01,0.00000e+00,0.00000e+00,0.00000e+00
2.00520e+03,-1.63397e+00,-3.71650e+01,0.00000e+00,0.00000e+00,0.00000e+00
2.00520e+03,-4.61400e+00,-3.58377e+01,0.00000e+00,0.00000e+00,0.00000e+00
2.00520e+03,-4.97481e+00,-3.45104e+01,0.00000e+00,0.00000e+00,0.00000e+00
2.00520e+03,-5.09932e+00,-3.31830e+01,0.00000e+00,0.00000e+00,0.00000e+00
2.00520e+03,-5.11821e+00,-3.18557e+01,0.00000e+00,0.00000e+00,0.00000e+00
2.00520e+03,-5.05754e+00,-3.05284e+01,0.00000e+00,0.00000e+00,0.00000e+00
2.00520e+03,-4.94693e+00,-2.92011e+01,0.00000e+00,0.00000e+00,0.00000e+00
2.00520e+03,-4.78618e+00,-2.78738e+01,0.00000e+00,0.00000e+00,0.00000e+00
2.00520e+03,-4.59485e+00,-2.65464e+01,0.00000e+00,0.00000e+00,0.00000e+00
2.00520e+03,-4.38577e+00,-2.52191e+01,0.00000e+00,0.00000e+00,0.00000e+00
2.00520e+03,-4.14998e+00,-2.38918e+01,0.00000e+00,0.00000e+00,0.00000e+00
2.00520e+03,-3.89748e+00,-2.25645e+01,0.00000e+00,0.00000e+00,0.00000e+00
2.00520e+03,-3.62871e+00,-2.12371e+01,0.00000e+00,0.00000e+00,0.00000e+00
2.00520e+03,-3.34375e+00,-1.99098e+01,0.00000e+00,0.00000e+00,0.00000e+00
2.00520e+03,-3.04862e+00,-1.85825e+01,0.00000e+00,0.00000e+00,0.00000e+00
2.00520e+03,-2.74048e+00,-1.72552e+01,0.00000e+00,0.00000e+00,0.00000e+00
2.00520e+03,-2.42401e+00,-1.59279e+01,0.00000e+00,0.00000e+00,0.00000e+00
2.00520e+03,-2.10007e+00,-1.46005e+01,0.00000e+00,0.00000e+00,0.00000e+00
2.00520e+03,-1.76946e+00,-1.32732e+01,0.00000e+00,0.00000e+00,0.00000e+00
2.00520e+03,-1.43602e+00,-1.19459e+01,0.00000e+00,0.00000e+00,0.00000e+00
2.00520e+03,-1.09820e+00,-1.06186e+01,0.00000e+00,0.00000e+00,0.00000e+00
2.00520e+03,-7.59661e-01,-9.29125e+00,0.00000e+00,0.00000e+00,0.00000e+00
2.00520e+03,-4.18505e-01,-7.96393e+00,0.00000e+00,0.00000e+00,0.00000e+00
2.00520e+03,-7.73829e-02,-6.63661e+00,0.00000e+00,0.00000e+00,0.00000e+00
2.00520e+03,2.62450e-01,-5.30929e+00,0.00000e+00,0.00000e+00,0.00000e+00
2.00520e+03,6.02282e-01,-3.98196e+00,0.00000e+00,0.00000e+00,0.00000e+00
2.00520e+03,9.34067e-01,-2.65464e+00,0.00000e+00,0.00000e+00,0.00000e+00
2.00520e+03,1.26435e+00,-1.32732e+00,0.00000e+00,0.00000e+00,0.00000e+00
2.02480e+03,1.59367e+01,0.00000e+00,0.00000e+00,0.00000e+00,0.00000e+00
2.02480e+03,1.58564e+01,-1.21102e+00,0.00000e+00,0.00000e+00,0.00000e+00
2.02480e+03,1.57496e+01,-2.42204e+00,0.00000e+00,0.00000e+00,0.00000e+00
2.02480e+03,1.56418e+01,-3.63306e+00,0.00000e+00,0.00000e+00,0.00000e+00
2.02480e+03,1.55106e+01,-4.84408e+00,0.00000e+00,0.00000e+00,0.00000e+00
2.02480e+03,1.53739e+01,-6.05509e+00,0.00000e+00,0.00000e+00,0.00000e+00
2.02480e+03,1.52192e+01,-7.26611e+00,0.00000e+00,0.00000e+00,0.00000e+00
2.02480e+03,1.50559e+01,-8.47713e+00,0.00000e+00,0.00000e+00,0.00000e+00
2.02480e+03,1.48781e+01,-9.68815e+00,0.00000e+00,0.00000e+00,0.00000e+00
2.02480e+03,1.46884e+01,-1.08992e+01,0.00000e+00,0.00000e+00,0.00000e+00
2.02480e+03,1.44857e+01,-1.21102e+01,0.00000e+00,0.00000e+00,0.00000e+00
2.02480e+03,1.42672e+01,-1.33212e+01,0.00000e+00,0.00000e+00,0.00000e+00
2.02480e+03,1.40325e+01,-1.45322e+01,0.00000e+00,0.00000e+00,0.00000e+00
2.02480e+03,1.37750e+01,-1.57432e+01,0.00000e+00,0.00000e+00,0.00000e+00
2.02480e+03,1.34951e+01,-1.69543e+01,0.00000e+00,0.00000e+00,0.00000e+00
2.02480e+03,1.31886e+01,-1.81653e+01,0.00000e+00,0.00000e+00,0.00000e+00
2.02480e+03,1.28460e+01,-1.93763e+01,0.00000e+00,0.00000e+00,0.00000e+00
2.02480e+03,1.24782e+01,-2.05873e+01,0.00000e+00,0.00000e+00,0.00000e+00
2.02480e+03,1.20540e+01,-2.17983e+01,0.00000e+00,0.00000e+00,0.00000e+00
2.02480e+03,1.16063e+01,-2.30094e+01,0.00000e+00,0.00000e+00,0.00000e+00
2.02480e+03,1.10933e+01,-2.42204e+01,0.00000e+00,0.00000e+00,0.00000e+00
2.02480e+03,1.05280e+01,-2.54314e+01,0.00000e+00,0.00000e+00,0.00000e+00
2.02480e+03,9.90946e+00,-2.66424e+01,0.00000e+00,0.00000e+00,0.00000e+00
2.02480e+03,9.20158e+00,-2.78534e+01,0.00000e+00,0.00000e+00,0.00000e+00
2.02480e+03,8.39019e+00,-2.90645e+01,0.00000e+00,0.00000e+00,0.00000e+00
2.02480e+03,7.46181e+00,-3.02755e+01,0.00000e+00,0.00000e+00,0.00000e+00
2.02480e+03,6.36374e+00,-3.14865e+01,0.00000e+00,0.00000e+00,0.00000e+00
2.02480e+03,4.95429e+00,-3.26975e+01,0.00000e+00,0.00000e+00,0.00000e+00
2.02480e+03,3.04806e+00,-3.39085e+01,0.00000e+00,0.00000e+00,0.00000e+00
2.02480e+03,-1.23505e+00,-3.51195e+01,0.00000e+00,0.00000e+00,0.00000e+00
2.02480e+03,-1.54416e+00,-3.51224e+01,0.00000e+00,0.00000e+00,0.00000e+00
2.02480e+03,-4.36041e+00,-3.38680e+01,0.00000e+00,0.00000e+00,0.00000e+00
2.02480e+03,-4.70139e+00,-3.26136e+01,0.00000e+00,0.00000e+00,0.00000e+00
2.02480e+03,-4.81905e+00,-3.13592e+01,0.00000e+00,0.00000e+00,0.00000e+00
2.02480e+03,-4.83691e+00,-3.01049e+01,0.00000e+00,0.00000e+00,0.00000e+00
2.02480e+03,-4.77957e+00,-2.88505e+01,0.00000e+00,0.00000e+00,0.00000e+00
2.02480e+03,-4.67504e+00,-2.75961e+01,0.00000e+00,0.00000e+00,0.00000e+00
2.02480e+03,-4.52312e+00,-2.63418e+01,0.00000e+00,0.00000e+00,0.00000e+00
2.02480e+03,-4.34231e+00,-2.50874e+01,0.00000e+00,0.00000e+00,0.00000e+00
2.02480e+03,-4.14473e+00,-2.38330e+01,0.00000e+00,0.00000e+00,0.00000e+00
2.02480e+03,-3.92189e+00,-2.25787e+01,0.00000e+00,0.00000e+00,0.00000e+00
2.02480e+03,-3.68327e+00,-2.13243e+01,0.00000e+00,0.00000e+00,0.00000e+00
2.02480e+03,-3.42927e+00,-2.00699e+01,0.00000e+00,0.00000e+00,0.00000e+00
2.02480e+03,-3.15997e+00,-1.88155e+01,0.00000e+00,0.00000e+00,0.00000e+00
2.02480e+03,-2.88106e+00,-1.75612e+01,0.00000e+00,0.00000e+00,0.00000e+00
2.02480e+03,-2.58986e+00,-1.63068e+01,0.00000e+00,0.00000e+00,0.00000e+00
2.02480e+03,-2.29078e+00,-1.50524e+01,0.00000e+00,0.00000e+00,0.00000e+00
2.02480e+03,-1.98465e+00,-1.37981e+01,0.00000e+00,0.00000e+00,0.00000e+00
2.02480e+03,-1.67220e+00,-1.25437e+01,0.00000e+00,0.00000e+00,0.00000e+00
2.02480e+03,-1.35709e+00,-1.12893e+01,0.00000e+00,0.00000e+00,0.00000e+00
2.02480e+03,-1.03784e+00,-1.00350e+01,0.00000e+00,0.00000e+00,0.00000e+00
2.02480e+03,-7.17909e-01,-8.78059e+00,0.00000e+00,0.00000e+00,0.00000e+00
2.02480e+03,-3.95503e-01,-7.52622e+00,0.00000e+00,0.00000e+00,0.00000e+00
2.02480e+03,-7.31298e-02,-6.27185e+00,0.00000e+00,0.00000e+00,0.00000e+00
2.02480e+03,2.48025e-01,-5.01748e+00,0.00000e+00,0.00000e+00,0.00000e+00
2.02480e+03,5.69180e-01,-3.76311e+00,0.00000e+00,0.00000e+00,0.00000e+00
2.02480e+03,8.82730e-01,-2.50874e+00,0.00000e+00,0.00000e+00,0.00000e+00
2.02480e+03,1.19486e+00,-1.25437e+00,0.00000e+00,0.00000e+00,0.00000e+00
2.03880e+03,1.52746e+01,0.00000e+00,0.00000e+00,0.00000e+00,0.00000e+00
2.03880e+03,1.51977e+01,-1.16071e+00,0.00000e+00,0.00000e+00,0.00000e+00
2.03880e+03,1.50954e+01,-2.32142e+00,0.00000e+00,0.00000e+00,0.00000e+00
2.03880e+03,1.49920e+01,-3.48213e+00,0.00000e+00,0.00000e+00,0.00000e+00
2.03880e+03,1.48662e+01,-4.64285e+00,0.00000e+00,0.00000e+00,0.00000e+00
2.03880e+03,1.47352e+01,-5.80356e+00,0.00000e+00,0.00000e+00,0.00000e+00
2.03880e+03,1.45870e+01,-6.96427e+00,0.00000e+00,0.00000e+00,0.00000e+00
2.03880e+03,1.44304e+01,-8.12498e+00,0.00000e+00,0.00000e+00,0.00000e+00
2.03880e+03,1.42600e+01,-9.28569e+00,0.00000e+00,0.00000e+00,0.00000e+00
2.03880e+03,1.40782e+01,-1.04464e+01,0.00000e+00,0.00000e+00,0.00000e+00
2.03880e+03,1.38839e+01,-1.16071e+01,0.00000e+00,0.00000e+00,0.00000e+00
2.03880e+03,1.36745e+01,-1.27678e+01,0.00000e+00,0.00000e+00,0.00000e+00
2.03880e+03,1.34496e+01,-1.39285e+01,0.00000e+00,0.00000e+00,0.00000e+00
2.03880e+03,1.32028e+01,-1.50892e+01,0.00000e+00,0.00000e+00,0.00000e+00
2.03880e+03,1.29345e+01,-1.62500e+01,0.00000e+00,0.00000e+00,0.00000e+00
2.03880e+03,1.26407e+01,-1.74107e+01,0.00000e+00,0.00000e+00,0.00000e+00
2.03880e+03,1.23123e+01,-1.85714e+01,0.00000e+00,0.00000e+00,0.00000e+00
2.03880e+03,1.19599e+01,-1.97321e+01,0.00000e+00,0.00000e+00,0.00000e+00
2.03880e+03,1.15532e+01,-2.08928e+01,0.00000e+00,0.00000e+00,0.00000e+00
2.03880e+03,1.11241e+01,-2.20535e+01,0.00000e+00,0.00000e+00,0.00000e+00
2.03880e+03,1.06324e+01,-2.32142e+01,0.00000e+00,0.00000e+00,0.00000e+00
2.03880e+03,1.00906e+01,-2.43749e+01,0.00000e+00,0.00000e+00,0.00000e+00
2.03880e+03,9.49781e+00,-2.55357e+01,0.00000e+00,0.00000e+00,0.00000e+00
2.03880e+03,8.81933e+00,-2.66964e+01,0.00000e+00,0.00000e+00,0.00000e+00
2.03880e+03,8.04165e+00,-2.78571e+01,0.00000e+00,0.00000e+00,0.00000e+00
2.03880e+03,7.15183e+00,-2.90178e+01,0.00000e+00,0.00000e+00,0.00000e+00
2.03880e+03,6.09938e+00,-3.01785e+01,0.00000e+00,0.00000e+00,0.00000e+00
2.03880e+03,4.74849e+00,-3.13392e+01,0.00000e+00,0.00000e+00,0.00000e+00
2.03880e+03,2.92144e+00,-3.24999e+01,0.00000e+00,0.00000e+00,0.00000e+00
2.03880e+03,-1.18374e+00,-3.36606e+01,0.00000e+00,0.00000e+00,0.00000e+00
2.03880e+03,-1.48002e+00,-3.36633e+01,0.00000e+00,0.00000e+00,0.00000e+00
2.03880e+03,-4.17927e+00,-3.24611e+01,0.00000e+00,0.00000e+00,0.00000e+00
2.03880e+03,-4.50609e+00,-3.12588e+01,0.00000e+00,0.00000e+00,0.00000e+00
2.03880e+03,-4.61886e+00,-3.00565e+01,0.00000e+00,0.00000e+00,0.00000e+00
2.03880e+03,-4.63598e+00,-2.88543e+01,0.00000e+00,0.00000e+00,0.00000e+00
2.03880e+03,-4.58102e+00,-2.76520e+01,0.00000e+00,0.00000e+00,0.00000e+00
2.03880e+03,-4.48083e+00,-2.64498e+01,0.00000e+00,0.00000e+00,0.00000e+00
2.03880e+03,-4.33523e+00,-2.52475e+01,0.00000e+00,0.00000e+00,0.00000e+00
2.03880e+03,-4.16192e+00,-2.40452e+01,0.00000e+00,0.00000e+00,0.00000e+00
2.03880e+03,-3.97255e+00,-2.28430e+01,0.00000e+00,0.00000e+00,0.00000e+00
2.03880e+03,-3.75897e+00,-2.16407e+01,0.00000e+00,0.00000e+00,0.00000e+00
2.03880e+03,-3.53026e+00,-2.04384e+01,0.00000e+00,0.00000e+00,0.00000e+00
2.03880e+03,-3.28682e+00,-1.92362e+01,0.00000e+00,0.00000e+00,0.00000e+00
2.03880e+03,-3.02870e+00,-1.80339e+01,0.00000e+00,0.00000e+00,0.00000e+00
2.03880e+03,-2.76138e+00,-1.68317e+01,0.00000e+00,0.00000e+00,0.00000e+00
2.03880e+03,-2.48228e+00,-1.56294e+01,0.00000e+00,0.00000e+00,0.00000e+00
2.03880e+03,-2.19562e+00,-1.44271e+01,0.00000e+00,0.00000e+00,0.00000e+00
2.03880e+03,-1.90220e+00,-1.32249e+01,0.00000e+00,0.00000e+00,0.00000e+00
2.03880e+03,-1.60274e+00,-1.20226e+01,0.00000e+00,0.00000e+00,0.00000e+00
2.03880e+03,-1.30072e+00,-1.08204e+01,0.00000e+00,0.00000e+00,0.00000e+00
2.03880e+03,-9.94731e-01,-9.61809e+00,0.00000e+00,0.00000e+00,0.00000e+00
2.03880e+03,-6.88086e-01,-8.41583e+00,0.00000e+00,0.00000e+00,0.00000e+00
2.03880e+03,-3.79073e-01,-7.21357e+00,0.00000e+00,0.00000e+00,0.00000e+00
2.03880e+03,-7.00919e-02,-6.01131e+00,0.00000e+00,0.00000e+00,0.00000e+00
2.03880e+03,2.37722e-01,-4.80905e+00,0.00000e+00,0.00000e+00,0.00000e+00
2.03880e+03,5.45535e-01,-3.60678e+00,0.00000e+00,0.00000e+00,0.00000e+00
2.03880e+03,8.46060e-01,-2.40452e+00,0.00000e+00,0.00000e+00,0.00000e+00
2.03880e+03,1.14523e+00,-1.20226e+00,0.00000e+00,0.00000e+00,0.00000e+00
2.04720e+03,1.48774e+01,0.00000e+00,0.00000e+00,0.00000e+00,0.00000e+00
2.04720e+03,1.48025e+01,-1.13053e+00,0.00000e+00,0.00000e+00,0.00000e+00
2.04720e+03,1.47028e+01,-2.26105e+00,0.00000e+00,0.00000e+00,0.00000e+00
2.04720e+03,1.46021e+01,-3.39158e+00,0.00000e+00,0.00000e+00,0.00000e+00
2.04720e+03,1.44796e+01,-4.52211e+00,0.00000e+00,0.00000e+00,0.00000e+00
2.04720e+03,1.43520e+01,-5.65264e+00,0.00000e+00,0.00000e+00,0.00000e+00
2.04720e+03,1.42077e+01,-6.78316e+00,0.00000e+00,0.00000e+00,0.00000e+00
2.04720e+03,1.40552e+01,-7.91369e+00,0.00000e+00,0.00000e+00,0.00000e+00
2.04720e+03,1.38892e+01,-9.04422e+00,0.00000e+00,0.00000e+00,0.00000e+00
2.04720e+03,1.37121e+01,-1.01747e+01,0.00000e+00,0.00000e+00,0.00000e+00
2.04720e+03,1.35229e+01,-1.13053e+01,0.00000e+00,0.00000e+00,0.00000e+00
2.04720e+03,1.33189e+01,-1.24358e+01,0.00000e+00,0.00000e+00,0.00000e+00
2.04720e+03,1.30998e+01,-1.35663e+01,0.00000e+00,0.00000e+00,0.00000e+00
2.04720e+03,1.28594e+01,-1.46969e+01,0.00000e+00,0.00000e+00,0.00000e+00
2.04720e+03,1.25982e+01,-1.58274e+01,0.00000e+00,0.00000e+00,0.00000e+00
2.04720e+03,1.23120e+01,-1.69579e+01,0.00000e+00,0.00000e+00,0.00000e+00
2.04720e+03,1.19922e+01,-1.80884e+01,0.00000e+00,0.00000e+00,0.00000e+00
2.04720e+03,1.16489e+01,-1.92190e+01,0.00000e+00,0.00000e+00,0.00000e+00
2.04720e+03,1.12528e+01,-2.03495e+01,0.00000e+00,0.00000e+00,0.00000e+00
2.04720e+03,1.08348e+01,-2.14800e+01,0.00000e+00,0.00000e+00,0.00000e+00
2.04720e+03,1.03559e+01,-2.26105e+01,0.00000e+00,0.00000e+00,0.00000e+00
2.04720e+03,9.82823e+00,-2.37411e+01,0.00000e+00,0.00000e+00,0.00000e+00
2.04720e+03,9.25081e+00,-2.48716e+01,0.00000e+00,0.00000e+00,0.00000e+00
2.04720e+03,8.58998e+00,-2.60021e+01,0.00000e+00,0.00000e+00,0.00000e+00
2.04720e+03,7.83252e+00,-2.71326e+01,0.00000e+00,0.00000e+00,0.00000e+00
2.04720e+03,6.96585e+00,-2.82632e+01,0.00000e+00,0.00000e+00,0.00000e+00
2.04720e+03,5.94077e+00,-2.93937e+01,0.00000e+00,0.00000e+00,0.00000e+00
2.04720e+03,4.62500e+00,-3.05242e+01,0.00000e+00,0.00000e+00,0.00000e+00
2.04720e+03,2.84547e+00,-3.16548e+01,0.00000e+00,0.00000e+00,0.00000e+00
2.04720e+03,-1.15296e+00,-3.27853e+01,0.00000e+00,0.00000e+00,0.00000e+00
2.04720e+03,-1.44153e+00,-3.27879e+01,0.00000e+00,0.00000e+00,0.00000e+00
2.04720e+03,-4.07059e+00,-3.16169e+01,0.00000e+00,0.00000e+00,0.00000e+00
2.04720e+03,-4.38891e+00,-3.04459e+01,0.00000e+00,0.00000e+00,0.00000e+00
2.04720e+03,-4.49875e+00,-2.92749e+01,0.00000e+00,0.00000e+00,0.00000e+00
2.04720e+03,-4.51542e+00,-2.81039e+01,0.00000e+00,0.00000e+00,0.00000e+00
2.04720e+03,-4.46189e+00,-2.69329e+01,0.00000e+00,0.00000e+00,0.00000e+00
2.04720e+03,-4.36430e+00,-2.57619e+01,0.00000e+00,0.00000e+00,0.00000e+00
2.04720e+03,-4.22249e+00,-2.45909e+01,0.00000e+00,0.00000e+00,0.00000e+00
2.04720e+03,-4.05369e+00,-2.34199e+01,0.00000e+00,0.00000e+00,0.00000e+00
2.04720e+03,-3.86924e+00,-2.22489e+01,0.00000e+00,0.00000e+00,0.00000e+00
2.04720e+03,-3.66121e+00,-2.10779e+01,0.00000e+00,0.00000e+00,0.00000e+00
2.04720e+03,-3.43845e+00,-1.99069e+01,0.00000e+00,0.00000e+00,0.00000e+00
2.04720e+03,-3.20134e+00,-1.87359e+01,0.00000e+00,0.00000e+00,0.00000e+00
2.04720e+03,-2.94994e+00,-1.75649e+01,0.00000e+00,0.00000e+00,0.00000e+00
2.04720e+03,-2.68957e+00,-1.63940e+01,0.00000e+00,0.00000e+00,0.00000e+00
2.04720e+03,-2.41772e+00,-1.52230e+01,0.00000e+00,0.00000e+00,0.00000e+00
2.04720e+03,-2.13852e+00,-1.40520e+01,0.00000e+00,0.00000e+00,0.00000e+00
2.04720e+03,-1.85273e+00,-1.28810e+01,0.00000e+00,0.00000e+00,0.00000e+00
2.04720e+03,-1.56106e+00,-1.17100e+01,0.00000e+00,0.00000e+00,0.00000e+00
2.04720e+03,-1.26689e+00,-1.05390e+01,0.00000e+00,0.00000e+00,0.00000e+00
2.04720e+03,-9.68863e-01,-9.36797e+00,0.00000e+00,0.00000e+00,0.00000e+00
2.04720e+03,-6.70192e-01,-8.19698e+00,0.00000e+00,0.00000e+00,0.00000e+00
2.04720e+03,-3.69215e-01,-7.02598e+00,0.00000e+00,0.00000e+00,0.00000e+00
2.04720e+03,-6.82691e-02,-5.85498e+00,0.00000e+00,0.00000e+00,0.00000e+00
2.04720e+03,2.31540e-01,-4.68399e+00,0.00000e+00,0.00000e+00,0.00000e+00
2.04720e+03,5.31348e-01,-3.51299e+00,0.00000e+00,0.00000e+00,0.00000e+00
2.04720e+03,8.24058e-01,-2.34199e+00,0.00000e+00,0.00000e+00,0.00000e+00
2.04720e+03,1.11544e+00,-1.17100e+00,0.00000e+00,0.00000e+00,0.00000e+00
2.05000e+03,1.47450e+01,0.00000e+00,0.00000e+00,0.00000e+00,0.00000e+00
2.05000e+03,1.46708e+01,-1.12047e+00,0.00000e+00,0.00000e+00,0.00000e+00
2.05000e+03,1.45720e+01,-2.24093e+00,0.00000e+00,0.00000e+00,0.00000e+00
2.05000e+03,1.44722e+01,-3.36140e+00,0.00000e+00,0.00000e+00,0.00000e+00
2.05000e+03,1.43508e+01,-4.48186e+00,0.00000e+00,0.00000e+00,0.00000e+00
2.05000e+03,1.42243e+01,-5.60233e+00,0.00000e+00,0.00000e+00,0.00000e+00
2.05000e+03,1.40812e+01,-6.72279e+00,0.00000e+00,0.00000e+00,0.00000e+00
2.05000e+03,1.39301e+01,-7.84326e+00,0.00000e+00,0.00000e+00,0.00000e+00
2.05000e+03,1.37656e+01,-8.96372e+00,0.00000e+00,0.00000e+00,0.00000e+00
2.05000e+03,1.35901e+01,-1.00842e+01,0.00000e+00,0.00000e+00,0.00000e+00
2.05000e+03,1.34025e+01,-1.12047e+01,0.00000e+00,0.00000e+00,0.00000e+00
2.05000e+03,1.32004e+01,-1.23251e+01,0.00000e+00,0.00000e+00,0.00000e+00
2.05000e+03,1.29833e+01,-1.34456e+01,0.00000e+00,0.00000e+00,0.00000e+00
2.05000e+03,1.27450e+01,-1.45661e+01,0.00000e+00,0.00000e+00,0.00000e+00
2.05000e+03,1.24860e+01,-1.56865e+01,0.00000e+00,0.00000e+00,0.00000e+00
2.05000e+03,1.22024e+01,-1.68070e+01,0.00000e+00,0.00000e+00,0.00000e+00
2.05000e+03,1.18854e+01,-1.79274e+01,0.00000e+00,0.00000e+00,0.00000e+00
2.05000e+03,1.15452e+01,-1.90479e+01,0.00000e+00,0.00000e+00,0.00000e+00
2.05000e+03,1.11526e+01,-2.01684e+01,0.00000e+00,0.00000e+00,0.00000e+00
2.05000e+03,1.07384e+01,-2.12888e+01,0.00000e+00,0.00000e+00,0.00000e+00
2.05000e+03,1.02638e+01,-2.24093e+01,0.00000e+00,0.00000e+00,0.00000e+00
2.05000e+03,9.74076e+00,-2.35298e+01,0.00000e+00,0.00000e+00,0.00000e+00
2.05000e+03,9.16848e+00,-2.46502e+01,0.00000e+00,0.00000e+00,0.00000e+00
2.05000e+03,8.51353e+00,-2.57707e+01,0.00000e+00,0.00000e+00,0.00000e+00
2.05000e+03,7.76281e+00,-2.68912e+01,0.00000e+00,0.00000e+00,0.00000e+00
2.05000e+03,6.90385e+00,-2.80116e+01,0.00000e+00,0.00000e+00,0.00000e+00
2.05000e+03,5.88790e+00,-2.91321e+01,0.00000e+00,0.00000e+00,0.00000e+00
2.05000e+03,4.58384e+00,-3.02526e+01,0.00000e+00,0.00000e+00,0.00000e+00
2.05000e+03,2.82014e+00,-3.13730e+01,0.00000e+00,0.00000e+00,0.00000e+00
2.05000e+03,-1.14270e+00,-3.24935e+01,0.00000e+00,0.00000e+00,0.00000e+00
2.05000e+03,-1.42870e+00,-3.24961e+01,0.00000e+00,0.00000e+00,0.00000e+00
2.05000e+03,-4.03436e+00,-3.13355e+01,0.00000e+00,0.00000e+00,0.00000e+00
2.05000e+03,-4.34985e+00,-3.01749e+01,0.00000e+00,0.00000e+00,0.00000e+00
2.05000e+03,-4.45871e+00,-2.90144e+01,0.00000e+00,0.00000e+00,0.00000e+00
2.05000e+03,-4.47523e+00,-2.78538e+01,0.00000e+00,0.00000e+00,0.00000e+00
2.05000e+03,-4.42218e+00,-2.66932e+01,0.00000e+00,0.00000e+00,0.00000e+00
2.05000e+03,-4.32546e+00,-2.55327e+01,0.00000e+00,0.00000e+00,0.00000e+00
2.05000e+03,-4.18491e+00,-2.43721e+01,0.00000e+00,0.00000e+00,0.00000e+00
2.05000e+03,-4.01761e+00,-2.32115e+01,0.00000e+00,0.00000e+00,0.00000e+00
2.05000e+03,-3.83480e+00,-2.20509e+01,0.00000e+00,0.00000e+00,0.00000e+00
2.05000e+03,-3.62863e+00,-2.08903e+01,0.00000e+00,0.00000e+00,0.00000e+00
2.05000e+03,-3.40785e+00,-1.97298e+01,0.00000e+00,0.00000e+00,0.00000e+00
2.05000e+03,-3.17285e+00,-1.85692e+01,0.00000e+00,0.00000e+00,0.00000e+00
2.05000e+03,-2.92368e+00,-1.74086e+01,0.00000e+00,0.00000e+00,0.00000e+00
2.05000e+03,-2.66563e+00,-1.62480e+01,0.00000e+00,0.00000e+00,0.00000e+00
2.05000e+03,-2.39621e+00,-1.50875e+01,0.00000e+00,0.00000e+00,0.00000e+00
2.05000e+03,-2.11949e+00,-1.39269e+01,0.00000e+00,0.00000e+00,0.00000e+00
2.05000e+03,-1.83624e+00,-1.27663e+01,0.00000e+00,0.00000e+00,0.00000e+00
2.05000e+03,-1.54717e+00,-1.16057e+01,0.00000e+00,0.00000e+00,0.00000e+00
2.05000e+03,-1.25562e+00,-1.04452e+01,0.00000e+00,0.00000e+00,0.00000e+00
2.05000e+03,-9.60241e-01,-9.28460e+00,0.00000e+00,0.00000e+00,0.00000e+00
2.05000e+03,-6.64227e-01,-8.12402e+00,0.00000e+00,0.00000e+00,0.00000e+00
2.05000e+03,-3.65929e-01,-6.96345e+00,0.00000e+00,0.00000e+00,0.00000e+00
2.05000e+03,-6.76615e-02,-5.80287e+00,0.00000e+00,0.00000e+00,0.00000e+00
2.05000e+03,2.29479e-01,-4.64230e+00,0.00000e+00,0.00000e+00,0.00000e+00
2.05000e+03,5.26620e-01,-3.48173e+00,0.00000e+00,0.00000e+00,0.00000e+00
2.05000e+03,8.16724e-01,-2.32115e+00,0.00000e+00,0.00000e+00,0.00000e+00
2.05000e+03,1.10552e+00,-1.16058e+00,0.00000e+00,0.00000e+00,0.00000e+00
--------------------------------------------------------------------------------------------------------------------------------------------------------------------------------------------------------------------------------------------------------------------------------------------------------------------------------------------------------------------------------

ALMA 
--------------------------------------------------------------------------------------------------------------------------------------------------------------------------------------------------------------------------------------------------------------------------------------------------------------------------------------------------------------------------------
X,Y,Z,Sigma,Tau,Von Mises
0.00000e+00,4.05613e+00,0.00000e+00,2.23736e-01,8.82357e-01,1.54458e+00
0.00000e+00,1.70710e+01,0.00000e+00,6.77537e-02,8.83524e-01,1.53181e+00
0.00000e+00,3.00859e+01,0.00000e+00,-8.82284e-02,8.83524e-01,1.53285e+00
0.00000e+00,4.31008e+01,0.00000e+00,-2.44211e-01,8.82381e-01,1.54772e+00
1.07300e+02,4.01639e+00,0.00000e+00,2.00513e-01,8.35743e-01,1.46137e+00
1.07300e+02,1.69038e+01,0.00000e+00,6.07702e-02,8.36838e-01,1.45072e+00
1.07300e+02,2.97912e+01,0.00000e+00,-7.89730e-02,8.36838e-01,1.45160e+00
1.07300e+02,4.26785e+01,0.00000e+00,-2.18716e-01,8.35765e-01,1.46402e+00
2.14300e+02,3.97676e+00,0.00000e+00,1.78474e-01,7.89141e-01,1.37844e+00
2.14300e+02,1.67370e+01,0.00000e+00,5.41397e-02,7.90166e-01,1.36968e+00
2.14300e+02,2.94972e+01,0.00000e+00,-7.01948e-02,7.90166e-01,1.37041e+00
2.14300e+02,4.22575e+01,0.00000e+00,-1.94529e-01,7.89162e-01,1.38064e+00
3.20700e+02,3.93736e+00,0.00000e+00,1.57696e-01,7.41526e-01,1.29401e+00
3.20700e+02,1.65712e+01,0.00000e+00,4.78843e-02,7.42480e-01,1.28690e+00
3.20700e+02,2.92050e+01,0.00000e+00,-6.19276e-02,7.42480e-01,1.28750e+00
3.20700e+02,4.18388e+01,0.00000e+00,-1.71740e-01,7.41545e-01,1.29583e+00
4.26200e+02,3.89829e+00,0.00000e+00,1.38254e-01,6.93676e-01,1.20941e+00
4.26200e+02,1.64067e+01,0.00000e+00,4.20256e-02,6.94560e-01,1.20375e+00
4.26200e+02,2.89151e+01,0.00000e+00,-5.42028e-02,6.94560e-01,1.20423e+00
4.26200e+02,4.14236e+01,0.00000e+00,-1.50431e-01,6.93693e-01,1.21089e+00
5.30600e+02,3.85963e+00,0.00000e+00,1.20180e-01,6.45701e-01,1.12483e+00
5.30600e+02,1.62440e+01,0.00000e+00,3.65731e-02,6.46517e-01,1.12040e+00
5.30600e+02,2.86284e+01,0.00000e+00,-4.70338e-02,6.46517e-01,1.12079e+00
5.30600e+02,4.10127e+01,0.00000e+00,-1.30641e-01,6.45718e-01,1.12602e+00
6.33500e+02,3.82152e+00,0.00000e+00,1.03529e-01,5.97771e-01,1.04053e+00
6.33500e+02,1.60836e+01,0.00000e+00,3.15434e-02,5.98520e-01,1.03715e+00
6.33500e+02,2.83457e+01,0.00000e+00,-4.04421e-02,5.98520e-01,1.03746e+00
6.33500e+02,4.06078e+01,0.00000e+00,-1.12428e-01,5.97786e-01,1.04148e+00
7.34700e+02,3.78404e+00,0.00000e+00,8.83086e-02,5.49953e-01,9.56632e-01
7.34700e+02,1.59259e+01,0.00000e+00,2.69395e-02,5.50636e-01,9.54110e-01
7.34700e+02,2.80677e+01,0.00000e+00,-3.44296e-02,5.50636e-01,9.54351e-01
7.34700e+02,4.02095e+01,0.00000e+00,-9.57988e-02,5.49967e-01,9.57375e-01
8.33800e+02,3.74734e+00,0.00000e+00,7.45422e-02,5.02584e-01,8.73687e-01
8.33800e+02,1.57714e+01,0.00000e+00,2.27693e-02,5.03203e-01,8.71870e-01
8.33800e+02,2.77955e+01,0.00000e+00,-2.90036e-02,5.03203e-01,8.72055e-01
8.33800e+02,3.98196e+01,0.00000e+00,-8.07765e-02,5.02596e-01,8.74262e-01
9.30700e+02,3.71145e+00,0.00000e+00,6.21942e-02,4.55840e-01,7.91983e-01
9.30700e+02,1.56204e+01,0.00000e+00,1.90230e-02,4.56396e-01,7.90730e-01
9.30700e+02,2.75293e+01,0.00000e+00,-2.41482e-02,4.56396e-01,7.90870e-01
9.30700e+02,3.94382e+01,0.00000e+00,-6.73194e-02,4.55850e-01,7.92420e-01
1.02500e+03,3.67653e+00,0.00000e+00,5.12485e-02,4.10413e-01,7.12701e-01
1.02500e+03,1.54734e+01,0.00000e+00,1.56968e-02,4.10910e-01,7.11891e-01
1.02500e+03,2.72703e+01,0.00000e+00,-1.98549e-02,4.10910e-01,7.11995e-01
1.02500e+03,3.90671e+01,0.00000e+00,-5.54067e-02,4.10422e-01,7.13029e-01
1.11650e+03,3.64264e+00,0.00000e+00,4.16569e-02,3.65587e-01,6.34584e-01
1.11650e+03,1.53308e+01,0.00000e+00,1.27775e-02,3.66027e-01,6.34106e-01
1.11650e+03,2.70189e+01,0.00000e+00,-1.61020e-02,3.66027e-01,6.34182e-01
1.11650e+03,3.87070e+01,0.00000e+00,-4.49814e-02,3.65595e-01,6.34825e-01
1.20500e+03,3.54704e+00,0.00000e+00,4.76644e-02,3.24495e-01,5.64059e-01
1.20500e+03,1.49284e+01,0.00000e+00,1.46280e-02,3.25040e-01,5.63175e-01
1.20500e+03,2.63098e+01,0.00000e+00,-1.84084e-02,3.25040e-01,5.63286e-01
1.20500e+03,3.76912e+01,0.00000e+00,-5.14447e-02,3.24510e-01,5.64417e-01
1.29010e+03,3.41832e+00,0.00000e+00,3.88809e-02,2.93314e-01,5.09521e-01
1.29010e+03,1.43867e+01,0.00000e+00,1.19568e-02,2.93790e-01,5.09000e-01
1.29010e+03,2.53550e+01,0.00000e+00,-1.49672e-02,2.93790e-01,5.09080e-01
1.29010e+03,3.63234e+01,0.00000e+00,-4.18913e-02,2.93327e-01,5.09781e-01
1.37170e+03,3.29489e+00,0.00000e+00,3.11412e-02,2.62525e-01,4.55771e-01
1.37170e+03,1.38672e+01,0.00000e+00,9.59849e-03,2.62936e-01,4.55520e-01
1.37170e+03,2.44395e+01,0.00000e+00,-1.19443e-02,2.62936e-01,4.55575e-01
1.37170e+03,3.50118e+01,0.00000e+00,-3.34870e-02,2.62535e-01,4.55955e-01
1.44960e+03,3.17706e+00,0.00000e+00,2.44178e-02,2.32511e-01,4.03461e-01
1.44960e+03,1.33713e+01,0.00000e+00,7.54428e-03,2.32864e-01,4.03402e-01
1.44960e+03,2.35655e+01,0.00000e+00,-9.32924e-03,2.32864e-01,4.03440e-01
1.44960e+03,3.37597e+01,0.00000e+00,-2.62028e-02,2.32520e-01,4.03588e-01
1.52340e+03,3.06543e+00,0.00000e+00,1.86926e-02,2.02904e-01,3.51937e-01
1.52340e+03,1.29015e+01,0.00000e+00,5.78934e-03,2.03202e-01,3.52003e-01
1.52340e+03,2.27375e+01,0.00000e+00,-7.11390e-03,2.03202e-01,3.52027e-01
1.52340e+03,3.25736e+01,0.00000e+00,-2.00171e-02,2.02911e-01,3.52022e-01
1.59310e+03,2.96000e+00,0.00000e+00,1.39105e-02,1.73976e-01,3.01656e-01
1.59310e+03,1.24578e+01,0.00000e+00,4.31798e-03,1.74223e-01,3.01794e-01
1.59310e+03,2.19555e+01,0.00000e+00,-5.27450e-03,1.74223e-01,3.01809e-01
1.59310e+03,3.14533e+01,0.00000e+00,-1.48670e-02,1.73982e-01,3.01712e-01
1.65850e+03,2.86108e+00,0.00000e+00,1.00183e-02,1.45931e-01,2.52958e-01
1.65850e+03,1.20414e+01,0.00000e+00,3.11584e-03,1.46131e-01,2.53126e-01
1.65850e+03,2.12218e+01,0.00000e+00,-3.78666e-03,1.46131e-01,2.53135e-01
1.65850e+03,3.04021e+01,0.00000e+00,-1.06892e-02,1.45935e-01,2.52993e-01
1.71930e+03,2.76911e+00,0.00000e+00,6.95555e-03,1.18975e-01,2.06188e-01
1.71930e+03,1.16544e+01,0.00000e+00,2.16672e-03,1.19134e-01,2.06358e-01
1.71930e+03,2.05396e+01,0.00000e+00,-2.62212e-03,1.19134e-01,2.06364e-01
1.71930e+03,2.94249e+01,0.00000e+00,-7.41095e-03,1.18979e-01,2.06210e-01
1.77540e+03,2.60964e+00,0.00000e+00,8.30715e-03,1.57177e-01,2.72365e-01
1.77540e+03,1.09832e+01,0.00000e+00,2.59041e-03,1.57393e-01,2.72626e-01
1.77540e+03,1.93567e+01,0.00000e+00,-3.12633e-03,1.57393e-01,2.72631e-01
1.77540e+03,2.77303e+01,0.00000e+00,-8.84307e-03,1.57185e-01,2.72397e-01
1.82660e+03,2.38179e+00,0.00000e+00,5.72980e-03,1.29383e-01,2.24171e-01
1.82660e+03,1.00242e+01,0.00000e+00,1.79479e-03,1.29548e-01,2.24391e-01
1.82660e+03,1.76667e+01,0.00000e+00,-2.14022e-03,1.29548e-01,2.24394e-01
1.82660e+03,2.53092e+01,0.00000e+00,-6.07523e-03,1.29389e-01,2.24190e-01
1.87280e+03,2.17619e+00,0.00000e+00,3.73623e-03,1.03757e-01,1.79751e-01
1.87280e+03,9.15894e+00,0.00000e+00,1.17947e-03,1.03879e-01,1.79927e-01
1.87280e+03,1.61417e+01,0.00000e+00,-1.37730e-03,1.03879e-01,1.79929e-01
1.87280e+03,2.31244e+01,0.00000e+00,-3.93407e-03,1.03761e-01,1.79762e-01
1.91380e+03,1.99374e+00,0.00000e+00,2.26961e-03,7.99593e-02,1.38512e-01
1.91380e+03,8.39104e+00,0.00000e+00,7.24651e-04,8.00461e-02,1.38646e-01
1.91380e+03,1.47883e+01,0.00000e+00,-8.20304e-04,8.00461e-02,1.38646e-01
1.91380e+03,2.11856e+01,0.00000e+00,-2.36526e-03,7.99619e-02,1.38518e-01
1.94970e+03,1.83398e+00,0.00000e+00,1.24816e-03,5.92161e-02,1.02573e-01
1.94970e+03,7.71865e+00,0.00000e+00,4.04332e-04,5.92748e-02,1.02668e-01
1.94970e+03,1.36033e+01,0.00000e+00,-4.39494e-04,5.92748e-02,1.02668e-01
1.94970e+03,1.94880e+01,0.00000e+00,-1.28332e-03,5.92177e-02,1.02576e-01
1.98010e+03,1.69869e+00,0.00000e+00,5.99861e-04,4.05141e-02,7.01751e-02
1.98010e+03,7.14927e+00,0.00000e+00,1.97444e-04,4.05510e-02,7.02367e-02
1.98010e+03,1.25999e+01,0.00000e+00,-2.04973e-04,4.05510e-02,7.02367e-02
1.98010e+03,1.80504e+01,0.00000e+00,-6.07390e-04,4.05151e-02,7.01768e-02
2.00520e+03,1.58699e+00,0.00000e+00,2.35819e-04,2.49075e-02,4.31417e-02
2.00520e+03,6.67917e+00,0.00000e+00,7.91026e-05,2.49282e-02,4.31770e-02
2.00520e+03,1.17713e+01,0.00000e+00,-7.76136e-05,2.49282e-02,4.31770e-02
2.00520e+03,1.68635e+01,0.00000e+00,-2.34330e-04,2.49080e-02,4.31426e-02
2.02480e+03,1.49977e+00,0.00000e+00,6.80767e-05,1.27270e-02,2.20440e-02
2.02480e+03,6.31207e+00,0.00000e+00,2.33250e-05,1.27367e-02,2.20607e-02
2.02480e+03,1.11244e+01,0.00000e+00,-2.14267e-05,1.27367e-02,2.20607e-02
2.02480e+03,1.59367e+01,0.00000e+00,-6.61784e-05,1.27273e-02,2.20444e-02
2.03880e+03,1.43746e+00,0.00000e+00,1.19723e-05,4.65589e-03,8.06424e-03
2.03880e+03,6.04986e+00,0.00000e+00,4.21649e-06,4.65915e-03,8.06988e-03
2.03880e+03,1.06622e+01,0.00000e+00,-3.53931e-06,4.65915e-03,8.06988e-03
2.03880e+03,1.52746e+01,0.00000e+00,-1.12951e-05,4.65596e-03,8.06436e-03
2.04720e+03,1.40008e+00,0.00000e+00,1.46558e-06,7.69014e-04,1.33197e-03
2.04720e+03,5.89253e+00,0.00000e+00,5.35460e-07,7.69501e-04,1.33281e-03
2.04720e+03,1.03850e+01,0.00000e+00,-3.94656e-07,7.69501e-04,1.33281e-03
2.04720e+03,1.48774e+01,0.00000e+00,-1.32477e-06,7.69025e-04,1.33199e-03
2.05000e+03,1.38762e+00,0.00000e+00,0.00000e+00,0.00000e+00,0.00000e+00
2.05000e+03,5.84009e+00,0.00000e+00,0.00000e+00,0.00000e+00,0.00000e+00
2.05000e+03,1.02925e+01,0.00000e+00,0.00000e+00,0.00000e+00,0.00000e+00
2.05000e+03,1.47450e+01,0.00000e+00,0.00000e+00,0.00000e+00,0.00000e+00
MESA INFERIOR 
--------------------------------------------------------------------------------------------------------------------------------------------------------------------------------------------------------------------------------------------------------------------------------------------------------------------------------------------------------------------------------
X,Y,Z,Sigma,Von Mises
0.00000e+00,4.05613e+00,0.00000e+00,0.00000e+00,0.00000e+00
1.07300e+02,4.01639e+00,0.00000e+00,0.00000e+00,0.00000e+00
2.14300e+02,3.97676e+00,0.00000e+00,0.00000e+00,0.00000e+00
3.20700e+02,3.93736e+00,0.00000e+00,0.00000e+00,0.00000e+00
4.26200e+02,3.89829e+00,0.00000e+00,0.00000e+00,0.00000e+00
5.30600e+02,3.85963e+00,0.00000e+00,0.00000e+00,0.00000e+00
6.33500e+02,3.82152e+00,0.00000e+00,0.00000e+00,0.00000e+00
7.34700e+02,3.78404e+00,0.00000e+00,0.00000e+00,0.00000e+00
8.33800e+02,3.74734e+00,0.00000e+00,0.00000e+00,0.00000e+00
9.30700e+02,3.71145e+00,0.00000e+00,0.00000e+00,0.00000e+00
1.02500e+03,3.67653e+00,0.00000e+00,0.00000e+00,0.00000e+00
1.11650e+03,3.64264e+00,0.00000e+00,0.00000e+00,0.00000e+00
1.20500e+03,3.54704e+00,0.00000e+00,0.00000e+00,0.00000e+00
1.29010e+03,3.41832e+00,0.00000e+00,0.00000e+00,0.00000e+00
1.37170e+03,3.29489e+00,0.00000e+00,0.00000e+00,0.00000e+00
1.44960e+03,3.17706e+00,0.00000e+00,0.00000e+00,0.00000e+00
1.52340e+03,3.06543e+00,0.00000e+00,0.00000e+00,0.00000e+00
1.59310e+03,2.96000e+00,0.00000e+00,0.00000e+00,0.00000e+00
1.65850e+03,2.86108e+00,0.00000e+00,0.00000e+00,0.00000e+00
1.71930e+03,2.76911e+00,0.00000e+00,0.00000e+00,0.00000e+00
1.77540e+03,2.60964e+00,0.00000e+00,0.00000e+00,0.00000e+00
1.82660e+03,2.38179e+00,0.00000e+00,0.00000e+00,0.00000e+00
1.87280e+03,2.17619e+00,0.00000e+00,0.00000e+00,0.00000e+00
1.91380e+03,1.99374e+00,0.00000e+00,0.00000e+00,0.00000e+00
1.94970e+03,1.83398e+00,0.00000e+00,0.00000e+00,0.00000e+00
1.98010e+03,1.69869e+00,0.00000e+00,0.00000e+00,0.00000e+00
2.00520e+03,1.58699e+00,0.00000e+00,0.00000e+00,0.00000e+00
2.02480e+03,1.49977e+00,0.00000e+00,0.00000e+00,0.00000e+00
2.03880e+03,1.43746e+00,0.00000e+00,0.00000e+00,0.00000e+00
2.04720e+03,1.40008e+00,0.00000e+00,0.00000e+00,0.00000e+00
2.05000e+03,1.38762e+00,0.00000e+00,0.00000e+00,0.00000e+00
--------------------------------------------------------------------------------------------------------------------------------------------------------------------------------------------------------------------------------------------------------------------------------------------------------------------------------------------------------------------------------

MESA SUPERIOR 
--------------------------------------------------------------------------------------------------------------------------------------------------------------------------------------------------------------------------------------------------------------------------------------------------------------------------------------------------------------------------------
X,Y,Z,Sigma,Von Mises
0.00000e+00,4.31008e+01,0.00000e+00,0.00000e+00,0.00000e+00
1.07300e+02,4.26785e+01,0.00000e+00,0.00000e+00,0.00000e+00
2.14300e+02,4.22575e+01,0.00000e+00,0.00000e+00,0.00000e+00
3.20700e+02,4.18388e+01,0.00000e+00,0.00000e+00,0.00000e+00
4.26200e+02,4.14236e+01,0.00000e+00,0.00000e+00,0.00000e+00
5.30600e+02,4.10127e+01,0.00000e+00,0.00000e+00,0.00000e+00
6.33500e+02,4.06078e+01,0.00000e+00,0.00000e+00,0.00000e+00
7.34700e+02,4.02095e+01,0.00000e+00,0.00000e+00,0.00000e+00
8.33800e+02,3.98196e+01,0.00000e+00,0.00000e+00,0.00000e+00
9.30700e+02,3.94382e+01,0.00000e+00,0.00000e+00,0.00000e+00
1.02500e+03,3.90671e+01,0.00000e+00,0.00000e+00,0.00000e+00
1.11650e+03,3.87070e+01,0.00000e+00,0.00000e+00,0.00000e+00
1.20500e+03,3.76912e+01,0.00000e+00,0.00000e+00,0.00000e+00
1.29010e+03,3.63234e+01,0.00000e+00,0.00000e+00,0.00000e+00
1.37170e+03,3.50118e+01,0.00000e+00,0.00000e+00,0.00000e+00
1.44960e+03,3.37597e+01,0.00000e+00,0.00000e+00,0.00000e+00
1.52340e+03,3.25736e+01,0.00000e+00,0.00000e+00,0.00000e+00
1.59310e+03,3.14533e+01,0.00000e+00,0.00000e+00,0.00000e+00
1.65850e+03,3.04021e+01,0.00000e+00,0.00000e+00,0.00000e+00
1.71930e+03,2.94249e+01,0.00000e+00,0.00000e+00,0.00000e+00
1.77540e+03,2.77303e+01,0.00000e+00,0.00000e+00,0.00000e+00
1.82660e+03,2.53092e+01,0.00000e+00,0.00000e+00,0.00000e+00
1.87280e+03,2.31244e+01,0.00000e+00,0.00000e+00,0.00000e+00
1.91380e+03,2.11856e+01,0.00000e+00,0.00000e+00,0.00000e+00
1.94970e+03,1.94880e+01,0.00000e+00,0.00000e+00,0.00000e+00
1.98010e+03,1.80504e+01,0.00000e+00,0.00000e+00,0.00000e+00
2.00520e+03,1.68635e+01,0.00000e+00,0.00000e+00,0.00000e+00
2.02480e+03,1.59367e+01,0.00000e+00,0.00000e+00,0.00000e+00
2.03880e+03,1.52746e+01,0.00000e+00,0.00000e+00,0.00000e+00
2.04720e+03,1.48774e+01,0.00000e+00,0.00000e+00,0.00000e+00
2.05000e+03,1.47450e+01,0.00000e+00,0.00000e+00,0.00000e+00
--------------------------------------------------------------------------------------------------------------------------------------------------------------------------------------------------------------------------------------------------------------------------------------------------------------------------------------------------------------------------------

