----------------------------------------------
LOG MATLAB Estruturas Copyright Charles 2020
----------------------------------------------

VISÃO GERAL POR SEÇÃO
--------------------------------------------------------------------------------------------------------------------------------------------------------------------------------------------------------------------------------------------------------------------------------------------------------------------------------------------------------------------------------
SEÇÃO,POSIÇÃO .25c,, ESFORÇOS,,,,,INÉRCIAS,,,,CENTROS GEOMÉTRICOS,,,DEFLEXÇOES,,,,,TENSÕES NORMAIS,,,,,,,,TENSÕES CISALHAMENTO,,,TENSÕES DE VON MISES
NUMERO,X,Y,MFz,MFy,MTx,Vz,Vy,EIzz,EIyy,EIzy,GJ,Zcg,Ycg,Zcc,Z,Y,Z´,Y´,Theta,Sigma_Chap+,Sigma_Chap-,Sigma_Lam+,Sigma_Lam-,Sigma_Mesa+,Sigma_Mesa-,Sigma_Alma+,Sigma_Alma-,  Tau_Alma,  Tau_Chap,  Tau_Lam, Von Mises_Alma,  Von Mises_Chap,  Von Mises_Lam
--------------------------------------------------------------------------------------------------------------------------------------------------------------------------------------------------------------------------------------------------------------------------------------------------------------------------------------------------------------------------------
01,0.00000e+00,0.00000e+00,2.53312e+05,5.56088e+04,-2.66250e+04,5.93385e+01,2.78765e+02,2.43720e+09,3.02407e+09,6.88619e+08,4.54590e+07,8.66395e+01,2.17434e+01,7.43235e+01,0.00000e+00,0.00000e+00,0.00000e+00,0.00000e+00,0.00000e+00,3.57367e+00,-5.31948e+00,0.00000e+00,0.00000e+00,2.04694e+02,-1.77541e+02,2.56069e-01,-2.22100e-01,1.04068e+00,1.45921e+00,0.00000e+00,1.81873e+00,5.71120e+00,0.00000e+00
02,1.07300e+02,0.00000e+00,2.24340e+05,4.94371e+04,-2.46935e+04,5.56978e+01,2.61241e+02,2.38487e+09,2.93941e+09,6.69313e+08,4.41422e+07,8.58583e+01,2.15452e+01,7.36225e+01,-3.03856e-02,5.78477e-01,-5.66367e-04,1.07824e-02,-6.14346e-02,3.20133e+00,-4.78210e+00,0.00000e+00,0.00000e+00,1.83418e+02,-1.59042e+02,2.29453e-01,-1.98959e-01,9.84978e-01,1.37835e+00,0.00000e+00,1.71962e+00,5.17047e+00,0.00000e+00
03,2.14300e+02,0.00000e+00,1.97308e+05,4.36685e+04,-2.27978e+04,5.21265e+01,2.44028e+02,2.33333e+09,2.85653e+09,6.50412e+08,4.28449e+07,8.50782e+01,2.13473e+01,7.29231e+01,-1.17178e-01,2.25080e+00,-1.05592e-03,2.04760e-02,-1.19830e-01,2.84826e+00,-4.27046e+00,0.00000e+00,0.00000e+00,1.63238e+02,-1.41493e+02,2.04207e-01,-1.77006e-01,9.28910e-01,1.29651e+00,0.00000e+00,1.62017e+00,4.65457e+00,0.00000e+00
04,3.20700e+02,0.00000e+00,1.72262e+05,3.83098e+04,-2.09535e+04,4.85997e+01,2.26771e+02,2.28273e+09,2.77562e+09,6.31961e+08,4.15859e+07,8.43013e+01,2.11503e+01,7.22271e+01,-2.51723e-01,4.88853e+00,-1.47313e-03,2.91052e-02,-1.74943e-01,2.51575e+00,-3.78655e+00,0.00000e+00,0.00000e+00,1.44226e+02,-1.24962e+02,1.80424e-01,-1.56325e-01,8.71768e-01,1.21402e+00,0.00000e+00,1.51914e+00,4.16561e+00,0.00000e+00
05,4.26200e+02,0.00000e+00,1.49232e+05,3.33648e+04,-1.91666e+04,4.51459e+01,2.09811e+02,2.23318e+09,2.69686e+09,6.14002e+08,4.03594e+07,8.35299e+01,2.09548e+01,7.15366e+01,-4.25612e-01,8.36016e+00,-1.82334e-03,3.67076e-02,-2.26573e-01,2.20497e+00,-3.33219e+00,0.00000e+00,0.00000e+00,1.26451e+02,-1.09508e+02,1.58188e-01,-1.36992e-01,8.14459e-01,1.13146e+00,0.00000e+00,1.41810e+00,3.70533e+00,0.00000e+00
06,5.30600e+02,0.00000e+00,1.28195e+05,2.88278e+04,-1.74400e+04,4.17692e+01,1.93203e+02,2.18477e+09,2.62035e+09,5.96558e+08,3.91659e+07,8.27655e+01,2.07610e+01,7.08528e+01,-6.31079e-01,1.25385e+01,-2.11282e-03,4.33381e-02,-2.74606e-01,1.91638e+00,-2.90823e+00,0.00000e+00,0.00000e+00,1.09939e+02,-9.51556e+01,1.37532e-01,-1.19038e-01,7.57182e-01,1.04908e+00,0.00000e+00,1.31735e+00,3.27442e+00,0.00000e+00
07,6.33500e+02,0.00000e+00,1.09147e+05,2.46990e+04,-1.57780e+04,3.84789e+01,1.77022e+02,2.13765e+09,2.54632e+09,5.79679e+08,3.80073e+07,8.20110e+01,2.05698e+01,7.01785e+01,-8.60569e-01,1.72918e+01,-2.34762e-03,4.90479e-02,-3.18875e-01,1.65075e+00,-2.51604e+00,0.00000e+00,0.00000e+00,9.47351e+01,-8.19451e+01,1.18512e-01,-1.02512e-01,7.00198e-01,9.67175e-01,0.00000e+00,1.21734e+00,2.87404e+00,0.00000e+00
08,7.34700e+02,0.00000e+00,9.20274e+04,2.09669e+04,-1.41820e+04,3.52790e+01,1.61306e+02,2.09189e+09,2.47483e+09,5.63383e+08,3.68833e+07,8.12680e+01,2.03815e+01,6.95148e+01,-1.10761e+00,2.25014e+01,-2.53453e-03,5.39081e-02,-3.59337e-01,1.40809e+00,-2.15586e+00,0.00000e+00,0.00000e+00,8.08395e+01,-6.98768e+01,1.01129e-01,-8.74146e-02,6.43673e-01,8.85947e-01,0.00000e+00,1.11834e+00,2.50419e+00,0.00000e+00
09,8.33800e+02,0.00000e+00,7.67938e+04,1.76243e+04,-1.26573e+04,3.21804e+01,1.46134e+02,2.04762e+09,2.40610e+09,5.47713e+08,3.57952e+07,8.05393e+01,2.01969e+01,6.88645e+01,-1.36598e+00,2.80457e+01,-2.67993e-03,5.79853e-02,-3.95910e-01,1.18861e+00,-1.82831e+00,0.00000e+00,0.00000e+00,6.82662e+01,-5.89630e+01,8.53998e-02,-7.37617e-02,5.87939e-01,8.05834e-01,0.00000e+00,1.02091e+00,2.16530e+00,0.00000e+00
10,9.30700e+02,0.00000e+00,6.33422e+04,1.46515e+04,-1.12015e+04,2.91773e+01,1.31505e+02,2.00486e+09,2.34009e+09,5.32666e+08,3.47402e+07,7.98259e+01,2.00162e+01,6.82283e+01,-1.63102e+00,3.38281e+01,-2.79047e-03,6.13625e-02,-4.28664e-01,9.91659e-01,-1.53271e+00,0.00000e+00,0.00000e+00,5.69781e+01,-4.91713e+01,7.12786e-02,-6.15124e-02,5.33044e-01,7.26869e-01,0.00000e+00,9.25100e-01,1.85631e+00,0.00000e+00
11,1.02500e+03,0.00000e+00,5.15953e+04,1.20362e+04,-9.81848e+03,2.62905e+01,1.17634e+02,1.96375e+09,2.27699e+09,5.18282e+08,3.37099e+07,7.91308e+01,1.98401e+01,6.76088e+01,-1.89801e+00,3.97442e+01,-2.87201e-03,6.41126e-02,-4.57600e-01,8.16908e-01,-1.26892e+00,0.00000e+00,0.00000e+00,4.69578e+01,-4.04852e+01,5.87434e-02,-5.06464e-02,4.79700e-01,6.49601e-01,0.00000e+00,8.32126e-01,1.57724e+00,0.00000e+00
12,1.11650e+03,0.00000e+00,4.14446e+04,9.75842e+03,-8.50865e+03,2.34963e+01,1.04238e+02,1.92432e+09,2.21681e+09,5.04566e+08,3.27157e+07,7.84554e+01,1.96691e+01,6.70073e+01,-2.16346e+00,4.57113e+01,-2.93014e-03,6.63153e-02,-4.82824e-01,6.63524e-01,-1.03603e+00,0.00000e+00,0.00000e+00,3.81584e+01,-3.28634e+01,4.77355e-02,-4.11116e-02,4.27261e-01,5.73972e-01,0.00000e+00,7.40854e-01,1.32657e+00,0.00000e+00
13,1.20500e+03,0.00000e+00,3.27775e+04,7.79678e+03,-7.28291e+03,2.08347e+01,9.16300e+01,1.32148e+09,1.95268e+09,4.45208e+08,2.99051e+07,7.39632e+01,1.86188e+01,6.42675e+01,-2.42734e+00,5.16724e+01,-3.03335e-03,6.83989e-02,-5.05109e-01,7.67345e-01,-1.08549e+00,0.00000e+00,0.00000e+00,4.38254e+01,-3.73485e+01,5.48249e-02,-4.67223e-02,3.81584e-01,5.51277e-01,0.00000e+00,6.62298e-01,1.32730e+00,0.00000e+00
14,1.29010e+03,0.00000e+00,2.54832e+04,6.13038e+03,-6.17009e+03,1.83286e+01,7.97972e+01,1.21619e+09,1.75686e+09,4.00479e+08,2.68430e+07,7.15330e+01,1.79989e+01,6.20379e+01,-2.69126e+00,5.75779e+01,-3.16917e-03,7.03912e-02,-5.25252e-01,6.23538e-01,-8.91717e-01,0.00000e+00,0.00000e+00,3.56413e+01,-3.03562e+01,4.45867e-02,-3.79751e-02,3.46323e-01,4.98574e-01,0.00000e+00,6.00720e-01,1.13136e+00,0.00000e+00
15,1.37170e+03,0.00000e+00,1.94258e+04,4.73149e+03,-5.16110e+03,1.59579e+01,6.86697e+01,1.12002e+09,1.58132e+09,3.60391e+08,2.41022e+07,6.91884e+01,1.74013e+01,5.98941e+01,-2.95390e+00,6.33869e+01,-3.26823e-03,7.19860e-02,-5.43366e-01,4.96631e-01,-7.18480e-01,0.00000e+00,0.00000e+00,2.84123e+01,-2.41801e+01,3.55432e-02,-3.02489e-02,3.10426e-01,4.45235e-01,0.00000e+00,5.38168e-01,9.53728e-01,0.00000e+00
16,1.44960e+03,0.00000e+00,1.44774e+04,3.57513e+03,-4.25576e+03,1.37304e+01,5.83754e+01,1.03251e+09,1.42458e+09,3.24609e+08,2.16534e+07,6.69366e+01,1.68278e+01,5.78421e+01,-3.21119e+00,6.90431e+01,-3.33737e-03,7.32297e-02,-5.59362e-01,3.86522e-01,-5.66035e-01,0.00000e+00,0.00000e+00,2.21338e+01,-1.88174e+01,2.76890e-02,-2.35403e-02,2.74532e-01,3.91967e-01,0.00000e+00,4.75728e-01,7.94368e-01,0.00000e+00
17,1.52340e+03,0.00000e+00,1.05230e+04,2.63864e+03,-3.45924e+03,1.16488e+01,4.87904e+01,9.53418e+08,1.28561e+09,2.92889e+08,1.94973e+07,6.47909e+01,1.62818e+01,5.58929e+01,-3.45917e+00,7.44821e+01,-3.38295e-03,7.41686e-02,-5.73161e-01,2.93157e-01,-4.34833e-01,0.00000e+00,0.00000e+00,1.68044e+01,-1.42678e+01,2.10220e-02,-1.78488e-02,2.38703e-01,3.39677e-01,0.00000e+00,4.13524e-01,6.54329e-01,0.00000e+00
18,1.59310e+03,0.00000e+00,7.42823e+03,1.89412e+03,-2.76422e+03,9.71487e+00,4.00109e+01,8.82075e+08,1.16263e+09,2.64824e+08,1.75992e+07,6.27531e+01,1.57637e+01,5.40474e+01,-3.69594e+00,7.96756e+01,-3.41107e-03,7.48553e-02,-5.84818e-01,2.15734e-01,-3.24308e-01,0.00000e+00,0.00000e+00,1.23797e+01,-1.04943e+01,1.54868e-02,-1.31282e-02,2.03558e-01,2.88959e-01,0.00000e+00,3.52623e-01,5.40121e-01,0.00000e+00
19,1.65850e+03,0.00000e+00,5.07044e+03,1.31625e+03,-2.15997e+03,7.95673e+00,3.20929e+01,8.18049e+08,1.05434e+09,2.40117e+08,1.59292e+07,6.08309e+01,1.52752e+01,5.23116e+01,-3.91955e+00,8.45869e+01,-3.42694e-03,7.53381e-02,-5.94388e-01,1.53327e-01,-2.33715e-01,0.00000e+00,0.00000e+00,8.80866e+00,-7.45345e+00,1.10195e-02,-9.32414e-03,1.69537e-01,2.40031e-01,0.00000e+00,2.93677e-01,4.39087e-01,0.00000e+00
20,1.71930e+03,0.00000e+00,3.33441e+03,8.82538e+02,-1.62673e+03,6.31029e+00,2.50135e+01,7.61023e+08,9.59670e+08,2.18523e+08,1.44494e+07,5.90349e+01,1.48192e+01,5.06943e+01,-4.12814e+00,8.91773e+01,-3.43479e-03,7.56620e-02,-6.01933e-01,1.04827e-01,-1.62100e-01,0.00000e+00,0.00000e+00,6.02964e+00,-5.09106e+00,7.54298e-03,-6.36883e-03,1.36570e-01,1.92067e-01,0.00000e+00,2.36565e-01,3.45581e-01,0.00000e+00
21,1.77540e+03,0.00000e+00,2.10253e+03,5.70312e+02,-1.18079e+03,4.82076e+00,1.89038e+01,3.98519e+08,7.29057e+08,1.66652e+08,1.04662e+07,5.21005e+01,1.31900e+01,4.07358e+01,-4.32127e+00,9.34297e+01,-3.45028e-03,7.59390e-02,-6.08256e-01,1.25800e-01,-1.67668e-01,0.00000e+00,0.00000e+00,7.16613e+00,-5.89625e+00,8.96471e-03,-7.37611e-03,1.79863e-01,1.74747e-01,0.00000e+00,3.11551e-01,3.23775e-01,0.00000e+00
22,1.82660e+03,0.00000e+00,1.26380e+03,3.55333e+02,-8.28236e+02,3.57684e+00,1.38589e+01,3.22692e+08,5.63581e+08,1.28741e+08,8.06593e+06,4.80842e+01,1.21552e+01,3.73499e+01,-4.49842e+00,9.73240e+01,-3.46971e-03,7.61823e-02,-6.13772e-01,8.49302e-02,-1.15822e-01,0.00000e+00,0.00000e+00,4.84655e+00,-3.97853e+00,6.06295e-03,-4.97707e-03,1.47476e-01,1.42896e-01,0.00000e+00,2.55446e-01,2.58577e-01,0.00000e+00
23,1.87280e+03,0.00000e+00,7.16910e+02,2.12253e+02,-5.68732e+02,2.61711e+00,9.81606e+00,2.62353e+08,4.36581e+08,9.96683e+07,6.24924e+06,4.43938e+01,1.12070e+01,3.42731e+01,-4.65896e+00,1.00847e+02,-3.47991e-03,7.63399e-02,-6.18247e-01,5.40613e-02,-7.58759e-02,0.00000e+00,0.00000e+00,3.09211e+00,-2.52444e+00,3.86818e-03,-3.15803e-03,1.17255e-01,1.14098e-01,0.00000e+00,2.03097e-01,2.02708e-01,0.00000e+00
24,1.91380e+03,0.00000e+00,3.78682e+02,1.20094e+02,-3.78879e+02,1.87847e+00,6.68284e+00,2.14932e+08,3.40501e+08,7.76906e+07,4.88346e+06,4.10625e+01,1.03532e+01,3.15244e+01,-4.80172e+00,1.03979e+02,-3.48410e-03,7.64336e-02,-6.21703e-01,3.19657e-02,-4.64665e-02,0.00000e+00,0.00000e+00,1.83374e+00,-1.48331e+00,2.29398e-03,-1.85560e-03,8.96376e-02,8.80510e-02,0.00000e+00,1.55259e-01,1.54795e-01,0.00000e+00
25,1.94970e+03,0.00000e+00,1.81377e+02,6.29006e+01,-2.42883e+02,1.30778e+00,4.30909e+00,1.77937e+08,2.68420e+08,6.12136e+07,3.86775e+06,3.80992e+01,9.59536e+00,2.91026e+01,-4.92682e+00,1.06724e+02,-3.48503e-03,7.64839e-02,-6.24223e-01,1.70868e-02,-2.59226e-02,0.00000e+00,0.00000e+00,9.83969e-01,-7.84662e-01,1.23093e-03,-9.81599e-04,6.49938e-02,6.49307e-02,0.00000e+00,1.12574e-01,1.13334e-01,0.00000e+00
26,1.98010e+03,0.00000e+00,7.65525e+01,2.97835e+01,-1.47579e+02,8.70978e-01,2.58729e+00,1.49784e+08,2.15653e+08,4.91590e+07,3.12943e+06,3.55543e+01,8.94582e+00,2.70403e+01,-5.03275e+00,1.09049e+02,-3.48464e-03,7.65070e-02,-6.25894e-01,8.00945e-03,-1.28422e-02,0.00000e+00,0.00000e+00,4.63561e-01,-3.61849e-01,5.79907e-04,-4.52667e-04,4.38276e-02,4.48519e-02,0.00000e+00,7.59120e-02,7.79545e-02,0.00000e+00
27,2.00520e+03,0.00000e+00,2.66372e+01,1.20662e+01,-8.25066e+01,5.40756e-01,1.39002e+00,1.28656e+08,1.77484e+08,4.04436e+07,2.60279e+06,3.34272e+01,8.40385e+00,2.53292e+01,-5.12021e+00,1.10970e+02,-3.48407e-03,7.65159e-02,-6.26884e-01,3.08425e-03,-5.32091e-03,0.00000e+00,0.00000e+00,1.79739e-01,-1.35736e-01,2.24851e-04,-1.69804e-04,2.64877e-02,2.80529e-02,0.00000e+00,4.58782e-02,4.86496e-02,0.00000e+00
28,2.02480e+03,0.00000e+00,6.88669e+00,3.84561e+00,-4.02697e+01,2.98081e-01,6.25336e-01,1.13447e+08,1.50904e+08,3.43767e+07,2.24642e+06,3.17493e+01,7.97693e+00,2.39876e+01,-5.18850e+00,1.12470e+02,-3.48372e-03,7.65184e-02,-6.27370e-01,8.82186e-04,-1.68670e-03,0.00000e+00,0.00000e+00,5.19285e-02,-3.71344e-02,6.49616e-05,-4.64545e-05,1.34803e-02,1.49794e-02,0.00000e+00,2.33486e-02,2.59537e-02,0.00000e+00
29,2.03880e+03,0.00000e+00,1.08980e+00,8.35040e-01,-1.54479e+01,1.32001e-01,2.02790e-01,1.03260e+08,1.33576e+08,3.04229e+07,2.03570e+06,3.05414e+01,7.66993e+00,2.30264e+01,-5.23727e+00,1.13541e+02,-3.48361e-03,7.65188e-02,-6.27549e-01,1.56816e-04,-3.51582e-04,0.00000e+00,0.00000e+00,9.38508e-03,-6.04704e-03,1.17406e-05,-7.56474e-06,5.09000e-03,6.09747e-03,0.00000e+00,8.81615e-03,1.05617e-02,0.00000e+00
30,2.04720e+03,0.00000e+00,1.19043e-01,1.40318e-01,-3.22149e+00,3.34091e-02,2.83437e-02,9.74134e+07,1.23821e+08,2.81976e+07,1.96491e+06,2.98129e+01,7.48488e+00,2.24484e+01,-5.26653e+00,1.14184e+02,-3.48359e-03,7.65189e-02,-6.27587e-01,1.99530e-05,-5.60312e-05,0.00000e+00,0.00000e+00,1.22537e-03,-6.51830e-04,1.53291e-06,-8.15428e-07,9.41859e-04,1.29537e-03,0.00000e+00,1.63135e-03,2.24367e-03,0.00000e+00
31,2.05000e+03,0.00000e+00,0.00000e+00,0.00000e+00,0.00000e+00,0.00000e+00,0.00000e+00,5.74754e+07,1.08343e+08,2.47732e+07,NaN,2.74871e+01,6.96602e+00,2.15905e+01,-5.27628e+00,1.14398e+02,-3.48358e-03,7.65189e-02,-6.27590e-01,0.00000e+00,0.00000e+00,0.00000e+00,0.00000e+00,0.00000e+00,0.00000e+00,0.00000e+00,0.00000e+00,0.00000e+00,0.00000e+00,0.00000e+00,0.00000e+00,0.00000e+00,0.00000e+00
--------------------------------------------------------------------------------------------------------------------------------------------------------------------------------------------------------------------------------------------------------------------------------------------------------------------------------------------------------------------------------

CHAPEADO 
--------------------------------------------------------------------------------------------------------------------------------------------------------------------------------------------------------------------------------------------------------------------------------------------------------------------------------------------------------------------------------
X,Y,Z,Sigma,Tau,Von Mises
0.00000e+00,4.31008e+01,0.00000e+00,-3.17286e+00,1.45921e+00,4.05646e+00
0.00000e+00,4.28837e+01,-3.27521e+00,-3.35571e+00,1.44718e+00,4.18852e+00
0.00000e+00,4.25950e+01,-6.55041e+00,-3.52601e+00,1.43485e+00,4.31383e+00
0.00000e+00,4.23033e+01,-9.82562e+00,-3.69580e+00,1.42225e+00,4.44155e+00
0.00000e+00,4.19484e+01,-1.31008e+01,-3.85453e+00,1.40939e+00,4.56251e+00
0.00000e+00,4.15787e+01,-1.63760e+01,-4.01068e+00,1.39629e+00,4.68342e+00
0.00000e+00,4.11605e+01,-1.96512e+01,-4.15833e+00,1.38298e+00,4.79891e+00
0.00000e+00,4.07187e+01,-2.29264e+01,-4.30185e+00,1.36946e+00,4.91245e+00
0.00000e+00,4.02378e+01,-2.62017e+01,-4.43854e+00,1.35576e+00,5.02145e+00
0.00000e+00,3.97249e+01,-2.94769e+01,-4.56962e+00,1.34190e+00,5.12675e+00
0.00000e+00,3.91766e+01,-3.27521e+01,-4.69453e+00,1.32789e+00,5.22767e+00
0.00000e+00,3.85857e+01,-3.60273e+01,-4.81197e+00,1.31375e+00,5.32287e+00
0.00000e+00,3.79511e+01,-3.93025e+01,-4.92176e+00,1.29951e+00,5.41201e+00
0.00000e+00,3.72545e+01,-4.25777e+01,-5.02071e+00,1.28518e+00,5.49205e+00
0.00000e+00,3.64976e+01,-4.58529e+01,-5.10912e+00,1.27079e+00,5.56308e+00
0.00000e+00,3.56687e+01,-4.91281e+01,-5.18491e+00,1.25637e+00,5.62305e+00
0.00000e+00,3.47420e+01,-5.24033e+01,-5.24361e+00,1.24197e+00,5.66771e+00
0.00000e+00,3.37474e+01,-5.56785e+01,-5.29043e+00,1.22759e+00,5.70171e+00
0.00000e+00,3.26000e+01,-5.89537e+01,-5.31050e+00,1.21331e+00,5.71120e+00
0.00000e+00,3.13892e+01,-6.22289e+01,-5.31948e+00,1.19917e+00,5.71060e+00
0.00000e+00,3.00018e+01,-6.55041e+01,-5.29758e+00,1.18520e+00,5.68142e+00
0.00000e+00,2.84730e+01,-6.87793e+01,-5.25093e+00,1.17152e+00,5.62936e+00
0.00000e+00,2.68002e+01,-7.20546e+01,-5.17909e+00,1.15815e+00,5.55400e+00
0.00000e+00,2.48857e+01,-7.53298e+01,-5.06497e+00,1.14515e+00,5.43949e+00
0.00000e+00,2.26913e+01,-7.86050e+01,-4.90187e+00,1.13266e+00,5.27988e+00
0.00000e+00,2.01805e+01,-8.18802e+01,-4.68342e+00,1.12084e+00,5.06984e+00
0.00000e+00,1.72108e+01,-8.51554e+01,-4.38468e+00,1.10979e+00,4.78752e+00
0.00000e+00,1.33989e+01,-8.84306e+01,-3.93861e+00,1.10005e+00,4.37527e+00
0.00000e+00,8.24350e+00,-9.17058e+01,-3.25747e+00,1.09410e+00,3.76859e+00
0.00000e+00,-3.34020e+00,-9.49810e+01,-1.45169e+00,1.09646e+00,2.39042e+00
0.00000e+00,-4.17620e+00,-9.49886e+01,-1.30594e+00,1.10379e+00,2.31528e+00
0.00000e+00,-1.17928e+01,-9.15961e+01,2.55322e-01,1.11768e+00,1.95264e+00
0.00000e+00,-1.27149e+01,-8.82037e+01,6.45387e-01,1.12794e+00,2.05749e+00
0.00000e+00,-1.30332e+01,-8.48113e+01,9.29787e-01,1.13874e+00,2.18053e+00
0.00000e+00,-1.30814e+01,-8.14188e+01,1.16696e+00,1.15004e+00,2.30859e+00
0.00000e+00,-1.29264e+01,-7.80264e+01,1.36856e+00,1.16175e+00,2.43351e+00
0.00000e+00,-1.26437e+01,-7.46339e+01,1.54782e+00,1.17381e+00,2.55523e+00
0.00000e+00,-1.22328e+01,-7.12415e+01,1.70467e+00,1.18613e+00,2.66958e+00
0.00000e+00,-1.17438e+01,-6.78490e+01,1.84784e+00,1.19867e+00,2.77938e+00
0.00000e+00,-1.12094e+01,-6.44565e+01,1.98308e+00,1.21140e+00,2.88705e+00
0.00000e+00,-1.06068e+01,-6.10641e+01,2.10637e+00,1.22426e+00,2.98885e+00
0.00000e+00,-9.96142e+00,-5.76716e+01,2.22219e+00,1.23724e+00,3.08713e+00
0.00000e+00,-9.27449e+00,-5.42792e+01,2.33073e+00,1.25030e+00,3.18152e+00
0.00000e+00,-8.54615e+00,-5.08867e+01,2.43203e+00,1.26342e+00,3.27162e+00
0.00000e+00,-7.79185e+00,-4.74943e+01,2.52879e+00,1.27657e+00,3.35912e+00
0.00000e+00,-7.00429e+00,-4.41018e+01,2.61973e+00,1.28974e+00,3.44286e+00
0.00000e+00,-6.19544e+00,-4.07094e+01,2.70695e+00,1.30290e+00,3.52424e+00
0.00000e+00,-5.36748e+00,-3.73169e+01,2.79082e+00,1.31605e+00,3.60342e+00
0.00000e+00,-4.52248e+00,-3.39245e+01,2.87171e+00,1.32915e+00,3.68058e+00
0.00000e+00,-3.67026e+00,-3.05320e+01,2.95134e+00,1.34222e+00,3.75700e+00
0.00000e+00,-2.80686e+00,-2.71396e+01,3.02901e+00,1.35523e+00,3.83209e+00
0.00000e+00,-1.94159e+00,-2.37472e+01,3.10636e+00,1.36819e+00,3.90708e+00
0.00000e+00,-1.06964e+00,-2.03547e+01,3.18253e+00,1.38109e+00,3.98130e+00
0.00000e+00,-1.97780e-01,-1.69622e+01,3.25872e+00,1.39392e+00,4.05566e+00
0.00000e+00,6.70785e-01,-1.35698e+01,3.33549e+00,1.40669e+00,4.13060e+00
0.00000e+00,1.53935e+00,-1.01774e+01,3.41226e+00,1.41939e+00,4.20566e+00
0.00000e+00,2.38735e+00,-6.78490e+00,3.49263e+00,1.43203e+00,4.28376e+00
0.00000e+00,3.23151e+00,-3.39245e+00,3.57367e+00,1.44462e+00,4.36255e+00
1.07300e+02,4.26785e+01,0.00000e+00,-2.84227e+00,1.37835e+00,3.71187e+00
1.07300e+02,4.24636e+01,-3.24312e+00,-3.00696e+00,1.36706e+00,3.82731e+00
1.07300e+02,4.21777e+01,-6.48624e+00,-3.16041e+00,1.35549e+00,3.93703e+00
1.07300e+02,4.18889e+01,-9.72936e+00,-3.31341e+00,1.34366e+00,4.04907e+00
1.07300e+02,4.15374e+01,-1.29725e+01,-3.45649e+00,1.33159e+00,4.15532e+00
1.07300e+02,4.11714e+01,-1.62156e+01,-3.59727e+00,1.31930e+00,4.26168e+00
1.07300e+02,4.07572e+01,-1.94587e+01,-3.73042e+00,1.30680e+00,4.36339e+00
1.07300e+02,4.03197e+01,-2.27018e+01,-3.85988e+00,1.29411e+00,4.46350e+00
1.07300e+02,3.98436e+01,-2.59450e+01,-3.98323e+00,1.28125e+00,4.55970e+00
1.07300e+02,3.93357e+01,-2.91881e+01,-4.10154e+00,1.26824e+00,4.65273e+00
1.07300e+02,3.87928e+01,-3.24312e+01,-4.21432e+00,1.25509e+00,4.74197e+00
1.07300e+02,3.82077e+01,-3.56743e+01,-4.32041e+00,1.24183e+00,4.82622e+00
1.07300e+02,3.75793e+01,-3.89174e+01,-4.41965e+00,1.22846e+00,4.90516e+00
1.07300e+02,3.68895e+01,-4.21606e+01,-4.50918e+00,1.21501e+00,4.97609e+00
1.07300e+02,3.61401e+01,-4.54037e+01,-4.58926e+00,1.20150e+00,5.03906e+00
1.07300e+02,3.53192e+01,-4.86468e+01,-4.65803e+00,1.18797e+00,5.09226e+00
1.07300e+02,3.44016e+01,-5.18899e+01,-4.71150e+00,1.17445e+00,5.13188e+00
1.07300e+02,3.34168e+01,-5.51330e+01,-4.75432e+00,1.16095e+00,5.16207e+00
1.07300e+02,3.22806e+01,-5.83762e+01,-4.77317e+00,1.14755e+00,5.17047e+00
1.07300e+02,3.10816e+01,-6.16193e+01,-4.78210e+00,1.13428e+00,5.16993e+00
1.07300e+02,2.97079e+01,-6.48624e+01,-4.76335e+00,1.12117e+00,5.14398e+00
1.07300e+02,2.81940e+01,-6.81055e+01,-4.72242e+00,1.10833e+00,5.09769e+00
1.07300e+02,2.65376e+01,-7.13486e+01,-4.65893e+00,1.09578e+00,5.03069e+00
1.07300e+02,2.46419e+01,-7.45918e+01,-4.55756e+00,1.08357e+00,4.92887e+00
1.07300e+02,2.24690e+01,-7.78349e+01,-4.41231e+00,1.07185e+00,4.78697e+00
1.07300e+02,1.99828e+01,-8.10780e+01,-4.21746e+00,1.06076e+00,4.60028e+00
1.07300e+02,1.70422e+01,-8.43211e+01,-3.95068e+00,1.05039e+00,4.34946e+00
1.07300e+02,1.32676e+01,-8.75642e+01,-3.55189e+00,1.04125e+00,3.98353e+00
1.07300e+02,8.16273e+00,-9.08074e+01,-2.94251e+00,1.03566e+00,3.44618e+00
1.07300e+02,-3.30748e+00,-9.40505e+01,-1.32550e+00,1.03788e+00,2.23350e+00
1.07300e+02,-4.13529e+00,-9.40580e+01,-1.19492e+00,1.04475e+00,2.16849e+00
1.07300e+02,-1.16772e+01,-9.06988e+01,2.04784e-01,1.05779e+00,1.84356e+00
1.07300e+02,-1.25904e+01,-8.73396e+01,5.55164e-01,1.06742e+00,1.93039e+00
1.07300e+02,-1.29055e+01,-8.39804e+01,8.10874e-01,1.07756e+00,2.03493e+00
1.07300e+02,-1.29533e+01,-8.06211e+01,1.02427e+00,1.08817e+00,2.14510e+00
1.07300e+02,-1.27997e+01,-7.72619e+01,1.20579e+00,1.09916e+00,2.25353e+00
1.07300e+02,-1.25198e+01,-7.39027e+01,1.36731e+00,1.11047e+00,2.35987e+00
1.07300e+02,-1.21130e+01,-7.05435e+01,1.50874e+00,1.12204e+00,2.46033e+00
1.07300e+02,-1.16287e+01,-6.71843e+01,1.63792e+00,1.13381e+00,2.55722e+00
1.07300e+02,-1.10996e+01,-6.38251e+01,1.75998e+00,1.14575e+00,2.65251e+00
1.07300e+02,-1.05029e+01,-6.04659e+01,1.87135e+00,1.15783e+00,2.74293e+00
1.07300e+02,-9.86382e+00,-5.71066e+01,1.97602e+00,1.17001e+00,2.83045e+00
1.07300e+02,-9.18363e+00,-5.37474e+01,2.07418e+00,1.18227e+00,2.91470e+00
1.07300e+02,-8.46243e+00,-5.03882e+01,2.16584e+00,1.19458e+00,2.99532e+00
1.07300e+02,-7.71552e+00,-4.70290e+01,2.25343e+00,1.20693e+00,3.07376e+00
1.07300e+02,-6.93567e+00,-4.36698e+01,2.33582e+00,1.21929e+00,3.14897e+00
1.07300e+02,-6.13474e+00,-4.03106e+01,2.41486e+00,1.23164e+00,3.22217e+00
1.07300e+02,-5.31490e+00,-3.69514e+01,2.49091e+00,1.24398e+00,3.29349e+00
1.07300e+02,-4.47818e+00,-3.35921e+01,2.56429e+00,1.25628e+00,3.36308e+00
1.07300e+02,-3.63431e+00,-3.02329e+01,2.63653e+00,1.26854e+00,3.43204e+00
1.07300e+02,-2.77936e+00,-2.68737e+01,2.70702e+00,1.28076e+00,3.49986e+00
1.07300e+02,-1.92257e+00,-2.35145e+01,2.77722e+00,1.29292e+00,3.56762e+00
1.07300e+02,-1.05916e+00,-2.01553e+01,2.84638e+00,1.30503e+00,3.63471e+00
1.07300e+02,-1.95842e-01,-1.67961e+01,2.91554e+00,1.31707e+00,3.70195e+00
1.07300e+02,6.64213e-01,-1.34369e+01,2.98523e+00,1.32906e+00,3.76972e+00
1.07300e+02,1.52427e+00,-1.00776e+01,3.05491e+00,1.34098e+00,3.83760e+00
1.07300e+02,2.36396e+00,-6.71843e+00,3.12782e+00,1.35284e+00,3.90817e+00
1.07300e+02,3.19985e+00,-3.35921e+00,3.20133e+00,1.36465e+00,3.97936e+00
2.14300e+02,4.22575e+01,0.00000e+00,-2.52866e+00,1.29651e+00,3.38185e+00
2.14300e+02,4.20447e+01,-3.21112e+00,-2.67603e+00,1.28594e+00,3.48168e+00
2.14300e+02,4.17615e+01,-6.42224e+00,-2.81340e+00,1.27512e+00,3.57673e+00
2.14300e+02,4.14756e+01,-9.63337e+00,-2.95037e+00,1.26405e+00,3.67399e+00
2.14300e+02,4.11276e+01,-1.28445e+01,-3.07851e+00,1.25276e+00,3.76636e+00
2.14300e+02,4.07652e+01,-1.60556e+01,-3.20460e+00,1.24126e+00,3.85897e+00
2.14300e+02,4.03551e+01,-1.92667e+01,-3.32392e+00,1.22957e+00,3.94765e+00
2.14300e+02,3.99219e+01,-2.24779e+01,-3.43994e+00,1.21770e+00,4.03504e+00
2.14300e+02,3.94505e+01,-2.56890e+01,-3.55052e+00,1.20567e+00,4.11911e+00
2.14300e+02,3.89476e+01,-2.89001e+01,-3.65662e+00,1.19349e+00,4.20050e+00
2.14300e+02,3.84101e+01,-3.21112e+01,-3.75781e+00,1.18119e+00,4.27864e+00
2.14300e+02,3.78307e+01,-3.53223e+01,-3.85304e+00,1.16878e+00,4.35247e+00
2.14300e+02,3.72085e+01,-3.85335e+01,-3.94217e+00,1.15627e+00,4.42171e+00
2.14300e+02,3.65256e+01,-4.17446e+01,-4.02266e+00,1.14369e+00,4.48395e+00
2.14300e+02,3.57835e+01,-4.49557e+01,-4.09474e+00,1.13106e+00,4.53925e+00
2.14300e+02,3.49707e+01,-4.81668e+01,-4.15676e+00,1.11839e+00,4.58597e+00
2.14300e+02,3.40622e+01,-5.13780e+01,-4.20516e+00,1.10574e+00,4.62076e+00
2.14300e+02,3.30871e+01,-5.45891e+01,-4.24409e+00,1.09312e+00,4.64726e+00
2.14300e+02,3.19621e+01,-5.78002e+01,-4.26170e+00,1.08058e+00,4.65457e+00
2.14300e+02,3.07750e+01,-6.10113e+01,-4.27046e+00,1.06816e+00,4.65400e+00
2.14300e+02,2.94148e+01,-6.42224e+01,-4.25460e+00,1.05590e+00,4.63103e+00
2.14300e+02,2.79159e+01,-6.74336e+01,-4.21901e+00,1.04388e+00,4.59011e+00
2.14300e+02,2.62758e+01,-7.06447e+01,-4.16334e+00,1.03215e+00,4.53094e+00
2.14300e+02,2.43988e+01,-7.38558e+01,-4.07396e+00,1.02072e+00,4.44104e+00
2.14300e+02,2.22473e+01,-7.70669e+01,-3.94554e+00,1.00976e+00,4.31580e+00
2.14300e+02,1.97856e+01,-8.02781e+01,-3.77298e+00,9.99383e-01,4.15111e+00
2.14300e+02,1.68740e+01,-8.34892e+01,-3.53642e+00,9.89681e-01,3.92997e+00
2.14300e+02,1.31367e+01,-8.67003e+01,-3.18239e+00,9.81127e-01,3.60769e+00
2.14300e+02,8.08220e+00,-8.99114e+01,-2.64097e+00,9.75902e-01,3.13558e+00
2.14300e+02,-3.27484e+00,-9.31226e+01,-1.20294e+00,9.77975e-01,2.07759e+00
2.14300e+02,-4.09449e+00,-9.31300e+01,-1.08675e+00,9.84408e-01,2.02193e+00
2.14300e+02,-1.15620e+01,-8.98039e+01,1.59608e-01,9.96607e-01,1.73354e+00
2.14300e+02,-1.24661e+01,-8.64779e+01,4.72242e-01,1.00562e+00,1.80467e+00
2.14300e+02,-1.27781e+01,-8.31518e+01,7.00635e-01,1.01510e+00,1.89267e+00
2.14300e+02,-1.28255e+01,-7.98257e+01,8.91379e-01,1.02503e+00,1.98660e+00
2.14300e+02,-1.26734e+01,-7.64996e+01,1.05376e+00,1.03531e+00,2.07990e+00
2.14300e+02,-1.23963e+01,-7.31736e+01,1.19833e+00,1.04589e+00,2.17202e+00
2.14300e+02,-1.19935e+01,-6.98475e+01,1.32504e+00,1.05672e+00,2.25958e+00
2.14300e+02,-1.15140e+01,-6.65214e+01,1.44084e+00,1.06773e+00,2.34439e+00
2.14300e+02,-1.09901e+01,-6.31954e+01,1.55031e+00,1.07890e+00,2.42808e+00
2.14300e+02,-1.03992e+01,-5.98693e+01,1.65026e+00,1.09020e+00,2.50778e+00
2.14300e+02,-9.76651e+00,-5.65432e+01,1.74426e+00,1.10159e+00,2.58514e+00
2.14300e+02,-9.09302e+00,-5.32171e+01,1.83246e+00,1.11306e+00,2.65982e+00
2.14300e+02,-8.37893e+00,-4.98911e+01,1.91488e+00,1.12458e+00,2.73145e+00
2.14300e+02,-7.63939e+00,-4.65650e+01,1.99368e+00,1.13613e+00,2.80127e+00
2.14300e+02,-6.86724e+00,-4.32389e+01,2.06784e+00,1.14770e+00,2.86837e+00
2.14300e+02,-6.07421e+00,-3.99129e+01,2.13903e+00,1.15925e+00,2.93377e+00
2.14300e+02,-5.26246e+00,-3.65868e+01,2.20755e+00,1.17079e+00,2.99759e+00
2.14300e+02,-4.43399e+00,-3.32607e+01,2.27370e+00,1.18230e+00,3.05994e+00
2.14300e+02,-3.59845e+00,-2.99346e+01,2.33884e+00,1.19378e+00,3.12178e+00
2.14300e+02,-2.75194e+00,-2.66086e+01,2.40242e+00,1.20521e+00,3.18264e+00
2.14300e+02,-1.90360e+00,-2.32825e+01,2.46575e+00,1.21658e+00,3.24347e+00
2.14300e+02,-1.04871e+00,-1.99564e+01,2.52814e+00,1.22791e+00,3.30375e+00
2.14300e+02,-1.93910e-01,-1.66304e+01,2.59054e+00,1.23918e+00,3.36416e+00
2.14300e+02,6.57660e-01,-1.33043e+01,2.65340e+00,1.25039e+00,3.42505e+00
2.14300e+02,1.50923e+00,-9.97821e+00,2.71626e+00,1.26154e+00,3.48605e+00
2.14300e+02,2.34063e+00,-6.65214e+00,2.78199e+00,1.27264e+00,3.54941e+00
2.14300e+02,3.16828e+00,-3.32607e+00,2.84826e+00,1.28369e+00,3.61333e+00
3.20700e+02,4.18388e+01,0.00000e+00,-2.23322e+00,1.21402e+00,3.06737e+00
3.20700e+02,4.16280e+01,-3.17930e+00,-2.36417e+00,1.20418e+00,3.15270e+00
3.20700e+02,4.13477e+01,-6.35861e+00,-2.48629e+00,1.19411e+00,3.23409e+00
3.20700e+02,4.10646e+01,-9.53791e+00,-2.60806e+00,1.18381e+00,3.31756e+00
3.20700e+02,4.07201e+01,-1.27172e+01,-2.72203e+00,1.17330e+00,3.39696e+00
3.20700e+02,4.03613e+01,-1.58965e+01,-2.83419e+00,1.16260e+00,3.47671e+00
3.20700e+02,3.99553e+01,-1.90758e+01,-2.94036e+00,1.15171e+00,3.55317e+00
3.20700e+02,3.95264e+01,-2.22551e+01,-3.04362e+00,1.14066e+00,3.62863e+00
3.20700e+02,3.90596e+01,-2.54344e+01,-3.14208e+00,1.12947e+00,3.70132e+00
3.20700e+02,3.85617e+01,-2.86137e+01,-3.23658e+00,1.11814e+00,3.77176e+00
3.20700e+02,3.80295e+01,-3.17930e+01,-3.32673e+00,1.10669e+00,3.83946e+00
3.20700e+02,3.74559e+01,-3.49724e+01,-3.41163e+00,1.09514e+00,3.90348e+00
3.20700e+02,3.68398e+01,-3.81517e+01,-3.49114e+00,1.08349e+00,3.96357e+00
3.20700e+02,3.61637e+01,-4.13310e+01,-3.56301e+00,1.07178e+00,4.01761e+00
3.20700e+02,3.54289e+01,-4.45103e+01,-3.62746e+00,1.06003e+00,4.06564e+00
3.20700e+02,3.46242e+01,-4.76896e+01,-3.68302e+00,1.04824e+00,4.10622e+00
3.20700e+02,3.37247e+01,-5.08689e+01,-3.72655e+00,1.03647e+00,4.13642e+00
3.20700e+02,3.27593e+01,-5.40482e+01,-3.76171e+00,1.02471e+00,4.15940e+00
3.20700e+02,3.16454e+01,-5.72275e+01,-3.77804e+00,1.01304e+00,4.16561e+00
3.20700e+02,3.04701e+01,-6.04068e+01,-3.78655e+00,1.00149e+00,4.16496e+00
3.20700e+02,2.91233e+01,-6.35861e+01,-3.77332e+00,9.90072e-01,4.14471e+00
3.20700e+02,2.76393e+01,-6.67654e+01,-3.74265e+00,9.78892e-01,4.10879e+00
3.20700e+02,2.60154e+01,-6.99447e+01,-3.69425e+00,9.67967e-01,4.05689e+00
3.20700e+02,2.41570e+01,-7.31240e+01,-3.61607e+00,9.57337e-01,3.97812e+00
3.20700e+02,2.20269e+01,-7.63033e+01,-3.50339e+00,9.47132e-01,3.86845e+00
3.20700e+02,1.95896e+01,-7.94826e+01,-3.35174e+00,9.37474e-01,3.72434e+00
3.20700e+02,1.67068e+01,-8.26619e+01,-3.14354e+00,9.28444e-01,3.53099e+00
3.20700e+02,1.30066e+01,-8.58412e+01,-2.83158e+00,9.20483e-01,3.24957e+00
3.20700e+02,8.00212e+00,-8.90205e+01,-2.35408e+00,9.15621e-01,2.83845e+00
3.20700e+02,-3.24239e+00,-9.21998e+01,-1.08455e+00,9.17550e-01,1.92404e+00
3.20700e+02,-4.05392e+00,-9.22072e+01,-9.81913e-01,9.23538e-01,1.87694e+00
3.20700e+02,-1.14474e+01,-8.89141e+01,1.19872e-01,9.34892e-01,1.62371e+00
3.20700e+02,-1.23426e+01,-8.56210e+01,3.96841e-01,9.43280e-01,1.68131e+00
3.20700e+02,-1.26515e+01,-8.23279e+01,5.99397e-01,9.52106e-01,1.75465e+00
3.20700e+02,-1.26984e+01,-7.90348e+01,7.68693e-01,9.61342e-01,1.83396e+00
3.20700e+02,-1.25479e+01,-7.57416e+01,9.12932e-01,9.70913e-01,1.91349e+00
3.20700e+02,-1.22734e+01,-7.24485e+01,1.04145e+00,9.80765e-01,1.99256e+00
3.20700e+02,-1.18746e+01,-6.91554e+01,1.15417e+00,9.90841e-01,2.06819e+00
3.20700e+02,-1.13999e+01,-6.58623e+01,1.25727e+00,1.00109e+00,2.14179e+00
3.20700e+02,-1.08812e+01,-6.25692e+01,1.35478e+00,1.01149e+00,2.21466e+00
3.20700e+02,-1.02962e+01,-5.92761e+01,1.44387e+00,1.02200e+00,2.28434e+00
3.20700e+02,-9.66973e+00,-5.59829e+01,1.52770e+00,1.03261e+00,2.35217e+00
3.20700e+02,-9.00292e+00,-5.26898e+01,1.60641e+00,1.04328e+00,2.41782e+00
3.20700e+02,-8.29591e+00,-4.93967e+01,1.68002e+00,1.05400e+00,2.48097e+00
3.20700e+02,-7.56370e+00,-4.61036e+01,1.75043e+00,1.06475e+00,2.54265e+00
3.20700e+02,-6.79920e+00,-4.28105e+01,1.81674e+00,1.07551e+00,2.60206e+00
3.20700e+02,-6.01403e+00,-3.95174e+01,1.88043e+00,1.08627e+00,2.66007e+00
3.20700e+02,-5.21032e+00,-3.62243e+01,1.94176e+00,1.09701e+00,2.71675e+00
3.20700e+02,-4.39006e+00,-3.29311e+01,2.00100e+00,1.10772e+00,2.77221e+00
3.20700e+02,-3.56279e+00,-2.96380e+01,2.05934e+00,1.11840e+00,2.82725e+00
3.20700e+02,-2.72467e+00,-2.63449e+01,2.11631e+00,1.12904e+00,2.88148e+00
3.20700e+02,-1.88474e+00,-2.30518e+01,2.17304e+00,1.13963e+00,2.93571e+00
3.20700e+02,-1.03832e+00,-1.97587e+01,2.22896e+00,1.15017e+00,2.98947e+00
3.20700e+02,-1.91989e-01,-1.64656e+01,2.28488e+00,1.16066e+00,3.04336e+00
3.20700e+02,6.51143e-01,-1.31725e+01,2.34121e+00,1.17109e+00,3.09768e+00
3.20700e+02,1.49428e+00,-9.87934e+00,2.39754e+00,1.18147e+00,3.15212e+00
3.20700e+02,2.31744e+00,-6.58623e+00,2.45641e+00,1.19180e+00,3.20860e+00
3.20700e+02,3.13689e+00,-3.29311e+00,2.51575e+00,1.20209e+00,3.26558e+00
4.26200e+02,4.14236e+01,0.00000e+00,-1.95703e+00,1.13146e+00,2.76959e+00
4.26200e+02,4.12150e+01,-3.14776e+00,-2.07254e+00,1.12235e+00,2.84156e+00
4.26200e+02,4.09374e+01,-6.29551e+00,-2.18030e+00,1.11302e+00,2.91035e+00
4.26200e+02,4.06571e+01,-9.44327e+00,-2.28775e+00,1.10347e+00,2.98107e+00
4.26200e+02,4.03160e+01,-1.25910e+01,-2.38836e+00,1.09373e+00,3.04845e+00
4.26200e+02,3.99607e+01,-1.57388e+01,-2.48739e+00,1.08381e+00,3.11626e+00
4.26200e+02,3.95588e+01,-1.88865e+01,-2.58117e+00,1.07373e+00,3.18137e+00
4.26200e+02,3.91341e+01,-2.20343e+01,-2.67240e+00,1.06349e+00,3.24573e+00
4.26200e+02,3.86720e+01,-2.51820e+01,-2.75942e+00,1.05312e+00,3.30780e+00
4.26200e+02,3.81790e+01,-2.83298e+01,-2.84297e+00,1.04262e+00,3.36803e+00
4.26200e+02,3.76521e+01,-3.14776e+01,-2.92271e+00,1.03201e+00,3.42598e+00
4.26200e+02,3.70842e+01,-3.46253e+01,-2.99784e+00,1.02130e+00,3.48083e+00
4.26200e+02,3.64743e+01,-3.77731e+01,-3.06824e+00,1.01051e+00,3.53235e+00
4.26200e+02,3.58048e+01,-4.09208e+01,-3.13196e+00,9.99662e-01,3.57871e+00
4.26200e+02,3.50774e+01,-4.40686e+01,-3.18917e+00,9.88767e-01,3.61991e+00
4.26200e+02,3.42806e+01,-4.72163e+01,-3.23858e+00,9.77846e-01,3.65472e+00
4.26200e+02,3.33901e+01,-5.03641e+01,-3.27745e+00,9.66936e-01,3.68057e+00
4.26200e+02,3.24342e+01,-5.35118e+01,-3.30899e+00,9.56046e-01,3.70020e+00
4.26200e+02,3.13314e+01,-5.66596e+01,-3.32401e+00,9.45234e-01,3.70533e+00
4.26200e+02,3.01677e+01,-5.98074e+01,-3.33219e+00,9.34525e-01,3.70452e+00
4.26200e+02,2.88343e+01,-6.29551e+01,-3.32130e+00,9.23946e-01,3.68674e+00
4.26200e+02,2.73650e+01,-6.61029e+01,-3.29514e+00,9.13586e-01,3.65539e+00
4.26200e+02,2.57573e+01,-6.92506e+01,-3.25342e+00,9.03463e-01,3.61019e+00
4.26200e+02,2.39173e+01,-7.23984e+01,-3.18560e+00,8.93614e-01,3.54171e+00
4.26200e+02,2.18083e+01,-7.55461e+01,-3.08755e+00,8.84157e-01,3.44648e+00
4.26200e+02,1.93952e+01,-7.86939e+01,-2.95533e+00,8.75208e-01,3.32144e+00
4.26200e+02,1.65410e+01,-8.18417e+01,-2.77355e+00,8.66841e-01,3.15386e+00
4.26200e+02,1.28775e+01,-8.49894e+01,-2.50081e+00,8.59464e-01,2.91034e+00
4.26200e+02,7.92271e+00,-8.81372e+01,-2.08297e+00,8.54959e-01,2.55571e+00
4.26200e+02,-3.21022e+00,-9.12849e+01,-9.70870e-01,8.56747e-01,1.77331e+00
4.26200e+02,-4.01369e+00,-9.12922e+01,-8.80903e-01,8.62295e-01,1.73397e+00
4.26200e+02,-1.13339e+01,-8.80318e+01,8.56143e-02,8.72816e-01,1.51418e+00
4.26200e+02,-1.22201e+01,-8.47713e+01,3.29133e-01,8.80589e-01,1.56033e+00
4.26200e+02,-1.25260e+01,-8.15109e+01,5.07424e-01,8.88768e-01,1.62087e+00
4.26200e+02,-1.25724e+01,-7.82505e+01,6.56562e-01,8.97326e-01,1.68720e+00
4.26200e+02,-1.24233e+01,-7.49900e+01,7.83735e-01,9.06195e-01,1.75437e+00
4.26200e+02,-1.21516e+01,-7.17296e+01,8.97126e-01,9.15325e-01,1.82162e+00
4.26200e+02,-1.17568e+01,-6.84692e+01,9.96676e-01,9.24661e-01,1.88636e+00
4.26200e+02,-1.12868e+01,-6.52087e+01,1.08778e+00,9.34158e-01,1.94967e+00
4.26200e+02,-1.07732e+01,-6.19483e+01,1.17400e+00,9.43792e-01,2.01258e+00
4.26200e+02,-1.01940e+01,-5.86879e+01,1.25283e+00,9.53535e-01,2.07299e+00
4.26200e+02,-9.57378e+00,-5.54274e+01,1.32705e+00,9.63362e-01,2.13196e+00
4.26200e+02,-8.91358e+00,-5.21670e+01,1.39679e+00,9.73254e-01,2.18922e+00
4.26200e+02,-8.21359e+00,-4.89065e+01,1.46205e+00,9.83188e-01,2.24445e+00
4.26200e+02,-7.48864e+00,-4.56461e+01,1.52451e+00,9.93149e-01,2.29851e+00
4.26200e+02,-6.73173e+00,-4.23857e+01,1.58337e+00,1.00312e+00,2.35071e+00
4.26200e+02,-5.95435e+00,-3.91252e+01,1.63994e+00,1.01309e+00,2.40176e+00
4.26200e+02,-5.15861e+00,-3.58648e+01,1.69444e+00,1.02304e+00,2.45173e+00
4.26200e+02,-4.34650e+00,-3.26044e+01,1.74710e+00,1.03297e+00,2.50069e+00
4.26200e+02,-3.52744e+00,-2.93439e+01,1.79898e+00,1.04286e+00,2.54932e+00
4.26200e+02,-2.69763e+00,-2.60835e+01,1.84966e+00,1.05272e+00,2.59728e+00
4.26200e+02,-1.86603e+00,-2.28231e+01,1.90013e+00,1.06253e+00,2.64526e+00
4.26200e+02,-1.02802e+00,-1.95626e+01,1.94988e+00,1.07230e+00,2.69286e+00
4.26200e+02,-1.90083e-01,-1.63022e+01,1.99964e+00,1.08201e+00,2.74059e+00
4.26200e+02,6.44682e-01,-1.30417e+01,2.04976e+00,1.09168e+00,2.78870e+00
4.26200e+02,1.47945e+00,-9.78131e+00,2.09988e+00,1.10130e+00,2.83691e+00
4.26200e+02,2.29445e+00,-6.52087e+00,2.15221e+00,1.11087e+00,2.88689e+00
4.26200e+02,3.10576e+00,-3.26044e+00,2.20497e+00,1.12040e+00,2.93731e+00
5.30600e+02,4.10127e+01,0.00000e+00,-1.70054e+00,1.04908e+00,2.48868e+00
5.30600e+02,4.08062e+01,-3.11654e+00,-1.80159e+00,1.04068e+00,2.54848e+00
5.30600e+02,4.05314e+01,-6.23307e+00,-1.89591e+00,1.03207e+00,2.60576e+00
5.30600e+02,4.02539e+01,-9.34961e+00,-1.98996e+00,1.02326e+00,2.66480e+00
5.30600e+02,3.99161e+01,-1.24661e+01,-2.07807e+00,1.01428e+00,2.72115e+00
5.30600e+02,3.95644e+01,-1.55827e+01,-2.16479e+00,1.00513e+00,2.77799e+00
5.30600e+02,3.91664e+01,-1.86992e+01,-2.24696e+00,9.95832e-01,2.83264e+00
5.30600e+02,3.87460e+01,-2.18158e+01,-2.32691e+00,9.86391e-01,2.88677e+00
5.30600e+02,3.82884e+01,-2.49323e+01,-2.40320e+00,9.76823e-01,2.93903e+00
5.30600e+02,3.78003e+01,-2.80488e+01,-2.47647e+00,9.67141e-01,2.98981e+00
5.30600e+02,3.72787e+01,-3.11654e+01,-2.54643e+00,9.57356e-01,3.03874e+00
5.30600e+02,3.67164e+01,-3.42819e+01,-2.61239e+00,9.47483e-01,3.08508e+00
5.30600e+02,3.61125e+01,-3.73984e+01,-2.67424e+00,9.37533e-01,3.12865e+00
5.30600e+02,3.54497e+01,-4.05150e+01,-2.73028e+00,9.27525e-01,3.16786e+00
5.30600e+02,3.47295e+01,-4.36315e+01,-2.78065e+00,9.17477e-01,3.20270e+00
5.30600e+02,3.39406e+01,-4.67480e+01,-2.82426e+00,9.07405e-01,3.23212e+00
5.30600e+02,3.30589e+01,-4.98646e+01,-2.85870e+00,8.97343e-01,3.25389e+00
5.30600e+02,3.21125e+01,-5.29811e+01,-2.88676e+00,8.87300e-01,3.27036e+00
5.30600e+02,3.10206e+01,-5.60976e+01,-2.90047e+00,8.77328e-01,3.27442e+00
5.30600e+02,2.98685e+01,-5.92142e+01,-2.90823e+00,8.67452e-01,3.27341e+00
5.30600e+02,2.85484e+01,-6.23307e+01,-2.89942e+00,8.57696e-01,3.25785e+00
5.30600e+02,2.70936e+01,-6.54473e+01,-2.87733e+00,8.48142e-01,3.23065e+00
5.30600e+02,2.55018e+01,-6.85638e+01,-2.84173e+00,8.38806e-01,3.19158e+00
5.30600e+02,2.36801e+01,-7.16803e+01,-2.78343e+00,8.29722e-01,3.13254e+00
5.30600e+02,2.15920e+01,-7.47969e+01,-2.69886e+00,8.21002e-01,3.05057e+00
5.30600e+02,1.92028e+01,-7.79134e+01,-2.58459e+00,8.12748e-01,2.94309e+00
5.30600e+02,1.63770e+01,-8.10299e+01,-2.42724e+00,8.05032e-01,2.79923e+00
5.30600e+02,1.27498e+01,-8.41465e+01,-2.19083e+00,7.98229e-01,2.59060e+00
5.30600e+02,7.84413e+00,-8.72630e+01,-1.82829e+00,7.94074e-01,2.28786e+00
5.30600e+02,-3.17838e+00,-9.03795e+01,-8.62311e-01,7.95723e-01,1.62576e+00
5.30600e+02,-3.97388e+00,-9.03868e+01,-7.84114e-01,8.00840e-01,1.59338e+00
5.30600e+02,-1.12214e+01,-8.71587e+01,5.66566e-02,8.10544e-01,1.40505e+00
5.30600e+02,-1.20989e+01,-8.39306e+01,2.68999e-01,8.17712e-01,1.44164e+00
5.30600e+02,-1.24018e+01,-8.07025e+01,4.24646e-01,8.25255e-01,1.49113e+00
5.30600e+02,-1.24477e+01,-7.74744e+01,5.54952e-01,8.33147e-01,1.54608e+00
5.30600e+02,-1.23001e+01,-7.42463e+01,6.66167e-01,8.41328e-01,1.60227e+00
5.30600e+02,-1.20311e+01,-7.10182e+01,7.65402e-01,8.49747e-01,1.65893e+00
5.30600e+02,-1.16402e+01,-6.77901e+01,8.52607e-01,8.58357e-01,1.71385e+00
5.30600e+02,-1.11748e+01,-6.45620e+01,9.32475e-01,8.67116e-01,1.76782e+00
5.30600e+02,-1.06664e+01,-6.13339e+01,1.00809e+00,8.76000e-01,1.82164e+00
5.30600e+02,-1.00929e+01,-5.81058e+01,1.07728e+00,8.84986e-01,1.87354e+00
5.30600e+02,-9.47882e+00,-5.48777e+01,1.14248e+00,8.94049e-01,1.92438e+00
5.30600e+02,-8.82518e+00,-5.16496e+01,1.20377e+00,9.03172e-01,1.97388e+00
5.30600e+02,-8.13212e+00,-4.84215e+01,1.26117e+00,9.12333e-01,2.02178e+00
5.30600e+02,-7.41437e+00,-4.51934e+01,1.31613e+00,9.21519e-01,2.06877e+00
5.30600e+02,-6.66496e+00,-4.19653e+01,1.36797e+00,9.30716e-01,2.11425e+00
5.30600e+02,-5.89529e+00,-3.87372e+01,1.41782e+00,9.39908e-01,2.15882e+00
5.30600e+02,-5.10745e+00,-3.55091e+01,1.46587e+00,9.49087e-01,2.20251e+00
5.30600e+02,-4.30339e+00,-3.22810e+01,1.51232e+00,9.58242e-01,2.24539e+00
5.30600e+02,-3.49245e+00,-2.90529e+01,1.55809e+00,9.67367e-01,2.28802e+00
5.30600e+02,-2.67088e+00,-2.58248e+01,1.60281e+00,9.76455e-01,2.33011e+00
5.30600e+02,-1.84753e+00,-2.25967e+01,1.64736e+00,9.85505e-01,2.37222e+00
5.30600e+02,-1.01782e+00,-1.93686e+01,1.69128e+00,9.94512e-01,2.41404e+00
5.30600e+02,-1.88198e-01,-1.61405e+01,1.73521e+00,1.00347e+00,2.45598e+00
5.30600e+02,6.38288e-01,-1.29124e+01,1.77944e+00,1.01239e+00,2.49824e+00
5.30600e+02,1.46477e+00,-9.68430e+00,1.82368e+00,1.02126e+00,2.54062e+00
5.30600e+02,2.27169e+00,-6.45620e+00,1.86985e+00,1.03009e+00,2.58449e+00
5.30600e+02,3.07496e+00,-3.22810e+00,1.91638e+00,1.03888e+00,2.62874e+00
6.33500e+02,4.06078e+01,0.00000e+00,-1.46446e+00,9.67175e-01,2.22506e+00
6.33500e+02,4.04033e+01,-3.08576e+00,-1.55210e+00,9.59464e-01,2.27392e+00
6.33500e+02,4.01312e+01,-6.17153e+00,-1.63394e+00,9.51565e-01,2.32081e+00
6.33500e+02,3.98564e+01,-9.25729e+00,-1.71555e+00,9.43486e-01,2.36930e+00
6.33500e+02,3.95220e+01,-1.23431e+01,-1.79204e+00,9.35244e-01,2.41567e+00
6.33500e+02,3.91738e+01,-1.54288e+01,-1.86734e+00,9.26848e-01,2.46254e+00
6.33500e+02,3.87797e+01,-1.85146e+01,-1.93871e+00,9.18313e-01,2.50769e+00
6.33500e+02,3.83634e+01,-2.16004e+01,-2.00817e+00,9.09650e-01,2.55248e+00
6.33500e+02,3.79104e+01,-2.46861e+01,-2.07448e+00,9.00869e-01,2.59580e+00
6.33500e+02,3.74271e+01,-2.77719e+01,-2.13820e+00,8.91985e-01,2.63795e+00
6.33500e+02,3.69106e+01,-3.08576e+01,-2.19906e+00,8.83006e-01,2.67861e+00
6.33500e+02,3.63539e+01,-3.39434e+01,-2.25646e+00,8.73946e-01,2.71716e+00
6.33500e+02,3.57559e+01,-3.70292e+01,-2.31033e+00,8.64816e-01,2.75343e+00
6.33500e+02,3.50997e+01,-4.01149e+01,-2.35920e+00,8.55632e-01,2.78606e+00
6.33500e+02,3.43866e+01,-4.32007e+01,-2.40319e+00,8.46412e-01,2.81506e+00
6.33500e+02,3.36055e+01,-4.62865e+01,-2.44134e+00,8.37169e-01,2.83949e+00
6.33500e+02,3.27325e+01,-4.93722e+01,-2.47160e+00,8.27936e-01,2.85749e+00
6.33500e+02,3.17954e+01,-5.24580e+01,-2.49636e+00,8.18720e-01,2.87102e+00
6.33500e+02,3.07144e+01,-5.55438e+01,-2.50876e+00,8.09570e-01,2.87404e+00
6.33500e+02,2.95736e+01,-5.86295e+01,-2.51604e+00,8.00507e-01,2.87279e+00
6.33500e+02,2.82665e+01,-6.17153e+01,-2.50904e+00,7.91555e-01,2.85919e+00
6.33500e+02,2.68261e+01,-6.48011e+01,-2.49060e+00,7.82788e-01,2.83573e+00
6.33500e+02,2.52500e+01,-6.78868e+01,-2.46052e+00,7.74221e-01,2.80222e+00
6.33500e+02,2.34463e+01,-7.09726e+01,-2.41089e+00,7.65886e-01,2.75175e+00
6.33500e+02,2.13788e+01,-7.40584e+01,-2.33863e+00,7.57883e-01,2.68186e+00
6.33500e+02,1.90132e+01,-7.71441e+01,-2.24078e+00,7.50310e-01,2.59036e+00
6.33500e+02,1.62153e+01,-8.02299e+01,-2.10582e+00,7.43229e-01,2.46812e+00
6.33500e+02,1.26239e+01,-8.33156e+01,-1.90275e+00,7.36987e-01,2.29127e+00
6.33500e+02,7.76668e+00,-8.64014e+01,-1.59103e+00,7.33175e-01,2.03569e+00
6.33500e+02,-3.14700e+00,-8.94872e+01,-7.59471e-01,7.34688e-01,1.48192e+00
6.33500e+02,-3.93464e+00,-8.94943e+01,-6.92109e-01,7.39384e-01,1.45571e+00
6.33500e+02,-1.11106e+01,-8.62981e+01,3.27903e-02,7.48288e-01,1.29649e+00
6.33500e+02,-1.19795e+01,-8.31019e+01,2.16326e-01,7.54866e-01,1.32524e+00
6.33500e+02,-1.22793e+01,-7.99057e+01,3.51020e-01,7.61788e-01,1.36535e+00
6.33500e+02,-1.23248e+01,-7.67094e+01,4.63884e-01,7.69030e-01,1.41046e+00
6.33500e+02,-1.21787e+01,-7.35132e+01,5.60303e-01,7.76536e-01,1.45704e+00
6.33500e+02,-1.19123e+01,-7.03170e+01,6.46401e-01,7.84262e-01,1.50434e+00
6.33500e+02,-1.15252e+01,-6.71208e+01,7.22136e-01,7.92163e-01,1.55050e+00
6.33500e+02,-1.10645e+01,-6.39245e+01,7.91549e-01,8.00200e-01,1.59609e+00
6.33500e+02,-1.05611e+01,-6.07283e+01,8.57296e-01,8.08353e-01,1.64172e+00
6.33500e+02,-9.99326e+00,-5.75321e+01,9.17519e-01,8.16599e-01,1.68593e+00
6.33500e+02,-9.38524e+00,-5.43358e+01,9.74291e-01,8.24915e-01,1.72936e+00
6.33500e+02,-8.73804e+00,-5.11396e+01,1.02770e+00,8.33286e-01,1.77180e+00
6.33500e+02,-8.05183e+00,-4.79434e+01,1.07776e+00,8.41693e-01,1.81298e+00
6.33500e+02,-7.34116e+00,-4.47472e+01,1.12572e+00,8.50122e-01,1.85348e+00
6.33500e+02,-6.59916e+00,-4.15509e+01,1.17099e+00,8.58561e-01,1.89278e+00
6.33500e+02,-5.83709e+00,-3.83547e+01,1.21454e+00,8.66996e-01,1.93136e+00
6.33500e+02,-5.05702e+00,-3.51585e+01,1.25654e+00,8.75419e-01,1.96926e+00
6.33500e+02,-4.26090e+00,-3.19623e+01,1.29717e+00,8.83819e-01,2.00650e+00
6.33500e+02,-3.45797e+00,-2.87660e+01,1.33721e+00,8.92192e-01,2.04357e+00
6.33500e+02,-2.64450e+00,-2.55698e+01,1.37635e+00,9.00532e-01,2.08020e+00
6.33500e+02,-1.82928e+00,-2.23736e+01,1.41534e+00,9.08836e-01,2.11687e+00
6.33500e+02,-1.00777e+00,-1.91774e+01,1.45378e+00,9.17101e-01,2.15330e+00
6.33500e+02,-1.86340e-01,-1.59811e+01,1.49224e+00,9.25324e-01,2.18985e+00
6.33500e+02,6.31986e-01,-1.27849e+01,1.53096e+00,9.33507e-01,2.22669e+00
6.33500e+02,1.45031e+00,-9.58868e+00,1.56968e+00,9.41646e-01,2.26362e+00
6.33500e+02,2.24926e+00,-6.39245e+00,1.61006e+00,9.49745e-01,2.30181e+00
6.33500e+02,3.04460e+00,-3.19623e+00,1.65075e+00,9.57810e-01,2.34034e+00
7.34700e+02,4.02095e+01,0.00000e+00,-1.24878e+00,8.85947e-01,1.97842e+00
7.34700e+02,4.00070e+01,-3.05550e+00,-1.32407e+00,8.78910e-01,2.01757e+00
7.34700e+02,3.97376e+01,-6.11100e+00,-1.39441e+00,8.71701e-01,2.05523e+00
7.34700e+02,3.94656e+01,-9.16651e+00,-1.46456e+00,8.64329e-01,2.09431e+00
7.34700e+02,3.91344e+01,-1.22220e+01,-1.53033e+00,8.56807e-01,2.13173e+00
7.34700e+02,3.87896e+01,-1.52775e+01,-1.59510e+00,8.49145e-01,2.16967e+00
7.34700e+02,3.83994e+01,-1.83330e+01,-1.65651e+00,8.41356e-01,2.20628e+00
7.34700e+02,3.79872e+01,-2.13885e+01,-1.71629e+00,8.33450e-01,2.24267e+00
7.34700e+02,3.75386e+01,-2.44440e+01,-1.77338e+00,8.25437e-01,2.27792e+00
7.34700e+02,3.70601e+01,-2.74995e+01,-1.82826e+00,8.17329e-01,2.31228e+00
7.34700e+02,3.65486e+01,-3.05550e+01,-1.88071e+00,8.09135e-01,2.34545e+00
7.34700e+02,3.59973e+01,-3.36105e+01,-1.93020e+00,8.00868e-01,2.37694e+00
7.34700e+02,3.54053e+01,-3.66660e+01,-1.97669e+00,7.92536e-01,2.40658e+00
7.34700e+02,3.47554e+01,-3.97215e+01,-2.01890e+00,7.84154e-01,2.43324e+00
7.34700e+02,3.40493e+01,-4.27770e+01,-2.05695e+00,7.75740e-01,2.45690e+00
7.34700e+02,3.32760e+01,-4.58325e+01,-2.09002e+00,7.67306e-01,2.47679e+00
7.34700e+02,3.24115e+01,-4.88880e+01,-2.11636e+00,7.58880e-01,2.49132e+00
7.34700e+02,3.14836e+01,-5.19435e+01,-2.13802e+00,7.50470e-01,2.50215e+00
7.34700e+02,3.04131e+01,-5.49990e+01,-2.14912e+00,7.42120e-01,2.50419e+00
7.34700e+02,2.92835e+01,-5.80545e+01,-2.15586e+00,7.33849e-01,2.50266e+00
7.34700e+02,2.79893e+01,-6.11100e+01,-2.15042e+00,7.25680e-01,2.49081e+00
7.34700e+02,2.65630e+01,-6.41655e+01,-2.13521e+00,7.17679e-01,2.47069e+00
7.34700e+02,2.50024e+01,-6.72210e+01,-2.11008e+00,7.09861e-01,2.44216e+00
7.34700e+02,2.32164e+01,-7.02765e+01,-2.06827e+00,7.02255e-01,2.39943e+00
7.34700e+02,2.11691e+01,-7.33320e+01,-2.00716e+00,6.94952e-01,2.34042e+00
7.34700e+02,1.88268e+01,-7.63875e+01,-1.92421e+00,6.88041e-01,2.26336e+00
7.34700e+02,1.60563e+01,-7.94430e+01,-1.80961e+00,6.81579e-01,2.16064e+00
7.34700e+02,1.25001e+01,-8.24985e+01,-1.63691e+00,6.75883e-01,2.01245e+00
7.34700e+02,7.69051e+00,-8.55540e+01,-1.37153e+00,6.72404e-01,1.79930e+00
7.34700e+02,-3.11614e+00,-8.86096e+01,-6.62702e-01,6.73786e-01,1.34206e+00
7.34700e+02,-3.89606e+00,-8.86166e+01,-6.05240e-01,6.78071e-01,1.32123e+00
7.34700e+02,-1.10017e+01,-8.54518e+01,1.36782e-02,6.86197e-01,1.18861e+00
7.34700e+02,-1.18620e+01,-8.22869e+01,1.70789e-01,6.92200e-01,1.21103e+00
7.34700e+02,-1.21589e+01,-7.91220e+01,2.86235e-01,6.98516e-01,1.24326e+00
7.34700e+02,-1.22039e+01,-7.59571e+01,3.83061e-01,7.05126e-01,1.27998e+00
7.34700e+02,-1.20592e+01,-7.27922e+01,4.65857e-01,7.11976e-01,1.31824e+00
7.34700e+02,-1.17955e+01,-6.96274e+01,5.39849e-01,7.19026e-01,1.35736e+00
7.34700e+02,-1.14122e+01,-6.64625e+01,6.05001e-01,7.26236e-01,1.39581e+00
7.34700e+02,-1.09560e+01,-6.32976e+01,6.64761e-01,7.33571e-01,1.43398e+00
7.34700e+02,-1.04575e+01,-6.01327e+01,7.21392e-01,7.41011e-01,1.47231e+00
7.34700e+02,-9.89525e+00,-5.69678e+01,7.73312e-01,7.48536e-01,1.50961e+00
7.34700e+02,-9.29319e+00,-5.38030e+01,8.22287e-01,7.56125e-01,1.54639e+00
7.34700e+02,-8.65235e+00,-5.06381e+01,8.68394e-01,7.63764e-01,1.58244e+00
7.34700e+02,-7.97287e+00,-4.74732e+01,9.11645e-01,7.71435e-01,1.61754e+00
7.34700e+02,-7.26917e+00,-4.43083e+01,9.53104e-01,7.79128e-01,1.65213e+00
7.34700e+02,-6.53444e+00,-4.11434e+01,9.92269e-01,7.86828e-01,1.68579e+00
7.34700e+02,-5.77984e+00,-3.79786e+01,1.02996e+00,7.94526e-01,1.71891e+00
7.34700e+02,-5.00742e+00,-3.48137e+01,1.06634e+00,8.02212e-01,1.75149e+00
7.34700e+02,-4.21911e+00,-3.16488e+01,1.10155e+00,8.09878e-01,1.78357e+00
7.34700e+02,-3.42406e+00,-2.84839e+01,1.13625e+00,8.17519e-01,1.81551e+00
7.34700e+02,-2.61857e+00,-2.53190e+01,1.17018e+00,8.25130e-01,1.84712e+00
7.34700e+02,-1.81134e+00,-2.21542e+01,1.20399e+00,8.32707e-01,1.87877e+00
7.34700e+02,-9.97887e-01,-1.89893e+01,1.23733e+00,8.40250e-01,1.91025e+00
7.34700e+02,-1.84513e-01,-1.58244e+01,1.27068e+00,8.47754e-01,1.94183e+00
7.34700e+02,6.25788e-01,-1.26595e+01,1.30426e+00,8.55221e-01,1.97365e+00
7.34700e+02,1.43609e+00,-9.49464e+00,1.33783e+00,8.62648e-01,2.00556e+00
7.34700e+02,2.22720e+00,-6.32976e+00,1.37283e+00,8.70039e-01,2.03852e+00
7.34700e+02,3.01474e+00,-3.16488e+00,1.40809e+00,8.77398e-01,2.07176e+00
8.33800e+02,3.98196e+01,0.00000e+00,-1.05374e+00,8.05834e-01,1.74885e+00
8.33800e+02,3.96190e+01,-3.02587e+00,-1.11776e+00,7.99450e-01,1.77954e+00
8.33800e+02,3.93522e+01,-6.05173e+00,-1.17761e+00,7.92909e-01,1.80911e+00
8.33800e+02,3.90828e+01,-9.07760e+00,-1.23729e+00,7.86221e-01,1.83992e+00
8.33800e+02,3.87549e+01,-1.21035e+01,-1.29328e+00,7.79396e-01,1.86948e+00
8.33800e+02,3.84134e+01,-1.51293e+01,-1.34841e+00,7.72445e-01,1.89954e+00
8.33800e+02,3.80270e+01,-1.81552e+01,-1.40072e+00,7.65378e-01,1.92858e+00
8.33800e+02,3.76188e+01,-2.11811e+01,-1.45165e+00,7.58205e-01,1.95753e+00
8.33800e+02,3.71745e+01,-2.42069e+01,-1.50031e+00,7.50935e-01,1.98561e+00
8.33800e+02,3.67006e+01,-2.72328e+01,-1.54711e+00,7.43579e-01,2.01302e+00
8.33800e+02,3.61941e+01,-3.02587e+01,-1.59184e+00,7.36145e-01,2.03953e+00
8.33800e+02,3.56482e+01,-3.32845e+01,-1.63409e+00,7.28644e-01,2.06471e+00
8.33800e+02,3.50619e+01,-3.63104e+01,-1.67380e+00,7.21085e-01,2.08842e+00
8.33800e+02,3.44183e+01,-3.93363e+01,-1.70990e+00,7.13481e-01,2.10972e+00
8.33800e+02,3.37191e+01,-4.23621e+01,-1.74248e+00,7.05847e-01,2.12859e+00
8.33800e+02,3.29532e+01,-4.53880e+01,-1.77087e+00,6.98195e-01,2.14439e+00
8.33800e+02,3.20971e+01,-4.84139e+01,-1.79357e+00,6.90550e-01,2.15580e+00
8.33800e+02,3.11783e+01,-5.14397e+01,-1.81232e+00,6.82920e-01,2.16417e+00
8.33800e+02,3.01182e+01,-5.44656e+01,-1.82216e+00,6.75344e-01,2.16530e+00
8.33800e+02,2.89995e+01,-5.74915e+01,-1.82831e+00,6.67841e-01,2.16350e+00
8.33800e+02,2.77178e+01,-6.05173e+01,-1.82418e+00,6.60429e-01,2.15317e+00
8.33800e+02,2.63054e+01,-6.35432e+01,-1.81181e+00,6.53171e-01,2.13602e+00
8.33800e+02,2.47599e+01,-6.65691e+01,-1.79106e+00,6.46078e-01,2.11191e+00
8.33800e+02,2.29912e+01,-6.95949e+01,-1.75624e+00,6.39177e-01,2.07606e+00
8.33800e+02,2.09638e+01,-7.26208e+01,-1.70511e+00,6.32552e-01,2.02676e+00
8.33800e+02,1.86442e+01,-7.56467e+01,-1.63556e+00,6.26282e-01,1.96258e+00
8.33800e+02,1.59005e+01,-7.86725e+01,-1.53928e+00,6.20419e-01,1.87727e+00
8.33800e+02,1.23789e+01,-8.16984e+01,-1.39396e+00,6.15251e-01,1.75463e+00
8.33800e+02,7.61592e+00,-8.47243e+01,-1.17040e+00,6.12096e-01,1.57919e+00
8.33800e+02,-3.08591e+00,-8.77501e+01,-5.72498e-01,6.13349e-01,1.20679e+00
8.33800e+02,-3.85827e+00,-8.77572e+01,-5.23992e-01,6.17237e-01,1.19059e+00
8.33800e+02,-1.08950e+01,-8.46230e+01,-1.04150e-03,6.24609e-01,1.08186e+00
8.33800e+02,-1.17470e+01,-8.14888e+01,1.32068e-01,6.30056e-01,1.09925e+00
8.33800e+02,-1.20409e+01,-7.83546e+01,2.30006e-01,6.35786e-01,1.12498e+00
8.33800e+02,-1.20856e+01,-7.52204e+01,3.12225e-01,6.41783e-01,1.15462e+00
8.33800e+02,-1.19423e+01,-7.20862e+01,3.82601e-01,6.47997e-01,1.18578e+00
8.33800e+02,-1.16811e+01,-6.89521e+01,4.45545e-01,6.54394e-01,1.21787e+00
8.33800e+02,-1.13015e+01,-6.58179e+01,5.01026e-01,6.60936e-01,1.24961e+00
8.33800e+02,-1.08497e+01,-6.26837e+01,5.51955e-01,6.67590e-01,1.28128e+00
8.33800e+02,-1.03561e+01,-5.95495e+01,6.00244e-01,6.74340e-01,1.31320e+00
8.33800e+02,-9.79928e+00,-5.64153e+01,6.44555e-01,6.81167e-01,1.34440e+00
8.33800e+02,-9.20306e+00,-5.32811e+01,6.86381e-01,6.88052e-01,1.37527e+00
8.33800e+02,-8.56843e+00,-5.01469e+01,7.25785e-01,6.94982e-01,1.40562e+00
8.33800e+02,-7.89554e+00,-4.70128e+01,7.62778e-01,7.01943e-01,1.43527e+00
8.33800e+02,-7.19866e+00,-4.38786e+01,7.98259e-01,7.08921e-01,1.46456e+00
8.33800e+02,-6.47106e+00,-4.07444e+01,8.31803e-01,7.15908e-01,1.49314e+00
8.33800e+02,-5.72378e+00,-3.76102e+01,8.64106e-01,7.22891e-01,1.52131e+00
8.33800e+02,-4.95886e+00,-3.44760e+01,8.95298e-01,7.29865e-01,1.54909e+00
8.33800e+02,-4.17819e+00,-3.13418e+01,9.25497e-01,7.36820e-01,1.57647e+00
8.33800e+02,-3.39085e+00,-2.82077e+01,9.55275e-01,7.43752e-01,1.60376e+00
8.33800e+02,-2.59317e+00,-2.50735e+01,9.84403e-01,7.50656e-01,1.63080e+00
8.33800e+02,-1.79378e+00,-2.19393e+01,1.01342e+00,7.57531e-01,1.65788e+00
8.33800e+02,-9.88209e-01,-1.88051e+01,1.04205e+00,7.64374e-01,1.68484e+00
8.33800e+02,-1.82723e-01,-1.56709e+01,1.07069e+00,7.71182e-01,1.71188e+00
8.33800e+02,6.19718e-01,-1.25367e+01,1.09951e+00,7.77956e-01,1.73913e+00
8.33800e+02,1.42216e+00,-9.40255e+00,1.12834e+00,7.84694e-01,1.76646e+00
8.33800e+02,2.20560e+00,-6.26837e+00,1.15836e+00,7.91399e-01,1.79464e+00
8.33800e+02,2.98550e+00,-3.13418e+00,1.18861e+00,7.98076e-01,1.82307e+00
9.30700e+02,3.94382e+01,0.00000e+00,-8.78749e-01,7.26869e-01,1.53532e+00
9.30700e+02,3.92396e+01,-2.99689e+00,-9.32570e-01,7.21115e-01,1.55875e+00
9.30700e+02,3.89754e+01,-5.99378e+00,-9.82907e-01,7.15221e-01,1.58137e+00
9.30700e+02,3.87085e+01,-8.99067e+00,-1.03310e+00,7.09194e-01,1.60505e+00
9.30700e+02,3.83837e+01,-1.19876e+01,-1.08023e+00,7.03043e-01,1.62779e+00
9.30700e+02,3.80455e+01,-1.49844e+01,-1.12663e+00,6.96779e-01,1.65100e+00
9.30700e+02,3.76628e+01,-1.79813e+01,-1.17068e+00,6.90410e-01,1.67347e+00
9.30700e+02,3.72585e+01,-2.09782e+01,-1.21358e+00,6.83946e-01,1.69592e+00
9.30700e+02,3.68185e+01,-2.39751e+01,-1.25459e+00,6.77395e-01,1.71772e+00
9.30700e+02,3.63492e+01,-2.69720e+01,-1.29403e+00,6.70765e-01,1.73905e+00
9.30700e+02,3.58475e+01,-2.99689e+01,-1.33176e+00,6.64066e-01,1.75970e+00
9.30700e+02,3.53068e+01,-3.29658e+01,-1.36742e+00,6.57306e-01,1.77932e+00
9.30700e+02,3.47261e+01,-3.59627e+01,-1.40095e+00,6.50494e-01,1.79780e+00
9.30700e+02,3.40887e+01,-3.89596e+01,-1.43148e+00,6.43641e-01,1.81437e+00
9.30700e+02,3.33962e+01,-4.19565e+01,-1.45907e+00,6.36762e-01,1.82901e+00
9.30700e+02,3.26376e+01,-4.49533e+01,-1.48316e+00,6.29866e-01,1.84119e+00
9.30700e+02,3.17897e+01,-4.79502e+01,-1.50251e+00,6.22977e-01,1.84982e+00
9.30700e+02,3.08797e+01,-5.09471e+01,-1.51855e+00,6.16101e-01,1.85600e+00
9.30700e+02,2.98297e+01,-5.39440e+01,-1.52717e+00,6.09274e-01,1.85631e+00
9.30700e+02,2.87218e+01,-5.69409e+01,-1.53271e+00,6.02512e-01,1.85426e+00
9.30700e+02,2.74524e+01,-5.99378e+01,-1.52967e+00,5.95832e-01,1.84525e+00
9.30700e+02,2.60534e+01,-6.29347e+01,-1.51976e+00,5.89291e-01,1.83070e+00
9.30700e+02,2.45228e+01,-6.59316e+01,-1.50285e+00,5.82899e-01,1.81049e+00
9.30700e+02,2.27710e+01,-6.89285e+01,-1.47420e+00,5.76681e-01,1.78072e+00
9.30700e+02,2.07631e+01,-7.19254e+01,-1.43196e+00,5.70710e-01,1.74001e+00
9.30700e+02,1.84656e+01,-7.49222e+01,-1.37433e+00,5.65060e-01,1.68721e+00
9.30700e+02,1.57483e+01,-7.79191e+01,-1.29441e+00,5.59777e-01,1.61727e+00
9.30700e+02,1.22603e+01,-8.09160e+01,-1.17358e+00,5.55120e-01,1.51716e+00
9.30700e+02,7.54299e+00,-8.39129e+01,-9.87467e-01,5.52276e-01,1.37482e+00
9.30700e+02,-3.05636e+00,-8.69098e+01,-4.89032e-01,5.53406e-01,1.07607e+00
9.30700e+02,-3.82132e+00,-8.69168e+01,-4.48563e-01,5.56909e-01,1.06379e+00
9.30700e+02,-1.07906e+01,-8.38126e+01,-1.18357e-02,5.63553e-01,9.76175e-01
9.30700e+02,-1.16345e+01,-8.07084e+01,9.96408e-02,5.68461e-01,9.89633e-01
9.30700e+02,-1.19256e+01,-7.76042e+01,1.81773e-01,5.73626e-01,1.01004e+00
9.30700e+02,-1.19698e+01,-7.45001e+01,2.50791e-01,5.79030e-01,1.03379e+00
9.30700e+02,-1.18279e+01,-7.13959e+01,3.09928e-01,5.84630e-01,1.05898e+00
9.30700e+02,-1.15692e+01,-6.82917e+01,3.62864e-01,5.90395e-01,1.08507e+00
9.30700e+02,-1.11933e+01,-6.51876e+01,4.09574e-01,5.96290e-01,1.11105e+00
9.30700e+02,-1.07458e+01,-6.20834e+01,4.52486e-01,6.02286e-01,1.13710e+00
9.30700e+02,-1.02569e+01,-5.89792e+01,4.93196e-01,6.08369e-01,1.16344e+00
9.30700e+02,-9.70544e+00,-5.58751e+01,5.30586e-01,6.14522e-01,1.18930e+00
9.30700e+02,-9.11493e+00,-5.27709e+01,5.65903e-01,6.20727e-01,1.21497e+00
9.30700e+02,-8.48637e+00,-4.96667e+01,5.99200e-01,6.26972e-01,1.24029e+00
9.30700e+02,-7.81993e+00,-4.65625e+01,6.30484e-01,6.33244e-01,1.26511e+00
9.30700e+02,-7.12973e+00,-4.34584e+01,6.60508e-01,6.39533e-01,1.28968e+00
9.30700e+02,-6.40909e+00,-4.03542e+01,6.88915e-01,6.45829e-01,1.31373e+00
9.30700e+02,-5.66897e+00,-3.72500e+01,7.16288e-01,6.52123e-01,1.33748e+00
9.30700e+02,-4.91137e+00,-3.41459e+01,7.42733e-01,6.58407e-01,1.36094e+00
9.30700e+02,-4.13818e+00,-3.10417e+01,7.68349e-01,6.64674e-01,1.38410e+00
9.30700e+02,-3.35837e+00,-2.79375e+01,7.93615e-01,6.70921e-01,1.40721e+00
9.30700e+02,-2.56834e+00,-2.48334e+01,8.18337e-01,6.77143e-01,1.43012e+00
9.30700e+02,-1.77660e+00,-2.17292e+01,8.42969e-01,6.83338e-01,1.45308e+00
9.30700e+02,-9.78745e-01,-1.86250e+01,8.67276e-01,6.89505e-01,1.47595e+00
9.30700e+02,-1.80973e-01,-1.55208e+01,8.91588e-01,6.95640e-01,1.49889e+00
9.30700e+02,6.13784e-01,-1.24167e+01,9.16060e-01,7.01745e-01,1.52201e+00
9.30700e+02,1.40854e+00,-9.31251e+00,9.40531e-01,7.07817e-01,1.54519e+00
9.30700e+02,2.18448e+00,-6.20834e+00,9.66002e-01,7.13859e-01,1.56906e+00
9.30700e+02,2.95691e+00,-3.10417e+00,9.91659e-01,7.19876e-01,1.59313e+00
1.02500e+03,3.90671e+01,0.00000e+00,-7.23519e-01,6.49601e-01,1.33769e+00
1.02500e+03,3.88704e+01,-2.96869e+00,-7.68208e-01,6.44447e-01,1.35502e+00
1.02500e+03,3.86086e+01,-5.93738e+00,-8.10026e-01,6.39167e-01,1.37177e+00
1.02500e+03,3.83443e+01,-8.90607e+00,-8.51730e-01,6.33767e-01,1.38940e+00
1.02500e+03,3.80226e+01,-1.18748e+01,-8.90900e-01,6.28258e-01,1.40635e+00
1.02500e+03,3.76875e+01,-1.48435e+01,-9.29481e-01,6.22647e-01,1.42373e+00
1.02500e+03,3.73084e+01,-1.78121e+01,-9.66118e-01,6.16942e-01,1.44057e+00
1.02500e+03,3.69079e+01,-2.07808e+01,-1.00181e+00,6.11151e-01,1.45744e+00
1.02500e+03,3.64721e+01,-2.37495e+01,-1.03594e+00,6.05283e-01,1.47386e+00
1.02500e+03,3.60071e+01,-2.67182e+01,-1.06879e+00,5.99344e-01,1.48995e+00
1.02500e+03,3.55102e+01,-2.96869e+01,-1.10022e+00,5.93343e-01,1.50554e+00
1.02500e+03,3.49746e+01,-3.26556e+01,-1.12995e+00,5.87288e-01,1.52036e+00
1.02500e+03,3.43994e+01,-3.56243e+01,-1.15792e+00,5.81186e-01,1.53431e+00
1.02500e+03,3.37680e+01,-3.85930e+01,-1.18342e+00,5.75048e-01,1.54678e+00
1.02500e+03,3.30819e+01,-4.15617e+01,-1.20650e+00,5.68885e-01,1.55774e+00
1.02500e+03,3.23305e+01,-4.45304e+01,-1.22670e+00,5.62708e-01,1.56675e+00
1.02500e+03,3.14906e+01,-4.74990e+01,-1.24299e+00,5.56537e-01,1.57297e+00
1.02500e+03,3.05891e+01,-5.04677e+01,-1.25656e+00,5.50378e-01,1.57724e+00
1.02500e+03,2.95491e+01,-5.34364e+01,-1.26401e+00,5.44263e-01,1.57683e+00
1.02500e+03,2.84516e+01,-5.64051e+01,-1.26892e+00,5.38206e-01,1.57454e+00
1.02500e+03,2.71940e+01,-5.93738e+01,-1.26677e+00,5.32222e-01,1.56668e+00
1.02500e+03,2.58083e+01,-6.23425e+01,-1.25896e+00,5.26363e-01,1.55440e+00
1.02500e+03,2.42920e+01,-6.53112e+01,-1.24538e+00,5.20638e-01,1.53759e+00
1.02500e+03,2.25567e+01,-6.82799e+01,-1.22214e+00,5.15067e-01,1.51311e+00
1.02500e+03,2.05677e+01,-7.12486e+01,-1.18768e+00,5.09719e-01,1.47988e+00
1.02500e+03,1.82919e+01,-7.42173e+01,-1.14057e+00,5.04658e-01,1.43699e+00
1.02500e+03,1.56001e+01,-7.71859e+01,-1.07509e+00,4.99926e-01,1.38043e+00
1.02500e+03,1.21450e+01,-8.01546e+01,-9.75898e-01,4.95754e-01,1.29988e+00
1.02500e+03,7.47201e+00,-8.31233e+01,-8.22935e-01,4.93207e-01,1.18616e+00
1.02500e+03,-3.02760e+00,-8.60920e+01,-4.12690e-01,4.94219e-01,9.50300e-01
1.02500e+03,-3.78536e+00,-8.60989e+01,-3.79354e-01,4.97358e-01,9.41277e-01
1.02500e+03,-1.06891e+01,-8.30239e+01,-1.92245e-02,5.03309e-01,8.71969e-01
1.02500e+03,-1.15250e+01,-7.99490e+01,7.29714e-02,5.07706e-01,8.82394e-01
1.02500e+03,-1.18134e+01,-7.68740e+01,1.40995e-01,5.12332e-01,8.98516e-01
1.02500e+03,-1.18572e+01,-7.37991e+01,1.98214e-01,5.17172e-01,9.17437e-01
1.02500e+03,-1.17166e+01,-7.07241e+01,2.47294e-01,5.22189e-01,9.37656e-01
1.02500e+03,-1.14604e+01,-6.76491e+01,2.91266e-01,5.27353e-01,9.58717e-01
1.02500e+03,-1.10880e+01,-6.45742e+01,3.30109e-01,5.32633e-01,9.79830e-01
1.02500e+03,-1.06447e+01,-6.14992e+01,3.65824e-01,5.38005e-01,1.00109e+00
1.02500e+03,-1.01604e+01,-5.84243e+01,3.99724e-01,5.43454e-01,1.02265e+00
1.02500e+03,-9.61411e+00,-5.53493e+01,4.30890e-01,5.48964e-01,1.04391e+00
1.02500e+03,-9.02916e+00,-5.22743e+01,4.60347e-01,5.54522e-01,1.06508e+00
1.02500e+03,-8.40652e+00,-4.91994e+01,4.88141e-01,5.60117e-01,1.08604e+00
1.02500e+03,-7.74634e+00,-4.61244e+01,5.14277e-01,5.65735e-01,1.10664e+00
1.02500e+03,-7.06264e+00,-4.30495e+01,5.39374e-01,5.71369e-01,1.12708e+00
1.02500e+03,-6.34878e+00,-3.99745e+01,5.63140e-01,5.77008e-01,1.14715e+00
1.02500e+03,-5.61563e+00,-3.68995e+01,5.86054e-01,5.82646e-01,1.16700e+00
1.02500e+03,-4.86516e+00,-3.38246e+01,6.08203e-01,5.88274e-01,1.18664e+00
1.02500e+03,-4.09924e+00,-3.07496e+01,6.29670e-01,5.93889e-01,1.20607e+00
1.02500e+03,-3.32677e+00,-2.76746e+01,6.50847e-01,5.99484e-01,1.22546e+00
1.02500e+03,-2.54417e+00,-2.45997e+01,6.71578e-01,6.05058e-01,1.24471e+00
1.02500e+03,-1.75988e+00,-2.15247e+01,6.92233e-01,6.10607e-01,1.26401e+00
1.02500e+03,-9.69535e-01,-1.84498e+01,7.12622e-01,6.16130e-01,1.28323e+00
1.02500e+03,-1.79270e-01,-1.53748e+01,7.33014e-01,6.21626e-01,1.30252e+00
1.02500e+03,6.08008e-01,-1.22998e+01,7.53537e-01,6.27094e-01,1.32195e+00
1.02500e+03,1.39529e+00,-9.22488e+00,7.74061e-01,6.32533e-01,1.34144e+00
1.02500e+03,2.16392e+00,-6.14992e+00,7.95408e-01,6.37945e-01,1.36147e+00
1.02500e+03,2.92908e+00,-3.07496e+00,8.16908e-01,6.43334e-01,1.38166e+00
1.11650e+03,3.87070e+01,0.00000e+00,-5.87309e-01,5.73972e-01,1.15467e+00
1.11650e+03,3.85121e+01,-2.94133e+00,-6.23907e-01,5.69398e-01,1.16701e+00
1.11650e+03,3.82528e+01,-5.88266e+00,-6.58175e-01,5.64713e-01,1.17894e+00
1.11650e+03,3.79909e+01,-8.82398e+00,-6.92349e-01,5.59922e-01,1.19159e+00
1.11650e+03,3.76721e+01,-1.17653e+01,-7.24465e-01,5.55034e-01,1.20376e+00
1.11650e+03,3.73401e+01,-1.47066e+01,-7.56104e-01,5.50055e-01,1.21629e+00
1.11650e+03,3.69645e+01,-1.76480e+01,-7.86163e-01,5.44992e-01,1.22846e+00
1.11650e+03,3.65678e+01,-2.05893e+01,-8.15455e-01,5.39854e-01,1.24068e+00
1.11650e+03,3.61359e+01,-2.35306e+01,-8.43478e-01,5.34647e-01,1.25260e+00
1.11650e+03,3.56753e+01,-2.64720e+01,-8.70459e-01,5.29378e-01,1.26429e+00
1.11650e+03,3.51829e+01,-2.94133e+01,-8.96292e-01,5.24053e-01,1.27563e+00
1.11650e+03,3.46522e+01,-3.23546e+01,-9.20738e-01,5.18680e-01,1.28641e+00
1.11650e+03,3.40823e+01,-3.52959e+01,-9.43762e-01,5.13265e-01,1.29654e+00
1.11650e+03,3.34567e+01,-3.82373e+01,-9.64773e-01,5.07819e-01,1.30554e+00
1.11650e+03,3.27770e+01,-4.11786e+01,-9.83824e-01,5.02351e-01,1.31338e+00
1.11650e+03,3.20325e+01,-4.41199e+01,-1.00053e+00,4.96869e-01,1.31973e+00
1.11650e+03,3.12004e+01,-4.70612e+01,-1.01406e+00,4.91394e-01,1.32391e+00
1.11650e+03,3.03072e+01,-5.00026e+01,-1.02539e+00,4.85929e-01,1.32657e+00
1.11650e+03,2.92767e+01,-5.29439e+01,-1.03174e+00,4.80502e-01,1.32557e+00
1.11650e+03,2.81893e+01,-5.58852e+01,-1.03603e+00,4.75128e-01,1.32311e+00
1.11650e+03,2.69434e+01,-5.88266e+01,-1.03459e+00,4.69819e-01,1.31627e+00
1.11650e+03,2.55704e+01,-6.17679e+01,-1.02855e+00,4.64620e-01,1.30596e+00
1.11650e+03,2.40681e+01,-6.47092e+01,-1.01782e+00,4.59539e-01,1.29209e+00
1.11650e+03,2.23488e+01,-6.76505e+01,-9.99243e-01,4.54597e-01,1.27219e+00
1.11650e+03,2.03781e+01,-7.05919e+01,-9.71563e-01,4.49851e-01,1.24540e+00
1.11650e+03,1.81233e+01,-7.35332e+01,-9.33598e-01,4.45360e-01,1.21105e+00
1.11650e+03,1.54563e+01,-7.64745e+01,-8.80715e-01,4.41162e-01,1.16599e+00
1.11650e+03,1.20330e+01,-7.94159e+01,-8.00455e-01,4.37460e-01,1.10220e+00
1.11650e+03,7.40314e+00,-8.23572e+01,-6.76521e-01,4.35200e-01,1.01286e+00
1.11650e+03,-2.99970e+00,-8.52985e+01,-3.43619e-01,4.36098e-01,8.29831e-01
1.11650e+03,-3.75047e+00,-8.53053e+01,-3.16544e-01,4.38883e-01,8.23442e-01
1.11650e+03,-1.05906e+01,-8.22587e+01,-2.37313e-02,4.44164e-01,7.69681e-01
1.11650e+03,-1.14188e+01,-7.92121e+01,5.14640e-02,4.48066e-01,7.77777e-01
1.11650e+03,-1.17045e+01,-7.61655e+01,1.07026e-01,4.52171e-01,7.90461e-01
1.11650e+03,-1.17479e+01,-7.31189e+01,1.53813e-01,4.56466e-01,8.05445e-01
1.11650e+03,-1.16086e+01,-7.00722e+01,1.93990e-01,4.60917e-01,8.21563e-01
1.11650e+03,-1.13547e+01,-6.70256e+01,2.30017e-01,4.65499e-01,8.38436e-01
1.11650e+03,-1.09858e+01,-6.39790e+01,2.61879e-01,4.70184e-01,8.55454e-01
1.11650e+03,-1.05466e+01,-6.09324e+01,2.91200e-01,4.74951e-01,8.72658e-01
1.11650e+03,-1.00667e+01,-5.78858e+01,3.19047e-01,4.79785e-01,8.90153e-01
1.11650e+03,-9.52550e+00,-5.48391e+01,3.44673e-01,4.84675e-01,9.07486e-01
1.11650e+03,-8.94594e+00,-5.17925e+01,3.68912e-01,4.89607e-01,9.24792e-01
1.11650e+03,-8.32904e+00,-4.87459e+01,3.91799e-01,4.94571e-01,9.41970e-01
1.11650e+03,-7.67495e+00,-4.56993e+01,4.13340e-01,4.99556e-01,9.58916e-01
1.11650e+03,-6.99754e+00,-4.26527e+01,4.34038e-01,5.04555e-01,9.75764e-01
1.11650e+03,-6.29027e+00,-3.96060e+01,4.53654e-01,5.09559e-01,9.92347e-01
1.11650e+03,-5.56387e+00,-3.65594e+01,4.72577e-01,5.14561e-01,1.00879e+00
1.11650e+03,-4.82031e+00,-3.35128e+01,4.90880e-01,5.19556e-01,1.02507e+00
1.11650e+03,-4.06146e+00,-3.04662e+01,5.08629e-01,5.24537e-01,1.04121e+00
1.11650e+03,-3.29611e+00,-2.74196e+01,5.26143e-01,5.29502e-01,1.05733e+00
1.11650e+03,-2.52072e+00,-2.43730e+01,5.43293e-01,5.34447e-01,1.07334e+00
1.11650e+03,-1.74366e+00,-2.13263e+01,5.60383e-01,5.39371e-01,1.08940e+00
1.11650e+03,-9.60599e-01,-1.82797e+01,5.77256e-01,5.44272e-01,1.10541e+00
1.11650e+03,-1.77618e-01,-1.52331e+01,5.94131e-01,5.49148e-01,1.12146e+00
1.11650e+03,6.02404e-01,-1.21865e+01,6.11114e-01,5.54000e-01,1.13763e+00
1.11650e+03,1.38243e+00,-9.13986e+00,6.28097e-01,5.58826e-01,1.15385e+00
1.11650e+03,2.14398e+00,-6.09324e+00,6.45748e-01,5.63628e-01,1.17048e+00
1.11650e+03,2.90209e+00,-3.04662e+00,6.63524e-01,5.68410e-01,1.18724e+00
1.20500e+03,3.76912e+01,0.00000e+00,-6.67462e-01,5.51277e-01,1.16500e+00
1.20500e+03,3.75014e+01,-2.86413e+00,-7.04295e-01,5.45630e-01,1.17863e+00
1.20500e+03,3.72488e+01,-5.72827e+00,-7.38465e-01,5.39846e-01,1.19148e+00
1.20500e+03,3.69938e+01,-8.59240e+00,-7.72528e-01,5.33929e-01,1.20501e+00
1.20500e+03,3.66834e+01,-1.14565e+01,-8.04239e-01,5.27891e-01,1.21771e+00
1.20500e+03,3.63602e+01,-1.43207e+01,-8.35404e-01,5.21741e-01,1.23067e+00
1.20500e+03,3.59944e+01,-1.71848e+01,-8.64763e-01,5.15489e-01,1.24298e+00
1.20500e+03,3.56080e+01,-2.00489e+01,-8.93246e-01,5.09142e-01,1.25521e+00
1.20500e+03,3.51875e+01,-2.29131e+01,-9.20279e-01,5.02709e-01,1.26691e+00
1.20500e+03,3.47390e+01,-2.57772e+01,-9.46119e-01,4.96199e-01,1.27819e+00
1.20500e+03,3.42596e+01,-2.86413e+01,-9.70649e-01,4.89620e-01,1.28893e+00
1.20500e+03,3.37428e+01,-3.15055e+01,-9.93593e-01,4.82981e-01,1.29886e+00
1.20500e+03,3.31878e+01,-3.43696e+01,-1.01491e+00,4.76290e-01,1.30790e+00
1.20500e+03,3.25787e+01,-3.72337e+01,-1.03393e+00,4.69560e-01,1.31547e+00
1.20500e+03,3.19168e+01,-4.00979e+01,-1.05071e+00,4.62802e-01,1.32157e+00
1.20500e+03,3.11919e+01,-4.29620e+01,-1.06481e+00,4.56028e-01,1.32578e+00
1.20500e+03,3.03815e+01,-4.58261e+01,-1.07528e+00,4.49261e-01,1.32730e+00
1.20500e+03,2.95118e+01,-4.86903e+01,-1.08322e+00,4.42506e-01,1.32695e+00
1.20500e+03,2.85084e+01,-5.15544e+01,-1.08549e+00,4.35798e-01,1.32214e+00
1.20500e+03,2.74495e+01,-5.44186e+01,-1.08540e+00,4.29155e-01,1.31553e+00
1.20500e+03,2.62363e+01,-5.72827e+01,-1.07875e+00,4.22592e-01,1.30363e+00
1.20500e+03,2.48993e+01,-6.01468e+01,-1.06685e+00,4.16164e-01,1.28753e+00
1.20500e+03,2.34365e+01,-6.30110e+01,-1.04960e+00,4.09883e-01,1.26715e+00
1.20500e+03,2.17623e+01,-6.58751e+01,-1.02336e+00,4.03772e-01,1.23950e+00
1.20500e+03,1.98433e+01,-6.87392e+01,-9.86732e-01,3.97904e-01,1.20359e+00
1.20500e+03,1.76476e+01,-7.16034e+01,-9.38343e-01,3.92350e-01,1.15858e+00
1.20500e+03,1.50506e+01,-7.44675e+01,-8.72904e-01,3.87156e-01,1.10074e+00
1.20500e+03,1.17172e+01,-7.73316e+01,-7.76176e-01,3.82577e-01,1.02056e+00
1.20500e+03,7.20885e+00,-8.01958e+01,-6.29529e-01,3.79776e-01,9.10492e-01
1.20500e+03,-2.92097e+00,-8.30599e+01,-2.44045e-01,3.80880e-01,7.03397e-01
1.20500e+03,-3.65204e+00,-8.30665e+01,-2.13088e-01,3.84320e-01,6.98936e-01
1.20500e+03,-1.03126e+01,-8.00999e+01,1.16405e-01,3.90844e-01,6.86896e-01
1.20500e+03,-1.11191e+01,-7.71332e+01,1.97174e-01,3.95664e-01,7.13111e-01
1.20500e+03,-1.13974e+01,-7.41666e+01,2.55503e-01,4.00737e-01,7.39630e-01
1.20500e+03,-1.14396e+01,-7.11999e+01,3.03803e-01,4.06045e-01,7.66104e-01
1.20500e+03,-1.13040e+01,-6.82332e+01,3.44547e-01,4.11548e-01,7.91724e-01
1.20500e+03,-1.10567e+01,-6.52666e+01,3.80549e-01,4.17211e-01,8.16709e-01
1.20500e+03,-1.06975e+01,-6.22999e+01,4.11790e-01,4.23003e-01,8.40456e-01
1.20500e+03,-1.02698e+01,-5.93332e+01,4.40127e-01,4.28896e-01,8.63462e-01
1.20500e+03,-9.80253e+00,-5.63666e+01,4.66779e-01,4.34873e-01,8.86131e-01
1.20500e+03,-9.27551e+00,-5.33999e+01,4.90894e-01,4.40920e-01,9.07858e-01
1.20500e+03,-8.71115e+00,-5.04333e+01,5.13422e-01,4.47018e-01,9.29019e-01
1.20500e+03,-8.11045e+00,-4.74666e+01,5.34406e-01,4.53156e-01,9.49548e-01
1.20500e+03,-7.47352e+00,-4.44999e+01,5.53851e-01,4.59321e-01,9.69371e-01
1.20500e+03,-6.81389e+00,-4.15333e+01,5.72332e-01,4.65503e-01,9.88759e-01
1.20500e+03,-6.12518e+00,-3.85666e+01,5.89577e-01,4.71693e-01,1.00751e+00
1.20500e+03,-5.41785e+00,-3.55999e+01,6.06030e-01,4.77880e-01,1.02586e+00
1.20500e+03,-4.69381e+00,-3.26333e+01,6.21774e-01,4.84058e-01,1.04381e+00
1.20500e+03,-3.95486e+00,-2.96666e+01,6.36885e-01,4.90220e-01,1.06140e+00
1.20500e+03,-3.20961e+00,-2.67000e+01,6.51727e-01,4.96363e-01,1.07883e+00
1.20500e+03,-2.45457e+00,-2.37333e+01,6.66154e-01,5.02482e-01,1.09600e+00
1.20500e+03,-1.69790e+00,-2.07666e+01,6.80511e-01,5.08574e-01,1.11312e+00
1.20500e+03,-9.35389e-01,-1.78000e+01,6.94621e-01,5.14639e-01,1.13007e+00
1.20500e+03,-1.72956e-01,-1.48333e+01,7.08733e-01,5.20673e-01,1.14700e+00
1.20500e+03,5.86594e-01,-1.18666e+01,7.22968e-01,5.26678e-01,1.16398e+00
1.20500e+03,1.34615e+00,-8.89999e+00,7.37204e-01,5.32650e-01,1.18094e+00
1.20500e+03,2.08771e+00,-5.93332e+00,7.52203e-01,5.38595e-01,1.19836e+00
1.20500e+03,2.82592e+00,-2.96666e+00,7.67345e-01,5.44514e-01,1.21586e+00
1.29010e+03,3.63234e+01,0.00000e+00,-5.42501e-01,4.98574e-01,1.01982e+00
1.29010e+03,3.61405e+01,-2.76019e+00,-5.72944e-01,4.93620e-01,1.02920e+00
1.29010e+03,3.58971e+01,-5.52039e+00,-6.01221e-01,4.88545e-01,1.03802e+00
1.29010e+03,3.56513e+01,-8.28058e+00,-6.29411e-01,4.83354e-01,1.04740e+00
1.29010e+03,3.53522e+01,-1.10408e+01,-6.55689e-01,4.78058e-01,1.05619e+00
1.29010e+03,3.50407e+01,-1.38010e+01,-6.81523e-01,4.72663e-01,1.06522e+00
1.29010e+03,3.46882e+01,-1.65612e+01,-7.05888e-01,4.67177e-01,1.07380e+00
1.29010e+03,3.43158e+01,-1.93214e+01,-7.29542e-01,4.61610e-01,1.08235e+00
1.29010e+03,3.39106e+01,-2.20816e+01,-7.52016e-01,4.55966e-01,1.09052e+00
1.29010e+03,3.34783e+01,-2.48418e+01,-7.73521e-01,4.50256e-01,1.09842e+00
1.29010e+03,3.30163e+01,-2.76019e+01,-7.93960e-01,4.44484e-01,1.10593e+00
1.29010e+03,3.25183e+01,-3.03621e+01,-8.13110e-01,4.38661e-01,1.11284e+00
1.29010e+03,3.19834e+01,-3.31223e+01,-8.30938e-01,4.32792e-01,1.11910e+00
1.29010e+03,3.13964e+01,-3.58825e+01,-8.46896e-01,4.26888e-01,1.12425e+00
1.29010e+03,3.07585e+01,-3.86427e+01,-8.61033e-01,4.20960e-01,1.12827e+00
1.29010e+03,3.00599e+01,-4.14029e+01,-8.72991e-01,4.15018e-01,1.13085e+00
1.29010e+03,2.92790e+01,-4.41631e+01,-8.81999e-01,4.09082e-01,1.13136e+00
1.29010e+03,2.84408e+01,-4.69233e+01,-8.88955e-01,4.03156e-01,1.13042e+00
1.29010e+03,2.74738e+01,-4.96835e+01,-8.91293e-01,3.97273e-01,1.12600e+00
1.29010e+03,2.64534e+01,-5.24437e+01,-8.91717e-01,3.91445e-01,1.12020e+00
1.29010e+03,2.52842e+01,-5.52039e+01,-8.86808e-01,3.85689e-01,1.11027e+00
1.29010e+03,2.39957e+01,-5.79641e+01,-8.77625e-01,3.80051e-01,1.09706e+00
1.29010e+03,2.25860e+01,-6.07243e+01,-8.64093e-01,3.74541e-01,1.08051e+00
1.29010e+03,2.09725e+01,-6.34845e+01,-8.43261e-01,3.69181e-01,1.05829e+00
1.29010e+03,1.91232e+01,-6.62447e+01,-8.13973e-01,3.64034e-01,1.02962e+00
1.29010e+03,1.70072e+01,-6.90049e+01,-7.75126e-01,3.59162e-01,9.93888e-01
1.29010e+03,1.45045e+01,-7.17651e+01,-7.22418e-01,3.54607e-01,9.48222e-01
1.29010e+03,1.12920e+01,-7.45253e+01,-6.44270e-01,3.50590e-01,8.85338e-01
1.29010e+03,6.94724e+00,-7.72855e+01,-5.25536e-01,3.48134e-01,7.99862e-01
1.29010e+03,-2.81497e+00,-8.00457e+01,-2.12617e-01,3.49104e-01,6.40958e-01
1.29010e+03,-3.51951e+00,-8.00521e+01,-1.87450e-01,3.52121e-01,6.38048e-01
1.29010e+03,-9.93839e+00,-7.71931e+01,8.09541e-02,3.57844e-01,6.25069e-01
1.29010e+03,-1.07156e+01,-7.43341e+01,1.47136e-01,3.62073e-01,6.44158e-01
1.29010e+03,-1.09838e+01,-7.14751e+01,1.95073e-01,3.66523e-01,6.64131e-01
1.29010e+03,-1.10244e+01,-6.86160e+01,2.34856e-01,3.71179e-01,6.84456e-01
1.29010e+03,-1.08937e+01,-6.57570e+01,2.68495e-01,3.76006e-01,7.04437e-01
1.29010e+03,-1.06555e+01,-6.28980e+01,2.98280e-01,3.80974e-01,7.24151e-01
1.29010e+03,-1.03093e+01,-6.00390e+01,3.24193e-01,3.86055e-01,7.43112e-01
1.29010e+03,-9.89713e+00,-5.71800e+01,3.47746e-01,3.91223e-01,7.61639e-01
1.29010e+03,-9.44680e+00,-5.43210e+01,3.69928e-01,3.96467e-01,7.80003e-01
1.29010e+03,-8.93890e+00,-5.14620e+01,3.90047e-01,4.01770e-01,7.97743e-01
1.29010e+03,-8.39503e+00,-4.86030e+01,4.08877e-01,4.07119e-01,8.15119e-01
1.29010e+03,-7.81612e+00,-4.57440e+01,4.26451e-01,4.12503e-01,8.32068e-01
1.29010e+03,-7.20231e+00,-4.28850e+01,4.42774e-01,4.17911e-01,8.48527e-01
1.29010e+03,-6.56662e+00,-4.00260e+01,4.58313e-01,4.23333e-01,8.64687e-01
1.29010e+03,-5.90290e+00,-3.71670e+01,4.72847e-01,4.28762e-01,8.80395e-01
1.29010e+03,-5.22123e+00,-3.43080e+01,4.86737e-01,4.34189e-01,8.95809e-01
1.29010e+03,-4.52347e+00,-3.14490e+01,5.00051e-01,4.39608e-01,9.10943e-01
1.29010e+03,-3.81134e+00,-2.85900e+01,5.12850e-01,4.45013e-01,9.25810e-01
1.29010e+03,-3.09313e+00,-2.57310e+01,5.25430e-01,4.50401e-01,9.40563e-01
1.29010e+03,-2.36549e+00,-2.28720e+01,5.37673e-01,4.55767e-01,9.55125e-01
1.29010e+03,-1.63628e+00,-2.00130e+01,5.49860e-01,4.61111e-01,9.69647e-01
1.29010e+03,-9.01444e-01,-1.71540e+01,5.61844e-01,4.66430e-01,9.84042e-01
1.29010e+03,-1.66680e-01,-1.42950e+01,5.73832e-01,4.71722e-01,9.98423e-01
1.29010e+03,5.65307e-01,-1.14360e+01,5.85919e-01,4.76989e-01,1.01285e+00
1.29010e+03,1.29729e+00,-8.57701e+00,5.98006e-01,4.82227e-01,1.02725e+00
1.29010e+03,2.01195e+00,-5.71800e+00,6.10714e-01,4.87441e-01,1.04200e+00
1.29010e+03,2.72337e+00,-2.85900e+00,6.23538e-01,4.92632e-01,1.05682e+00
1.37170e+03,3.50118e+01,0.00000e+00,-4.32127e-01,4.45235e-01,8.83988e-01
1.37170e+03,3.48355e+01,-2.66053e+00,-4.56811e-01,4.40941e-01,8.89923e-01
1.37170e+03,3.46009e+01,-5.32106e+00,-4.79769e-01,4.36543e-01,8.95481e-01
1.37170e+03,3.43640e+01,-7.98159e+00,-5.02658e-01,4.32044e-01,9.01472e-01
1.37170e+03,3.40757e+01,-1.06421e+01,-5.24023e-01,4.27454e-01,9.07056e-01
1.37170e+03,3.37754e+01,-1.33027e+01,-5.45034e-01,4.22778e-01,9.12846e-01
1.37170e+03,3.34357e+01,-1.59632e+01,-5.64876e-01,4.18025e-01,9.18324e-01
1.37170e+03,3.30768e+01,-1.86237e+01,-5.84149e-01,4.13199e-01,9.23814e-01
1.37170e+03,3.26861e+01,-2.12842e+01,-6.02483e-01,4.08309e-01,9.29050e-01
1.37170e+03,3.22695e+01,-2.39448e+01,-6.20045e-01,4.03360e-01,9.34106e-01
1.37170e+03,3.18241e+01,-2.66053e+01,-6.36758e-01,3.98358e-01,9.38897e-01
1.37170e+03,3.13441e+01,-2.92658e+01,-6.52442e-01,3.93311e-01,9.43272e-01
1.37170e+03,3.08286e+01,-3.19264e+01,-6.67074e-01,3.88225e-01,9.47177e-01
1.37170e+03,3.02627e+01,-3.45869e+01,-6.80216e-01,3.83109e-01,9.50269e-01
1.37170e+03,2.96479e+01,-3.72474e+01,-6.91906e-01,3.77972e-01,9.52534e-01
1.37170e+03,2.89745e+01,-3.99080e+01,-7.01859e-01,3.72822e-01,9.53728e-01
1.37170e+03,2.82218e+01,-4.25685e+01,-7.09462e-01,3.67678e-01,9.53362e-01
1.37170e+03,2.74139e+01,-4.52290e+01,-7.15430e-01,3.62543e-01,9.51921e-01
1.37170e+03,2.64818e+01,-4.78895e+01,-7.17718e-01,3.57445e-01,9.47850e-01
1.37170e+03,2.54982e+01,-5.05501e+01,-7.18480e-01,3.52395e-01,9.42741e-01
1.37170e+03,2.43712e+01,-5.32106e+01,-7.14993e-01,3.47407e-01,9.34500e-01
1.37170e+03,2.31293e+01,-5.58711e+01,-7.08100e-01,3.42521e-01,9.23779e-01
1.37170e+03,2.17704e+01,-5.85317e+01,-6.97742e-01,3.37747e-01,9.10529e-01
1.37170e+03,2.02153e+01,-6.11922e+01,-6.81566e-01,3.33102e-01,8.92974e-01
1.37170e+03,1.84327e+01,-6.38527e+01,-6.58651e-01,3.28642e-01,8.70538e-01
1.37170e+03,1.63931e+01,-6.65133e+01,-6.28120e-01,3.24420e-01,8.42781e-01
1.37170e+03,1.39807e+01,-6.91738e+01,-5.86542e-01,3.20473e-01,8.07552e-01
1.37170e+03,1.08843e+01,-7.18343e+01,-5.24692e-01,3.16993e-01,7.59444e-01
1.37170e+03,6.69639e+00,-7.44949e+01,-4.30499e-01,3.14865e-01,6.94802e-01
1.37170e+03,-2.71333e+00,-7.71554e+01,-1.81564e-01,3.15706e-01,5.76174e-01
1.37170e+03,-3.39243e+00,-7.71616e+01,-1.61509e-01,3.18321e-01,5.74518e-01
1.37170e+03,-9.57954e+00,-7.44058e+01,5.28172e-02,3.23281e-01,5.62425e-01
1.37170e+03,-1.03287e+01,-7.16500e+01,1.05996e-01,3.26946e-01,5.76122e-01
1.37170e+03,-1.05872e+01,-6.88942e+01,1.44636e-01,3.30802e-01,5.90940e-01
1.37170e+03,-1.06264e+01,-6.61385e+01,1.76779e-01,3.34838e-01,6.06300e-01
1.37170e+03,-1.05004e+01,-6.33827e+01,2.04025e-01,3.39020e-01,6.21635e-01
1.37170e+03,-1.02708e+01,-6.06269e+01,2.28200e-01,3.43325e-01,6.36940e-01
1.37170e+03,-9.93701e+00,-5.78712e+01,2.49290e-01,3.47728e-01,6.51836e-01
1.37170e+03,-9.53977e+00,-5.51154e+01,2.68498e-01,3.52207e-01,6.66514e-01
1.37170e+03,-9.10569e+00,-5.23596e+01,2.86615e-01,3.56751e-01,6.81148e-01
1.37170e+03,-8.61613e+00,-4.96039e+01,3.03088e-01,3.61347e-01,6.95397e-01
1.37170e+03,-8.09190e+00,-4.68481e+01,3.18533e-01,3.65982e-01,7.09430e-01
1.37170e+03,-7.53389e+00,-4.40923e+01,3.32977e-01,3.70648e-01,7.23196e-01
1.37170e+03,-6.94225e+00,-4.13365e+01,3.46424e-01,3.75334e-01,7.36638e-01
1.37170e+03,-6.32951e+00,-3.85808e+01,3.59247e-01,3.80032e-01,7.49888e-01
1.37170e+03,-5.68976e+00,-3.58250e+01,3.71269e-01,3.84736e-01,7.62828e-01
1.37170e+03,-5.03271e+00,-3.30692e+01,3.82778e-01,3.89439e-01,7.75568e-01
1.37170e+03,-4.36014e+00,-3.03135e+01,3.93827e-01,3.94134e-01,7.88115e-01
1.37170e+03,-3.67372e+00,-2.75577e+01,4.04466e-01,3.98818e-01,8.00475e-01
1.37170e+03,-2.98144e+00,-2.48019e+01,4.14931e-01,4.03486e-01,8.12755e-01
1.37170e+03,-2.28008e+00,-2.20462e+01,4.25127e-01,4.08136e-01,8.24899e-01
1.37170e+03,-1.57720e+00,-1.92904e+01,4.35279e-01,4.12766e-01,8.37016e-01
1.37170e+03,-8.68894e-01,-1.65346e+01,4.45269e-01,4.17375e-01,8.49041e-01
1.37170e+03,-1.60661e-01,-1.37788e+01,4.55261e-01,4.21961e-01,8.61055e-01
1.37170e+03,5.44895e-01,-1.10231e+01,4.65333e-01,4.26524e-01,8.73100e-01
1.37170e+03,1.25045e+00,-8.26731e+00,4.75405e-01,4.31063e-01,8.85130e-01
1.37170e+03,1.93930e+00,-5.51154e+00,4.85972e-01,4.35580e-01,8.97418e-01
1.37170e+03,2.62503e+00,-2.75577e+00,4.96631e-01,4.40078e-01,9.09752e-01
1.44960e+03,3.37597e+01,0.00000e+00,-3.36290e-01,3.91967e-01,7.57632e-01
1.44960e+03,3.35897e+01,-2.56538e+00,-3.55867e-01,3.88292e-01,7.60890e-01
1.44960e+03,3.33635e+01,-5.13077e+00,-3.74100e-01,3.84528e-01,7.63895e-01
1.44960e+03,3.31351e+01,-7.69615e+00,-3.92279e-01,3.80677e-01,7.67221e-01
1.44960e+03,3.28571e+01,-1.02615e+01,-4.09271e-01,3.76749e-01,7.70274e-01
1.44960e+03,3.25675e+01,-1.28269e+01,-4.25988e-01,3.72747e-01,7.73490e-01
1.44960e+03,3.22399e+01,-1.53923e+01,-4.41794e-01,3.68678e-01,7.76501e-01
1.44960e+03,3.18939e+01,-1.79577e+01,-4.57159e-01,3.64549e-01,7.79539e-01
1.44960e+03,3.15172e+01,-2.05231e+01,-4.71791e-01,3.60363e-01,7.82414e-01
1.44960e+03,3.11155e+01,-2.30885e+01,-4.85822e-01,3.56127e-01,7.85177e-01
1.44960e+03,3.06860e+01,-2.56538e+01,-4.99192e-01,3.51847e-01,7.87770e-01
1.44960e+03,3.02232e+01,-2.82192e+01,-5.11761e-01,3.47528e-01,7.90080e-01
1.44960e+03,2.97261e+01,-3.07846e+01,-5.23511e-01,3.43175e-01,7.92067e-01
1.44960e+03,2.91805e+01,-3.33500e+01,-5.34100e-01,3.38796e-01,7.93480e-01
1.44960e+03,2.85877e+01,-3.59154e+01,-5.43559e-01,3.34400e-01,7.94309e-01
1.44960e+03,2.79383e+01,-3.84808e+01,-5.51666e-01,3.29993e-01,7.94368e-01
1.44960e+03,2.72125e+01,-4.10462e+01,-5.57943e-01,3.25590e-01,7.93302e-01
1.44960e+03,2.64335e+01,-4.36115e+01,-5.62947e-01,3.21196e-01,7.91460e-01
1.44960e+03,2.55347e+01,-4.61769e+01,-5.65085e-01,3.16832e-01,7.87699e-01
1.44960e+03,2.45863e+01,-4.87423e+01,-5.66035e-01,3.12511e-01,7.83188e-01
1.44960e+03,2.34997e+01,-5.13077e+01,-5.63676e-01,3.08242e-01,7.76382e-01
1.44960e+03,2.23022e+01,-5.38731e+01,-5.58665e-01,3.04061e-01,7.67767e-01
1.44960e+03,2.09919e+01,-5.64385e+01,-5.50956e-01,2.99975e-01,7.57303e-01
1.44960e+03,1.94923e+01,-5.90039e+01,-5.38717e-01,2.96000e-01,7.43682e-01
1.44960e+03,1.77735e+01,-6.15692e+01,-5.21231e-01,2.92183e-01,7.26495e-01
1.44960e+03,1.58069e+01,-6.41346e+01,-4.97814e-01,2.88571e-01,7.05435e-01
1.44960e+03,1.34808e+01,-6.67000e+01,-4.65796e-01,2.85193e-01,6.78948e-01
1.44960e+03,1.04950e+01,-6.92654e+01,-4.17993e-01,2.82215e-01,6.43159e-01
1.44960e+03,6.45692e+00,-7.18308e+01,-3.45006e-01,2.80395e-01,5.95729e-01
1.44960e+03,-2.61629e+00,-7.43962e+01,-1.51528e-01,2.81115e-01,5.09939e-01
1.44960e+03,-3.27111e+00,-7.44021e+01,-1.35913e-01,2.83353e-01,5.09254e-01
1.44960e+03,-9.23696e+00,-7.17449e+01,3.13422e-02,2.87598e-01,4.99120e-01
1.44960e+03,-9.95928e+00,-6.90877e+01,7.31194e-02,2.90735e-01,5.08848e-01
1.44960e+03,-1.02085e+01,-6.64305e+01,1.03576e-01,2.94035e-01,5.19710e-01
1.44960e+03,-1.02464e+01,-6.37732e+01,1.28973e-01,2.97489e-01,5.31162e-01
1.44960e+03,-1.01249e+01,-6.11160e+01,1.50558e-01,3.01068e-01,5.42765e-01
1.44960e+03,-9.90345e+00,-5.84588e+01,1.69751e-01,3.04753e-01,5.54471e-01
1.44960e+03,-9.58164e+00,-5.58016e+01,1.86543e-01,3.08521e-01,5.65998e-01
1.44960e+03,-9.19861e+00,-5.31444e+01,2.01869e-01,3.12354e-01,5.77447e-01
1.44960e+03,-8.78006e+00,-5.04872e+01,2.16345e-01,3.16242e-01,5.88925e-01
1.44960e+03,-8.30801e+00,-4.78299e+01,2.29540e-01,3.20175e-01,6.00188e-01
1.44960e+03,-7.80252e+00,-4.51727e+01,2.41936e-01,3.24142e-01,6.11340e-01
1.44960e+03,-7.26447e+00,-4.25155e+01,2.53552e-01,3.28135e-01,6.22339e-01
1.44960e+03,-6.69398e+00,-3.98583e+01,2.64393e-01,3.32145e-01,6.33138e-01
1.44960e+03,-6.10316e+00,-3.72011e+01,2.74746e-01,3.36166e-01,6.43823e-01
1.44960e+03,-5.48628e+00,-3.45438e+01,2.84476e-01,3.40191e-01,6.54307e-01
1.44960e+03,-4.85273e+00,-3.18866e+01,2.93807e-01,3.44215e-01,6.64662e-01
1.44960e+03,-4.20421e+00,-2.92294e+01,3.02780e-01,3.48234e-01,6.74890e-01
1.44960e+03,-3.54234e+00,-2.65722e+01,3.11434e-01,3.52242e-01,6.84991e-01
1.44960e+03,-2.87482e+00,-2.39150e+01,3.19952e-01,3.56236e-01,6.95041e-01
1.44960e+03,-2.19854e+00,-2.12577e+01,3.28260e-01,3.60216e-01,7.04997e-01
1.44960e+03,-1.52080e+00,-1.86005e+01,3.36534e-01,3.64178e-01,7.14934e-01
1.44960e+03,-8.37821e-01,-1.59433e+01,3.44682e-01,3.68122e-01,7.24808e-01
1.44960e+03,-1.54916e-01,-1.32861e+01,3.52832e-01,3.72046e-01,7.34673e-01
1.44960e+03,5.25408e-01,-1.06289e+01,3.61044e-01,3.75950e-01,7.44559e-01
1.44960e+03,1.20573e+00,-7.97166e+00,3.69256e-01,3.79834e-01,7.54435e-01
1.44960e+03,1.86995e+00,-5.31444e+00,3.77853e-01,3.83700e-01,7.64492e-01
1.44960e+03,2.53116e+00,-2.65722e+00,3.86522e-01,3.87548e-01,7.74584e-01
1.52340e+03,3.25736e+01,0.00000e+00,-2.54982e-01,3.39677e-01,6.41215e-01
1.52340e+03,3.24095e+01,-2.47525e+00,-2.70128e-01,3.36585e-01,6.42524e-01
1.52340e+03,3.21913e+01,-4.95049e+00,-2.84253e-01,3.33418e-01,6.43663e-01
1.52340e+03,3.19709e+01,-7.42574e+00,-2.98338e-01,3.30179e-01,6.45027e-01
1.52340e+03,3.17026e+01,-9.90099e+00,-3.11522e-01,3.26874e-01,6.46209e-01
1.52340e+03,3.14232e+01,-1.23762e+01,-3.24497e-01,3.23508e-01,6.47511e-01
1.52340e+03,3.11072e+01,-1.48515e+01,-3.36781e-01,3.20085e-01,6.48680e-01
1.52340e+03,3.07733e+01,-1.73267e+01,-3.48730e-01,3.16611e-01,6.49877e-01
1.52340e+03,3.04098e+01,-1.98020e+01,-3.60123e-01,3.13090e-01,6.50972e-01
1.52340e+03,3.00222e+01,-2.22772e+01,-3.71061e-01,3.09527e-01,6.52002e-01
1.52340e+03,2.96079e+01,-2.47525e+01,-3.81496e-01,3.05926e-01,6.52926e-01
1.52340e+03,2.91613e+01,-2.72277e+01,-3.91324e-01,3.02293e-01,6.53665e-01
1.52340e+03,2.86816e+01,-2.97030e+01,-4.00531e-01,2.98631e-01,6.54192e-01
1.52340e+03,2.81552e+01,-3.21782e+01,-4.08857e-01,2.94948e-01,6.54329e-01
1.52340e+03,2.75832e+01,-3.46535e+01,-4.16325e-01,2.91250e-01,6.54069e-01
1.52340e+03,2.69567e+01,-3.71287e+01,-4.22767e-01,2.87543e-01,6.53280e-01
1.52340e+03,2.62564e+01,-3.96040e+01,-4.27821e-01,2.83840e-01,6.51710e-01
1.52340e+03,2.55047e+01,-4.20792e+01,-4.31908e-01,2.80143e-01,6.49604e-01
1.52340e+03,2.46375e+01,-4.45544e+01,-4.33821e-01,2.76473e-01,6.46152e-01
1.52340e+03,2.37225e+01,-4.70297e+01,-4.34833e-01,2.72838e-01,6.42185e-01
1.52340e+03,2.26740e+01,-4.95049e+01,-4.33335e-01,2.69247e-01,6.36601e-01
1.52340e+03,2.15185e+01,-5.19802e+01,-4.29824e-01,2.65730e-01,6.29751e-01
1.52340e+03,2.02543e+01,-5.44554e+01,-4.24265e-01,2.62293e-01,6.21606e-01
1.52340e+03,1.88075e+01,-5.69307e+01,-4.15270e-01,2.58950e-01,6.11240e-01
1.52340e+03,1.71490e+01,-5.94059e+01,-4.02293e-01,2.55739e-01,5.98371e-01
1.52340e+03,1.52515e+01,-6.18812e+01,-3.84817e-01,2.52701e-01,5.82801e-01
1.52340e+03,1.30071e+01,-6.43564e+01,-3.60814e-01,2.49860e-01,5.63450e-01
1.52340e+03,1.01263e+01,-6.68317e+01,-3.24833e-01,2.47355e-01,5.37653e-01
1.52340e+03,6.23005e+00,-6.93069e+01,-2.69745e-01,2.45825e-01,5.04035e-01
1.52340e+03,-2.52437e+00,-7.17822e+01,-1.23233e-01,2.46431e-01,4.44264e-01
1.52340e+03,-3.15618e+00,-7.17879e+01,-1.11386e-01,2.48314e-01,4.44281e-01
1.52340e+03,-8.91241e+00,-6.92241e+01,1.58224e-02,2.51885e-01,4.36564e-01
1.52340e+03,-9.60935e+00,-6.66602e+01,4.78228e-02,2.54523e-01,4.43433e-01
1.52340e+03,-9.84985e+00,-6.40963e+01,7.12336e-02,2.57300e-01,4.51313e-01
1.52340e+03,-9.88634e+00,-6.15325e+01,9.08054e-02,2.60205e-01,4.59745e-01
1.52340e+03,-9.76914e+00,-5.89686e+01,1.07485e-01,2.63216e-01,4.68402e-01
1.52340e+03,-9.55548e+00,-5.64048e+01,1.22349e-01,2.66315e-01,4.77222e-01
1.52340e+03,-9.24498e+00,-5.38409e+01,1.35391e-01,2.69485e-01,4.86001e-01
1.52340e+03,-8.87540e+00,-5.12771e+01,1.47321e-01,2.72709e-01,4.94787e-01
1.52340e+03,-8.47156e+00,-4.87132e+01,1.58606e-01,2.75980e-01,5.03637e-01
1.52340e+03,-8.01609e+00,-4.61494e+01,1.68920e-01,2.79288e-01,5.12386e-01
1.52340e+03,-7.52837e+00,-4.35855e+01,1.78627e-01,2.82624e-01,5.21092e-01
1.52340e+03,-7.00922e+00,-4.10217e+01,1.87743e-01,2.85983e-01,5.29722e-01
1.52340e+03,-6.45878e+00,-3.84578e+01,1.96269e-01,2.89356e-01,5.38240e-01
1.52340e+03,-5.88872e+00,-3.58940e+01,2.04426e-01,2.92738e-01,5.46696e-01
1.52340e+03,-5.29352e+00,-3.33301e+01,2.12111e-01,2.96124e-01,5.55031e-01
1.52340e+03,-4.68222e+00,-3.07662e+01,2.19492e-01,2.99509e-01,5.63288e-01
1.52340e+03,-4.05649e+00,-2.82024e+01,2.26602e-01,3.02889e-01,5.71466e-01
1.52340e+03,-3.41788e+00,-2.56385e+01,2.33469e-01,3.06260e-01,5.79562e-01
1.52340e+03,-2.77381e+00,-2.30747e+01,2.40234e-01,3.09620e-01,5.87627e-01
1.52340e+03,-2.12129e+00,-2.05108e+01,2.46840e-01,3.12966e-01,5.95629e-01
1.52340e+03,-1.46736e+00,-1.79470e+01,2.53419e-01,3.16299e-01,6.03619e-01
1.52340e+03,-8.08383e-01,-1.53831e+01,2.59903e-01,3.19616e-01,6.11566e-01
1.52340e+03,-1.49473e-01,-1.28193e+01,2.66388e-01,3.22916e-01,6.19506e-01
1.52340e+03,5.06948e-01,-1.02554e+01,2.72920e-01,3.26200e-01,6.27460e-01
1.52340e+03,1.16337e+00,-7.69156e+00,2.79453e-01,3.29467e-01,6.35405e-01
1.52340e+03,1.80424e+00,-5.12771e+00,2.86277e-01,3.32718e-01,6.43474e-01
1.52340e+03,2.44222e+00,-2.56385e+00,2.93157e-01,3.35955e-01,6.51566e-01
1.59310e+03,3.14533e+01,0.00000e+00,-1.87546e-01,2.88959e-01,5.34476e-01
1.59310e+03,3.12949e+01,-2.39012e+00,-1.98925e-01,2.86408e-01,5.34471e-01
1.59310e+03,3.10841e+01,-4.78023e+00,-2.09553e-01,2.83794e-01,5.34350e-01
1.59310e+03,3.08713e+01,-7.17035e+00,-2.20152e-01,2.81122e-01,5.34373e-01
1.59310e+03,3.06123e+01,-9.56047e+00,-2.30087e-01,2.78395e-01,5.34276e-01
1.59310e+03,3.03425e+01,-1.19506e+01,-2.39868e-01,2.75617e-01,5.34258e-01
1.59310e+03,3.00373e+01,-1.43407e+01,-2.49141e-01,2.72793e-01,5.34153e-01
1.59310e+03,2.97149e+01,-1.67308e+01,-2.58167e-01,2.69927e-01,5.34071e-01
1.59310e+03,2.93640e+01,-1.91209e+01,-2.66784e-01,2.67022e-01,5.33924e-01
1.59310e+03,2.89896e+01,-2.15111e+01,-2.75065e-01,2.64082e-01,5.33740e-01
1.59310e+03,2.85896e+01,-2.39012e+01,-2.82977e-01,2.61111e-01,5.33491e-01
1.59310e+03,2.81583e+01,-2.62913e+01,-2.90442e-01,2.58113e-01,5.33126e-01
1.59310e+03,2.76952e+01,-2.86814e+01,-2.97449e-01,2.55092e-01,5.32627e-01
1.59310e+03,2.71869e+01,-3.10715e+01,-3.03807e-01,2.52053e-01,5.31875e-01
1.59310e+03,2.66345e+01,-3.34616e+01,-3.09535e-01,2.49002e-01,5.30865e-01
1.59310e+03,2.60296e+01,-3.58518e+01,-3.14507e-01,2.45943e-01,5.29508e-01
1.59310e+03,2.53533e+01,-3.82419e+01,-3.18457e-01,2.42888e-01,5.27634e-01
1.59310e+03,2.46276e+01,-4.06320e+01,-3.21695e-01,2.39838e-01,5.25409e-01
1.59310e+03,2.37902e+01,-4.30221e+01,-3.23334e-01,2.36810e-01,5.22285e-01
1.59310e+03,2.29066e+01,-4.54122e+01,-3.24308e-01,2.33811e-01,5.18824e-01
1.59310e+03,2.18941e+01,-4.78023e+01,-3.23435e-01,2.30848e-01,5.14278e-01
1.59310e+03,2.07785e+01,-5.01925e+01,-3.21080e-01,2.27946e-01,5.08892e-01
1.59310e+03,1.95577e+01,-5.25826e+01,-3.17217e-01,2.25111e-01,5.02645e-01
1.59310e+03,1.81606e+01,-5.49727e+01,-3.10825e-01,2.22352e-01,4.94908e-01
1.59310e+03,1.65592e+01,-5.73628e+01,-3.01502e-01,2.19704e-01,4.85502e-01
1.59310e+03,1.47269e+01,-5.97529e+01,-2.88866e-01,2.17197e-01,4.74307e-01
1.59310e+03,1.25597e+01,-6.21430e+01,-2.71425e-01,2.14854e-01,4.60606e-01
1.59310e+03,9.77800e+00,-6.45332e+01,-2.45168e-01,2.12787e-01,4.42654e-01
1.59310e+03,6.01578e+00,-6.69233e+01,-2.04843e-01,2.11525e-01,4.19749e-01
1.59310e+03,-2.43755e+00,-6.93134e+01,-9.72168e-02,2.12025e-01,3.79888e-01
1.59310e+03,-3.04763e+00,-6.93189e+01,-8.84958e-02,2.13579e-01,3.80368e-01
1.59310e+03,-8.60589e+00,-6.68433e+01,5.38759e-03,2.16526e-01,3.75072e-01
1.59310e+03,-9.27886e+00,-6.43676e+01,2.91828e-02,2.18702e-01,3.79926e-01
1.59310e+03,-9.51109e+00,-6.18919e+01,4.66547e-02,2.20993e-01,3.85604e-01
1.59310e+03,-9.54632e+00,-5.94162e+01,6.13005e-02,2.23390e-01,3.91749e-01
1.59310e+03,-9.43315e+00,-5.69406e+01,7.38171e-02,2.25874e-01,3.98129e-01
1.59310e+03,-9.22684e+00,-5.44649e+01,8.49975e-02,2.28432e-01,4.04682e-01
1.59310e+03,-8.92702e+00,-5.19892e+01,9.48362e-02,2.31047e-01,4.11268e-01
1.59310e+03,-8.57016e+00,-4.95135e+01,1.03857e-01,2.33707e-01,4.17903e-01
1.59310e+03,-8.18020e+00,-4.70379e+01,1.12402e-01,2.36405e-01,4.24614e-01
1.59310e+03,-7.74040e+00,-4.45622e+01,1.20233e-01,2.39135e-01,4.31291e-01
1.59310e+03,-7.26945e+00,-4.20865e+01,1.27616e-01,2.41887e-01,4.37966e-01
1.59310e+03,-6.76816e+00,-3.96108e+01,1.34565e-01,2.44658e-01,4.44613e-01
1.59310e+03,-6.23665e+00,-3.71351e+01,1.41079e-01,2.47441e-01,4.51204e-01
1.59310e+03,-5.68619e+00,-3.46595e+01,1.47322e-01,2.50231e-01,4.57768e-01
1.59310e+03,-5.11146e+00,-3.21838e+01,1.53217e-01,2.53025e-01,4.64263e-01
1.59310e+03,-4.52119e+00,-2.97081e+01,1.58889e-01,2.55817e-01,4.70716e-01
1.59310e+03,-3.91698e+00,-2.72324e+01,1.64360e-01,2.58606e-01,4.77122e-01
1.59310e+03,-3.30033e+00,-2.47568e+01,1.69654e-01,2.61387e-01,4.83479e-01
1.59310e+03,-2.67841e+00,-2.22811e+01,1.74872e-01,2.64159e-01,4.89816e-01
1.59310e+03,-2.04833e+00,-1.98054e+01,1.79972e-01,2.66920e-01,4.96114e-01
1.59310e+03,-1.41689e+00,-1.73297e+01,1.85053e-01,2.69669e-01,5.02403e-01
1.59310e+03,-7.80581e-01,-1.48541e+01,1.90064e-01,2.72406e-01,5.08664e-01
1.59310e+03,-1.44332e-01,-1.23784e+01,1.95077e-01,2.75128e-01,5.14919e-01
1.59310e+03,4.89512e-01,-9.90271e+00,2.00123e-01,2.77838e-01,5.21182e-01
1.59310e+03,1.12336e+00,-7.42703e+00,2.05170e-01,2.80532e-01,5.27437e-01
1.59310e+03,1.74219e+00,-4.95135e+00,2.10432e-01,2.83214e-01,5.33772e-01
1.59310e+03,2.35823e+00,-2.47568e+00,2.15734e-01,2.85885e-01,5.40121e-01
1.65850e+03,3.04021e+01,0.00000e+00,-1.33202e-01,2.40031e-01,4.36563e-01
1.65850e+03,3.02490e+01,-2.31024e+00,-1.41465e-01,2.37973e-01,4.35781e-01
1.65850e+03,3.00453e+01,-4.62048e+00,-1.49193e-01,2.35864e-01,4.34919e-01
1.65850e+03,2.98396e+01,-6.93072e+00,-1.56901e-01,2.33708e-01,4.34139e-01
1.65850e+03,2.95892e+01,-9.24096e+00,-1.64137e-01,2.31508e-01,4.33277e-01
1.65850e+03,2.93285e+01,-1.15512e+01,-1.71264e-01,2.29267e-01,4.32460e-01
1.65850e+03,2.90335e+01,-1.38614e+01,-1.78029e-01,2.26989e-01,4.31586e-01
1.65850e+03,2.87218e+01,-1.61717e+01,-1.84619e-01,2.24676e-01,4.30723e-01
1.65850e+03,2.83826e+01,-1.84819e+01,-1.90918e-01,2.22333e-01,4.29820e-01
1.65850e+03,2.80208e+01,-2.07921e+01,-1.96978e-01,2.19961e-01,4.28892e-01
1.65850e+03,2.76341e+01,-2.31024e+01,-2.02775e-01,2.17564e-01,4.27926e-01
1.65850e+03,2.72173e+01,-2.54126e+01,-2.08255e-01,2.15146e-01,4.26888e-01
1.65850e+03,2.67696e+01,-2.77229e+01,-2.13410e-01,2.12708e-01,4.25768e-01
1.65850e+03,2.62783e+01,-3.00331e+01,-2.18103e-01,2.10257e-01,4.24491e-01
1.65850e+03,2.57444e+01,-3.23433e+01,-2.22348e-01,2.07795e-01,4.23054e-01
1.65850e+03,2.51597e+01,-3.46536e+01,-2.26055e-01,2.05328e-01,4.21402e-01
1.65850e+03,2.45060e+01,-3.69638e+01,-2.29036e-01,2.02863e-01,4.19426e-01
1.65850e+03,2.38045e+01,-3.92741e+01,-2.31512e-01,2.00403e-01,4.17231e-01
1.65850e+03,2.29951e+01,-4.15843e+01,-2.32849e-01,1.97960e-01,4.14467e-01
1.65850e+03,2.21410e+01,-4.38945e+01,-2.33715e-01,1.95540e-01,4.11498e-01
1.65850e+03,2.11624e+01,-4.62048e+01,-2.33266e-01,1.93150e-01,4.07841e-01
1.65850e+03,2.00840e+01,-4.85150e+01,-2.31765e-01,1.90810e-01,4.03658e-01
1.65850e+03,1.89041e+01,-5.08253e+01,-2.29192e-01,1.88522e-01,3.98937e-01
1.65850e+03,1.75537e+01,-5.31355e+01,-2.24820e-01,1.86297e-01,3.93273e-01
1.65850e+03,1.60058e+01,-5.54457e+01,-2.18365e-01,1.84161e-01,3.86560e-01
1.65850e+03,1.42348e+01,-5.77560e+01,-2.09554e-01,1.82139e-01,3.78730e-01
1.65850e+03,1.21400e+01,-6.00662e+01,-1.97328e-01,1.80248e-01,3.69332e-01
1.65850e+03,9.45122e+00,-6.23764e+01,-1.78833e-01,1.78581e-01,3.57288e-01
1.65850e+03,5.81473e+00,-6.46867e+01,-1.50337e-01,1.77563e-01,3.42327e-01
1.65850e+03,-2.35608e+00,-6.69969e+01,-7.39942e-02,1.77967e-01,3.17005e-01
1.65850e+03,-2.94577e+00,-6.70023e+01,-6.77944e-02,1.79221e-01,3.17736e-01
1.65850e+03,-8.31828e+00,-6.46093e+01,-8.69915e-04,1.81598e-01,3.14538e-01
1.65850e+03,-8.96876e+00,-6.22164e+01,1.62261e-02,1.83354e-01,3.17993e-01
1.65850e+03,-9.19322e+00,-5.98235e+01,2.88266e-02,1.85202e-01,3.22072e-01
1.65850e+03,-9.22728e+00,-5.74305e+01,3.94178e-02,1.87136e-01,3.26517e-01
1.65850e+03,-9.11789e+00,-5.50376e+01,4.84953e-02,1.89140e-01,3.31170e-01
1.65850e+03,-8.91848e+00,-5.26447e+01,5.66229e-02,1.91203e-01,3.35979e-01
1.65850e+03,-8.62868e+00,-5.02517e+01,6.37967e-02,1.93313e-01,3.40851e-01
1.65850e+03,-8.28374e+00,-4.78588e+01,7.03886e-02,1.95459e-01,3.45784e-01
1.65850e+03,-7.90682e+00,-4.54658e+01,7.66430e-02,1.97636e-01,3.50790e-01
1.65850e+03,-7.48171e+00,-4.30729e+01,8.23890e-02,1.99837e-01,3.55799e-01
1.65850e+03,-7.02650e+00,-4.06800e+01,8.78173e-02,2.02058e-01,3.60824e-01
1.65850e+03,-6.54196e+00,-3.82870e+01,9.29361e-02,2.04293e-01,3.65847e-01
1.65850e+03,-6.02822e+00,-3.58941e+01,9.77467e-02,2.06538e-01,3.70848e-01
1.65850e+03,-5.49615e+00,-3.35011e+01,1.02364e-01,2.08789e-01,3.75842e-01
1.65850e+03,-4.94063e+00,-3.11082e+01,1.06734e-01,2.11042e-01,3.80800e-01
1.65850e+03,-4.37009e+00,-2.87153e+01,1.10945e-01,2.13295e-01,3.85737e-01
1.65850e+03,-3.78607e+00,-2.63223e+01,1.15014e-01,2.15544e-01,3.90649e-01
1.65850e+03,-3.19003e+00,-2.39294e+01,1.18956e-01,2.17788e-01,3.95531e-01
1.65850e+03,-2.58890e+00,-2.15364e+01,1.22845e-01,2.20024e-01,4.00402e-01
1.65850e+03,-1.97988e+00,-1.91435e+01,1.26650e-01,2.22251e-01,4.05249e-01
1.65850e+03,-1.36954e+00,-1.67506e+01,1.30441e-01,2.24469e-01,4.10090e-01
1.65850e+03,-7.54494e-01,-1.43576e+01,1.34183e-01,2.26676e-01,4.14911e-01
1.65850e+03,-1.39508e-01,-1.19647e+01,1.37925e-01,2.28872e-01,4.19727e-01
1.65850e+03,4.73153e-01,-9.57176e+00,1.41692e-01,2.31058e-01,4.24546e-01
1.65850e+03,1.08581e+00,-7.17882e+00,1.45459e-01,2.33231e-01,4.29359e-01
1.65850e+03,1.68397e+00,-4.78588e+00,1.49379e-01,2.35395e-01,4.34219e-01
1.65850e+03,2.27942e+00,-2.39294e+00,1.53327e-01,2.37548e-01,4.39087e-01
1.71930e+03,2.94249e+01,0.00000e+00,-9.09833e-02,1.92067e-01,3.44888e-01
1.71930e+03,2.92767e+01,-2.23598e+00,-9.67589e-02,1.90455e-01,3.43775e-01
1.71930e+03,2.90795e+01,-4.47196e+00,-1.02170e-01,1.88802e-01,3.42604e-01
1.71930e+03,2.88804e+01,-6.70794e+00,-1.07566e-01,1.87113e-01,3.41473e-01
1.71930e+03,2.86381e+01,-8.94392e+00,-1.12639e-01,1.85389e-01,3.40286e-01
1.71930e+03,2.83857e+01,-1.11799e+01,-1.17638e-01,1.83632e-01,3.39119e-01
1.71930e+03,2.81002e+01,-1.34159e+01,-1.22390e-01,1.81847e-01,3.37912e-01
1.71930e+03,2.77986e+01,-1.56519e+01,-1.27022e-01,1.80035e-01,3.36708e-01
1.71930e+03,2.74703e+01,-1.78878e+01,-1.31454e-01,1.78198e-01,3.35476e-01
1.71930e+03,2.71201e+01,-2.01238e+01,-1.35724e-01,1.76340e-01,3.34228e-01
1.71930e+03,2.67458e+01,-2.23598e+01,-1.39814e-01,1.74462e-01,3.32954e-01
1.71930e+03,2.63424e+01,-2.45958e+01,-1.43687e-01,1.72566e-01,3.31637e-01
1.71930e+03,2.59091e+01,-2.68317e+01,-1.47337e-01,1.70656e-01,3.30271e-01
1.71930e+03,2.54336e+01,-2.90677e+01,-1.50672e-01,1.68735e-01,3.28811e-01
1.71930e+03,2.49169e+01,-3.13037e+01,-1.53700e-01,1.66807e-01,3.27256e-01
1.71930e+03,2.43509e+01,-3.35397e+01,-1.56361e-01,1.64873e-01,3.25573e-01
1.71930e+03,2.37183e+01,-3.57757e+01,-1.58524e-01,1.62942e-01,3.23697e-01
1.71930e+03,2.30393e+01,-3.80116e+01,-1.60342e-01,1.61014e-01,3.21692e-01
1.71930e+03,2.22560e+01,-4.02476e+01,-1.61382e-01,1.59100e-01,3.19347e-01
1.71930e+03,2.14293e+01,-4.24836e+01,-1.62100e-01,1.57204e-01,3.16884e-01
1.71930e+03,2.04822e+01,-4.47196e+01,-1.61918e-01,1.55331e-01,3.14007e-01
1.71930e+03,1.94385e+01,-4.69556e+01,-1.61017e-01,1.53497e-01,3.10822e-01
1.71930e+03,1.82964e+01,-4.91915e+01,-1.59383e-01,1.51705e-01,3.07320e-01
1.71930e+03,1.69894e+01,-5.14275e+01,-1.56519e-01,1.49961e-01,3.03254e-01
1.71930e+03,1.54913e+01,-5.36635e+01,-1.52229e-01,1.48287e-01,2.98564e-01
1.71930e+03,1.37772e+01,-5.58995e+01,-1.46330e-01,1.46702e-01,2.93219e-01
1.71930e+03,1.17498e+01,-5.81355e+01,-1.38094e-01,1.45221e-01,2.86945e-01
1.71930e+03,9.14742e+00,-6.03714e+01,-1.25572e-01,1.43915e-01,2.79111e-01
1.71930e+03,5.62782e+00,-6.26074e+01,-1.06211e-01,1.43118e-01,2.69683e-01
1.71930e+03,-2.28035e+00,-6.48434e+01,-5.41296e-02,1.43434e-01,2.54264e-01
1.71930e+03,-2.85109e+00,-6.48486e+01,-4.98903e-02,1.44417e-01,2.55064e-01
1.71930e+03,-8.05090e+00,-6.25326e+01,-3.99470e-03,1.46280e-01,2.53395e-01
1.71930e+03,-8.68047e+00,-6.02165e+01,7.82607e-03,1.47656e-01,2.55867e-01
1.71930e+03,-8.89772e+00,-5.79005e+01,1.65726e-02,1.49104e-01,2.58787e-01
1.71930e+03,-8.93068e+00,-5.55845e+01,2.39452e-02,1.50619e-01,2.61977e-01
1.71930e+03,-8.82481e+00,-5.32685e+01,3.02826e-02,1.52190e-01,2.65334e-01
1.71930e+03,-8.63181e+00,-5.09525e+01,3.59705e-02,1.53806e-01,2.68818e-01
1.71930e+03,-8.35132e+00,-4.86364e+01,4.10060e-02,1.55459e-01,2.72368e-01
1.71930e+03,-8.01747e+00,-4.63204e+01,4.56437e-02,1.57141e-01,2.75977e-01
1.71930e+03,-7.65266e+00,-4.40044e+01,5.00505e-02,1.58847e-01,2.79646e-01
1.71930e+03,-7.24122e+00,-4.16884e+01,5.41097e-02,1.60572e-01,2.83334e-01
1.71930e+03,-6.80064e+00,-3.93724e+01,5.79516e-02,1.62312e-01,2.87044e-01
1.71930e+03,-6.33168e+00,-3.70563e+01,6.15819e-02,1.64064e-01,2.90763e-01
1.71930e+03,-5.83445e+00,-3.47403e+01,6.50014e-02,1.65823e-01,2.94477e-01
1.71930e+03,-5.31949e+00,-3.24243e+01,6.82888e-02,1.67587e-01,2.98193e-01
1.71930e+03,-4.78182e+00,-3.01083e+01,7.14069e-02,1.69352e-01,3.01893e-01
1.71930e+03,-4.22962e+00,-2.77922e+01,7.44165e-02,1.71117e-01,3.05583e-01
1.71930e+03,-3.66437e+00,-2.54762e+01,7.73290e-02,1.72880e-01,3.09260e-01
1.71930e+03,-3.08749e+00,-2.31602e+01,8.01547e-02,1.74637e-01,3.12921e-01
1.71930e+03,-2.50568e+00,-2.08442e+01,8.29436e-02,1.76389e-01,3.16574e-01
1.71930e+03,-1.91624e+00,-1.85282e+01,8.56756e-02,1.78135e-01,3.20213e-01
1.71930e+03,-1.32552e+00,-1.62121e+01,8.83981e-02,1.79872e-01,3.23846e-01
1.71930e+03,-7.30242e-01,-1.38961e+01,9.10866e-02,1.81602e-01,3.27467e-01
1.71930e+03,-1.35024e-01,-1.15801e+01,9.37756e-02,1.83323e-01,3.31082e-01
1.71930e+03,4.57944e-01,-9.26408e+00,9.64813e-02,1.85035e-01,3.34697e-01
1.71930e+03,1.05091e+00,-6.94806e+00,9.91871e-02,1.86738e-01,3.38307e-01
1.71930e+03,1.62984e+00,-4.63204e+00,1.01997e-01,1.88433e-01,3.41942e-01
1.71930e+03,2.20615e+00,-2.31602e+00,1.04827e-01,1.90121e-01,3.45581e-01
1.77540e+03,2.77303e+01,0.00000e+00,-1.05373e-01,1.74747e-01,3.20488e-01
1.77540e+03,2.75906e+01,-2.10721e+00,-1.11024e-01,1.72616e-01,3.18928e-01
1.77540e+03,2.74048e+01,-4.21442e+00,-1.16246e-01,1.70433e-01,3.17263e-01
1.77540e+03,2.72172e+01,-6.32163e+00,-1.21451e-01,1.68200e-01,3.15633e-01
1.77540e+03,2.69888e+01,-8.42884e+00,-1.26278e-01,1.65922e-01,3.13904e-01
1.77540e+03,2.67510e+01,-1.05361e+01,-1.31016e-01,1.63600e-01,3.12186e-01
1.77540e+03,2.64819e+01,-1.26433e+01,-1.35465e-01,1.61240e-01,3.10395e-01
1.77540e+03,2.61977e+01,-1.47505e+01,-1.39772e-01,1.58843e-01,3.08593e-01
1.77540e+03,2.58883e+01,-1.68577e+01,-1.43845e-01,1.56414e-01,3.06737e-01
1.77540e+03,2.55583e+01,-1.89649e+01,-1.47727e-01,1.53956e-01,3.04845e-01
1.77540e+03,2.52056e+01,-2.10721e+01,-1.51398e-01,1.51471e-01,3.02906e-01
1.77540e+03,2.48254e+01,-2.31793e+01,-1.54814e-01,1.48964e-01,3.00895e-01
1.77540e+03,2.44171e+01,-2.52865e+01,-1.57968e-01,1.46437e-01,2.98806e-01
1.77540e+03,2.39689e+01,-2.73937e+01,-1.60752e-01,1.43894e-01,2.96577e-01
1.77540e+03,2.34819e+01,-2.95009e+01,-1.63176e-01,1.41341e-01,2.94208e-01
1.77540e+03,2.29486e+01,-3.16082e+01,-1.65168e-01,1.38782e-01,2.91653e-01
1.77540e+03,2.23524e+01,-3.37154e+01,-1.66577e-01,1.36225e-01,2.88824e-01
1.77540e+03,2.17125e+01,-3.58226e+01,-1.67579e-01,1.33672e-01,2.85810e-01
1.77540e+03,2.09743e+01,-3.79298e+01,-1.67668e-01,1.31137e-01,2.82318e-01
1.77540e+03,2.01952e+01,-4.00370e+01,-1.67377e-01,1.28626e-01,2.78656e-01
1.77540e+03,1.93026e+01,-4.21442e+01,-1.66031e-01,1.26146e-01,2.74417e-01
1.77540e+03,1.83190e+01,-4.42514e+01,-1.63839e-01,1.23716e-01,2.69741e-01
1.77540e+03,1.72428e+01,-4.63586e+01,-1.60787e-01,1.21341e-01,2.64619e-01
1.77540e+03,1.60110e+01,-4.84658e+01,-1.56289e-01,1.19031e-01,2.58710e-01
1.77540e+03,1.45992e+01,-5.05731e+01,-1.50118e-01,1.16812e-01,2.51933e-01
1.77540e+03,1.29838e+01,-5.26803e+01,-1.42055e-01,1.14711e-01,2.44245e-01
1.77540e+03,1.10731e+01,-5.47875e+01,-1.31248e-01,1.12746e-01,2.35289e-01
1.77540e+03,8.62063e+00,-5.68947e+01,-1.15407e-01,1.11013e-01,2.24255e-01
1.77540e+03,5.30372e+00,-5.90019e+01,-9.15321e-02,1.09949e-01,2.11293e-01
1.77540e+03,-2.14903e+00,-6.11091e+01,-2.92242e-02,1.10364e-01,1.93376e-01
1.77540e+03,-2.68689e+00,-6.11140e+01,-2.42421e-02,1.11661e-01,1.94916e-01
1.77540e+03,-7.58725e+00,-5.89314e+01,2.84933e-02,1.14124e-01,1.99712e-01
1.77540e+03,-8.18057e+00,-5.67487e+01,4.12043e-02,1.15945e-01,2.05006e-01
1.77540e+03,-8.38530e+00,-5.45661e+01,5.03043e-02,1.17861e-01,2.10248e-01
1.77540e+03,-8.41637e+00,-5.23834e+01,5.77905e-02,1.19866e-01,2.15508e-01
1.77540e+03,-8.31659e+00,-5.02008e+01,6.40607e-02,1.21945e-01,2.20717e-01
1.77540e+03,-8.13471e+00,-4.80181e+01,6.95679e-02,1.24086e-01,2.25901e-01
1.77540e+03,-7.87037e+00,-4.58355e+01,7.43090e-02,1.26275e-01,2.30993e-01
1.77540e+03,-7.55575e+00,-4.36529e+01,7.85827e-02,1.28502e-01,2.36037e-01
1.77540e+03,-7.21195e+00,-4.14702e+01,8.25853e-02,1.30761e-01,2.41072e-01
1.77540e+03,-6.82421e+00,-3.92876e+01,8.61796e-02,1.33047e-01,2.46031e-01
1.77540e+03,-6.40900e+00,-3.71049e+01,8.95186e-02,1.35353e-01,2.50947e-01
1.77540e+03,-5.96704e+00,-3.49223e+01,9.26091e-02,1.37674e-01,2.55810e-01
1.77540e+03,-5.49844e+00,-3.27396e+01,9.54520e-02,1.40005e-01,2.60606e-01
1.77540e+03,-5.01314e+00,-3.05570e+01,9.81396e-02,1.42343e-01,2.65360e-01
1.77540e+03,-4.50644e+00,-2.83744e+01,1.00628e-01,1.44684e-01,2.70049e-01
1.77540e+03,-3.98604e+00,-2.61917e+01,1.02990e-01,1.47024e-01,2.74691e-01
1.77540e+03,-3.45334e+00,-2.40091e+01,1.05237e-01,1.49361e-01,2.79287e-01
1.77540e+03,-2.90969e+00,-2.18264e+01,1.07383e-01,1.51693e-01,2.83837e-01
1.77540e+03,-2.36138e+00,-1.96438e+01,1.09485e-01,1.54017e-01,2.88359e-01
1.77540e+03,-1.80588e+00,-1.74611e+01,1.11520e-01,1.56332e-01,2.92842e-01
1.77540e+03,-1.24918e+00,-1.52785e+01,1.13544e-01,1.58638e-01,2.97305e-01
1.77540e+03,-6.88187e-01,-1.30959e+01,1.15529e-01,1.60934e-01,3.01738e-01
1.77540e+03,-1.27248e-01,-1.09132e+01,1.17513e-01,1.63218e-01,3.06153e-01
1.77540e+03,4.31571e-01,-8.73057e+00,1.19518e-01,1.65491e-01,3.10558e-01
1.77540e+03,9.90390e-01,-6.54793e+00,1.21522e-01,1.67752e-01,3.14945e-01
1.77540e+03,1.53598e+00,-4.36529e+00,1.23650e-01,1.70003e-01,3.19363e-01
1.77540e+03,2.07910e+00,-2.18264e+00,1.25800e-01,1.72245e-01,3.23775e-01
1.82660e+03,2.53092e+01,0.00000e+00,-7.11010e-02,1.42896e-01,2.57514e-01
1.82660e+03,2.51817e+01,-1.92323e+00,-7.50652e-02,1.41297e-01,2.55986e-01
1.82660e+03,2.50121e+01,-3.84646e+00,-7.87397e-02,1.39658e-01,2.54387e-01
1.82660e+03,2.48409e+01,-5.76969e+00,-8.24026e-02,1.37981e-01,2.52797e-01
1.82660e+03,2.46324e+01,-7.69292e+00,-8.58098e-02,1.36270e-01,2.51142e-01
1.82660e+03,2.44154e+01,-9.61614e+00,-8.91577e-02,1.34527e-01,2.49483e-01
1.82660e+03,2.41698e+01,-1.15394e+01,-9.23092e-02,1.32755e-01,2.47776e-01
1.82660e+03,2.39103e+01,-1.34626e+01,-9.53655e-02,1.30956e-01,2.46055e-01
1.82660e+03,2.36280e+01,-1.53858e+01,-9.82641e-02,1.29133e-01,2.44298e-01
1.82660e+03,2.33268e+01,-1.73091e+01,-1.01033e-01,1.27287e-01,2.42516e-01
1.82660e+03,2.30049e+01,-1.92323e+01,-1.03660e-01,1.25422e-01,2.40702e-01
1.82660e+03,2.26579e+01,-2.11555e+01,-1.06114e-01,1.23540e-01,2.38844e-01
1.82660e+03,2.22852e+01,-2.30787e+01,-1.08391e-01,1.21643e-01,2.36938e-01
1.82660e+03,2.18762e+01,-2.50020e+01,-1.10418e-01,1.19734e-01,2.34949e-01
1.82660e+03,2.14317e+01,-2.69252e+01,-1.12202e-01,1.17818e-01,2.32879e-01
1.82660e+03,2.09449e+01,-2.88484e+01,-1.13695e-01,1.15897e-01,2.30700e-01
1.82660e+03,2.04008e+01,-3.07717e+01,-1.14792e-01,1.13978e-01,2.28364e-01
1.82660e+03,1.98168e+01,-3.26949e+01,-1.15616e-01,1.12062e-01,2.25922e-01
1.82660e+03,1.91430e+01,-3.46181e+01,-1.15822e-01,1.10159e-01,2.23204e-01
1.82660e+03,1.84320e+01,-3.65413e+01,-1.15772e-01,1.08275e-01,2.20394e-01
1.82660e+03,1.76173e+01,-3.84646e+01,-1.15009e-01,1.06413e-01,2.17252e-01
1.82660e+03,1.67196e+01,-4.03878e+01,-1.13675e-01,1.04589e-01,2.13866e-01
1.82660e+03,1.57373e+01,-4.23110e+01,-1.11759e-01,1.02807e-01,2.10233e-01
1.82660e+03,1.46131e+01,-4.42343e+01,-1.08866e-01,1.01073e-01,2.06154e-01
1.82660e+03,1.33245e+01,-4.61575e+01,-1.04843e-01,9.94081e-02,2.01589e-01
1.82660e+03,1.18502e+01,-4.80807e+01,-9.95424e-02,9.78318e-02,1.96524e-01
1.82660e+03,1.01063e+01,-5.00040e+01,-9.23876e-02,9.63575e-02,1.90761e-01
1.82660e+03,7.86795e+00,-5.19272e+01,-8.18312e-02,9.50570e-02,1.83858e-01
1.82660e+03,4.84065e+00,-5.38504e+01,-6.58477e-02,9.42598e-02,1.76042e-01
1.82660e+03,-1.96139e+00,-5.57736e+01,-2.38982e-02,9.45713e-02,1.65536e-01
1.82660e+03,-2.45230e+00,-5.57781e+01,-2.05326e-02,9.55455e-02,1.66759e-01
1.82660e+03,-6.92480e+00,-5.37860e+01,1.52475e-02,9.73946e-02,1.69380e-01
1.82660e+03,-7.46632e+00,-5.17940e+01,2.39867e-02,9.87613e-02,1.72733e-01
1.82660e+03,-7.65318e+00,-4.98019e+01,3.02864e-02,1.00200e-01,1.76174e-01
1.82660e+03,-7.68153e+00,-4.78098e+01,3.54957e-02,1.01705e-01,1.79699e-01
1.82660e+03,-7.59047e+00,-4.58177e+01,3.98836e-02,1.03265e-01,1.83254e-01
1.82660e+03,-7.42446e+00,-4.38257e+01,4.37559e-02,1.04872e-01,1.86839e-01
1.82660e+03,-7.18321e+00,-4.18336e+01,4.71106e-02,1.06515e-01,1.90409e-01
1.82660e+03,-6.89605e+00,-3.98415e+01,5.01495e-02,1.08186e-01,1.93979e-01
1.82660e+03,-6.58227e+00,-3.78494e+01,5.30053e-02,1.09882e-01,1.97564e-01
1.82660e+03,-6.22838e+00,-3.58574e+01,5.55852e-02,1.11597e-01,2.01126e-01
1.82660e+03,-5.84943e+00,-3.38653e+01,5.79927e-02,1.13328e-01,2.04677e-01
1.82660e+03,-5.44606e+00,-3.18732e+01,6.02322e-02,1.15069e-01,2.08208e-01
1.82660e+03,-5.01837e+00,-2.98811e+01,6.23045e-02,1.16819e-01,2.11711e-01
1.82660e+03,-4.57544e+00,-2.78891e+01,6.42719e-02,1.18573e-01,2.15197e-01
1.82660e+03,-4.11298e+00,-2.58970e+01,6.61049e-02,1.20330e-01,2.18650e-01
1.82660e+03,-3.63801e+00,-2.39049e+01,6.78520e-02,1.22086e-01,2.22078e-01
1.82660e+03,-3.15183e+00,-2.19128e+01,6.95218e-02,1.23840e-01,2.25482e-01
1.82660e+03,-2.65564e+00,-1.99208e+01,7.11228e-02,1.25589e-01,2.28858e-01
1.82660e+03,-2.15521e+00,-1.79287e+01,7.26947e-02,1.27333e-01,2.32218e-01
1.82660e+03,-1.64821e+00,-1.59366e+01,7.42214e-02,1.29070e-01,2.35554e-01
1.82660e+03,-1.14012e+00,-1.39445e+01,7.57405e-02,1.30800e-01,2.38877e-01
1.82660e+03,-6.28101e-01,-1.19525e+01,7.72327e-02,1.32522e-01,2.42180e-01
1.82660e+03,-1.16138e-01,-9.96038e+00,7.87252e-02,1.34236e-01,2.45469e-01
1.82660e+03,3.93890e-01,-7.96830e+00,8.02311e-02,1.35941e-01,2.48750e-01
1.82660e+03,9.03919e-01,-5.97623e+00,8.17369e-02,1.37637e-01,2.52018e-01
1.82660e+03,1.40187e+00,-3.98415e+00,8.33258e-02,1.39326e-01,2.55300e-01
1.82660e+03,1.89757e+00,-1.99208e+00,8.49302e-02,1.41007e-01,2.58577e-01
1.87280e+03,2.31244e+01,0.00000e+00,-4.51147e-02,1.14098e-01,2.02708e-01
1.87280e+03,2.30080e+01,-1.75721e+00,-4.77603e-02,1.12940e-01,2.01363e-01
1.87280e+03,2.28531e+01,-3.51443e+00,-5.02216e-02,1.11753e-01,1.99971e-01
1.87280e+03,2.26966e+01,-5.27164e+00,-5.26755e-02,1.10539e-01,1.98573e-01
1.87280e+03,2.25061e+01,-7.02886e+00,-5.49666e-02,1.09300e-01,1.97132e-01
1.87280e+03,2.23078e+01,-8.78607e+00,-5.72200e-02,1.08039e-01,1.95681e-01
1.87280e+03,2.20834e+01,-1.05433e+01,-5.93484e-02,1.06756e-01,1.94197e-01
1.87280e+03,2.18464e+01,-1.23005e+01,-6.14162e-02,1.05453e-01,1.92699e-01
1.87280e+03,2.15884e+01,-1.40577e+01,-6.33837e-02,1.04133e-01,1.91177e-01
1.87280e+03,2.13132e+01,-1.58149e+01,-6.52687e-02,1.02797e-01,1.89636e-01
1.87280e+03,2.10191e+01,-1.75721e+01,-6.70629e-02,1.01447e-01,1.88074e-01
1.87280e+03,2.07020e+01,-1.93294e+01,-6.87475e-02,1.00084e-01,1.86485e-01
1.87280e+03,2.03615e+01,-2.10866e+01,-7.03196e-02,9.87110e-02,1.84869e-01
1.87280e+03,1.99878e+01,-2.28438e+01,-7.17325e-02,9.73295e-02,1.83207e-01
1.87280e+03,1.95817e+01,-2.46010e+01,-7.29904e-02,9.59424e-02,1.81501e-01
1.87280e+03,1.91369e+01,-2.63582e+01,-7.40629e-02,9.45518e-02,1.79737e-01
1.87280e+03,1.86398e+01,-2.81154e+01,-7.48844e-02,9.31626e-02,1.77892e-01
1.87280e+03,1.81062e+01,-2.98726e+01,-7.55312e-02,9.17758e-02,1.75993e-01
1.87280e+03,1.74905e+01,-3.16299e+01,-7.57850e-02,9.03988e-02,1.73952e-01
1.87280e+03,1.68409e+01,-3.33871e+01,-7.58759e-02,8.90349e-02,1.71868e-01
1.87280e+03,1.60966e+01,-3.51443e+01,-7.55130e-02,8.76874e-02,1.69616e-01
1.87280e+03,1.52763e+01,-3.69015e+01,-7.47864e-02,8.63676e-02,1.67246e-01
1.87280e+03,1.43788e+01,-3.86587e+01,-7.36896e-02,8.50778e-02,1.64757e-01
1.87280e+03,1.33517e+01,-4.04159e+01,-7.19717e-02,8.38228e-02,1.62045e-01
1.87280e+03,1.21743e+01,-4.21731e+01,-6.95340e-02,8.26177e-02,1.59098e-01
1.87280e+03,1.08272e+01,-4.39304e+01,-6.62829e-02,8.14771e-02,1.55913e-01
1.87280e+03,9.23393e+00,-4.56876e+01,-6.18521e-02,8.04102e-02,1.52391e-01
1.87280e+03,7.18879e+00,-4.74448e+01,-5.52564e-02,7.94693e-02,1.48322e-01
1.87280e+03,4.42280e+00,-4.92020e+01,-4.52067e-02,7.88929e-02,1.43930e-01
1.87280e+03,-1.79208e+00,-5.09592e+01,-1.86314e-02,7.91187e-02,1.38298e-01
1.87280e+03,-2.24062e+00,-5.09633e+01,-1.64897e-02,7.98242e-02,1.39239e-01
1.87280e+03,-6.32705e+00,-4.91432e+01,6.40893e-03,8.11629e-02,1.40724e-01
1.87280e+03,-6.82182e+00,-4.73231e+01,1.20979e-02,8.21522e-02,1.42805e-01
1.87280e+03,-6.99255e+00,-4.55029e+01,1.62343e-02,8.31934e-02,1.45007e-01
1.87280e+03,-7.01846e+00,-4.36828e+01,1.96768e-02,8.42830e-02,1.47303e-01
1.87280e+03,-6.93525e+00,-4.18627e+01,2.25964e-02,8.54125e-02,1.49655e-01
1.87280e+03,-6.78358e+00,-4.00426e+01,2.51880e-02,8.65752e-02,1.52053e-01
1.87280e+03,-6.56315e+00,-3.82225e+01,2.74501e-02,8.77643e-02,1.54471e-01
1.87280e+03,-6.30078e+00,-3.64024e+01,2.95112e-02,8.89741e-02,1.56908e-01
1.87280e+03,-6.01408e+00,-3.45822e+01,3.14558e-02,9.02014e-02,1.59369e-01
1.87280e+03,-5.69074e+00,-3.27621e+01,3.32249e-02,9.14429e-02,1.61831e-01
1.87280e+03,-5.34450e+00,-3.09420e+01,3.48841e-02,9.26951e-02,1.64299e-01
1.87280e+03,-4.97595e+00,-2.91219e+01,3.64365e-02,9.39556e-02,1.66765e-01
1.87280e+03,-4.58518e+00,-2.73018e+01,3.78825e-02,9.52217e-02,1.69223e-01
1.87280e+03,-4.18049e+00,-2.54816e+01,3.92617e-02,9.64913e-02,1.71678e-01
1.87280e+03,-3.75794e+00,-2.36615e+01,4.05553e-02,9.77624e-02,1.74118e-01
1.87280e+03,-3.32398e+00,-2.18414e+01,4.17943e-02,9.90332e-02,1.76549e-01
1.87280e+03,-2.87976e+00,-2.00213e+01,4.29841e-02,1.00302e-01,1.78967e-01
1.87280e+03,-2.42640e+00,-1.82012e+01,4.41301e-02,1.01568e-01,1.81372e-01
1.87280e+03,-1.96917e+00,-1.63811e+01,4.52576e-02,1.02830e-01,1.83767e-01
1.87280e+03,-1.50594e+00,-1.45609e+01,4.63563e-02,1.04087e-01,1.86148e-01
1.87280e+03,-1.04170e+00,-1.27408e+01,4.74502e-02,1.05338e-01,1.88521e-01
1.87280e+03,-5.73883e-01,-1.09207e+01,4.85270e-02,1.06584e-01,1.90881e-01
1.87280e+03,-1.06113e-01,-9.10059e+00,4.96039e-02,1.07824e-01,1.93232e-01
1.87280e+03,3.59890e-01,-7.28047e+00,5.06894e-02,1.09058e-01,1.95577e-01
1.87280e+03,8.25892e-01,-5.46035e+00,5.17748e-02,1.10285e-01,1.97912e-01
1.87280e+03,1.28086e+00,-3.64024e+00,5.29131e-02,1.11507e-01,2.00253e-01
1.87280e+03,1.73377e+00,-1.82012e+00,5.40613e-02,1.12723e-01,2.02589e-01
1.91380e+03,2.11856e+01,0.00000e+00,-2.65085e-02,8.80510e-02,1.54795e-01
1.91380e+03,2.10789e+01,-1.60989e+00,-2.81652e-02,8.72464e-02,1.53718e-01
1.91380e+03,2.09370e+01,-3.21977e+00,-2.97131e-02,8.64222e-02,1.52608e-01
1.91380e+03,2.07936e+01,-4.82966e+00,-3.12566e-02,8.55791e-02,1.51487e-01
1.91380e+03,2.06192e+01,-6.43954e+00,-3.27039e-02,8.47188e-02,1.50338e-01
1.91380e+03,2.04375e+01,-8.04943e+00,-3.41290e-02,8.38425e-02,1.49176e-01
1.91380e+03,2.02319e+01,-9.65931e+00,-3.54803e-02,8.29515e-02,1.47992e-01
1.91380e+03,2.00147e+01,-1.12692e+01,-3.67958e-02,8.20471e-02,1.46796e-01
1.91380e+03,1.97784e+01,-1.28791e+01,-3.80520e-02,8.11303e-02,1.45583e-01
1.91380e+03,1.95262e+01,-1.44890e+01,-3.92595e-02,8.02026e-02,1.44356e-01
1.91380e+03,1.92568e+01,-1.60989e+01,-4.04134e-02,7.92650e-02,1.43116e-01
1.91380e+03,1.89663e+01,-1.77087e+01,-4.15025e-02,7.83188e-02,1.41859e-01
1.91380e+03,1.86544e+01,-1.93186e+01,-4.25252e-02,7.73653e-02,1.40586e-01
1.91380e+03,1.83120e+01,-2.09285e+01,-4.34539e-02,7.64060e-02,1.39291e-01
1.91380e+03,1.79399e+01,-2.25384e+01,-4.42911e-02,7.54429e-02,1.37973e-01
1.91380e+03,1.75325e+01,-2.41483e+01,-4.50188e-02,7.44774e-02,1.36628e-01
1.91380e+03,1.70770e+01,-2.57582e+01,-4.55982e-02,7.35128e-02,1.35246e-01
1.91380e+03,1.65881e+01,-2.73680e+01,-4.60744e-02,7.25499e-02,1.33841e-01
1.91380e+03,1.60241e+01,-2.89779e+01,-4.63186e-02,7.15939e-02,1.32372e-01
1.91380e+03,1.54289e+01,-3.05878e+01,-4.64665e-02,7.06469e-02,1.30890e-01
1.91380e+03,1.47470e+01,-3.21977e+01,-4.63465e-02,6.97113e-02,1.29333e-01
1.91380e+03,1.39955e+01,-3.38076e+01,-4.60116e-02,6.87951e-02,1.27732e-01
1.91380e+03,1.31733e+01,-3.54175e+01,-4.54581e-02,6.78997e-02,1.26085e-01
1.91380e+03,1.22322e+01,-3.70274e+01,-4.45378e-02,6.70284e-02,1.24346e-01
1.91380e+03,1.11536e+01,-3.86372e+01,-4.31924e-02,6.61918e-02,1.22514e-01
1.91380e+03,9.91946e+00,-4.02471e+01,-4.13666e-02,6.54000e-02,1.20593e-01
1.91380e+03,8.45973e+00,-4.18570e+01,-3.88441e-02,6.46594e-02,1.18539e-01
1.91380e+03,6.58606e+00,-4.34669e+01,-3.50430e-02,6.40063e-02,1.16269e-01
1.91380e+03,4.05198e+00,-4.50768e+01,-2.92021e-02,6.36065e-02,1.13974e-01
1.91380e+03,-1.64183e+00,-4.66867e+01,-1.36014e-02,6.37636e-02,1.11276e-01
1.91380e+03,-2.05276e+00,-4.66904e+01,-1.23368e-02,6.42536e-02,1.11972e-01
1.91380e+03,-5.79657e+00,-4.50229e+01,1.28446e-03,6.51833e-02,1.12908e-01
1.91380e+03,-6.24986e+00,-4.33554e+01,4.74195e-03,6.58702e-02,1.14189e-01
1.91380e+03,-6.40628e+00,-4.16879e+01,7.28247e-03,6.65932e-02,1.15573e-01
1.91380e+03,-6.43001e+00,-4.00204e+01,9.41316e-03,6.73498e-02,1.17032e-01
1.91380e+03,-6.35378e+00,-3.83528e+01,1.12351e-02,6.81340e-02,1.18545e-01
1.91380e+03,-6.21483e+00,-3.66853e+01,1.28632e-02,6.89413e-02,1.20101e-01
1.91380e+03,-6.01288e+00,-3.50178e+01,1.42968e-02,6.97669e-02,1.21683e-01
1.91380e+03,-5.77251e+00,-3.33503e+01,1.56118e-02,7.06068e-02,1.23287e-01
1.91380e+03,-5.50985e+00,-3.16828e+01,1.68579e-02,7.14589e-02,1.24913e-01
1.91380e+03,-5.21362e+00,-3.00153e+01,1.80002e-02,7.23208e-02,1.26550e-01
1.91380e+03,-4.89640e+00,-2.83477e+01,1.90778e-02,7.31901e-02,1.28196e-01
1.91380e+03,-4.55876e+00,-2.66802e+01,2.00923e-02,7.40652e-02,1.29849e-01
1.91380e+03,-4.20075e+00,-2.50127e+01,2.10438e-02,7.49441e-02,1.31502e-01
1.91380e+03,-3.82998e+00,-2.33452e+01,2.19560e-02,7.58255e-02,1.33156e-01
1.91380e+03,-3.44287e+00,-2.16777e+01,2.28177e-02,7.67079e-02,1.34807e-01
1.91380e+03,-3.04529e+00,-2.00102e+01,2.36470e-02,7.75900e-02,1.36454e-01
1.91380e+03,-2.63832e+00,-1.83427e+01,2.44473e-02,7.84709e-02,1.38097e-01
1.91380e+03,-2.22297e+00,-1.66751e+01,2.52218e-02,7.93495e-02,1.39733e-01
1.91380e+03,-1.80407e+00,-1.50076e+01,2.59853e-02,8.02253e-02,1.41363e-01
1.91380e+03,-1.37967e+00,-1.33401e+01,2.67318e-02,8.10978e-02,1.42987e-01
1.91380e+03,-9.54362e-01,-1.16726e+01,2.74755e-02,8.19666e-02,1.44604e-01
1.91380e+03,-5.25768e-01,-1.00051e+01,2.82090e-02,8.28314e-02,1.46215e-01
1.91380e+03,-9.72161e-02,-8.33757e+00,2.89427e-02,8.36919e-02,1.47820e-01
1.91380e+03,3.29716e-01,-6.67006e+00,2.96814e-02,8.45482e-02,1.49419e-01
1.91380e+03,7.56647e-01,-5.00254e+00,3.04201e-02,8.54000e-02,1.51013e-01
1.91380e+03,1.17347e+00,-3.33503e+00,3.11900e-02,8.62478e-02,1.52607e-01
1.91380e+03,1.58841e+00,-1.66751e+00,3.19657e-02,8.70919e-02,1.54197e-01
1.94970e+03,1.94880e+01,0.00000e+00,-1.40228e-02,6.49307e-02,1.13334e-01
1.94970e+03,1.93899e+01,-1.48088e+00,-1.49723e-02,6.44026e-02,1.12549e-01
1.94970e+03,1.92593e+01,-2.96177e+00,-1.58637e-02,6.38616e-02,1.11743e-01
1.94970e+03,1.91274e+01,-4.44265e+00,-1.67528e-02,6.33082e-02,1.10925e-01
1.94970e+03,1.89669e+01,-5.92353e+00,-1.75907e-02,6.27436e-02,1.10090e-01
1.94970e+03,1.87998e+01,-7.40441e+00,-1.84166e-02,6.21685e-02,1.09242e-01
1.94970e+03,1.86107e+01,-8.88530e+00,-1.92032e-02,6.15837e-02,1.08381e-01
1.94970e+03,1.84109e+01,-1.03662e+01,-1.99707e-02,6.09901e-02,1.07509e-01
1.94970e+03,1.81935e+01,-1.18471e+01,-2.07066e-02,6.03884e-02,1.06626e-01
1.94970e+03,1.79616e+01,-1.33279e+01,-2.14166e-02,5.97796e-02,1.05733e-01
1.94970e+03,1.77137e+01,-1.48088e+01,-2.20980e-02,5.91642e-02,1.04831e-01
1.94970e+03,1.74465e+01,-1.62897e+01,-2.27448e-02,5.85433e-02,1.03920e-01
1.94970e+03,1.71596e+01,-1.77706e+01,-2.33562e-02,5.79175e-02,1.02999e-01
1.94970e+03,1.68446e+01,-1.92515e+01,-2.39175e-02,5.72880e-02,1.02068e-01
1.94970e+03,1.65024e+01,-2.07324e+01,-2.44300e-02,5.66560e-02,1.01126e-01
1.94970e+03,1.61276e+01,-2.22132e+01,-2.48841e-02,5.60224e-02,1.00174e-01
1.94970e+03,1.57086e+01,-2.36941e+01,-2.52591e-02,5.53895e-02,9.92069e-02
1.94970e+03,1.52589e+01,-2.51750e+01,-2.55792e-02,5.47576e-02,9.82318e-02
1.94970e+03,1.47401e+01,-2.66559e+01,-2.57755e-02,5.41303e-02,9.72350e-02
1.94970e+03,1.41926e+01,-2.81368e+01,-2.59205e-02,5.35089e-02,9.62366e-02
1.94970e+03,1.35653e+01,-2.96177e+01,-2.59226e-02,5.28950e-02,9.52136e-02
1.94970e+03,1.28740e+01,-3.10985e+01,-2.58102e-02,5.22938e-02,9.41812e-02
1.94970e+03,1.21177e+01,-3.25794e+01,-2.55812e-02,5.17063e-02,9.31398e-02
1.94970e+03,1.12521e+01,-3.40603e+01,-2.51565e-02,5.11347e-02,9.20712e-02
1.94970e+03,1.02599e+01,-3.55412e+01,-2.45053e-02,5.05858e-02,9.09795e-02
1.94970e+03,9.12460e+00,-3.70221e+01,-2.35979e-02,5.00663e-02,8.98708e-02
1.94970e+03,7.78184e+00,-3.85029e+01,-2.23191e-02,4.95804e-02,8.87288e-02
1.94970e+03,6.05831e+00,-3.99838e+01,-2.03585e-02,4.91520e-02,8.75341e-02
1.94970e+03,3.72729e+00,-4.14647e+01,-1.73102e-02,4.88899e-02,8.64309e-02
1.94970e+03,-1.51027e+00,-4.29456e+01,-9.05813e-03,4.89931e-02,8.53407e-02
1.94970e+03,-1.88827e+00,-4.29490e+01,-8.38398e-03,4.93148e-02,8.58261e-02
1.94970e+03,-5.33209e+00,-4.14151e+01,-1.05275e-03,4.99249e-02,8.64789e-02
1.94970e+03,-5.74905e+00,-3.98812e+01,8.59239e-04,5.03757e-02,8.72575e-02
1.94970e+03,-5.89293e+00,-3.83473e+01,2.28231e-03,5.08502e-02,8.81047e-02
1.94970e+03,-5.91477e+00,-3.68135e+01,3.48686e-03,5.13467e-02,8.90034e-02
1.94970e+03,-5.84465e+00,-3.52796e+01,4.52678e-03,5.18613e-02,8.99404e-02
1.94970e+03,-5.71682e+00,-3.37457e+01,5.46339e-03,5.23910e-02,9.09082e-02
1.94970e+03,-5.53106e+00,-3.22118e+01,6.29626e-03,5.29328e-02,9.18982e-02
1.94970e+03,-5.30995e+00,-3.06779e+01,7.06585e-03,5.34839e-02,9.29059e-02
1.94970e+03,-5.06834e+00,-2.91440e+01,7.79873e-03,5.40430e-02,9.39295e-02
1.94970e+03,-4.79584e+00,-2.76101e+01,8.47633e-03,5.46085e-02,9.49637e-02
1.94970e+03,-4.50405e+00,-2.60762e+01,9.11936e-03,5.51789e-02,9.60067e-02
1.94970e+03,-4.19345e+00,-2.45423e+01,9.72874e-03,5.57531e-02,9.70560e-02
1.94970e+03,-3.86414e+00,-2.30084e+01,1.03046e-02,5.63297e-02,9.81086e-02
1.94970e+03,-3.52308e+00,-2.14745e+01,1.08594e-02,5.69080e-02,9.91639e-02
1.94970e+03,-3.16699e+00,-1.99406e+01,1.13874e-02,5.74869e-02,1.00219e-01
1.94970e+03,-2.80126e+00,-1.84067e+01,1.18980e-02,5.80656e-02,1.01274e-01
1.94970e+03,-2.42690e+00,-1.68728e+01,1.23932e-02,5.86435e-02,1.02327e-01
1.94970e+03,-2.04484e+00,-1.53389e+01,1.28747e-02,5.92200e-02,1.03377e-01
1.94970e+03,-1.65951e+00,-1.38050e+01,1.33502e-02,5.97946e-02,1.04424e-01
1.94970e+03,-1.26912e+00,-1.22712e+01,1.38167e-02,6.03669e-02,1.05467e-01
1.94970e+03,-8.77888e-01,-1.07373e+01,1.42818e-02,6.09368e-02,1.06508e-01
1.94970e+03,-4.83637e-01,-9.20336e+00,1.47414e-02,6.15041e-02,1.07543e-01
1.94970e+03,-8.94260e-02,-7.66947e+00,1.52010e-02,6.20686e-02,1.08575e-01
1.94970e+03,3.03295e-01,-6.13558e+00,1.56634e-02,6.26303e-02,1.09604e-01
1.94970e+03,6.96016e-01,-4.60168e+00,1.61257e-02,6.31890e-02,1.10628e-01
1.94970e+03,1.07944e+00,-3.06779e+00,1.66047e-02,6.37451e-02,1.11651e-01
1.94970e+03,1.46113e+00,-1.53389e+00,1.70868e-02,6.42989e-02,1.12672e-01
1.98010e+03,1.80504e+01,0.00000e+00,-6.46667e-03,4.48519e-02,7.79545e-02
1.98010e+03,1.79595e+01,-1.37164e+00,-6.95088e-03,4.45299e-02,7.74407e-02
1.98010e+03,1.78386e+01,-2.74329e+00,-7.40800e-03,4.42001e-02,7.69144e-02
1.98010e+03,1.77165e+01,-4.11493e+00,-7.86403e-03,4.38627e-02,7.63784e-02
1.98010e+03,1.75678e+01,-5.48657e+00,-8.29615e-03,4.35185e-02,7.58314e-02
1.98010e+03,1.74130e+01,-6.85822e+00,-8.72271e-03,4.31678e-02,7.52760e-02
1.98010e+03,1.72378e+01,-8.22986e+00,-9.13092e-03,4.28113e-02,7.47115e-02
1.98010e+03,1.70528e+01,-9.60150e+00,-9.53021e-03,4.24494e-02,7.41397e-02
1.98010e+03,1.68514e+01,-1.09731e+01,-9.91476e-03,4.20827e-02,7.35605e-02
1.98010e+03,1.66366e+01,-1.23448e+01,-1.02872e-02,4.17115e-02,7.29752e-02
1.98010e+03,1.64070e+01,-1.37164e+01,-1.06463e-02,4.13364e-02,7.23839e-02
1.98010e+03,1.61595e+01,-1.50881e+01,-1.09893e-02,4.09579e-02,7.17872e-02
1.98010e+03,1.58938e+01,-1.64597e+01,-1.13157e-02,4.05764e-02,7.11855e-02
1.98010e+03,1.56020e+01,-1.78314e+01,-1.16188e-02,4.01927e-02,7.05787e-02
1.98010e+03,1.52851e+01,-1.92030e+01,-1.18990e-02,3.98074e-02,6.99677e-02
1.98010e+03,1.49379e+01,-2.05747e+01,-1.21520e-02,3.94212e-02,6.93525e-02
1.98010e+03,1.45498e+01,-2.19463e+01,-1.23682e-02,3.90354e-02,6.87332e-02
1.98010e+03,1.41333e+01,-2.33179e+01,-1.25586e-02,3.86502e-02,6.81120e-02
1.98010e+03,1.36527e+01,-2.46896e+01,-1.26914e-02,3.82678e-02,6.74860e-02
1.98010e+03,1.31457e+01,-2.60612e+01,-1.28001e-02,3.78891e-02,6.68625e-02
1.98010e+03,1.25646e+01,-2.74329e+01,-1.28422e-02,3.75149e-02,6.62347e-02
1.98010e+03,1.19244e+01,-2.88045e+01,-1.28308e-02,3.71485e-02,6.56099e-02
1.98010e+03,1.12238e+01,-3.01762e+01,-1.27651e-02,3.67904e-02,6.49888e-02
1.98010e+03,1.04220e+01,-3.15478e+01,-1.26080e-02,3.64420e-02,6.43662e-02
1.98010e+03,9.50303e+00,-3.29194e+01,-1.23452e-02,3.61074e-02,6.37467e-02
1.98010e+03,8.45151e+00,-3.42911e+01,-1.19628e-02,3.57908e-02,6.31352e-02
1.98010e+03,7.20780e+00,-3.56627e+01,-1.14070e-02,3.54947e-02,6.25280e-02
1.98010e+03,5.61141e+00,-3.70344e+01,-1.05331e-02,3.52337e-02,6.19288e-02
1.98010e+03,3.45234e+00,-3.84060e+01,-9.15164e-03,3.50740e-02,6.14354e-02
1.98010e+03,-1.39886e+00,-3.97777e+01,-5.34154e-03,3.51370e-02,6.10931e-02
1.98010e+03,-1.74898e+00,-3.97808e+01,-5.02701e-03,3.53331e-02,6.14049e-02
1.98010e+03,-4.93876e+00,-3.83601e+01,-1.56300e-03,3.57051e-02,6.18628e-02
1.98010e+03,-5.32496e+00,-3.69394e+01,-6.28113e-04,3.59799e-02,6.23222e-02
1.98010e+03,-5.45823e+00,-3.55186e+01,7.85963e-05,3.62692e-02,6.28201e-02
1.98010e+03,-5.47846e+00,-3.40979e+01,6.83324e-04,3.65718e-02,6.33479e-02
1.98010e+03,-5.41351e+00,-3.26771e+01,1.21122e-03,3.68855e-02,6.38990e-02
1.98010e+03,-5.29511e+00,-3.12564e+01,1.69090e-03,3.72084e-02,6.44690e-02
1.98010e+03,-5.12305e+00,-2.98356e+01,2.12216e-03,3.75386e-02,6.50534e-02
1.98010e+03,-4.91825e+00,-2.84149e+01,2.52390e-03,3.78745e-02,6.56492e-02
1.98010e+03,-4.69446e+00,-2.69941e+01,2.90850e-03,3.82153e-02,6.62547e-02
1.98010e+03,-4.44207e+00,-2.55734e+01,3.26730e-03,3.85600e-02,6.68678e-02
1.98010e+03,-4.17180e+00,-2.41527e+01,3.60997e-03,3.89077e-02,6.74867e-02
1.98010e+03,-3.88412e+00,-2.27319e+01,3.93694e-03,3.92576e-02,6.81100e-02
1.98010e+03,-3.57909e+00,-2.13112e+01,4.24826e-03,3.96091e-02,6.87363e-02
1.98010e+03,-3.26320e+00,-1.98904e+01,4.54977e-03,3.99615e-02,6.93647e-02
1.98010e+03,-2.93337e+00,-1.84697e+01,4.83871e-03,4.03143e-02,6.99939e-02
1.98010e+03,-2.59462e+00,-1.70489e+01,5.11961e-03,4.06670e-02,7.06232e-02
1.98010e+03,-2.24788e+00,-1.56282e+01,5.39330e-03,4.10192e-02,7.12518e-02
1.98010e+03,-1.89400e+00,-1.42074e+01,5.66054e-03,4.13705e-02,7.18791e-02
1.98010e+03,-1.53709e+00,-1.27867e+01,5.92506e-03,4.17207e-02,7.25049e-02
1.98010e+03,-1.17550e+00,-1.13660e+01,6.18535e-03,4.20695e-02,7.31286e-02
1.98010e+03,-8.13129e-01,-9.94521e+00,6.44493e-03,4.24168e-02,7.37502e-02
1.98010e+03,-4.47961e-01,-8.52447e+00,6.70200e-03,4.27625e-02,7.43694e-02
1.98010e+03,-8.28294e-02,-7.10372e+00,6.95909e-03,4.31065e-02,7.49862e-02
1.98010e+03,2.80922e-01,-5.68298e+00,7.21743e-03,4.34488e-02,7.56008e-02
1.98010e+03,6.44673e-01,-4.26223e+00,7.47578e-03,4.37892e-02,7.62127e-02
1.98010e+03,9.99811e-01,-2.84149e+00,7.74189e-03,4.41281e-02,7.68232e-02
1.98010e+03,1.35334e+00,-1.42074e+00,8.00945e-03,4.44655e-02,7.74319e-02
2.00520e+03,1.68635e+01,0.00000e+00,-2.42577e-03,2.80529e-02,4.86496e-02
2.00520e+03,1.67786e+01,-1.28145e+00,-2.63287e-03,2.78777e-02,4.83573e-02
2.00520e+03,1.66656e+01,-2.56290e+00,-2.82962e-03,2.76982e-02,4.80580e-02
2.00520e+03,1.65515e+01,-3.84435e+00,-3.02595e-03,2.75146e-02,4.77527e-02
2.00520e+03,1.64126e+01,-5.12580e+00,-3.21314e-03,2.73273e-02,4.74412e-02
2.00520e+03,1.62680e+01,-6.40725e+00,-3.39821e-03,2.71365e-02,4.71244e-02
2.00520e+03,1.61044e+01,-7.68870e+00,-3.57626e-03,2.69425e-02,4.68026e-02
2.00520e+03,1.59315e+01,-8.97015e+00,-3.75091e-03,2.67456e-02,4.64763e-02
2.00520e+03,1.57433e+01,-1.02516e+01,-3.91992e-03,2.65460e-02,4.61458e-02
2.00520e+03,1.55427e+01,-1.15330e+01,-4.08430e-03,2.63440e-02,4.58116e-02
2.00520e+03,1.53282e+01,-1.28145e+01,-4.24358e-03,2.61399e-02,4.54741e-02
2.00520e+03,1.50970e+01,-1.40959e+01,-4.39670e-03,2.59340e-02,4.51336e-02
2.00520e+03,1.48486e+01,-1.53774e+01,-4.54351e-03,2.57264e-02,4.47905e-02
2.00520e+03,1.45761e+01,-1.66588e+01,-4.68137e-03,2.55176e-02,4.44450e-02
2.00520e+03,1.42800e+01,-1.79403e+01,-4.81052e-03,2.53080e-02,4.40979e-02
2.00520e+03,1.39556e+01,-1.92217e+01,-4.92927e-03,2.50979e-02,4.37493e-02
2.00520e+03,1.35931e+01,-2.05032e+01,-5.03391e-03,2.48879e-02,4.34001e-02
2.00520e+03,1.32039e+01,-2.17846e+01,-5.12874e-03,2.46784e-02,4.30508e-02
2.00520e+03,1.27550e+01,-2.30661e+01,-5.20150e-03,2.44704e-02,4.27019e-02
2.00520e+03,1.22812e+01,-2.43475e+01,-5.26510e-03,2.42643e-02,4.23555e-02
2.00520e+03,1.17384e+01,-2.56290e+01,-5.30322e-03,2.40607e-02,4.20105e-02
2.00520e+03,1.11403e+01,-2.69104e+01,-5.32091e-03,2.38614e-02,4.16702e-02
2.00520e+03,1.04858e+01,-2.81919e+01,-5.31780e-03,2.36665e-02,4.13351e-02
2.00520e+03,9.73672e+00,-2.94733e+01,-5.27981e-03,2.34770e-02,4.10047e-02
2.00520e+03,8.87814e+00,-3.07548e+01,-5.20139e-03,2.32950e-02,4.06820e-02
2.00520e+03,7.89577e+00,-3.20362e+01,-5.07728e-03,2.31228e-02,4.03703e-02
2.00520e+03,6.73385e+00,-3.33177e+01,-4.88691e-03,2.29617e-02,4.00699e-02
2.00520e+03,5.24243e+00,-3.45991e+01,-4.57493e-03,2.28197e-02,3.97887e-02
2.00520e+03,3.22533e+00,-3.58806e+01,-4.06895e-03,2.27329e-02,3.95842e-02
2.00520e+03,-1.30688e+00,-3.71620e+01,-2.63475e-03,2.27672e-02,3.95219e-02
2.00520e+03,-1.63397e+00,-3.71650e+01,-2.51459e-03,2.28739e-02,3.96985e-02
2.00520e+03,-4.61400e+00,-3.58377e+01,-1.16780e-03,2.30763e-02,3.99864e-02
2.00520e+03,-4.97481e+00,-3.45104e+01,-7.87659e-04,2.32259e-02,4.02361e-02
2.00520e+03,-5.09932e+00,-3.31830e+01,-4.94728e-04,2.33832e-02,4.05040e-02
2.00520e+03,-5.11821e+00,-3.18557e+01,-2.40774e-04,2.35479e-02,4.07869e-02
2.00520e+03,-5.05754e+00,-3.05284e+01,-1.61871e-05,2.37186e-02,4.10818e-02
2.00520e+03,-4.94693e+00,-2.92011e+01,1.89972e-04,2.38943e-02,4.13865e-02
2.00520e+03,-4.78618e+00,-2.78738e+01,3.77628e-04,2.40739e-02,4.16990e-02
2.00520e+03,-4.59485e+00,-2.65464e+01,5.53996e-04,2.42567e-02,4.20175e-02
2.00520e+03,-4.38577e+00,-2.52191e+01,7.23817e-04,2.44421e-02,4.23411e-02
2.00520e+03,-4.14998e+00,-2.38918e+01,8.83775e-04,2.46296e-02,4.26689e-02
2.00520e+03,-3.89748e+00,-2.25645e+01,1.03757e-03,2.48188e-02,4.29999e-02
2.00520e+03,-3.62871e+00,-2.12371e+01,1.18536e-03,2.50091e-02,4.33333e-02
2.00520e+03,-3.34375e+00,-1.99098e+01,1.32717e-03,2.52004e-02,4.36685e-02
2.00520e+03,-3.04862e+00,-1.85825e+01,1.46523e-03,2.53921e-02,4.40048e-02
2.00520e+03,-2.74048e+00,-1.72552e+01,1.59849e-03,2.55840e-02,4.43417e-02
2.00520e+03,-2.42401e+00,-1.59279e+01,1.72868e-03,2.57759e-02,4.46786e-02
2.00520e+03,-2.10007e+00,-1.46005e+01,1.85611e-03,2.59675e-02,4.50153e-02
2.00520e+03,-1.76946e+00,-1.32732e+01,1.98107e-03,2.61586e-02,4.53513e-02
2.00520e+03,-1.43602e+00,-1.19459e+01,2.10499e-03,2.63491e-02,4.56865e-02
2.00520e+03,-1.09820e+00,-1.06186e+01,2.22730e-03,2.65388e-02,4.60205e-02
2.00520e+03,-7.59661e-01,-9.29125e+00,2.34934e-03,2.67277e-02,4.63534e-02
2.00520e+03,-4.18505e-01,-7.96393e+00,2.47042e-03,2.69158e-02,4.66849e-02
2.00520e+03,-7.73829e-02,-6.63661e+00,2.59150e-03,2.71029e-02,4.70151e-02
2.00520e+03,2.62450e-01,-5.30929e+00,2.71307e-03,2.72891e-02,4.73439e-02
2.00520e+03,6.02282e-01,-3.98196e+00,2.83463e-03,2.74743e-02,4.76712e-02
2.00520e+03,9.34067e-01,-2.65464e+00,2.95916e-03,2.76586e-02,4.79974e-02
2.00520e+03,1.26435e+00,-1.32732e+00,3.08425e-03,2.78421e-02,4.83225e-02
2.02480e+03,1.59367e+01,0.00000e+00,-6.63635e-04,1.49794e-02,2.59537e-02
2.02480e+03,1.58564e+01,-1.21102e+00,-7.31494e-04,1.48998e-02,2.58176e-02
2.02480e+03,1.57496e+01,-2.42204e+00,-7.96429e-04,1.48182e-02,2.56783e-02
2.02480e+03,1.56418e+01,-3.63306e+00,-8.61248e-04,1.47348e-02,2.55360e-02
2.02480e+03,1.55106e+01,-4.84408e+00,-9.23486e-04,1.46497e-02,2.53908e-02
2.02480e+03,1.53739e+01,-6.05509e+00,-9.85125e-04,1.45630e-02,2.52430e-02
2.02480e+03,1.52192e+01,-7.26611e+00,-1.04478e-03,1.44748e-02,2.50929e-02
2.02480e+03,1.50559e+01,-8.47713e+00,-1.10348e-03,1.43853e-02,2.49406e-02
2.02480e+03,1.48781e+01,-9.68815e+00,-1.16058e-03,1.42946e-02,2.47862e-02
2.02480e+03,1.46884e+01,-1.08992e+01,-1.21638e-03,1.42029e-02,2.46301e-02
2.02480e+03,1.44857e+01,-1.21102e+01,-1.27074e-03,1.41101e-02,2.44725e-02
2.02480e+03,1.42672e+01,-1.33212e+01,-1.32336e-03,1.40165e-02,2.43134e-02
2.02480e+03,1.40325e+01,-1.45322e+01,-1.37419e-03,1.39222e-02,2.41531e-02
2.02480e+03,1.37750e+01,-1.57432e+01,-1.42251e-03,1.38273e-02,2.39919e-02
2.02480e+03,1.34951e+01,-1.69543e+01,-1.46836e-03,1.37321e-02,2.38300e-02
2.02480e+03,1.31886e+01,-1.81653e+01,-1.51127e-03,1.36366e-02,2.36676e-02
2.02480e+03,1.28460e+01,-1.93763e+01,-1.55021e-03,1.35412e-02,2.35053e-02
2.02480e+03,1.24782e+01,-2.05873e+01,-1.58637e-03,1.34460e-02,2.33432e-02
2.02480e+03,1.20540e+01,-2.17983e+01,-1.61630e-03,1.33515e-02,2.31819e-02
2.02480e+03,1.16063e+01,-2.30094e+01,-1.64365e-03,1.32579e-02,2.30220e-02
2.02480e+03,1.10933e+01,-2.42204e+01,-1.66380e-03,1.31654e-02,2.28637e-02
2.02480e+03,1.05280e+01,-2.54314e+01,-1.67819e-03,1.30748e-02,2.27083e-02
2.02480e+03,9.90946e+00,-2.66424e+01,-1.68670e-03,1.29863e-02,2.25560e-02
2.02480e+03,9.20158e+00,-2.78534e+01,-1.68537e-03,1.29001e-02,2.24072e-02
2.02480e+03,8.39019e+00,-2.90645e+01,-1.67262e-03,1.28175e-02,2.22634e-02
2.02480e+03,7.46181e+00,-3.02755e+01,-1.64697e-03,1.27392e-02,2.21263e-02
2.02480e+03,6.36374e+00,-3.14865e+01,-1.60262e-03,1.26660e-02,2.19967e-02
2.02480e+03,4.95429e+00,-3.26975e+01,-1.52393e-03,1.26015e-02,2.18796e-02
2.02480e+03,3.04806e+00,-3.39085e+01,-1.39048e-03,1.25621e-02,2.18026e-02
2.02480e+03,-1.23505e+00,-3.51195e+01,-9.94978e-04,1.25777e-02,2.18079e-02
2.02480e+03,-1.54416e+00,-3.51224e+01,-9.61077e-04,1.26262e-02,2.18903e-02
2.02480e+03,-4.36041e+00,-3.38680e+01,-5.71134e-04,1.27182e-02,2.20359e-02
2.02480e+03,-4.70139e+00,-3.26136e+01,-4.54088e-04,1.27861e-02,2.21509e-02
2.02480e+03,-4.81905e+00,-3.13592e+01,-3.61663e-04,1.28576e-02,2.22730e-02
2.02480e+03,-4.83691e+00,-3.01049e+01,-2.80241e-04,1.29325e-02,2.24015e-02
2.02480e+03,-4.77957e+00,-2.88505e+01,-2.07110e-04,1.30100e-02,2.25350e-02
2.02480e+03,-4.67504e+00,-2.75961e+01,-1.39181e-04,1.30899e-02,2.26727e-02
2.02480e+03,-4.52312e+00,-2.63418e+01,-7.64758e-05,1.31715e-02,2.28138e-02
2.02480e+03,-4.34231e+00,-2.50874e+01,-1.69574e-05,1.32545e-02,2.29575e-02
2.02480e+03,-4.14473e+00,-2.38330e+01,4.07127e-05,1.33388e-02,2.31035e-02
2.02480e+03,-3.92189e+00,-2.25787e+01,9.55983e-05,1.34240e-02,2.32512e-02
2.02480e+03,-3.68327e+00,-2.13243e+01,1.48744e-04,1.35099e-02,2.34003e-02
2.02480e+03,-3.42927e+00,-2.00699e+01,2.00195e-04,1.35964e-02,2.35505e-02
2.02480e+03,-3.15997e+00,-1.88155e+01,2.49957e-04,1.36833e-02,2.37015e-02
2.02480e+03,-2.88106e+00,-1.75612e+01,2.98661e-04,1.37704e-02,2.38529e-02
2.02480e+03,-2.58986e+00,-1.63068e+01,3.46010e-04,1.38576e-02,2.40046e-02
2.02480e+03,-2.29078e+00,-1.50524e+01,3.92490e-04,1.39448e-02,2.41563e-02
2.02480e+03,-1.98465e+00,-1.37981e+01,4.38191e-04,1.40318e-02,2.43078e-02
2.02480e+03,-1.67220e+00,-1.25437e+01,4.83198e-04,1.41187e-02,2.44590e-02
2.02480e+03,-1.35709e+00,-1.12893e+01,5.27911e-04,1.42052e-02,2.46098e-02
2.02480e+03,-1.03784e+00,-1.00350e+01,5.72167e-04,1.42914e-02,2.47600e-02
2.02480e+03,-7.17909e-01,-8.78059e+00,6.16348e-04,1.43772e-02,2.49097e-02
2.02480e+03,-3.95503e-01,-7.52622e+00,6.60256e-04,1.44627e-02,2.50588e-02
2.02480e+03,-7.31298e-02,-6.27185e+00,7.04168e-04,1.45477e-02,2.52071e-02
2.02480e+03,2.48025e-01,-5.01748e+00,7.48214e-04,1.46322e-02,2.53548e-02
2.02480e+03,5.69180e-01,-3.76311e+00,7.92260e-04,1.47164e-02,2.55018e-02
2.02480e+03,8.82730e-01,-2.50874e+00,8.37145e-04,1.48001e-02,2.56482e-02
2.02480e+03,1.19486e+00,-1.25437e+00,8.82186e-04,1.48835e-02,2.57940e-02
2.03880e+03,1.52746e+01,0.00000e+00,-1.08068e-04,6.09747e-03,1.05617e-02
2.03880e+03,1.51977e+01,-1.16071e+00,-1.22688e-04,6.07146e-03,1.05168e-02
2.03880e+03,1.50954e+01,-2.32142e+00,-1.36801e-04,6.04481e-03,1.04708e-02
2.03880e+03,1.49920e+01,-3.48213e+00,-1.50894e-04,6.01756e-03,1.04238e-02
2.03880e+03,1.48662e+01,-4.64285e+00,-1.64540e-04,5.98975e-03,1.03759e-02
2.03880e+03,1.47352e+01,-5.80356e+00,-1.78083e-04,5.96143e-03,1.03270e-02
2.03880e+03,1.45870e+01,-6.96427e+00,-1.91282e-04,5.93263e-03,1.02774e-02
2.03880e+03,1.44304e+01,-8.12498e+00,-2.04314e-04,5.90340e-03,1.02270e-02
2.03880e+03,1.42600e+01,-9.28569e+00,-2.17070e-04,5.87378e-03,1.01760e-02
2.03880e+03,1.40782e+01,-1.04464e+01,-2.29601e-04,5.84380e-03,1.01244e-02
2.03880e+03,1.38839e+01,-1.16071e+01,-2.41881e-04,5.81350e-03,1.00722e-02
2.03880e+03,1.36745e+01,-1.27678e+01,-2.53861e-04,5.78293e-03,1.00196e-02
2.03880e+03,1.34496e+01,-1.39285e+01,-2.65531e-04,5.75213e-03,9.96652e-03
2.03880e+03,1.32028e+01,-1.50892e+01,-2.76764e-04,5.72114e-03,9.91317e-03
2.03880e+03,1.29345e+01,-1.62500e+01,-2.87571e-04,5.69003e-03,9.85961e-03
2.03880e+03,1.26407e+01,-1.74107e+01,-2.97869e-04,5.65884e-03,9.80592e-03
2.03880e+03,1.23123e+01,-1.85714e+01,-3.07477e-04,5.62769e-03,9.75229e-03
2.03880e+03,1.19599e+01,-1.97321e+01,-3.16605e-04,5.59659e-03,9.69874e-03
2.03880e+03,1.15532e+01,-2.08928e+01,-3.24653e-04,5.56571e-03,9.64556e-03
2.03880e+03,1.11241e+01,-2.20535e+01,-3.32254e-04,5.53513e-03,9.59288e-03
2.03880e+03,1.06324e+01,-2.32142e+01,-3.38607e-04,5.50492e-03,9.54081e-03
2.03880e+03,1.00906e+01,-2.43749e+01,-3.43962e-04,5.47533e-03,9.48979e-03
2.03880e+03,9.49781e+00,-2.55357e+01,-3.48299e-04,5.44642e-03,9.43991e-03
2.03880e+03,8.81933e+00,-2.66964e+01,-3.50929e-04,5.41829e-03,9.39132e-03
2.03880e+03,8.04165e+00,-2.78571e+01,-3.51582e-04,5.39129e-03,9.34460e-03
2.03880e+03,7.15183e+00,-2.90178e+01,-3.50001e-04,5.36573e-03,9.30030e-03
2.03880e+03,6.09938e+00,-3.01785e+01,-3.45177e-04,5.34183e-03,9.25876e-03
2.03880e+03,4.74849e+00,-3.13392e+01,-3.34406e-04,5.32076e-03,9.22190e-03
2.03880e+03,2.92144e+00,-3.24999e+01,-3.14144e-04,5.30789e-03,9.19890e-03
2.03880e+03,-1.18374e+00,-3.36606e+01,-2.48476e-04,5.31299e-03,9.20573e-03
2.03880e+03,-1.48002e+00,-3.36633e+01,-2.42609e-04,5.32884e-03,9.23301e-03
2.03880e+03,-4.17927e+00,-3.24611e+01,-1.72078e-04,5.35888e-03,9.28345e-03
2.03880e+03,-4.50609e+00,-3.12588e+01,-1.48833e-04,5.38108e-03,9.32149e-03
2.03880e+03,-4.61886e+00,-3.00565e+01,-1.29854e-04,5.40444e-03,9.36166e-03
2.03880e+03,-4.63598e+00,-2.88543e+01,-1.12781e-04,5.42888e-03,9.40377e-03
2.03880e+03,-4.58102e+00,-2.76520e+01,-9.71451e-05,5.45421e-03,9.44747e-03
2.03880e+03,-4.48083e+00,-2.64498e+01,-8.24105e-05,5.48028e-03,9.49249e-03
2.03880e+03,-4.33523e+00,-2.52475e+01,-6.85811e-05,5.50695e-03,9.53856e-03
2.03880e+03,-4.16192e+00,-2.40452e+01,-5.53039e-05,5.53407e-03,9.58545e-03
2.03880e+03,-3.97255e+00,-2.28430e+01,-4.23469e-05,5.56159e-03,9.63305e-03
2.03880e+03,-3.75897e+00,-2.16407e+01,-2.98724e-05,5.58942e-03,9.68120e-03
2.03880e+03,-3.53026e+00,-2.04384e+01,-1.76994e-05,5.61749e-03,9.72979e-03
2.03880e+03,-3.28682e+00,-1.92362e+01,-5.82001e-06,5.64574e-03,9.77871e-03
2.03880e+03,-3.02870e+00,-1.80339e+01,5.76682e-06,5.67411e-03,9.82785e-03
2.03880e+03,-2.76138e+00,-1.68317e+01,1.71703e-05,5.70256e-03,9.87714e-03
2.03880e+03,-2.48228e+00,-1.56294e+01,2.83388e-05,5.73105e-03,9.92650e-03
2.03880e+03,-2.19562e+00,-1.44271e+01,3.93569e-05,5.75952e-03,9.97585e-03
2.03880e+03,-1.90220e+00,-1.32249e+01,5.02401e-05,5.78795e-03,1.00251e-02
2.03880e+03,-1.60274e+00,-1.20226e+01,6.10029e-05,5.81630e-03,1.00743e-02
2.03880e+03,-1.30072e+00,-1.08204e+01,7.17147e-05,5.84457e-03,1.01233e-02
2.03880e+03,-9.94731e-01,-9.61809e+00,8.23475e-05,5.87272e-03,1.01722e-02
2.03880e+03,-6.88086e-01,-8.41583e+00,9.29671e-05,5.90075e-03,1.02208e-02
2.03880e+03,-3.79073e-01,-7.21357e+00,1.03540e-04,5.92865e-03,1.02692e-02
2.03880e+03,-7.00919e-02,-6.01131e+00,1.14113e-04,5.95641e-03,1.03174e-02
2.03880e+03,2.37722e-01,-4.80905e+00,1.24709e-04,5.98403e-03,1.03654e-02
2.03880e+03,5.45535e-01,-3.60678e+00,1.35305e-04,6.01151e-03,1.04131e-02
2.03880e+03,8.46060e-01,-2.40452e+00,1.46047e-04,6.03885e-03,1.04606e-02
2.03880e+03,1.14523e+00,-1.20226e+00,1.56816e-04,6.06608e-03,1.05079e-02
2.04720e+03,1.48774e+01,0.00000e+00,-1.16490e-05,1.29537e-03,2.24367e-03
2.04720e+03,1.48025e+01,-1.13053e+00,-1.40251e-05,1.29171e-03,2.23736e-03
2.04720e+03,1.47028e+01,-2.26105e+00,-1.63395e-05,1.28797e-03,2.23089e-03
2.04720e+03,1.46021e+01,-3.39158e+00,-1.86515e-05,1.28415e-03,2.22429e-03
2.04720e+03,1.44796e+01,-4.52211e+00,-2.09091e-05,1.28024e-03,2.21755e-03
2.04720e+03,1.43520e+01,-5.65264e+00,-2.31541e-05,1.27627e-03,2.21068e-03
2.04720e+03,1.42077e+01,-6.78316e+00,-2.53574e-05,1.27222e-03,2.20370e-03
2.04720e+03,1.40552e+01,-7.91369e+00,-2.75403e-05,1.26812e-03,2.19662e-03
2.04720e+03,1.38892e+01,-9.04422e+00,-2.96897e-05,1.26396e-03,2.18945e-03
2.04720e+03,1.37121e+01,-1.01747e+01,-3.18116e-05,1.25975e-03,2.18219e-03
2.04720e+03,1.35229e+01,-1.13053e+01,-3.39032e-05,1.25550e-03,2.17486e-03
2.04720e+03,1.33189e+01,-1.24358e+01,-3.59580e-05,1.25121e-03,2.16746e-03
2.04720e+03,1.30998e+01,-1.35663e+01,-3.79753e-05,1.24689e-03,2.16000e-03
2.04720e+03,1.28594e+01,-1.46969e+01,-3.99394e-05,1.24254e-03,2.15251e-03
2.04720e+03,1.25982e+01,-1.58274e+01,-4.18517e-05,1.23817e-03,2.14498e-03
2.04720e+03,1.23120e+01,-1.69579e+01,-4.37020e-05,1.23379e-03,2.13743e-03
2.04720e+03,1.19922e+01,-1.80884e+01,-4.54684e-05,1.22942e-03,2.12990e-03
2.04720e+03,1.16489e+01,-1.92190e+01,-4.71764e-05,1.22505e-03,2.12238e-03
2.04720e+03,1.12528e+01,-2.03495e+01,-4.87531e-05,1.22072e-03,2.11491e-03
2.04720e+03,1.08348e+01,-2.14800e+01,-5.02753e-05,1.21642e-03,2.10751e-03
2.04720e+03,1.03559e+01,-2.26105e+01,-5.16459e-05,1.21218e-03,2.10020e-03
2.04720e+03,9.82823e+00,-2.37411e+01,-5.28949e-05,1.20803e-03,2.09304e-03
2.04720e+03,9.25081e+00,-2.48716e+01,-5.40202e-05,1.20397e-03,2.08604e-03
2.04720e+03,8.58998e+00,-2.60021e+01,-5.49378e-05,1.20002e-03,2.07923e-03
2.04720e+03,7.83252e+00,-2.71326e+01,-5.56149e-05,1.19623e-03,2.07268e-03
2.04720e+03,6.96585e+00,-2.82632e+01,-5.60202e-05,1.19265e-03,2.06648e-03
2.04720e+03,5.94077e+00,-2.93937e+01,-5.60312e-05,1.18929e-03,2.06067e-03
2.04720e+03,4.62500e+00,-3.05242e+01,-5.53185e-05,1.18633e-03,2.05553e-03
2.04720e+03,2.84547e+00,-3.16548e+01,-5.34515e-05,1.18453e-03,2.05236e-03
2.04720e+03,-1.15296e+00,-3.27853e+01,-4.60612e-05,1.18524e-03,2.05342e-03
2.04720e+03,-1.44153e+00,-3.27879e+01,-4.53489e-05,1.18747e-03,2.05726e-03
2.04720e+03,-4.07059e+00,-3.16169e+01,-3.61503e-05,1.19169e-03,2.06438e-03
2.04720e+03,-4.38891e+00,-3.04459e+01,-3.27036e-05,1.19480e-03,2.06972e-03
2.04720e+03,-4.49875e+00,-2.92749e+01,-2.97759e-05,1.19808e-03,2.07535e-03
2.04720e+03,-4.51542e+00,-2.81039e+01,-2.70801e-05,1.20151e-03,2.08126e-03
2.04720e+03,-4.46189e+00,-2.69329e+01,-2.45590e-05,1.20507e-03,2.08738e-03
2.04720e+03,-4.36430e+00,-2.57619e+01,-2.21476e-05,1.20873e-03,2.09370e-03
2.04720e+03,-4.22249e+00,-2.45909e+01,-1.98463e-05,1.21247e-03,2.10016e-03
2.04720e+03,-4.05369e+00,-2.34199e+01,-1.76121e-05,1.21628e-03,2.10673e-03
2.04720e+03,-3.86924e+00,-2.22489e+01,-1.54169e-05,1.22014e-03,2.11340e-03
2.04720e+03,-3.66121e+00,-2.10779e+01,-1.32804e-05,1.22405e-03,2.12015e-03
2.04720e+03,-3.43845e+00,-1.99069e+01,-1.11806e-05,1.22799e-03,2.12697e-03
2.04720e+03,-3.20134e+00,-1.87359e+01,-9.11650e-06,1.23195e-03,2.13383e-03
2.04720e+03,-2.94994e+00,-1.75649e+01,-7.08798e-06,1.23594e-03,2.14072e-03
2.04720e+03,-2.68957e+00,-1.63940e+01,-5.08176e-06,1.23993e-03,2.14763e-03
2.04720e+03,-2.41772e+00,-1.52230e+01,-3.10412e-06,1.24393e-03,2.15455e-03
2.04720e+03,-2.13852e+00,-1.40520e+01,-1.14478e-06,1.24793e-03,2.16147e-03
2.04720e+03,-1.85273e+00,-1.28810e+01,7.98148e-07,1.25192e-03,2.16838e-03
2.04720e+03,-1.56106e+00,-1.17100e+01,2.72643e-06,1.25590e-03,2.17528e-03
2.04720e+03,-1.26689e+00,-1.05390e+01,4.64851e-06,1.25986e-03,2.18215e-03
2.04720e+03,-9.68863e-01,-9.36797e+00,6.56098e-06,1.26381e-03,2.18900e-03
2.04720e+03,-6.70192e-01,-8.19698e+00,8.47185e-06,1.26775e-03,2.19582e-03
2.04720e+03,-3.69215e-01,-7.02598e+00,1.03770e-05,1.27167e-03,2.20261e-03
2.04720e+03,-6.82691e-02,-5.85498e+00,1.22822e-05,1.27556e-03,2.20937e-03
2.04720e+03,2.31540e-01,-4.68399e+00,1.41902e-05,1.27944e-03,2.21610e-03
2.04720e+03,5.31348e-01,-3.51299e+00,1.60983e-05,1.28330e-03,2.22279e-03
2.04720e+03,8.24058e-01,-2.34199e+00,1.80240e-05,1.28713e-03,2.22945e-03
2.04720e+03,1.11544e+00,-1.17100e+00,1.99530e-05,1.29096e-03,2.23609e-03
2.05000e+03,1.47450e+01,0.00000e+00,0.00000e+00,0.00000e+00,0.00000e+00
2.05000e+03,1.46708e+01,-1.12047e+00,0.00000e+00,0.00000e+00,0.00000e+00
2.05000e+03,1.45720e+01,-2.24093e+00,0.00000e+00,0.00000e+00,0.00000e+00
2.05000e+03,1.44722e+01,-3.36140e+00,0.00000e+00,0.00000e+00,0.00000e+00
2.05000e+03,1.43508e+01,-4.48186e+00,0.00000e+00,0.00000e+00,0.00000e+00
2.05000e+03,1.42243e+01,-5.60233e+00,0.00000e+00,0.00000e+00,0.00000e+00
2.05000e+03,1.40812e+01,-6.72279e+00,0.00000e+00,0.00000e+00,0.00000e+00
2.05000e+03,1.39301e+01,-7.84326e+00,0.00000e+00,0.00000e+00,0.00000e+00
2.05000e+03,1.37656e+01,-8.96372e+00,0.00000e+00,0.00000e+00,0.00000e+00
2.05000e+03,1.35901e+01,-1.00842e+01,0.00000e+00,0.00000e+00,0.00000e+00
2.05000e+03,1.34025e+01,-1.12047e+01,0.00000e+00,0.00000e+00,0.00000e+00
2.05000e+03,1.32004e+01,-1.23251e+01,0.00000e+00,0.00000e+00,0.00000e+00
2.05000e+03,1.29833e+01,-1.34456e+01,0.00000e+00,0.00000e+00,0.00000e+00
2.05000e+03,1.27450e+01,-1.45661e+01,0.00000e+00,0.00000e+00,0.00000e+00
2.05000e+03,1.24860e+01,-1.56865e+01,0.00000e+00,0.00000e+00,0.00000e+00
2.05000e+03,1.22024e+01,-1.68070e+01,0.00000e+00,0.00000e+00,0.00000e+00
2.05000e+03,1.18854e+01,-1.79274e+01,0.00000e+00,0.00000e+00,0.00000e+00
2.05000e+03,1.15452e+01,-1.90479e+01,0.00000e+00,0.00000e+00,0.00000e+00
2.05000e+03,1.11526e+01,-2.01684e+01,0.00000e+00,0.00000e+00,0.00000e+00
2.05000e+03,1.07384e+01,-2.12888e+01,0.00000e+00,0.00000e+00,0.00000e+00
2.05000e+03,1.02638e+01,-2.24093e+01,0.00000e+00,0.00000e+00,0.00000e+00
2.05000e+03,9.74076e+00,-2.35298e+01,0.00000e+00,0.00000e+00,0.00000e+00
2.05000e+03,9.16848e+00,-2.46502e+01,0.00000e+00,0.00000e+00,0.00000e+00
2.05000e+03,8.51353e+00,-2.57707e+01,0.00000e+00,0.00000e+00,0.00000e+00
2.05000e+03,7.76281e+00,-2.68912e+01,0.00000e+00,0.00000e+00,0.00000e+00
2.05000e+03,6.90385e+00,-2.80116e+01,0.00000e+00,0.00000e+00,0.00000e+00
2.05000e+03,5.88790e+00,-2.91321e+01,0.00000e+00,0.00000e+00,0.00000e+00
2.05000e+03,4.58384e+00,-3.02526e+01,0.00000e+00,0.00000e+00,0.00000e+00
2.05000e+03,2.82014e+00,-3.13730e+01,0.00000e+00,0.00000e+00,0.00000e+00
2.05000e+03,-1.14270e+00,-3.24935e+01,0.00000e+00,0.00000e+00,0.00000e+00
2.05000e+03,-1.42870e+00,-3.24961e+01,0.00000e+00,0.00000e+00,0.00000e+00
2.05000e+03,-4.03436e+00,-3.13355e+01,0.00000e+00,0.00000e+00,0.00000e+00
2.05000e+03,-4.34985e+00,-3.01749e+01,0.00000e+00,0.00000e+00,0.00000e+00
2.05000e+03,-4.45871e+00,-2.90144e+01,0.00000e+00,0.00000e+00,0.00000e+00
2.05000e+03,-4.47523e+00,-2.78538e+01,0.00000e+00,0.00000e+00,0.00000e+00
2.05000e+03,-4.42218e+00,-2.66932e+01,0.00000e+00,0.00000e+00,0.00000e+00
2.05000e+03,-4.32546e+00,-2.55327e+01,0.00000e+00,0.00000e+00,0.00000e+00
2.05000e+03,-4.18491e+00,-2.43721e+01,0.00000e+00,0.00000e+00,0.00000e+00
2.05000e+03,-4.01761e+00,-2.32115e+01,0.00000e+00,0.00000e+00,0.00000e+00
2.05000e+03,-3.83480e+00,-2.20509e+01,0.00000e+00,0.00000e+00,0.00000e+00
2.05000e+03,-3.62863e+00,-2.08903e+01,0.00000e+00,0.00000e+00,0.00000e+00
2.05000e+03,-3.40785e+00,-1.97298e+01,0.00000e+00,0.00000e+00,0.00000e+00
2.05000e+03,-3.17285e+00,-1.85692e+01,0.00000e+00,0.00000e+00,0.00000e+00
2.05000e+03,-2.92368e+00,-1.74086e+01,0.00000e+00,0.00000e+00,0.00000e+00
2.05000e+03,-2.66563e+00,-1.62480e+01,0.00000e+00,0.00000e+00,0.00000e+00
2.05000e+03,-2.39621e+00,-1.50875e+01,0.00000e+00,0.00000e+00,0.00000e+00
2.05000e+03,-2.11949e+00,-1.39269e+01,0.00000e+00,0.00000e+00,0.00000e+00
2.05000e+03,-1.83624e+00,-1.27663e+01,0.00000e+00,0.00000e+00,0.00000e+00
2.05000e+03,-1.54717e+00,-1.16057e+01,0.00000e+00,0.00000e+00,0.00000e+00
2.05000e+03,-1.25562e+00,-1.04452e+01,0.00000e+00,0.00000e+00,0.00000e+00
2.05000e+03,-9.60241e-01,-9.28460e+00,0.00000e+00,0.00000e+00,0.00000e+00
2.05000e+03,-6.64227e-01,-8.12402e+00,0.00000e+00,0.00000e+00,0.00000e+00
2.05000e+03,-3.65929e-01,-6.96345e+00,0.00000e+00,0.00000e+00,0.00000e+00
2.05000e+03,-6.76615e-02,-5.80287e+00,0.00000e+00,0.00000e+00,0.00000e+00
2.05000e+03,2.29479e-01,-4.64230e+00,0.00000e+00,0.00000e+00,0.00000e+00
2.05000e+03,5.26620e-01,-3.48173e+00,0.00000e+00,0.00000e+00,0.00000e+00
2.05000e+03,8.16724e-01,-2.32115e+00,0.00000e+00,0.00000e+00,0.00000e+00
2.05000e+03,1.10552e+00,-1.16058e+00,0.00000e+00,0.00000e+00,0.00000e+00
--------------------------------------------------------------------------------------------------------------------------------------------------------------------------------------------------------------------------------------------------------------------------------------------------------------------------------------------------------------------------------

LAMINADO 
--------------------------------------------------------------------------------------------------------------------------------------------------------------------------------------------------------------------------------------------------------------------------------------------------------------------------------------------------------------------------------
X,Y,Z,Sigma,Tau,Von Mises
0.00000e+00,4.31008e+01,0.00000e+00,0.00000e+00,0.00000e+00,0.00000e+00
0.00000e+00,4.28837e+01,-3.27521e+00,0.00000e+00,0.00000e+00,0.00000e+00
0.00000e+00,4.25950e+01,-6.55041e+00,0.00000e+00,0.00000e+00,0.00000e+00
0.00000e+00,4.23033e+01,-9.82562e+00,0.00000e+00,0.00000e+00,0.00000e+00
0.00000e+00,4.19484e+01,-1.31008e+01,0.00000e+00,0.00000e+00,0.00000e+00
0.00000e+00,4.15787e+01,-1.63760e+01,0.00000e+00,0.00000e+00,0.00000e+00
0.00000e+00,4.11605e+01,-1.96512e+01,0.00000e+00,0.00000e+00,0.00000e+00
0.00000e+00,4.07187e+01,-2.29264e+01,0.00000e+00,0.00000e+00,0.00000e+00
0.00000e+00,4.02378e+01,-2.62017e+01,0.00000e+00,0.00000e+00,0.00000e+00
0.00000e+00,3.97249e+01,-2.94769e+01,0.00000e+00,0.00000e+00,0.00000e+00
0.00000e+00,3.91766e+01,-3.27521e+01,0.00000e+00,0.00000e+00,0.00000e+00
0.00000e+00,3.85857e+01,-3.60273e+01,0.00000e+00,0.00000e+00,0.00000e+00
0.00000e+00,3.79511e+01,-3.93025e+01,0.00000e+00,0.00000e+00,0.00000e+00
0.00000e+00,3.72545e+01,-4.25777e+01,0.00000e+00,0.00000e+00,0.00000e+00
0.00000e+00,3.64976e+01,-4.58529e+01,0.00000e+00,0.00000e+00,0.00000e+00
0.00000e+00,3.56687e+01,-4.91281e+01,0.00000e+00,0.00000e+00,0.00000e+00
0.00000e+00,3.47420e+01,-5.24033e+01,0.00000e+00,0.00000e+00,0.00000e+00
0.00000e+00,3.37474e+01,-5.56785e+01,0.00000e+00,0.00000e+00,0.00000e+00
0.00000e+00,3.26000e+01,-5.89537e+01,0.00000e+00,0.00000e+00,0.00000e+00
0.00000e+00,3.13892e+01,-6.22289e+01,0.00000e+00,0.00000e+00,0.00000e+00
0.00000e+00,3.00018e+01,-6.55041e+01,0.00000e+00,0.00000e+00,0.00000e+00
0.00000e+00,2.84730e+01,-6.87793e+01,0.00000e+00,0.00000e+00,0.00000e+00
0.00000e+00,2.68002e+01,-7.20546e+01,0.00000e+00,0.00000e+00,0.00000e+00
0.00000e+00,2.48857e+01,-7.53298e+01,0.00000e+00,0.00000e+00,0.00000e+00
0.00000e+00,2.26913e+01,-7.86050e+01,0.00000e+00,0.00000e+00,0.00000e+00
0.00000e+00,2.01805e+01,-8.18802e+01,0.00000e+00,0.00000e+00,0.00000e+00
0.00000e+00,1.72108e+01,-8.51554e+01,0.00000e+00,0.00000e+00,0.00000e+00
0.00000e+00,1.33989e+01,-8.84306e+01,0.00000e+00,0.00000e+00,0.00000e+00
0.00000e+00,8.24350e+00,-9.17058e+01,0.00000e+00,0.00000e+00,0.00000e+00
0.00000e+00,-3.34020e+00,-9.49810e+01,0.00000e+00,0.00000e+00,0.00000e+00
0.00000e+00,-4.17620e+00,-9.49886e+01,0.00000e+00,0.00000e+00,0.00000e+00
0.00000e+00,-1.17928e+01,-9.15961e+01,0.00000e+00,0.00000e+00,0.00000e+00
0.00000e+00,-1.27149e+01,-8.82037e+01,0.00000e+00,0.00000e+00,0.00000e+00
0.00000e+00,-1.30332e+01,-8.48113e+01,0.00000e+00,0.00000e+00,0.00000e+00
0.00000e+00,-1.30814e+01,-8.14188e+01,0.00000e+00,0.00000e+00,0.00000e+00
0.00000e+00,-1.29264e+01,-7.80264e+01,0.00000e+00,0.00000e+00,0.00000e+00
0.00000e+00,-1.26437e+01,-7.46339e+01,0.00000e+00,0.00000e+00,0.00000e+00
0.00000e+00,-1.22328e+01,-7.12415e+01,0.00000e+00,0.00000e+00,0.00000e+00
0.00000e+00,-1.17438e+01,-6.78490e+01,0.00000e+00,0.00000e+00,0.00000e+00
0.00000e+00,-1.12094e+01,-6.44565e+01,0.00000e+00,0.00000e+00,0.00000e+00
0.00000e+00,-1.06068e+01,-6.10641e+01,0.00000e+00,0.00000e+00,0.00000e+00
0.00000e+00,-9.96142e+00,-5.76716e+01,0.00000e+00,0.00000e+00,0.00000e+00
0.00000e+00,-9.27449e+00,-5.42792e+01,0.00000e+00,0.00000e+00,0.00000e+00
0.00000e+00,-8.54615e+00,-5.08867e+01,0.00000e+00,0.00000e+00,0.00000e+00
0.00000e+00,-7.79185e+00,-4.74943e+01,0.00000e+00,0.00000e+00,0.00000e+00
0.00000e+00,-7.00429e+00,-4.41018e+01,0.00000e+00,0.00000e+00,0.00000e+00
0.00000e+00,-6.19544e+00,-4.07094e+01,0.00000e+00,0.00000e+00,0.00000e+00
0.00000e+00,-5.36748e+00,-3.73169e+01,0.00000e+00,0.00000e+00,0.00000e+00
0.00000e+00,-4.52248e+00,-3.39245e+01,0.00000e+00,0.00000e+00,0.00000e+00
0.00000e+00,-3.67026e+00,-3.05320e+01,0.00000e+00,0.00000e+00,0.00000e+00
0.00000e+00,-2.80686e+00,-2.71396e+01,0.00000e+00,0.00000e+00,0.00000e+00
0.00000e+00,-1.94159e+00,-2.37472e+01,0.00000e+00,0.00000e+00,0.00000e+00
0.00000e+00,-1.06964e+00,-2.03547e+01,0.00000e+00,0.00000e+00,0.00000e+00
0.00000e+00,-1.97780e-01,-1.69622e+01,0.00000e+00,0.00000e+00,0.00000e+00
0.00000e+00,6.70785e-01,-1.35698e+01,0.00000e+00,0.00000e+00,0.00000e+00
0.00000e+00,1.53935e+00,-1.01774e+01,0.00000e+00,0.00000e+00,0.00000e+00
0.00000e+00,2.38735e+00,-6.78490e+00,0.00000e+00,0.00000e+00,0.00000e+00
0.00000e+00,3.23151e+00,-3.39245e+00,0.00000e+00,0.00000e+00,0.00000e+00
1.07300e+02,4.26785e+01,0.00000e+00,0.00000e+00,0.00000e+00,0.00000e+00
1.07300e+02,4.24636e+01,-3.24312e+00,0.00000e+00,0.00000e+00,0.00000e+00
1.07300e+02,4.21777e+01,-6.48624e+00,0.00000e+00,0.00000e+00,0.00000e+00
1.07300e+02,4.18889e+01,-9.72936e+00,0.00000e+00,0.00000e+00,0.00000e+00
1.07300e+02,4.15374e+01,-1.29725e+01,0.00000e+00,0.00000e+00,0.00000e+00
1.07300e+02,4.11714e+01,-1.62156e+01,0.00000e+00,0.00000e+00,0.00000e+00
1.07300e+02,4.07572e+01,-1.94587e+01,0.00000e+00,0.00000e+00,0.00000e+00
1.07300e+02,4.03197e+01,-2.27018e+01,0.00000e+00,0.00000e+00,0.00000e+00
1.07300e+02,3.98436e+01,-2.59450e+01,0.00000e+00,0.00000e+00,0.00000e+00
1.07300e+02,3.93357e+01,-2.91881e+01,0.00000e+00,0.00000e+00,0.00000e+00
1.07300e+02,3.87928e+01,-3.24312e+01,0.00000e+00,0.00000e+00,0.00000e+00
1.07300e+02,3.82077e+01,-3.56743e+01,0.00000e+00,0.00000e+00,0.00000e+00
1.07300e+02,3.75793e+01,-3.89174e+01,0.00000e+00,0.00000e+00,0.00000e+00
1.07300e+02,3.68895e+01,-4.21606e+01,0.00000e+00,0.00000e+00,0.00000e+00
1.07300e+02,3.61401e+01,-4.54037e+01,0.00000e+00,0.00000e+00,0.00000e+00
1.07300e+02,3.53192e+01,-4.86468e+01,0.00000e+00,0.00000e+00,0.00000e+00
1.07300e+02,3.44016e+01,-5.18899e+01,0.00000e+00,0.00000e+00,0.00000e+00
1.07300e+02,3.34168e+01,-5.51330e+01,0.00000e+00,0.00000e+00,0.00000e+00
1.07300e+02,3.22806e+01,-5.83762e+01,0.00000e+00,0.00000e+00,0.00000e+00
1.07300e+02,3.10816e+01,-6.16193e+01,0.00000e+00,0.00000e+00,0.00000e+00
1.07300e+02,2.97079e+01,-6.48624e+01,0.00000e+00,0.00000e+00,0.00000e+00
1.07300e+02,2.81940e+01,-6.81055e+01,0.00000e+00,0.00000e+00,0.00000e+00
1.07300e+02,2.65376e+01,-7.13486e+01,0.00000e+00,0.00000e+00,0.00000e+00
1.07300e+02,2.46419e+01,-7.45918e+01,0.00000e+00,0.00000e+00,0.00000e+00
1.07300e+02,2.24690e+01,-7.78349e+01,0.00000e+00,0.00000e+00,0.00000e+00
1.07300e+02,1.99828e+01,-8.10780e+01,0.00000e+00,0.00000e+00,0.00000e+00
1.07300e+02,1.70422e+01,-8.43211e+01,0.00000e+00,0.00000e+00,0.00000e+00
1.07300e+02,1.32676e+01,-8.75642e+01,0.00000e+00,0.00000e+00,0.00000e+00
1.07300e+02,8.16273e+00,-9.08074e+01,0.00000e+00,0.00000e+00,0.00000e+00
1.07300e+02,-3.30748e+00,-9.40505e+01,0.00000e+00,0.00000e+00,0.00000e+00
1.07300e+02,-4.13529e+00,-9.40580e+01,0.00000e+00,0.00000e+00,0.00000e+00
1.07300e+02,-1.16772e+01,-9.06988e+01,0.00000e+00,0.00000e+00,0.00000e+00
1.07300e+02,-1.25904e+01,-8.73396e+01,0.00000e+00,0.00000e+00,0.00000e+00
1.07300e+02,-1.29055e+01,-8.39804e+01,0.00000e+00,0.00000e+00,0.00000e+00
1.07300e+02,-1.29533e+01,-8.06211e+01,0.00000e+00,0.00000e+00,0.00000e+00
1.07300e+02,-1.27997e+01,-7.72619e+01,0.00000e+00,0.00000e+00,0.00000e+00
1.07300e+02,-1.25198e+01,-7.39027e+01,0.00000e+00,0.00000e+00,0.00000e+00
1.07300e+02,-1.21130e+01,-7.05435e+01,0.00000e+00,0.00000e+00,0.00000e+00
1.07300e+02,-1.16287e+01,-6.71843e+01,0.00000e+00,0.00000e+00,0.00000e+00
1.07300e+02,-1.10996e+01,-6.38251e+01,0.00000e+00,0.00000e+00,0.00000e+00
1.07300e+02,-1.05029e+01,-6.04659e+01,0.00000e+00,0.00000e+00,0.00000e+00
1.07300e+02,-9.86382e+00,-5.71066e+01,0.00000e+00,0.00000e+00,0.00000e+00
1.07300e+02,-9.18363e+00,-5.37474e+01,0.00000e+00,0.00000e+00,0.00000e+00
1.07300e+02,-8.46243e+00,-5.03882e+01,0.00000e+00,0.00000e+00,0.00000e+00
1.07300e+02,-7.71552e+00,-4.70290e+01,0.00000e+00,0.00000e+00,0.00000e+00
1.07300e+02,-6.93567e+00,-4.36698e+01,0.00000e+00,0.00000e+00,0.00000e+00
1.07300e+02,-6.13474e+00,-4.03106e+01,0.00000e+00,0.00000e+00,0.00000e+00
1.07300e+02,-5.31490e+00,-3.69514e+01,0.00000e+00,0.00000e+00,0.00000e+00
1.07300e+02,-4.47818e+00,-3.35921e+01,0.00000e+00,0.00000e+00,0.00000e+00
1.07300e+02,-3.63431e+00,-3.02329e+01,0.00000e+00,0.00000e+00,0.00000e+00
1.07300e+02,-2.77936e+00,-2.68737e+01,0.00000e+00,0.00000e+00,0.00000e+00
1.07300e+02,-1.92257e+00,-2.35145e+01,0.00000e+00,0.00000e+00,0.00000e+00
1.07300e+02,-1.05916e+00,-2.01553e+01,0.00000e+00,0.00000e+00,0.00000e+00
1.07300e+02,-1.95842e-01,-1.67961e+01,0.00000e+00,0.00000e+00,0.00000e+00
1.07300e+02,6.64213e-01,-1.34369e+01,0.00000e+00,0.00000e+00,0.00000e+00
1.07300e+02,1.52427e+00,-1.00776e+01,0.00000e+00,0.00000e+00,0.00000e+00
1.07300e+02,2.36396e+00,-6.71843e+00,0.00000e+00,0.00000e+00,0.00000e+00
1.07300e+02,3.19985e+00,-3.35921e+00,0.00000e+00,0.00000e+00,0.00000e+00
2.14300e+02,4.22575e+01,0.00000e+00,0.00000e+00,0.00000e+00,0.00000e+00
2.14300e+02,4.20447e+01,-3.21112e+00,0.00000e+00,0.00000e+00,0.00000e+00
2.14300e+02,4.17615e+01,-6.42224e+00,0.00000e+00,0.00000e+00,0.00000e+00
2.14300e+02,4.14756e+01,-9.63337e+00,0.00000e+00,0.00000e+00,0.00000e+00
2.14300e+02,4.11276e+01,-1.28445e+01,0.00000e+00,0.00000e+00,0.00000e+00
2.14300e+02,4.07652e+01,-1.60556e+01,0.00000e+00,0.00000e+00,0.00000e+00
2.14300e+02,4.03551e+01,-1.92667e+01,0.00000e+00,0.00000e+00,0.00000e+00
2.14300e+02,3.99219e+01,-2.24779e+01,0.00000e+00,0.00000e+00,0.00000e+00
2.14300e+02,3.94505e+01,-2.56890e+01,0.00000e+00,0.00000e+00,0.00000e+00
2.14300e+02,3.89476e+01,-2.89001e+01,0.00000e+00,0.00000e+00,0.00000e+00
2.14300e+02,3.84101e+01,-3.21112e+01,0.00000e+00,0.00000e+00,0.00000e+00
2.14300e+02,3.78307e+01,-3.53223e+01,0.00000e+00,0.00000e+00,0.00000e+00
2.14300e+02,3.72085e+01,-3.85335e+01,0.00000e+00,0.00000e+00,0.00000e+00
2.14300e+02,3.65256e+01,-4.17446e+01,0.00000e+00,0.00000e+00,0.00000e+00
2.14300e+02,3.57835e+01,-4.49557e+01,0.00000e+00,0.00000e+00,0.00000e+00
2.14300e+02,3.49707e+01,-4.81668e+01,0.00000e+00,0.00000e+00,0.00000e+00
2.14300e+02,3.40622e+01,-5.13780e+01,0.00000e+00,0.00000e+00,0.00000e+00
2.14300e+02,3.30871e+01,-5.45891e+01,0.00000e+00,0.00000e+00,0.00000e+00
2.14300e+02,3.19621e+01,-5.78002e+01,0.00000e+00,0.00000e+00,0.00000e+00
2.14300e+02,3.07750e+01,-6.10113e+01,0.00000e+00,0.00000e+00,0.00000e+00
2.14300e+02,2.94148e+01,-6.42224e+01,0.00000e+00,0.00000e+00,0.00000e+00
2.14300e+02,2.79159e+01,-6.74336e+01,0.00000e+00,0.00000e+00,0.00000e+00
2.14300e+02,2.62758e+01,-7.06447e+01,0.00000e+00,0.00000e+00,0.00000e+00
2.14300e+02,2.43988e+01,-7.38558e+01,0.00000e+00,0.00000e+00,0.00000e+00
2.14300e+02,2.22473e+01,-7.70669e+01,0.00000e+00,0.00000e+00,0.00000e+00
2.14300e+02,1.97856e+01,-8.02781e+01,0.00000e+00,0.00000e+00,0.00000e+00
2.14300e+02,1.68740e+01,-8.34892e+01,0.00000e+00,0.00000e+00,0.00000e+00
2.14300e+02,1.31367e+01,-8.67003e+01,0.00000e+00,0.00000e+00,0.00000e+00
2.14300e+02,8.08220e+00,-8.99114e+01,0.00000e+00,0.00000e+00,0.00000e+00
2.14300e+02,-3.27484e+00,-9.31226e+01,0.00000e+00,0.00000e+00,0.00000e+00
2.14300e+02,-4.09449e+00,-9.31300e+01,0.00000e+00,0.00000e+00,0.00000e+00
2.14300e+02,-1.15620e+01,-8.98039e+01,0.00000e+00,0.00000e+00,0.00000e+00
2.14300e+02,-1.24661e+01,-8.64779e+01,0.00000e+00,0.00000e+00,0.00000e+00
2.14300e+02,-1.27781e+01,-8.31518e+01,0.00000e+00,0.00000e+00,0.00000e+00
2.14300e+02,-1.28255e+01,-7.98257e+01,0.00000e+00,0.00000e+00,0.00000e+00
2.14300e+02,-1.26734e+01,-7.64996e+01,0.00000e+00,0.00000e+00,0.00000e+00
2.14300e+02,-1.23963e+01,-7.31736e+01,0.00000e+00,0.00000e+00,0.00000e+00
2.14300e+02,-1.19935e+01,-6.98475e+01,0.00000e+00,0.00000e+00,0.00000e+00
2.14300e+02,-1.15140e+01,-6.65214e+01,0.00000e+00,0.00000e+00,0.00000e+00
2.14300e+02,-1.09901e+01,-6.31954e+01,0.00000e+00,0.00000e+00,0.00000e+00
2.14300e+02,-1.03992e+01,-5.98693e+01,0.00000e+00,0.00000e+00,0.00000e+00
2.14300e+02,-9.76651e+00,-5.65432e+01,0.00000e+00,0.00000e+00,0.00000e+00
2.14300e+02,-9.09302e+00,-5.32171e+01,0.00000e+00,0.00000e+00,0.00000e+00
2.14300e+02,-8.37893e+00,-4.98911e+01,0.00000e+00,0.00000e+00,0.00000e+00
2.14300e+02,-7.63939e+00,-4.65650e+01,0.00000e+00,0.00000e+00,0.00000e+00
2.14300e+02,-6.86724e+00,-4.32389e+01,0.00000e+00,0.00000e+00,0.00000e+00
2.14300e+02,-6.07421e+00,-3.99129e+01,0.00000e+00,0.00000e+00,0.00000e+00
2.14300e+02,-5.26246e+00,-3.65868e+01,0.00000e+00,0.00000e+00,0.00000e+00
2.14300e+02,-4.43399e+00,-3.32607e+01,0.00000e+00,0.00000e+00,0.00000e+00
2.14300e+02,-3.59845e+00,-2.99346e+01,0.00000e+00,0.00000e+00,0.00000e+00
2.14300e+02,-2.75194e+00,-2.66086e+01,0.00000e+00,0.00000e+00,0.00000e+00
2.14300e+02,-1.90360e+00,-2.32825e+01,0.00000e+00,0.00000e+00,0.00000e+00
2.14300e+02,-1.04871e+00,-1.99564e+01,0.00000e+00,0.00000e+00,0.00000e+00
2.14300e+02,-1.93910e-01,-1.66304e+01,0.00000e+00,0.00000e+00,0.00000e+00
2.14300e+02,6.57660e-01,-1.33043e+01,0.00000e+00,0.00000e+00,0.00000e+00
2.14300e+02,1.50923e+00,-9.97821e+00,0.00000e+00,0.00000e+00,0.00000e+00
2.14300e+02,2.34063e+00,-6.65214e+00,0.00000e+00,0.00000e+00,0.00000e+00
2.14300e+02,3.16828e+00,-3.32607e+00,0.00000e+00,0.00000e+00,0.00000e+00
3.20700e+02,4.18388e+01,0.00000e+00,0.00000e+00,0.00000e+00,0.00000e+00
3.20700e+02,4.16280e+01,-3.17930e+00,0.00000e+00,0.00000e+00,0.00000e+00
3.20700e+02,4.13477e+01,-6.35861e+00,0.00000e+00,0.00000e+00,0.00000e+00
3.20700e+02,4.10646e+01,-9.53791e+00,0.00000e+00,0.00000e+00,0.00000e+00
3.20700e+02,4.07201e+01,-1.27172e+01,0.00000e+00,0.00000e+00,0.00000e+00
3.20700e+02,4.03613e+01,-1.58965e+01,0.00000e+00,0.00000e+00,0.00000e+00
3.20700e+02,3.99553e+01,-1.90758e+01,0.00000e+00,0.00000e+00,0.00000e+00
3.20700e+02,3.95264e+01,-2.22551e+01,0.00000e+00,0.00000e+00,0.00000e+00
3.20700e+02,3.90596e+01,-2.54344e+01,0.00000e+00,0.00000e+00,0.00000e+00
3.20700e+02,3.85617e+01,-2.86137e+01,0.00000e+00,0.00000e+00,0.00000e+00
3.20700e+02,3.80295e+01,-3.17930e+01,0.00000e+00,0.00000e+00,0.00000e+00
3.20700e+02,3.74559e+01,-3.49724e+01,0.00000e+00,0.00000e+00,0.00000e+00
3.20700e+02,3.68398e+01,-3.81517e+01,0.00000e+00,0.00000e+00,0.00000e+00
3.20700e+02,3.61637e+01,-4.13310e+01,0.00000e+00,0.00000e+00,0.00000e+00
3.20700e+02,3.54289e+01,-4.45103e+01,0.00000e+00,0.00000e+00,0.00000e+00
3.20700e+02,3.46242e+01,-4.76896e+01,0.00000e+00,0.00000e+00,0.00000e+00
3.20700e+02,3.37247e+01,-5.08689e+01,0.00000e+00,0.00000e+00,0.00000e+00
3.20700e+02,3.27593e+01,-5.40482e+01,0.00000e+00,0.00000e+00,0.00000e+00
3.20700e+02,3.16454e+01,-5.72275e+01,0.00000e+00,0.00000e+00,0.00000e+00
3.20700e+02,3.04701e+01,-6.04068e+01,0.00000e+00,0.00000e+00,0.00000e+00
3.20700e+02,2.91233e+01,-6.35861e+01,0.00000e+00,0.00000e+00,0.00000e+00
3.20700e+02,2.76393e+01,-6.67654e+01,0.00000e+00,0.00000e+00,0.00000e+00
3.20700e+02,2.60154e+01,-6.99447e+01,0.00000e+00,0.00000e+00,0.00000e+00
3.20700e+02,2.41570e+01,-7.31240e+01,0.00000e+00,0.00000e+00,0.00000e+00
3.20700e+02,2.20269e+01,-7.63033e+01,0.00000e+00,0.00000e+00,0.00000e+00
3.20700e+02,1.95896e+01,-7.94826e+01,0.00000e+00,0.00000e+00,0.00000e+00
3.20700e+02,1.67068e+01,-8.26619e+01,0.00000e+00,0.00000e+00,0.00000e+00
3.20700e+02,1.30066e+01,-8.58412e+01,0.00000e+00,0.00000e+00,0.00000e+00
3.20700e+02,8.00212e+00,-8.90205e+01,0.00000e+00,0.00000e+00,0.00000e+00
3.20700e+02,-3.24239e+00,-9.21998e+01,0.00000e+00,0.00000e+00,0.00000e+00
3.20700e+02,-4.05392e+00,-9.22072e+01,0.00000e+00,0.00000e+00,0.00000e+00
3.20700e+02,-1.14474e+01,-8.89141e+01,0.00000e+00,0.00000e+00,0.00000e+00
3.20700e+02,-1.23426e+01,-8.56210e+01,0.00000e+00,0.00000e+00,0.00000e+00
3.20700e+02,-1.26515e+01,-8.23279e+01,0.00000e+00,0.00000e+00,0.00000e+00
3.20700e+02,-1.26984e+01,-7.90348e+01,0.00000e+00,0.00000e+00,0.00000e+00
3.20700e+02,-1.25479e+01,-7.57416e+01,0.00000e+00,0.00000e+00,0.00000e+00
3.20700e+02,-1.22734e+01,-7.24485e+01,0.00000e+00,0.00000e+00,0.00000e+00
3.20700e+02,-1.18746e+01,-6.91554e+01,0.00000e+00,0.00000e+00,0.00000e+00
3.20700e+02,-1.13999e+01,-6.58623e+01,0.00000e+00,0.00000e+00,0.00000e+00
3.20700e+02,-1.08812e+01,-6.25692e+01,0.00000e+00,0.00000e+00,0.00000e+00
3.20700e+02,-1.02962e+01,-5.92761e+01,0.00000e+00,0.00000e+00,0.00000e+00
3.20700e+02,-9.66973e+00,-5.59829e+01,0.00000e+00,0.00000e+00,0.00000e+00
3.20700e+02,-9.00292e+00,-5.26898e+01,0.00000e+00,0.00000e+00,0.00000e+00
3.20700e+02,-8.29591e+00,-4.93967e+01,0.00000e+00,0.00000e+00,0.00000e+00
3.20700e+02,-7.56370e+00,-4.61036e+01,0.00000e+00,0.00000e+00,0.00000e+00
3.20700e+02,-6.79920e+00,-4.28105e+01,0.00000e+00,0.00000e+00,0.00000e+00
3.20700e+02,-6.01403e+00,-3.95174e+01,0.00000e+00,0.00000e+00,0.00000e+00
3.20700e+02,-5.21032e+00,-3.62243e+01,0.00000e+00,0.00000e+00,0.00000e+00
3.20700e+02,-4.39006e+00,-3.29311e+01,0.00000e+00,0.00000e+00,0.00000e+00
3.20700e+02,-3.56279e+00,-2.96380e+01,0.00000e+00,0.00000e+00,0.00000e+00
3.20700e+02,-2.72467e+00,-2.63449e+01,0.00000e+00,0.00000e+00,0.00000e+00
3.20700e+02,-1.88474e+00,-2.30518e+01,0.00000e+00,0.00000e+00,0.00000e+00
3.20700e+02,-1.03832e+00,-1.97587e+01,0.00000e+00,0.00000e+00,0.00000e+00
3.20700e+02,-1.91989e-01,-1.64656e+01,0.00000e+00,0.00000e+00,0.00000e+00
3.20700e+02,6.51143e-01,-1.31725e+01,0.00000e+00,0.00000e+00,0.00000e+00
3.20700e+02,1.49428e+00,-9.87934e+00,0.00000e+00,0.00000e+00,0.00000e+00
3.20700e+02,2.31744e+00,-6.58623e+00,0.00000e+00,0.00000e+00,0.00000e+00
3.20700e+02,3.13689e+00,-3.29311e+00,0.00000e+00,0.00000e+00,0.00000e+00
4.26200e+02,4.14236e+01,0.00000e+00,0.00000e+00,0.00000e+00,0.00000e+00
4.26200e+02,4.12150e+01,-3.14776e+00,0.00000e+00,0.00000e+00,0.00000e+00
4.26200e+02,4.09374e+01,-6.29551e+00,0.00000e+00,0.00000e+00,0.00000e+00
4.26200e+02,4.06571e+01,-9.44327e+00,0.00000e+00,0.00000e+00,0.00000e+00
4.26200e+02,4.03160e+01,-1.25910e+01,0.00000e+00,0.00000e+00,0.00000e+00
4.26200e+02,3.99607e+01,-1.57388e+01,0.00000e+00,0.00000e+00,0.00000e+00
4.26200e+02,3.95588e+01,-1.88865e+01,0.00000e+00,0.00000e+00,0.00000e+00
4.26200e+02,3.91341e+01,-2.20343e+01,0.00000e+00,0.00000e+00,0.00000e+00
4.26200e+02,3.86720e+01,-2.51820e+01,0.00000e+00,0.00000e+00,0.00000e+00
4.26200e+02,3.81790e+01,-2.83298e+01,0.00000e+00,0.00000e+00,0.00000e+00
4.26200e+02,3.76521e+01,-3.14776e+01,0.00000e+00,0.00000e+00,0.00000e+00
4.26200e+02,3.70842e+01,-3.46253e+01,0.00000e+00,0.00000e+00,0.00000e+00
4.26200e+02,3.64743e+01,-3.77731e+01,0.00000e+00,0.00000e+00,0.00000e+00
4.26200e+02,3.58048e+01,-4.09208e+01,0.00000e+00,0.00000e+00,0.00000e+00
4.26200e+02,3.50774e+01,-4.40686e+01,0.00000e+00,0.00000e+00,0.00000e+00
4.26200e+02,3.42806e+01,-4.72163e+01,0.00000e+00,0.00000e+00,0.00000e+00
4.26200e+02,3.33901e+01,-5.03641e+01,0.00000e+00,0.00000e+00,0.00000e+00
4.26200e+02,3.24342e+01,-5.35118e+01,0.00000e+00,0.00000e+00,0.00000e+00
4.26200e+02,3.13314e+01,-5.66596e+01,0.00000e+00,0.00000e+00,0.00000e+00
4.26200e+02,3.01677e+01,-5.98074e+01,0.00000e+00,0.00000e+00,0.00000e+00
4.26200e+02,2.88343e+01,-6.29551e+01,0.00000e+00,0.00000e+00,0.00000e+00
4.26200e+02,2.73650e+01,-6.61029e+01,0.00000e+00,0.00000e+00,0.00000e+00
4.26200e+02,2.57573e+01,-6.92506e+01,0.00000e+00,0.00000e+00,0.00000e+00
4.26200e+02,2.39173e+01,-7.23984e+01,0.00000e+00,0.00000e+00,0.00000e+00
4.26200e+02,2.18083e+01,-7.55461e+01,0.00000e+00,0.00000e+00,0.00000e+00
4.26200e+02,1.93952e+01,-7.86939e+01,0.00000e+00,0.00000e+00,0.00000e+00
4.26200e+02,1.65410e+01,-8.18417e+01,0.00000e+00,0.00000e+00,0.00000e+00
4.26200e+02,1.28775e+01,-8.49894e+01,0.00000e+00,0.00000e+00,0.00000e+00
4.26200e+02,7.92271e+00,-8.81372e+01,0.00000e+00,0.00000e+00,0.00000e+00
4.26200e+02,-3.21022e+00,-9.12849e+01,0.00000e+00,0.00000e+00,0.00000e+00
4.26200e+02,-4.01369e+00,-9.12922e+01,0.00000e+00,0.00000e+00,0.00000e+00
4.26200e+02,-1.13339e+01,-8.80318e+01,0.00000e+00,0.00000e+00,0.00000e+00
4.26200e+02,-1.22201e+01,-8.47713e+01,0.00000e+00,0.00000e+00,0.00000e+00
4.26200e+02,-1.25260e+01,-8.15109e+01,0.00000e+00,0.00000e+00,0.00000e+00
4.26200e+02,-1.25724e+01,-7.82505e+01,0.00000e+00,0.00000e+00,0.00000e+00
4.26200e+02,-1.24233e+01,-7.49900e+01,0.00000e+00,0.00000e+00,0.00000e+00
4.26200e+02,-1.21516e+01,-7.17296e+01,0.00000e+00,0.00000e+00,0.00000e+00
4.26200e+02,-1.17568e+01,-6.84692e+01,0.00000e+00,0.00000e+00,0.00000e+00
4.26200e+02,-1.12868e+01,-6.52087e+01,0.00000e+00,0.00000e+00,0.00000e+00
4.26200e+02,-1.07732e+01,-6.19483e+01,0.00000e+00,0.00000e+00,0.00000e+00
4.26200e+02,-1.01940e+01,-5.86879e+01,0.00000e+00,0.00000e+00,0.00000e+00
4.26200e+02,-9.57378e+00,-5.54274e+01,0.00000e+00,0.00000e+00,0.00000e+00
4.26200e+02,-8.91358e+00,-5.21670e+01,0.00000e+00,0.00000e+00,0.00000e+00
4.26200e+02,-8.21359e+00,-4.89065e+01,0.00000e+00,0.00000e+00,0.00000e+00
4.26200e+02,-7.48864e+00,-4.56461e+01,0.00000e+00,0.00000e+00,0.00000e+00
4.26200e+02,-6.73173e+00,-4.23857e+01,0.00000e+00,0.00000e+00,0.00000e+00
4.26200e+02,-5.95435e+00,-3.91252e+01,0.00000e+00,0.00000e+00,0.00000e+00
4.26200e+02,-5.15861e+00,-3.58648e+01,0.00000e+00,0.00000e+00,0.00000e+00
4.26200e+02,-4.34650e+00,-3.26044e+01,0.00000e+00,0.00000e+00,0.00000e+00
4.26200e+02,-3.52744e+00,-2.93439e+01,0.00000e+00,0.00000e+00,0.00000e+00
4.26200e+02,-2.69763e+00,-2.60835e+01,0.00000e+00,0.00000e+00,0.00000e+00
4.26200e+02,-1.86603e+00,-2.28231e+01,0.00000e+00,0.00000e+00,0.00000e+00
4.26200e+02,-1.02802e+00,-1.95626e+01,0.00000e+00,0.00000e+00,0.00000e+00
4.26200e+02,-1.90083e-01,-1.63022e+01,0.00000e+00,0.00000e+00,0.00000e+00
4.26200e+02,6.44682e-01,-1.30417e+01,0.00000e+00,0.00000e+00,0.00000e+00
4.26200e+02,1.47945e+00,-9.78131e+00,0.00000e+00,0.00000e+00,0.00000e+00
4.26200e+02,2.29445e+00,-6.52087e+00,0.00000e+00,0.00000e+00,0.00000e+00
4.26200e+02,3.10576e+00,-3.26044e+00,0.00000e+00,0.00000e+00,0.00000e+00
5.30600e+02,4.10127e+01,0.00000e+00,0.00000e+00,0.00000e+00,0.00000e+00
5.30600e+02,4.08062e+01,-3.11654e+00,0.00000e+00,0.00000e+00,0.00000e+00
5.30600e+02,4.05314e+01,-6.23307e+00,0.00000e+00,0.00000e+00,0.00000e+00
5.30600e+02,4.02539e+01,-9.34961e+00,0.00000e+00,0.00000e+00,0.00000e+00
5.30600e+02,3.99161e+01,-1.24661e+01,0.00000e+00,0.00000e+00,0.00000e+00
5.30600e+02,3.95644e+01,-1.55827e+01,0.00000e+00,0.00000e+00,0.00000e+00
5.30600e+02,3.91664e+01,-1.86992e+01,0.00000e+00,0.00000e+00,0.00000e+00
5.30600e+02,3.87460e+01,-2.18158e+01,0.00000e+00,0.00000e+00,0.00000e+00
5.30600e+02,3.82884e+01,-2.49323e+01,0.00000e+00,0.00000e+00,0.00000e+00
5.30600e+02,3.78003e+01,-2.80488e+01,0.00000e+00,0.00000e+00,0.00000e+00
5.30600e+02,3.72787e+01,-3.11654e+01,0.00000e+00,0.00000e+00,0.00000e+00
5.30600e+02,3.67164e+01,-3.42819e+01,0.00000e+00,0.00000e+00,0.00000e+00
5.30600e+02,3.61125e+01,-3.73984e+01,0.00000e+00,0.00000e+00,0.00000e+00
5.30600e+02,3.54497e+01,-4.05150e+01,0.00000e+00,0.00000e+00,0.00000e+00
5.30600e+02,3.47295e+01,-4.36315e+01,0.00000e+00,0.00000e+00,0.00000e+00
5.30600e+02,3.39406e+01,-4.67480e+01,0.00000e+00,0.00000e+00,0.00000e+00
5.30600e+02,3.30589e+01,-4.98646e+01,0.00000e+00,0.00000e+00,0.00000e+00
5.30600e+02,3.21125e+01,-5.29811e+01,0.00000e+00,0.00000e+00,0.00000e+00
5.30600e+02,3.10206e+01,-5.60976e+01,0.00000e+00,0.00000e+00,0.00000e+00
5.30600e+02,2.98685e+01,-5.92142e+01,0.00000e+00,0.00000e+00,0.00000e+00
5.30600e+02,2.85484e+01,-6.23307e+01,0.00000e+00,0.00000e+00,0.00000e+00
5.30600e+02,2.70936e+01,-6.54473e+01,0.00000e+00,0.00000e+00,0.00000e+00
5.30600e+02,2.55018e+01,-6.85638e+01,0.00000e+00,0.00000e+00,0.00000e+00
5.30600e+02,2.36801e+01,-7.16803e+01,0.00000e+00,0.00000e+00,0.00000e+00
5.30600e+02,2.15920e+01,-7.47969e+01,0.00000e+00,0.00000e+00,0.00000e+00
5.30600e+02,1.92028e+01,-7.79134e+01,0.00000e+00,0.00000e+00,0.00000e+00
5.30600e+02,1.63770e+01,-8.10299e+01,0.00000e+00,0.00000e+00,0.00000e+00
5.30600e+02,1.27498e+01,-8.41465e+01,0.00000e+00,0.00000e+00,0.00000e+00
5.30600e+02,7.84413e+00,-8.72630e+01,0.00000e+00,0.00000e+00,0.00000e+00
5.30600e+02,-3.17838e+00,-9.03795e+01,0.00000e+00,0.00000e+00,0.00000e+00
5.30600e+02,-3.97388e+00,-9.03868e+01,0.00000e+00,0.00000e+00,0.00000e+00
5.30600e+02,-1.12214e+01,-8.71587e+01,0.00000e+00,0.00000e+00,0.00000e+00
5.30600e+02,-1.20989e+01,-8.39306e+01,0.00000e+00,0.00000e+00,0.00000e+00
5.30600e+02,-1.24018e+01,-8.07025e+01,0.00000e+00,0.00000e+00,0.00000e+00
5.30600e+02,-1.24477e+01,-7.74744e+01,0.00000e+00,0.00000e+00,0.00000e+00
5.30600e+02,-1.23001e+01,-7.42463e+01,0.00000e+00,0.00000e+00,0.00000e+00
5.30600e+02,-1.20311e+01,-7.10182e+01,0.00000e+00,0.00000e+00,0.00000e+00
5.30600e+02,-1.16402e+01,-6.77901e+01,0.00000e+00,0.00000e+00,0.00000e+00
5.30600e+02,-1.11748e+01,-6.45620e+01,0.00000e+00,0.00000e+00,0.00000e+00
5.30600e+02,-1.06664e+01,-6.13339e+01,0.00000e+00,0.00000e+00,0.00000e+00
5.30600e+02,-1.00929e+01,-5.81058e+01,0.00000e+00,0.00000e+00,0.00000e+00
5.30600e+02,-9.47882e+00,-5.48777e+01,0.00000e+00,0.00000e+00,0.00000e+00
5.30600e+02,-8.82518e+00,-5.16496e+01,0.00000e+00,0.00000e+00,0.00000e+00
5.30600e+02,-8.13212e+00,-4.84215e+01,0.00000e+00,0.00000e+00,0.00000e+00
5.30600e+02,-7.41437e+00,-4.51934e+01,0.00000e+00,0.00000e+00,0.00000e+00
5.30600e+02,-6.66496e+00,-4.19653e+01,0.00000e+00,0.00000e+00,0.00000e+00
5.30600e+02,-5.89529e+00,-3.87372e+01,0.00000e+00,0.00000e+00,0.00000e+00
5.30600e+02,-5.10745e+00,-3.55091e+01,0.00000e+00,0.00000e+00,0.00000e+00
5.30600e+02,-4.30339e+00,-3.22810e+01,0.00000e+00,0.00000e+00,0.00000e+00
5.30600e+02,-3.49245e+00,-2.90529e+01,0.00000e+00,0.00000e+00,0.00000e+00
5.30600e+02,-2.67088e+00,-2.58248e+01,0.00000e+00,0.00000e+00,0.00000e+00
5.30600e+02,-1.84753e+00,-2.25967e+01,0.00000e+00,0.00000e+00,0.00000e+00
5.30600e+02,-1.01782e+00,-1.93686e+01,0.00000e+00,0.00000e+00,0.00000e+00
5.30600e+02,-1.88198e-01,-1.61405e+01,0.00000e+00,0.00000e+00,0.00000e+00
5.30600e+02,6.38288e-01,-1.29124e+01,0.00000e+00,0.00000e+00,0.00000e+00
5.30600e+02,1.46477e+00,-9.68430e+00,0.00000e+00,0.00000e+00,0.00000e+00
5.30600e+02,2.27169e+00,-6.45620e+00,0.00000e+00,0.00000e+00,0.00000e+00
5.30600e+02,3.07496e+00,-3.22810e+00,0.00000e+00,0.00000e+00,0.00000e+00
6.33500e+02,4.06078e+01,0.00000e+00,0.00000e+00,0.00000e+00,0.00000e+00
6.33500e+02,4.04033e+01,-3.08576e+00,0.00000e+00,0.00000e+00,0.00000e+00
6.33500e+02,4.01312e+01,-6.17153e+00,0.00000e+00,0.00000e+00,0.00000e+00
6.33500e+02,3.98564e+01,-9.25729e+00,0.00000e+00,0.00000e+00,0.00000e+00
6.33500e+02,3.95220e+01,-1.23431e+01,0.00000e+00,0.00000e+00,0.00000e+00
6.33500e+02,3.91738e+01,-1.54288e+01,0.00000e+00,0.00000e+00,0.00000e+00
6.33500e+02,3.87797e+01,-1.85146e+01,0.00000e+00,0.00000e+00,0.00000e+00
6.33500e+02,3.83634e+01,-2.16004e+01,0.00000e+00,0.00000e+00,0.00000e+00
6.33500e+02,3.79104e+01,-2.46861e+01,0.00000e+00,0.00000e+00,0.00000e+00
6.33500e+02,3.74271e+01,-2.77719e+01,0.00000e+00,0.00000e+00,0.00000e+00
6.33500e+02,3.69106e+01,-3.08576e+01,0.00000e+00,0.00000e+00,0.00000e+00
6.33500e+02,3.63539e+01,-3.39434e+01,0.00000e+00,0.00000e+00,0.00000e+00
6.33500e+02,3.57559e+01,-3.70292e+01,0.00000e+00,0.00000e+00,0.00000e+00
6.33500e+02,3.50997e+01,-4.01149e+01,0.00000e+00,0.00000e+00,0.00000e+00
6.33500e+02,3.43866e+01,-4.32007e+01,0.00000e+00,0.00000e+00,0.00000e+00
6.33500e+02,3.36055e+01,-4.62865e+01,0.00000e+00,0.00000e+00,0.00000e+00
6.33500e+02,3.27325e+01,-4.93722e+01,0.00000e+00,0.00000e+00,0.00000e+00
6.33500e+02,3.17954e+01,-5.24580e+01,0.00000e+00,0.00000e+00,0.00000e+00
6.33500e+02,3.07144e+01,-5.55438e+01,0.00000e+00,0.00000e+00,0.00000e+00
6.33500e+02,2.95736e+01,-5.86295e+01,0.00000e+00,0.00000e+00,0.00000e+00
6.33500e+02,2.82665e+01,-6.17153e+01,0.00000e+00,0.00000e+00,0.00000e+00
6.33500e+02,2.68261e+01,-6.48011e+01,0.00000e+00,0.00000e+00,0.00000e+00
6.33500e+02,2.52500e+01,-6.78868e+01,0.00000e+00,0.00000e+00,0.00000e+00
6.33500e+02,2.34463e+01,-7.09726e+01,0.00000e+00,0.00000e+00,0.00000e+00
6.33500e+02,2.13788e+01,-7.40584e+01,0.00000e+00,0.00000e+00,0.00000e+00
6.33500e+02,1.90132e+01,-7.71441e+01,0.00000e+00,0.00000e+00,0.00000e+00
6.33500e+02,1.62153e+01,-8.02299e+01,0.00000e+00,0.00000e+00,0.00000e+00
6.33500e+02,1.26239e+01,-8.33156e+01,0.00000e+00,0.00000e+00,0.00000e+00
6.33500e+02,7.76668e+00,-8.64014e+01,0.00000e+00,0.00000e+00,0.00000e+00
6.33500e+02,-3.14700e+00,-8.94872e+01,0.00000e+00,0.00000e+00,0.00000e+00
6.33500e+02,-3.93464e+00,-8.94943e+01,0.00000e+00,0.00000e+00,0.00000e+00
6.33500e+02,-1.11106e+01,-8.62981e+01,0.00000e+00,0.00000e+00,0.00000e+00
6.33500e+02,-1.19795e+01,-8.31019e+01,0.00000e+00,0.00000e+00,0.00000e+00
6.33500e+02,-1.22793e+01,-7.99057e+01,0.00000e+00,0.00000e+00,0.00000e+00
6.33500e+02,-1.23248e+01,-7.67094e+01,0.00000e+00,0.00000e+00,0.00000e+00
6.33500e+02,-1.21787e+01,-7.35132e+01,0.00000e+00,0.00000e+00,0.00000e+00
6.33500e+02,-1.19123e+01,-7.03170e+01,0.00000e+00,0.00000e+00,0.00000e+00
6.33500e+02,-1.15252e+01,-6.71208e+01,0.00000e+00,0.00000e+00,0.00000e+00
6.33500e+02,-1.10645e+01,-6.39245e+01,0.00000e+00,0.00000e+00,0.00000e+00
6.33500e+02,-1.05611e+01,-6.07283e+01,0.00000e+00,0.00000e+00,0.00000e+00
6.33500e+02,-9.99326e+00,-5.75321e+01,0.00000e+00,0.00000e+00,0.00000e+00
6.33500e+02,-9.38524e+00,-5.43358e+01,0.00000e+00,0.00000e+00,0.00000e+00
6.33500e+02,-8.73804e+00,-5.11396e+01,0.00000e+00,0.00000e+00,0.00000e+00
6.33500e+02,-8.05183e+00,-4.79434e+01,0.00000e+00,0.00000e+00,0.00000e+00
6.33500e+02,-7.34116e+00,-4.47472e+01,0.00000e+00,0.00000e+00,0.00000e+00
6.33500e+02,-6.59916e+00,-4.15509e+01,0.00000e+00,0.00000e+00,0.00000e+00
6.33500e+02,-5.83709e+00,-3.83547e+01,0.00000e+00,0.00000e+00,0.00000e+00
6.33500e+02,-5.05702e+00,-3.51585e+01,0.00000e+00,0.00000e+00,0.00000e+00
6.33500e+02,-4.26090e+00,-3.19623e+01,0.00000e+00,0.00000e+00,0.00000e+00
6.33500e+02,-3.45797e+00,-2.87660e+01,0.00000e+00,0.00000e+00,0.00000e+00
6.33500e+02,-2.64450e+00,-2.55698e+01,0.00000e+00,0.00000e+00,0.00000e+00
6.33500e+02,-1.82928e+00,-2.23736e+01,0.00000e+00,0.00000e+00,0.00000e+00
6.33500e+02,-1.00777e+00,-1.91774e+01,0.00000e+00,0.00000e+00,0.00000e+00
6.33500e+02,-1.86340e-01,-1.59811e+01,0.00000e+00,0.00000e+00,0.00000e+00
6.33500e+02,6.31986e-01,-1.27849e+01,0.00000e+00,0.00000e+00,0.00000e+00
6.33500e+02,1.45031e+00,-9.58868e+00,0.00000e+00,0.00000e+00,0.00000e+00
6.33500e+02,2.24926e+00,-6.39245e+00,0.00000e+00,0.00000e+00,0.00000e+00
6.33500e+02,3.04460e+00,-3.19623e+00,0.00000e+00,0.00000e+00,0.00000e+00
7.34700e+02,4.02095e+01,0.00000e+00,0.00000e+00,0.00000e+00,0.00000e+00
7.34700e+02,4.00070e+01,-3.05550e+00,0.00000e+00,0.00000e+00,0.00000e+00
7.34700e+02,3.97376e+01,-6.11100e+00,0.00000e+00,0.00000e+00,0.00000e+00
7.34700e+02,3.94656e+01,-9.16651e+00,0.00000e+00,0.00000e+00,0.00000e+00
7.34700e+02,3.91344e+01,-1.22220e+01,0.00000e+00,0.00000e+00,0.00000e+00
7.34700e+02,3.87896e+01,-1.52775e+01,0.00000e+00,0.00000e+00,0.00000e+00
7.34700e+02,3.83994e+01,-1.83330e+01,0.00000e+00,0.00000e+00,0.00000e+00
7.34700e+02,3.79872e+01,-2.13885e+01,0.00000e+00,0.00000e+00,0.00000e+00
7.34700e+02,3.75386e+01,-2.44440e+01,0.00000e+00,0.00000e+00,0.00000e+00
7.34700e+02,3.70601e+01,-2.74995e+01,0.00000e+00,0.00000e+00,0.00000e+00
7.34700e+02,3.65486e+01,-3.05550e+01,0.00000e+00,0.00000e+00,0.00000e+00
7.34700e+02,3.59973e+01,-3.36105e+01,0.00000e+00,0.00000e+00,0.00000e+00
7.34700e+02,3.54053e+01,-3.66660e+01,0.00000e+00,0.00000e+00,0.00000e+00
7.34700e+02,3.47554e+01,-3.97215e+01,0.00000e+00,0.00000e+00,0.00000e+00
7.34700e+02,3.40493e+01,-4.27770e+01,0.00000e+00,0.00000e+00,0.00000e+00
7.34700e+02,3.32760e+01,-4.58325e+01,0.00000e+00,0.00000e+00,0.00000e+00
7.34700e+02,3.24115e+01,-4.88880e+01,0.00000e+00,0.00000e+00,0.00000e+00
7.34700e+02,3.14836e+01,-5.19435e+01,0.00000e+00,0.00000e+00,0.00000e+00
7.34700e+02,3.04131e+01,-5.49990e+01,0.00000e+00,0.00000e+00,0.00000e+00
7.34700e+02,2.92835e+01,-5.80545e+01,0.00000e+00,0.00000e+00,0.00000e+00
7.34700e+02,2.79893e+01,-6.11100e+01,0.00000e+00,0.00000e+00,0.00000e+00
7.34700e+02,2.65630e+01,-6.41655e+01,0.00000e+00,0.00000e+00,0.00000e+00
7.34700e+02,2.50024e+01,-6.72210e+01,0.00000e+00,0.00000e+00,0.00000e+00
7.34700e+02,2.32164e+01,-7.02765e+01,0.00000e+00,0.00000e+00,0.00000e+00
7.34700e+02,2.11691e+01,-7.33320e+01,0.00000e+00,0.00000e+00,0.00000e+00
7.34700e+02,1.88268e+01,-7.63875e+01,0.00000e+00,0.00000e+00,0.00000e+00
7.34700e+02,1.60563e+01,-7.94430e+01,0.00000e+00,0.00000e+00,0.00000e+00
7.34700e+02,1.25001e+01,-8.24985e+01,0.00000e+00,0.00000e+00,0.00000e+00
7.34700e+02,7.69051e+00,-8.55540e+01,0.00000e+00,0.00000e+00,0.00000e+00
7.34700e+02,-3.11614e+00,-8.86096e+01,0.00000e+00,0.00000e+00,0.00000e+00
7.34700e+02,-3.89606e+00,-8.86166e+01,0.00000e+00,0.00000e+00,0.00000e+00
7.34700e+02,-1.10017e+01,-8.54518e+01,0.00000e+00,0.00000e+00,0.00000e+00
7.34700e+02,-1.18620e+01,-8.22869e+01,0.00000e+00,0.00000e+00,0.00000e+00
7.34700e+02,-1.21589e+01,-7.91220e+01,0.00000e+00,0.00000e+00,0.00000e+00
7.34700e+02,-1.22039e+01,-7.59571e+01,0.00000e+00,0.00000e+00,0.00000e+00
7.34700e+02,-1.20592e+01,-7.27922e+01,0.00000e+00,0.00000e+00,0.00000e+00
7.34700e+02,-1.17955e+01,-6.96274e+01,0.00000e+00,0.00000e+00,0.00000e+00
7.34700e+02,-1.14122e+01,-6.64625e+01,0.00000e+00,0.00000e+00,0.00000e+00
7.34700e+02,-1.09560e+01,-6.32976e+01,0.00000e+00,0.00000e+00,0.00000e+00
7.34700e+02,-1.04575e+01,-6.01327e+01,0.00000e+00,0.00000e+00,0.00000e+00
7.34700e+02,-9.89525e+00,-5.69678e+01,0.00000e+00,0.00000e+00,0.00000e+00
7.34700e+02,-9.29319e+00,-5.38030e+01,0.00000e+00,0.00000e+00,0.00000e+00
7.34700e+02,-8.65235e+00,-5.06381e+01,0.00000e+00,0.00000e+00,0.00000e+00
7.34700e+02,-7.97287e+00,-4.74732e+01,0.00000e+00,0.00000e+00,0.00000e+00
7.34700e+02,-7.26917e+00,-4.43083e+01,0.00000e+00,0.00000e+00,0.00000e+00
7.34700e+02,-6.53444e+00,-4.11434e+01,0.00000e+00,0.00000e+00,0.00000e+00
7.34700e+02,-5.77984e+00,-3.79786e+01,0.00000e+00,0.00000e+00,0.00000e+00
7.34700e+02,-5.00742e+00,-3.48137e+01,0.00000e+00,0.00000e+00,0.00000e+00
7.34700e+02,-4.21911e+00,-3.16488e+01,0.00000e+00,0.00000e+00,0.00000e+00
7.34700e+02,-3.42406e+00,-2.84839e+01,0.00000e+00,0.00000e+00,0.00000e+00
7.34700e+02,-2.61857e+00,-2.53190e+01,0.00000e+00,0.00000e+00,0.00000e+00
7.34700e+02,-1.81134e+00,-2.21542e+01,0.00000e+00,0.00000e+00,0.00000e+00
7.34700e+02,-9.97887e-01,-1.89893e+01,0.00000e+00,0.00000e+00,0.00000e+00
7.34700e+02,-1.84513e-01,-1.58244e+01,0.00000e+00,0.00000e+00,0.00000e+00
7.34700e+02,6.25788e-01,-1.26595e+01,0.00000e+00,0.00000e+00,0.00000e+00
7.34700e+02,1.43609e+00,-9.49464e+00,0.00000e+00,0.00000e+00,0.00000e+00
7.34700e+02,2.22720e+00,-6.32976e+00,0.00000e+00,0.00000e+00,0.00000e+00
7.34700e+02,3.01474e+00,-3.16488e+00,0.00000e+00,0.00000e+00,0.00000e+00
8.33800e+02,3.98196e+01,0.00000e+00,0.00000e+00,0.00000e+00,0.00000e+00
8.33800e+02,3.96190e+01,-3.02587e+00,0.00000e+00,0.00000e+00,0.00000e+00
8.33800e+02,3.93522e+01,-6.05173e+00,0.00000e+00,0.00000e+00,0.00000e+00
8.33800e+02,3.90828e+01,-9.07760e+00,0.00000e+00,0.00000e+00,0.00000e+00
8.33800e+02,3.87549e+01,-1.21035e+01,0.00000e+00,0.00000e+00,0.00000e+00
8.33800e+02,3.84134e+01,-1.51293e+01,0.00000e+00,0.00000e+00,0.00000e+00
8.33800e+02,3.80270e+01,-1.81552e+01,0.00000e+00,0.00000e+00,0.00000e+00
8.33800e+02,3.76188e+01,-2.11811e+01,0.00000e+00,0.00000e+00,0.00000e+00
8.33800e+02,3.71745e+01,-2.42069e+01,0.00000e+00,0.00000e+00,0.00000e+00
8.33800e+02,3.67006e+01,-2.72328e+01,0.00000e+00,0.00000e+00,0.00000e+00
8.33800e+02,3.61941e+01,-3.02587e+01,0.00000e+00,0.00000e+00,0.00000e+00
8.33800e+02,3.56482e+01,-3.32845e+01,0.00000e+00,0.00000e+00,0.00000e+00
8.33800e+02,3.50619e+01,-3.63104e+01,0.00000e+00,0.00000e+00,0.00000e+00
8.33800e+02,3.44183e+01,-3.93363e+01,0.00000e+00,0.00000e+00,0.00000e+00
8.33800e+02,3.37191e+01,-4.23621e+01,0.00000e+00,0.00000e+00,0.00000e+00
8.33800e+02,3.29532e+01,-4.53880e+01,0.00000e+00,0.00000e+00,0.00000e+00
8.33800e+02,3.20971e+01,-4.84139e+01,0.00000e+00,0.00000e+00,0.00000e+00
8.33800e+02,3.11783e+01,-5.14397e+01,0.00000e+00,0.00000e+00,0.00000e+00
8.33800e+02,3.01182e+01,-5.44656e+01,0.00000e+00,0.00000e+00,0.00000e+00
8.33800e+02,2.89995e+01,-5.74915e+01,0.00000e+00,0.00000e+00,0.00000e+00
8.33800e+02,2.77178e+01,-6.05173e+01,0.00000e+00,0.00000e+00,0.00000e+00
8.33800e+02,2.63054e+01,-6.35432e+01,0.00000e+00,0.00000e+00,0.00000e+00
8.33800e+02,2.47599e+01,-6.65691e+01,0.00000e+00,0.00000e+00,0.00000e+00
8.33800e+02,2.29912e+01,-6.95949e+01,0.00000e+00,0.00000e+00,0.00000e+00
8.33800e+02,2.09638e+01,-7.26208e+01,0.00000e+00,0.00000e+00,0.00000e+00
8.33800e+02,1.86442e+01,-7.56467e+01,0.00000e+00,0.00000e+00,0.00000e+00
8.33800e+02,1.59005e+01,-7.86725e+01,0.00000e+00,0.00000e+00,0.00000e+00
8.33800e+02,1.23789e+01,-8.16984e+01,0.00000e+00,0.00000e+00,0.00000e+00
8.33800e+02,7.61592e+00,-8.47243e+01,0.00000e+00,0.00000e+00,0.00000e+00
8.33800e+02,-3.08591e+00,-8.77501e+01,0.00000e+00,0.00000e+00,0.00000e+00
8.33800e+02,-3.85827e+00,-8.77572e+01,0.00000e+00,0.00000e+00,0.00000e+00
8.33800e+02,-1.08950e+01,-8.46230e+01,0.00000e+00,0.00000e+00,0.00000e+00
8.33800e+02,-1.17470e+01,-8.14888e+01,0.00000e+00,0.00000e+00,0.00000e+00
8.33800e+02,-1.20409e+01,-7.83546e+01,0.00000e+00,0.00000e+00,0.00000e+00
8.33800e+02,-1.20856e+01,-7.52204e+01,0.00000e+00,0.00000e+00,0.00000e+00
8.33800e+02,-1.19423e+01,-7.20862e+01,0.00000e+00,0.00000e+00,0.00000e+00
8.33800e+02,-1.16811e+01,-6.89521e+01,0.00000e+00,0.00000e+00,0.00000e+00
8.33800e+02,-1.13015e+01,-6.58179e+01,0.00000e+00,0.00000e+00,0.00000e+00
8.33800e+02,-1.08497e+01,-6.26837e+01,0.00000e+00,0.00000e+00,0.00000e+00
8.33800e+02,-1.03561e+01,-5.95495e+01,0.00000e+00,0.00000e+00,0.00000e+00
8.33800e+02,-9.79928e+00,-5.64153e+01,0.00000e+00,0.00000e+00,0.00000e+00
8.33800e+02,-9.20306e+00,-5.32811e+01,0.00000e+00,0.00000e+00,0.00000e+00
8.33800e+02,-8.56843e+00,-5.01469e+01,0.00000e+00,0.00000e+00,0.00000e+00
8.33800e+02,-7.89554e+00,-4.70128e+01,0.00000e+00,0.00000e+00,0.00000e+00
8.33800e+02,-7.19866e+00,-4.38786e+01,0.00000e+00,0.00000e+00,0.00000e+00
8.33800e+02,-6.47106e+00,-4.07444e+01,0.00000e+00,0.00000e+00,0.00000e+00
8.33800e+02,-5.72378e+00,-3.76102e+01,0.00000e+00,0.00000e+00,0.00000e+00
8.33800e+02,-4.95886e+00,-3.44760e+01,0.00000e+00,0.00000e+00,0.00000e+00
8.33800e+02,-4.17819e+00,-3.13418e+01,0.00000e+00,0.00000e+00,0.00000e+00
8.33800e+02,-3.39085e+00,-2.82077e+01,0.00000e+00,0.00000e+00,0.00000e+00
8.33800e+02,-2.59317e+00,-2.50735e+01,0.00000e+00,0.00000e+00,0.00000e+00
8.33800e+02,-1.79378e+00,-2.19393e+01,0.00000e+00,0.00000e+00,0.00000e+00
8.33800e+02,-9.88209e-01,-1.88051e+01,0.00000e+00,0.00000e+00,0.00000e+00
8.33800e+02,-1.82723e-01,-1.56709e+01,0.00000e+00,0.00000e+00,0.00000e+00
8.33800e+02,6.19718e-01,-1.25367e+01,0.00000e+00,0.00000e+00,0.00000e+00
8.33800e+02,1.42216e+00,-9.40255e+00,0.00000e+00,0.00000e+00,0.00000e+00
8.33800e+02,2.20560e+00,-6.26837e+00,0.00000e+00,0.00000e+00,0.00000e+00
8.33800e+02,2.98550e+00,-3.13418e+00,0.00000e+00,0.00000e+00,0.00000e+00
9.30700e+02,3.94382e+01,0.00000e+00,0.00000e+00,0.00000e+00,0.00000e+00
9.30700e+02,3.92396e+01,-2.99689e+00,0.00000e+00,0.00000e+00,0.00000e+00
9.30700e+02,3.89754e+01,-5.99378e+00,0.00000e+00,0.00000e+00,0.00000e+00
9.30700e+02,3.87085e+01,-8.99067e+00,0.00000e+00,0.00000e+00,0.00000e+00
9.30700e+02,3.83837e+01,-1.19876e+01,0.00000e+00,0.00000e+00,0.00000e+00
9.30700e+02,3.80455e+01,-1.49844e+01,0.00000e+00,0.00000e+00,0.00000e+00
9.30700e+02,3.76628e+01,-1.79813e+01,0.00000e+00,0.00000e+00,0.00000e+00
9.30700e+02,3.72585e+01,-2.09782e+01,0.00000e+00,0.00000e+00,0.00000e+00
9.30700e+02,3.68185e+01,-2.39751e+01,0.00000e+00,0.00000e+00,0.00000e+00
9.30700e+02,3.63492e+01,-2.69720e+01,0.00000e+00,0.00000e+00,0.00000e+00
9.30700e+02,3.58475e+01,-2.99689e+01,0.00000e+00,0.00000e+00,0.00000e+00
9.30700e+02,3.53068e+01,-3.29658e+01,0.00000e+00,0.00000e+00,0.00000e+00
9.30700e+02,3.47261e+01,-3.59627e+01,0.00000e+00,0.00000e+00,0.00000e+00
9.30700e+02,3.40887e+01,-3.89596e+01,0.00000e+00,0.00000e+00,0.00000e+00
9.30700e+02,3.33962e+01,-4.19565e+01,0.00000e+00,0.00000e+00,0.00000e+00
9.30700e+02,3.26376e+01,-4.49533e+01,0.00000e+00,0.00000e+00,0.00000e+00
9.30700e+02,3.17897e+01,-4.79502e+01,0.00000e+00,0.00000e+00,0.00000e+00
9.30700e+02,3.08797e+01,-5.09471e+01,0.00000e+00,0.00000e+00,0.00000e+00
9.30700e+02,2.98297e+01,-5.39440e+01,0.00000e+00,0.00000e+00,0.00000e+00
9.30700e+02,2.87218e+01,-5.69409e+01,0.00000e+00,0.00000e+00,0.00000e+00
9.30700e+02,2.74524e+01,-5.99378e+01,0.00000e+00,0.00000e+00,0.00000e+00
9.30700e+02,2.60534e+01,-6.29347e+01,0.00000e+00,0.00000e+00,0.00000e+00
9.30700e+02,2.45228e+01,-6.59316e+01,0.00000e+00,0.00000e+00,0.00000e+00
9.30700e+02,2.27710e+01,-6.89285e+01,0.00000e+00,0.00000e+00,0.00000e+00
9.30700e+02,2.07631e+01,-7.19254e+01,0.00000e+00,0.00000e+00,0.00000e+00
9.30700e+02,1.84656e+01,-7.49222e+01,0.00000e+00,0.00000e+00,0.00000e+00
9.30700e+02,1.57483e+01,-7.79191e+01,0.00000e+00,0.00000e+00,0.00000e+00
9.30700e+02,1.22603e+01,-8.09160e+01,0.00000e+00,0.00000e+00,0.00000e+00
9.30700e+02,7.54299e+00,-8.39129e+01,0.00000e+00,0.00000e+00,0.00000e+00
9.30700e+02,-3.05636e+00,-8.69098e+01,0.00000e+00,0.00000e+00,0.00000e+00
9.30700e+02,-3.82132e+00,-8.69168e+01,0.00000e+00,0.00000e+00,0.00000e+00
9.30700e+02,-1.07906e+01,-8.38126e+01,0.00000e+00,0.00000e+00,0.00000e+00
9.30700e+02,-1.16345e+01,-8.07084e+01,0.00000e+00,0.00000e+00,0.00000e+00
9.30700e+02,-1.19256e+01,-7.76042e+01,0.00000e+00,0.00000e+00,0.00000e+00
9.30700e+02,-1.19698e+01,-7.45001e+01,0.00000e+00,0.00000e+00,0.00000e+00
9.30700e+02,-1.18279e+01,-7.13959e+01,0.00000e+00,0.00000e+00,0.00000e+00
9.30700e+02,-1.15692e+01,-6.82917e+01,0.00000e+00,0.00000e+00,0.00000e+00
9.30700e+02,-1.11933e+01,-6.51876e+01,0.00000e+00,0.00000e+00,0.00000e+00
9.30700e+02,-1.07458e+01,-6.20834e+01,0.00000e+00,0.00000e+00,0.00000e+00
9.30700e+02,-1.02569e+01,-5.89792e+01,0.00000e+00,0.00000e+00,0.00000e+00
9.30700e+02,-9.70544e+00,-5.58751e+01,0.00000e+00,0.00000e+00,0.00000e+00
9.30700e+02,-9.11493e+00,-5.27709e+01,0.00000e+00,0.00000e+00,0.00000e+00
9.30700e+02,-8.48637e+00,-4.96667e+01,0.00000e+00,0.00000e+00,0.00000e+00
9.30700e+02,-7.81993e+00,-4.65625e+01,0.00000e+00,0.00000e+00,0.00000e+00
9.30700e+02,-7.12973e+00,-4.34584e+01,0.00000e+00,0.00000e+00,0.00000e+00
9.30700e+02,-6.40909e+00,-4.03542e+01,0.00000e+00,0.00000e+00,0.00000e+00
9.30700e+02,-5.66897e+00,-3.72500e+01,0.00000e+00,0.00000e+00,0.00000e+00
9.30700e+02,-4.91137e+00,-3.41459e+01,0.00000e+00,0.00000e+00,0.00000e+00
9.30700e+02,-4.13818e+00,-3.10417e+01,0.00000e+00,0.00000e+00,0.00000e+00
9.30700e+02,-3.35837e+00,-2.79375e+01,0.00000e+00,0.00000e+00,0.00000e+00
9.30700e+02,-2.56834e+00,-2.48334e+01,0.00000e+00,0.00000e+00,0.00000e+00
9.30700e+02,-1.77660e+00,-2.17292e+01,0.00000e+00,0.00000e+00,0.00000e+00
9.30700e+02,-9.78745e-01,-1.86250e+01,0.00000e+00,0.00000e+00,0.00000e+00
9.30700e+02,-1.80973e-01,-1.55208e+01,0.00000e+00,0.00000e+00,0.00000e+00
9.30700e+02,6.13784e-01,-1.24167e+01,0.00000e+00,0.00000e+00,0.00000e+00
9.30700e+02,1.40854e+00,-9.31251e+00,0.00000e+00,0.00000e+00,0.00000e+00
9.30700e+02,2.18448e+00,-6.20834e+00,0.00000e+00,0.00000e+00,0.00000e+00
9.30700e+02,2.95691e+00,-3.10417e+00,0.00000e+00,0.00000e+00,0.00000e+00
1.02500e+03,3.90671e+01,0.00000e+00,0.00000e+00,0.00000e+00,0.00000e+00
1.02500e+03,3.88704e+01,-2.96869e+00,0.00000e+00,0.00000e+00,0.00000e+00
1.02500e+03,3.86086e+01,-5.93738e+00,0.00000e+00,0.00000e+00,0.00000e+00
1.02500e+03,3.83443e+01,-8.90607e+00,0.00000e+00,0.00000e+00,0.00000e+00
1.02500e+03,3.80226e+01,-1.18748e+01,0.00000e+00,0.00000e+00,0.00000e+00
1.02500e+03,3.76875e+01,-1.48435e+01,0.00000e+00,0.00000e+00,0.00000e+00
1.02500e+03,3.73084e+01,-1.78121e+01,0.00000e+00,0.00000e+00,0.00000e+00
1.02500e+03,3.69079e+01,-2.07808e+01,0.00000e+00,0.00000e+00,0.00000e+00
1.02500e+03,3.64721e+01,-2.37495e+01,0.00000e+00,0.00000e+00,0.00000e+00
1.02500e+03,3.60071e+01,-2.67182e+01,0.00000e+00,0.00000e+00,0.00000e+00
1.02500e+03,3.55102e+01,-2.96869e+01,0.00000e+00,0.00000e+00,0.00000e+00
1.02500e+03,3.49746e+01,-3.26556e+01,0.00000e+00,0.00000e+00,0.00000e+00
1.02500e+03,3.43994e+01,-3.56243e+01,0.00000e+00,0.00000e+00,0.00000e+00
1.02500e+03,3.37680e+01,-3.85930e+01,0.00000e+00,0.00000e+00,0.00000e+00
1.02500e+03,3.30819e+01,-4.15617e+01,0.00000e+00,0.00000e+00,0.00000e+00
1.02500e+03,3.23305e+01,-4.45304e+01,0.00000e+00,0.00000e+00,0.00000e+00
1.02500e+03,3.14906e+01,-4.74990e+01,0.00000e+00,0.00000e+00,0.00000e+00
1.02500e+03,3.05891e+01,-5.04677e+01,0.00000e+00,0.00000e+00,0.00000e+00
1.02500e+03,2.95491e+01,-5.34364e+01,0.00000e+00,0.00000e+00,0.00000e+00
1.02500e+03,2.84516e+01,-5.64051e+01,0.00000e+00,0.00000e+00,0.00000e+00
1.02500e+03,2.71940e+01,-5.93738e+01,0.00000e+00,0.00000e+00,0.00000e+00
1.02500e+03,2.58083e+01,-6.23425e+01,0.00000e+00,0.00000e+00,0.00000e+00
1.02500e+03,2.42920e+01,-6.53112e+01,0.00000e+00,0.00000e+00,0.00000e+00
1.02500e+03,2.25567e+01,-6.82799e+01,0.00000e+00,0.00000e+00,0.00000e+00
1.02500e+03,2.05677e+01,-7.12486e+01,0.00000e+00,0.00000e+00,0.00000e+00
1.02500e+03,1.82919e+01,-7.42173e+01,0.00000e+00,0.00000e+00,0.00000e+00
1.02500e+03,1.56001e+01,-7.71859e+01,0.00000e+00,0.00000e+00,0.00000e+00
1.02500e+03,1.21450e+01,-8.01546e+01,0.00000e+00,0.00000e+00,0.00000e+00
1.02500e+03,7.47201e+00,-8.31233e+01,0.00000e+00,0.00000e+00,0.00000e+00
1.02500e+03,-3.02760e+00,-8.60920e+01,0.00000e+00,0.00000e+00,0.00000e+00
1.02500e+03,-3.78536e+00,-8.60989e+01,0.00000e+00,0.00000e+00,0.00000e+00
1.02500e+03,-1.06891e+01,-8.30239e+01,0.00000e+00,0.00000e+00,0.00000e+00
1.02500e+03,-1.15250e+01,-7.99490e+01,0.00000e+00,0.00000e+00,0.00000e+00
1.02500e+03,-1.18134e+01,-7.68740e+01,0.00000e+00,0.00000e+00,0.00000e+00
1.02500e+03,-1.18572e+01,-7.37991e+01,0.00000e+00,0.00000e+00,0.00000e+00
1.02500e+03,-1.17166e+01,-7.07241e+01,0.00000e+00,0.00000e+00,0.00000e+00
1.02500e+03,-1.14604e+01,-6.76491e+01,0.00000e+00,0.00000e+00,0.00000e+00
1.02500e+03,-1.10880e+01,-6.45742e+01,0.00000e+00,0.00000e+00,0.00000e+00
1.02500e+03,-1.06447e+01,-6.14992e+01,0.00000e+00,0.00000e+00,0.00000e+00
1.02500e+03,-1.01604e+01,-5.84243e+01,0.00000e+00,0.00000e+00,0.00000e+00
1.02500e+03,-9.61411e+00,-5.53493e+01,0.00000e+00,0.00000e+00,0.00000e+00
1.02500e+03,-9.02916e+00,-5.22743e+01,0.00000e+00,0.00000e+00,0.00000e+00
1.02500e+03,-8.40652e+00,-4.91994e+01,0.00000e+00,0.00000e+00,0.00000e+00
1.02500e+03,-7.74634e+00,-4.61244e+01,0.00000e+00,0.00000e+00,0.00000e+00
1.02500e+03,-7.06264e+00,-4.30495e+01,0.00000e+00,0.00000e+00,0.00000e+00
1.02500e+03,-6.34878e+00,-3.99745e+01,0.00000e+00,0.00000e+00,0.00000e+00
1.02500e+03,-5.61563e+00,-3.68995e+01,0.00000e+00,0.00000e+00,0.00000e+00
1.02500e+03,-4.86516e+00,-3.38246e+01,0.00000e+00,0.00000e+00,0.00000e+00
1.02500e+03,-4.09924e+00,-3.07496e+01,0.00000e+00,0.00000e+00,0.00000e+00
1.02500e+03,-3.32677e+00,-2.76746e+01,0.00000e+00,0.00000e+00,0.00000e+00
1.02500e+03,-2.54417e+00,-2.45997e+01,0.00000e+00,0.00000e+00,0.00000e+00
1.02500e+03,-1.75988e+00,-2.15247e+01,0.00000e+00,0.00000e+00,0.00000e+00
1.02500e+03,-9.69535e-01,-1.84498e+01,0.00000e+00,0.00000e+00,0.00000e+00
1.02500e+03,-1.79270e-01,-1.53748e+01,0.00000e+00,0.00000e+00,0.00000e+00
1.02500e+03,6.08008e-01,-1.22998e+01,0.00000e+00,0.00000e+00,0.00000e+00
1.02500e+03,1.39529e+00,-9.22488e+00,0.00000e+00,0.00000e+00,0.00000e+00
1.02500e+03,2.16392e+00,-6.14992e+00,0.00000e+00,0.00000e+00,0.00000e+00
1.02500e+03,2.92908e+00,-3.07496e+00,0.00000e+00,0.00000e+00,0.00000e+00
1.11650e+03,3.87070e+01,0.00000e+00,0.00000e+00,0.00000e+00,0.00000e+00
1.11650e+03,3.85121e+01,-2.94133e+00,0.00000e+00,0.00000e+00,0.00000e+00
1.11650e+03,3.82528e+01,-5.88266e+00,0.00000e+00,0.00000e+00,0.00000e+00
1.11650e+03,3.79909e+01,-8.82398e+00,0.00000e+00,0.00000e+00,0.00000e+00
1.11650e+03,3.76721e+01,-1.17653e+01,0.00000e+00,0.00000e+00,0.00000e+00
1.11650e+03,3.73401e+01,-1.47066e+01,0.00000e+00,0.00000e+00,0.00000e+00
1.11650e+03,3.69645e+01,-1.76480e+01,0.00000e+00,0.00000e+00,0.00000e+00
1.11650e+03,3.65678e+01,-2.05893e+01,0.00000e+00,0.00000e+00,0.00000e+00
1.11650e+03,3.61359e+01,-2.35306e+01,0.00000e+00,0.00000e+00,0.00000e+00
1.11650e+03,3.56753e+01,-2.64720e+01,0.00000e+00,0.00000e+00,0.00000e+00
1.11650e+03,3.51829e+01,-2.94133e+01,0.00000e+00,0.00000e+00,0.00000e+00
1.11650e+03,3.46522e+01,-3.23546e+01,0.00000e+00,0.00000e+00,0.00000e+00
1.11650e+03,3.40823e+01,-3.52959e+01,0.00000e+00,0.00000e+00,0.00000e+00
1.11650e+03,3.34567e+01,-3.82373e+01,0.00000e+00,0.00000e+00,0.00000e+00
1.11650e+03,3.27770e+01,-4.11786e+01,0.00000e+00,0.00000e+00,0.00000e+00
1.11650e+03,3.20325e+01,-4.41199e+01,0.00000e+00,0.00000e+00,0.00000e+00
1.11650e+03,3.12004e+01,-4.70612e+01,0.00000e+00,0.00000e+00,0.00000e+00
1.11650e+03,3.03072e+01,-5.00026e+01,0.00000e+00,0.00000e+00,0.00000e+00
1.11650e+03,2.92767e+01,-5.29439e+01,0.00000e+00,0.00000e+00,0.00000e+00
1.11650e+03,2.81893e+01,-5.58852e+01,0.00000e+00,0.00000e+00,0.00000e+00
1.11650e+03,2.69434e+01,-5.88266e+01,0.00000e+00,0.00000e+00,0.00000e+00
1.11650e+03,2.55704e+01,-6.17679e+01,0.00000e+00,0.00000e+00,0.00000e+00
1.11650e+03,2.40681e+01,-6.47092e+01,0.00000e+00,0.00000e+00,0.00000e+00
1.11650e+03,2.23488e+01,-6.76505e+01,0.00000e+00,0.00000e+00,0.00000e+00
1.11650e+03,2.03781e+01,-7.05919e+01,0.00000e+00,0.00000e+00,0.00000e+00
1.11650e+03,1.81233e+01,-7.35332e+01,0.00000e+00,0.00000e+00,0.00000e+00
1.11650e+03,1.54563e+01,-7.64745e+01,0.00000e+00,0.00000e+00,0.00000e+00
1.11650e+03,1.20330e+01,-7.94159e+01,0.00000e+00,0.00000e+00,0.00000e+00
1.11650e+03,7.40314e+00,-8.23572e+01,0.00000e+00,0.00000e+00,0.00000e+00
1.11650e+03,-2.99970e+00,-8.52985e+01,0.00000e+00,0.00000e+00,0.00000e+00
1.11650e+03,-3.75047e+00,-8.53053e+01,0.00000e+00,0.00000e+00,0.00000e+00
1.11650e+03,-1.05906e+01,-8.22587e+01,0.00000e+00,0.00000e+00,0.00000e+00
1.11650e+03,-1.14188e+01,-7.92121e+01,0.00000e+00,0.00000e+00,0.00000e+00
1.11650e+03,-1.17045e+01,-7.61655e+01,0.00000e+00,0.00000e+00,0.00000e+00
1.11650e+03,-1.17479e+01,-7.31189e+01,0.00000e+00,0.00000e+00,0.00000e+00
1.11650e+03,-1.16086e+01,-7.00722e+01,0.00000e+00,0.00000e+00,0.00000e+00
1.11650e+03,-1.13547e+01,-6.70256e+01,0.00000e+00,0.00000e+00,0.00000e+00
1.11650e+03,-1.09858e+01,-6.39790e+01,0.00000e+00,0.00000e+00,0.00000e+00
1.11650e+03,-1.05466e+01,-6.09324e+01,0.00000e+00,0.00000e+00,0.00000e+00
1.11650e+03,-1.00667e+01,-5.78858e+01,0.00000e+00,0.00000e+00,0.00000e+00
1.11650e+03,-9.52550e+00,-5.48391e+01,0.00000e+00,0.00000e+00,0.00000e+00
1.11650e+03,-8.94594e+00,-5.17925e+01,0.00000e+00,0.00000e+00,0.00000e+00
1.11650e+03,-8.32904e+00,-4.87459e+01,0.00000e+00,0.00000e+00,0.00000e+00
1.11650e+03,-7.67495e+00,-4.56993e+01,0.00000e+00,0.00000e+00,0.00000e+00
1.11650e+03,-6.99754e+00,-4.26527e+01,0.00000e+00,0.00000e+00,0.00000e+00
1.11650e+03,-6.29027e+00,-3.96060e+01,0.00000e+00,0.00000e+00,0.00000e+00
1.11650e+03,-5.56387e+00,-3.65594e+01,0.00000e+00,0.00000e+00,0.00000e+00
1.11650e+03,-4.82031e+00,-3.35128e+01,0.00000e+00,0.00000e+00,0.00000e+00
1.11650e+03,-4.06146e+00,-3.04662e+01,0.00000e+00,0.00000e+00,0.00000e+00
1.11650e+03,-3.29611e+00,-2.74196e+01,0.00000e+00,0.00000e+00,0.00000e+00
1.11650e+03,-2.52072e+00,-2.43730e+01,0.00000e+00,0.00000e+00,0.00000e+00
1.11650e+03,-1.74366e+00,-2.13263e+01,0.00000e+00,0.00000e+00,0.00000e+00
1.11650e+03,-9.60599e-01,-1.82797e+01,0.00000e+00,0.00000e+00,0.00000e+00
1.11650e+03,-1.77618e-01,-1.52331e+01,0.00000e+00,0.00000e+00,0.00000e+00
1.11650e+03,6.02404e-01,-1.21865e+01,0.00000e+00,0.00000e+00,0.00000e+00
1.11650e+03,1.38243e+00,-9.13986e+00,0.00000e+00,0.00000e+00,0.00000e+00
1.11650e+03,2.14398e+00,-6.09324e+00,0.00000e+00,0.00000e+00,0.00000e+00
1.11650e+03,2.90209e+00,-3.04662e+00,0.00000e+00,0.00000e+00,0.00000e+00
1.20500e+03,3.76912e+01,0.00000e+00,0.00000e+00,0.00000e+00,0.00000e+00
1.20500e+03,3.75014e+01,-2.86413e+00,0.00000e+00,0.00000e+00,0.00000e+00
1.20500e+03,3.72488e+01,-5.72827e+00,0.00000e+00,0.00000e+00,0.00000e+00
1.20500e+03,3.69938e+01,-8.59240e+00,0.00000e+00,0.00000e+00,0.00000e+00
1.20500e+03,3.66834e+01,-1.14565e+01,0.00000e+00,0.00000e+00,0.00000e+00
1.20500e+03,3.63602e+01,-1.43207e+01,0.00000e+00,0.00000e+00,0.00000e+00
1.20500e+03,3.59944e+01,-1.71848e+01,0.00000e+00,0.00000e+00,0.00000e+00
1.20500e+03,3.56080e+01,-2.00489e+01,0.00000e+00,0.00000e+00,0.00000e+00
1.20500e+03,3.51875e+01,-2.29131e+01,0.00000e+00,0.00000e+00,0.00000e+00
1.20500e+03,3.47390e+01,-2.57772e+01,0.00000e+00,0.00000e+00,0.00000e+00
1.20500e+03,3.42596e+01,-2.86413e+01,0.00000e+00,0.00000e+00,0.00000e+00
1.20500e+03,3.37428e+01,-3.15055e+01,0.00000e+00,0.00000e+00,0.00000e+00
1.20500e+03,3.31878e+01,-3.43696e+01,0.00000e+00,0.00000e+00,0.00000e+00
1.20500e+03,3.25787e+01,-3.72337e+01,0.00000e+00,0.00000e+00,0.00000e+00
1.20500e+03,3.19168e+01,-4.00979e+01,0.00000e+00,0.00000e+00,0.00000e+00
1.20500e+03,3.11919e+01,-4.29620e+01,0.00000e+00,0.00000e+00,0.00000e+00
1.20500e+03,3.03815e+01,-4.58261e+01,0.00000e+00,0.00000e+00,0.00000e+00
1.20500e+03,2.95118e+01,-4.86903e+01,0.00000e+00,0.00000e+00,0.00000e+00
1.20500e+03,2.85084e+01,-5.15544e+01,0.00000e+00,0.00000e+00,0.00000e+00
1.20500e+03,2.74495e+01,-5.44186e+01,0.00000e+00,0.00000e+00,0.00000e+00
1.20500e+03,2.62363e+01,-5.72827e+01,0.00000e+00,0.00000e+00,0.00000e+00
1.20500e+03,2.48993e+01,-6.01468e+01,0.00000e+00,0.00000e+00,0.00000e+00
1.20500e+03,2.34365e+01,-6.30110e+01,0.00000e+00,0.00000e+00,0.00000e+00
1.20500e+03,2.17623e+01,-6.58751e+01,0.00000e+00,0.00000e+00,0.00000e+00
1.20500e+03,1.98433e+01,-6.87392e+01,0.00000e+00,0.00000e+00,0.00000e+00
1.20500e+03,1.76476e+01,-7.16034e+01,0.00000e+00,0.00000e+00,0.00000e+00
1.20500e+03,1.50506e+01,-7.44675e+01,0.00000e+00,0.00000e+00,0.00000e+00
1.20500e+03,1.17172e+01,-7.73316e+01,0.00000e+00,0.00000e+00,0.00000e+00
1.20500e+03,7.20885e+00,-8.01958e+01,0.00000e+00,0.00000e+00,0.00000e+00
1.20500e+03,-2.92097e+00,-8.30599e+01,0.00000e+00,0.00000e+00,0.00000e+00
1.20500e+03,-3.65204e+00,-8.30665e+01,0.00000e+00,0.00000e+00,0.00000e+00
1.20500e+03,-1.03126e+01,-8.00999e+01,0.00000e+00,0.00000e+00,0.00000e+00
1.20500e+03,-1.11191e+01,-7.71332e+01,0.00000e+00,0.00000e+00,0.00000e+00
1.20500e+03,-1.13974e+01,-7.41666e+01,0.00000e+00,0.00000e+00,0.00000e+00
1.20500e+03,-1.14396e+01,-7.11999e+01,0.00000e+00,0.00000e+00,0.00000e+00
1.20500e+03,-1.13040e+01,-6.82332e+01,0.00000e+00,0.00000e+00,0.00000e+00
1.20500e+03,-1.10567e+01,-6.52666e+01,0.00000e+00,0.00000e+00,0.00000e+00
1.20500e+03,-1.06975e+01,-6.22999e+01,0.00000e+00,0.00000e+00,0.00000e+00
1.20500e+03,-1.02698e+01,-5.93332e+01,0.00000e+00,0.00000e+00,0.00000e+00
1.20500e+03,-9.80253e+00,-5.63666e+01,0.00000e+00,0.00000e+00,0.00000e+00
1.20500e+03,-9.27551e+00,-5.33999e+01,0.00000e+00,0.00000e+00,0.00000e+00
1.20500e+03,-8.71115e+00,-5.04333e+01,0.00000e+00,0.00000e+00,0.00000e+00
1.20500e+03,-8.11045e+00,-4.74666e+01,0.00000e+00,0.00000e+00,0.00000e+00
1.20500e+03,-7.47352e+00,-4.44999e+01,0.00000e+00,0.00000e+00,0.00000e+00
1.20500e+03,-6.81389e+00,-4.15333e+01,0.00000e+00,0.00000e+00,0.00000e+00
1.20500e+03,-6.12518e+00,-3.85666e+01,0.00000e+00,0.00000e+00,0.00000e+00
1.20500e+03,-5.41785e+00,-3.55999e+01,0.00000e+00,0.00000e+00,0.00000e+00
1.20500e+03,-4.69381e+00,-3.26333e+01,0.00000e+00,0.00000e+00,0.00000e+00
1.20500e+03,-3.95486e+00,-2.96666e+01,0.00000e+00,0.00000e+00,0.00000e+00
1.20500e+03,-3.20961e+00,-2.67000e+01,0.00000e+00,0.00000e+00,0.00000e+00
1.20500e+03,-2.45457e+00,-2.37333e+01,0.00000e+00,0.00000e+00,0.00000e+00
1.20500e+03,-1.69790e+00,-2.07666e+01,0.00000e+00,0.00000e+00,0.00000e+00
1.20500e+03,-9.35389e-01,-1.78000e+01,0.00000e+00,0.00000e+00,0.00000e+00
1.20500e+03,-1.72956e-01,-1.48333e+01,0.00000e+00,0.00000e+00,0.00000e+00
1.20500e+03,5.86594e-01,-1.18666e+01,0.00000e+00,0.00000e+00,0.00000e+00
1.20500e+03,1.34615e+00,-8.89999e+00,0.00000e+00,0.00000e+00,0.00000e+00
1.20500e+03,2.08771e+00,-5.93332e+00,0.00000e+00,0.00000e+00,0.00000e+00
1.20500e+03,2.82592e+00,-2.96666e+00,0.00000e+00,0.00000e+00,0.00000e+00
1.29010e+03,3.63234e+01,0.00000e+00,0.00000e+00,0.00000e+00,0.00000e+00
1.29010e+03,3.61405e+01,-2.76019e+00,0.00000e+00,0.00000e+00,0.00000e+00
1.29010e+03,3.58971e+01,-5.52039e+00,0.00000e+00,0.00000e+00,0.00000e+00
1.29010e+03,3.56513e+01,-8.28058e+00,0.00000e+00,0.00000e+00,0.00000e+00
1.29010e+03,3.53522e+01,-1.10408e+01,0.00000e+00,0.00000e+00,0.00000e+00
1.29010e+03,3.50407e+01,-1.38010e+01,0.00000e+00,0.00000e+00,0.00000e+00
1.29010e+03,3.46882e+01,-1.65612e+01,0.00000e+00,0.00000e+00,0.00000e+00
1.29010e+03,3.43158e+01,-1.93214e+01,0.00000e+00,0.00000e+00,0.00000e+00
1.29010e+03,3.39106e+01,-2.20816e+01,0.00000e+00,0.00000e+00,0.00000e+00
1.29010e+03,3.34783e+01,-2.48418e+01,0.00000e+00,0.00000e+00,0.00000e+00
1.29010e+03,3.30163e+01,-2.76019e+01,0.00000e+00,0.00000e+00,0.00000e+00
1.29010e+03,3.25183e+01,-3.03621e+01,0.00000e+00,0.00000e+00,0.00000e+00
1.29010e+03,3.19834e+01,-3.31223e+01,0.00000e+00,0.00000e+00,0.00000e+00
1.29010e+03,3.13964e+01,-3.58825e+01,0.00000e+00,0.00000e+00,0.00000e+00
1.29010e+03,3.07585e+01,-3.86427e+01,0.00000e+00,0.00000e+00,0.00000e+00
1.29010e+03,3.00599e+01,-4.14029e+01,0.00000e+00,0.00000e+00,0.00000e+00
1.29010e+03,2.92790e+01,-4.41631e+01,0.00000e+00,0.00000e+00,0.00000e+00
1.29010e+03,2.84408e+01,-4.69233e+01,0.00000e+00,0.00000e+00,0.00000e+00
1.29010e+03,2.74738e+01,-4.96835e+01,0.00000e+00,0.00000e+00,0.00000e+00
1.29010e+03,2.64534e+01,-5.24437e+01,0.00000e+00,0.00000e+00,0.00000e+00
1.29010e+03,2.52842e+01,-5.52039e+01,0.00000e+00,0.00000e+00,0.00000e+00
1.29010e+03,2.39957e+01,-5.79641e+01,0.00000e+00,0.00000e+00,0.00000e+00
1.29010e+03,2.25860e+01,-6.07243e+01,0.00000e+00,0.00000e+00,0.00000e+00
1.29010e+03,2.09725e+01,-6.34845e+01,0.00000e+00,0.00000e+00,0.00000e+00
1.29010e+03,1.91232e+01,-6.62447e+01,0.00000e+00,0.00000e+00,0.00000e+00
1.29010e+03,1.70072e+01,-6.90049e+01,0.00000e+00,0.00000e+00,0.00000e+00
1.29010e+03,1.45045e+01,-7.17651e+01,0.00000e+00,0.00000e+00,0.00000e+00
1.29010e+03,1.12920e+01,-7.45253e+01,0.00000e+00,0.00000e+00,0.00000e+00
1.29010e+03,6.94724e+00,-7.72855e+01,0.00000e+00,0.00000e+00,0.00000e+00
1.29010e+03,-2.81497e+00,-8.00457e+01,0.00000e+00,0.00000e+00,0.00000e+00
1.29010e+03,-3.51951e+00,-8.00521e+01,0.00000e+00,0.00000e+00,0.00000e+00
1.29010e+03,-9.93839e+00,-7.71931e+01,0.00000e+00,0.00000e+00,0.00000e+00
1.29010e+03,-1.07156e+01,-7.43341e+01,0.00000e+00,0.00000e+00,0.00000e+00
1.29010e+03,-1.09838e+01,-7.14751e+01,0.00000e+00,0.00000e+00,0.00000e+00
1.29010e+03,-1.10244e+01,-6.86160e+01,0.00000e+00,0.00000e+00,0.00000e+00
1.29010e+03,-1.08937e+01,-6.57570e+01,0.00000e+00,0.00000e+00,0.00000e+00
1.29010e+03,-1.06555e+01,-6.28980e+01,0.00000e+00,0.00000e+00,0.00000e+00
1.29010e+03,-1.03093e+01,-6.00390e+01,0.00000e+00,0.00000e+00,0.00000e+00
1.29010e+03,-9.89713e+00,-5.71800e+01,0.00000e+00,0.00000e+00,0.00000e+00
1.29010e+03,-9.44680e+00,-5.43210e+01,0.00000e+00,0.00000e+00,0.00000e+00
1.29010e+03,-8.93890e+00,-5.14620e+01,0.00000e+00,0.00000e+00,0.00000e+00
1.29010e+03,-8.39503e+00,-4.86030e+01,0.00000e+00,0.00000e+00,0.00000e+00
1.29010e+03,-7.81612e+00,-4.57440e+01,0.00000e+00,0.00000e+00,0.00000e+00
1.29010e+03,-7.20231e+00,-4.28850e+01,0.00000e+00,0.00000e+00,0.00000e+00
1.29010e+03,-6.56662e+00,-4.00260e+01,0.00000e+00,0.00000e+00,0.00000e+00
1.29010e+03,-5.90290e+00,-3.71670e+01,0.00000e+00,0.00000e+00,0.00000e+00
1.29010e+03,-5.22123e+00,-3.43080e+01,0.00000e+00,0.00000e+00,0.00000e+00
1.29010e+03,-4.52347e+00,-3.14490e+01,0.00000e+00,0.00000e+00,0.00000e+00
1.29010e+03,-3.81134e+00,-2.85900e+01,0.00000e+00,0.00000e+00,0.00000e+00
1.29010e+03,-3.09313e+00,-2.57310e+01,0.00000e+00,0.00000e+00,0.00000e+00
1.29010e+03,-2.36549e+00,-2.28720e+01,0.00000e+00,0.00000e+00,0.00000e+00
1.29010e+03,-1.63628e+00,-2.00130e+01,0.00000e+00,0.00000e+00,0.00000e+00
1.29010e+03,-9.01444e-01,-1.71540e+01,0.00000e+00,0.00000e+00,0.00000e+00
1.29010e+03,-1.66680e-01,-1.42950e+01,0.00000e+00,0.00000e+00,0.00000e+00
1.29010e+03,5.65307e-01,-1.14360e+01,0.00000e+00,0.00000e+00,0.00000e+00
1.29010e+03,1.29729e+00,-8.57701e+00,0.00000e+00,0.00000e+00,0.00000e+00
1.29010e+03,2.01195e+00,-5.71800e+00,0.00000e+00,0.00000e+00,0.00000e+00
1.29010e+03,2.72337e+00,-2.85900e+00,0.00000e+00,0.00000e+00,0.00000e+00
1.37170e+03,3.50118e+01,0.00000e+00,0.00000e+00,0.00000e+00,0.00000e+00
1.37170e+03,3.48355e+01,-2.66053e+00,0.00000e+00,0.00000e+00,0.00000e+00
1.37170e+03,3.46009e+01,-5.32106e+00,0.00000e+00,0.00000e+00,0.00000e+00
1.37170e+03,3.43640e+01,-7.98159e+00,0.00000e+00,0.00000e+00,0.00000e+00
1.37170e+03,3.40757e+01,-1.06421e+01,0.00000e+00,0.00000e+00,0.00000e+00
1.37170e+03,3.37754e+01,-1.33027e+01,0.00000e+00,0.00000e+00,0.00000e+00
1.37170e+03,3.34357e+01,-1.59632e+01,0.00000e+00,0.00000e+00,0.00000e+00
1.37170e+03,3.30768e+01,-1.86237e+01,0.00000e+00,0.00000e+00,0.00000e+00
1.37170e+03,3.26861e+01,-2.12842e+01,0.00000e+00,0.00000e+00,0.00000e+00
1.37170e+03,3.22695e+01,-2.39448e+01,0.00000e+00,0.00000e+00,0.00000e+00
1.37170e+03,3.18241e+01,-2.66053e+01,0.00000e+00,0.00000e+00,0.00000e+00
1.37170e+03,3.13441e+01,-2.92658e+01,0.00000e+00,0.00000e+00,0.00000e+00
1.37170e+03,3.08286e+01,-3.19264e+01,0.00000e+00,0.00000e+00,0.00000e+00
1.37170e+03,3.02627e+01,-3.45869e+01,0.00000e+00,0.00000e+00,0.00000e+00
1.37170e+03,2.96479e+01,-3.72474e+01,0.00000e+00,0.00000e+00,0.00000e+00
1.37170e+03,2.89745e+01,-3.99080e+01,0.00000e+00,0.00000e+00,0.00000e+00
1.37170e+03,2.82218e+01,-4.25685e+01,0.00000e+00,0.00000e+00,0.00000e+00
1.37170e+03,2.74139e+01,-4.52290e+01,0.00000e+00,0.00000e+00,0.00000e+00
1.37170e+03,2.64818e+01,-4.78895e+01,0.00000e+00,0.00000e+00,0.00000e+00
1.37170e+03,2.54982e+01,-5.05501e+01,0.00000e+00,0.00000e+00,0.00000e+00
1.37170e+03,2.43712e+01,-5.32106e+01,0.00000e+00,0.00000e+00,0.00000e+00
1.37170e+03,2.31293e+01,-5.58711e+01,0.00000e+00,0.00000e+00,0.00000e+00
1.37170e+03,2.17704e+01,-5.85317e+01,0.00000e+00,0.00000e+00,0.00000e+00
1.37170e+03,2.02153e+01,-6.11922e+01,0.00000e+00,0.00000e+00,0.00000e+00
1.37170e+03,1.84327e+01,-6.38527e+01,0.00000e+00,0.00000e+00,0.00000e+00
1.37170e+03,1.63931e+01,-6.65133e+01,0.00000e+00,0.00000e+00,0.00000e+00
1.37170e+03,1.39807e+01,-6.91738e+01,0.00000e+00,0.00000e+00,0.00000e+00
1.37170e+03,1.08843e+01,-7.18343e+01,0.00000e+00,0.00000e+00,0.00000e+00
1.37170e+03,6.69639e+00,-7.44949e+01,0.00000e+00,0.00000e+00,0.00000e+00
1.37170e+03,-2.71333e+00,-7.71554e+01,0.00000e+00,0.00000e+00,0.00000e+00
1.37170e+03,-3.39243e+00,-7.71616e+01,0.00000e+00,0.00000e+00,0.00000e+00
1.37170e+03,-9.57954e+00,-7.44058e+01,0.00000e+00,0.00000e+00,0.00000e+00
1.37170e+03,-1.03287e+01,-7.16500e+01,0.00000e+00,0.00000e+00,0.00000e+00
1.37170e+03,-1.05872e+01,-6.88942e+01,0.00000e+00,0.00000e+00,0.00000e+00
1.37170e+03,-1.06264e+01,-6.61385e+01,0.00000e+00,0.00000e+00,0.00000e+00
1.37170e+03,-1.05004e+01,-6.33827e+01,0.00000e+00,0.00000e+00,0.00000e+00
1.37170e+03,-1.02708e+01,-6.06269e+01,0.00000e+00,0.00000e+00,0.00000e+00
1.37170e+03,-9.93701e+00,-5.78712e+01,0.00000e+00,0.00000e+00,0.00000e+00
1.37170e+03,-9.53977e+00,-5.51154e+01,0.00000e+00,0.00000e+00,0.00000e+00
1.37170e+03,-9.10569e+00,-5.23596e+01,0.00000e+00,0.00000e+00,0.00000e+00
1.37170e+03,-8.61613e+00,-4.96039e+01,0.00000e+00,0.00000e+00,0.00000e+00
1.37170e+03,-8.09190e+00,-4.68481e+01,0.00000e+00,0.00000e+00,0.00000e+00
1.37170e+03,-7.53389e+00,-4.40923e+01,0.00000e+00,0.00000e+00,0.00000e+00
1.37170e+03,-6.94225e+00,-4.13365e+01,0.00000e+00,0.00000e+00,0.00000e+00
1.37170e+03,-6.32951e+00,-3.85808e+01,0.00000e+00,0.00000e+00,0.00000e+00
1.37170e+03,-5.68976e+00,-3.58250e+01,0.00000e+00,0.00000e+00,0.00000e+00
1.37170e+03,-5.03271e+00,-3.30692e+01,0.00000e+00,0.00000e+00,0.00000e+00
1.37170e+03,-4.36014e+00,-3.03135e+01,0.00000e+00,0.00000e+00,0.00000e+00
1.37170e+03,-3.67372e+00,-2.75577e+01,0.00000e+00,0.00000e+00,0.00000e+00
1.37170e+03,-2.98144e+00,-2.48019e+01,0.00000e+00,0.00000e+00,0.00000e+00
1.37170e+03,-2.28008e+00,-2.20462e+01,0.00000e+00,0.00000e+00,0.00000e+00
1.37170e+03,-1.57720e+00,-1.92904e+01,0.00000e+00,0.00000e+00,0.00000e+00
1.37170e+03,-8.68894e-01,-1.65346e+01,0.00000e+00,0.00000e+00,0.00000e+00
1.37170e+03,-1.60661e-01,-1.37788e+01,0.00000e+00,0.00000e+00,0.00000e+00
1.37170e+03,5.44895e-01,-1.10231e+01,0.00000e+00,0.00000e+00,0.00000e+00
1.37170e+03,1.25045e+00,-8.26731e+00,0.00000e+00,0.00000e+00,0.00000e+00
1.37170e+03,1.93930e+00,-5.51154e+00,0.00000e+00,0.00000e+00,0.00000e+00
1.37170e+03,2.62503e+00,-2.75577e+00,0.00000e+00,0.00000e+00,0.00000e+00
1.44960e+03,3.37597e+01,0.00000e+00,0.00000e+00,0.00000e+00,0.00000e+00
1.44960e+03,3.35897e+01,-2.56538e+00,0.00000e+00,0.00000e+00,0.00000e+00
1.44960e+03,3.33635e+01,-5.13077e+00,0.00000e+00,0.00000e+00,0.00000e+00
1.44960e+03,3.31351e+01,-7.69615e+00,0.00000e+00,0.00000e+00,0.00000e+00
1.44960e+03,3.28571e+01,-1.02615e+01,0.00000e+00,0.00000e+00,0.00000e+00
1.44960e+03,3.25675e+01,-1.28269e+01,0.00000e+00,0.00000e+00,0.00000e+00
1.44960e+03,3.22399e+01,-1.53923e+01,0.00000e+00,0.00000e+00,0.00000e+00
1.44960e+03,3.18939e+01,-1.79577e+01,0.00000e+00,0.00000e+00,0.00000e+00
1.44960e+03,3.15172e+01,-2.05231e+01,0.00000e+00,0.00000e+00,0.00000e+00
1.44960e+03,3.11155e+01,-2.30885e+01,0.00000e+00,0.00000e+00,0.00000e+00
1.44960e+03,3.06860e+01,-2.56538e+01,0.00000e+00,0.00000e+00,0.00000e+00
1.44960e+03,3.02232e+01,-2.82192e+01,0.00000e+00,0.00000e+00,0.00000e+00
1.44960e+03,2.97261e+01,-3.07846e+01,0.00000e+00,0.00000e+00,0.00000e+00
1.44960e+03,2.91805e+01,-3.33500e+01,0.00000e+00,0.00000e+00,0.00000e+00
1.44960e+03,2.85877e+01,-3.59154e+01,0.00000e+00,0.00000e+00,0.00000e+00
1.44960e+03,2.79383e+01,-3.84808e+01,0.00000e+00,0.00000e+00,0.00000e+00
1.44960e+03,2.72125e+01,-4.10462e+01,0.00000e+00,0.00000e+00,0.00000e+00
1.44960e+03,2.64335e+01,-4.36115e+01,0.00000e+00,0.00000e+00,0.00000e+00
1.44960e+03,2.55347e+01,-4.61769e+01,0.00000e+00,0.00000e+00,0.00000e+00
1.44960e+03,2.45863e+01,-4.87423e+01,0.00000e+00,0.00000e+00,0.00000e+00
1.44960e+03,2.34997e+01,-5.13077e+01,0.00000e+00,0.00000e+00,0.00000e+00
1.44960e+03,2.23022e+01,-5.38731e+01,0.00000e+00,0.00000e+00,0.00000e+00
1.44960e+03,2.09919e+01,-5.64385e+01,0.00000e+00,0.00000e+00,0.00000e+00
1.44960e+03,1.94923e+01,-5.90039e+01,0.00000e+00,0.00000e+00,0.00000e+00
1.44960e+03,1.77735e+01,-6.15692e+01,0.00000e+00,0.00000e+00,0.00000e+00
1.44960e+03,1.58069e+01,-6.41346e+01,0.00000e+00,0.00000e+00,0.00000e+00
1.44960e+03,1.34808e+01,-6.67000e+01,0.00000e+00,0.00000e+00,0.00000e+00
1.44960e+03,1.04950e+01,-6.92654e+01,0.00000e+00,0.00000e+00,0.00000e+00
1.44960e+03,6.45692e+00,-7.18308e+01,0.00000e+00,0.00000e+00,0.00000e+00
1.44960e+03,-2.61629e+00,-7.43962e+01,0.00000e+00,0.00000e+00,0.00000e+00
1.44960e+03,-3.27111e+00,-7.44021e+01,0.00000e+00,0.00000e+00,0.00000e+00
1.44960e+03,-9.23696e+00,-7.17449e+01,0.00000e+00,0.00000e+00,0.00000e+00
1.44960e+03,-9.95928e+00,-6.90877e+01,0.00000e+00,0.00000e+00,0.00000e+00
1.44960e+03,-1.02085e+01,-6.64305e+01,0.00000e+00,0.00000e+00,0.00000e+00
1.44960e+03,-1.02464e+01,-6.37732e+01,0.00000e+00,0.00000e+00,0.00000e+00
1.44960e+03,-1.01249e+01,-6.11160e+01,0.00000e+00,0.00000e+00,0.00000e+00
1.44960e+03,-9.90345e+00,-5.84588e+01,0.00000e+00,0.00000e+00,0.00000e+00
1.44960e+03,-9.58164e+00,-5.58016e+01,0.00000e+00,0.00000e+00,0.00000e+00
1.44960e+03,-9.19861e+00,-5.31444e+01,0.00000e+00,0.00000e+00,0.00000e+00
1.44960e+03,-8.78006e+00,-5.04872e+01,0.00000e+00,0.00000e+00,0.00000e+00
1.44960e+03,-8.30801e+00,-4.78299e+01,0.00000e+00,0.00000e+00,0.00000e+00
1.44960e+03,-7.80252e+00,-4.51727e+01,0.00000e+00,0.00000e+00,0.00000e+00
1.44960e+03,-7.26447e+00,-4.25155e+01,0.00000e+00,0.00000e+00,0.00000e+00
1.44960e+03,-6.69398e+00,-3.98583e+01,0.00000e+00,0.00000e+00,0.00000e+00
1.44960e+03,-6.10316e+00,-3.72011e+01,0.00000e+00,0.00000e+00,0.00000e+00
1.44960e+03,-5.48628e+00,-3.45438e+01,0.00000e+00,0.00000e+00,0.00000e+00
1.44960e+03,-4.85273e+00,-3.18866e+01,0.00000e+00,0.00000e+00,0.00000e+00
1.44960e+03,-4.20421e+00,-2.92294e+01,0.00000e+00,0.00000e+00,0.00000e+00
1.44960e+03,-3.54234e+00,-2.65722e+01,0.00000e+00,0.00000e+00,0.00000e+00
1.44960e+03,-2.87482e+00,-2.39150e+01,0.00000e+00,0.00000e+00,0.00000e+00
1.44960e+03,-2.19854e+00,-2.12577e+01,0.00000e+00,0.00000e+00,0.00000e+00
1.44960e+03,-1.52080e+00,-1.86005e+01,0.00000e+00,0.00000e+00,0.00000e+00
1.44960e+03,-8.37821e-01,-1.59433e+01,0.00000e+00,0.00000e+00,0.00000e+00
1.44960e+03,-1.54916e-01,-1.32861e+01,0.00000e+00,0.00000e+00,0.00000e+00
1.44960e+03,5.25408e-01,-1.06289e+01,0.00000e+00,0.00000e+00,0.00000e+00
1.44960e+03,1.20573e+00,-7.97166e+00,0.00000e+00,0.00000e+00,0.00000e+00
1.44960e+03,1.86995e+00,-5.31444e+00,0.00000e+00,0.00000e+00,0.00000e+00
1.44960e+03,2.53116e+00,-2.65722e+00,0.00000e+00,0.00000e+00,0.00000e+00
1.52340e+03,3.25736e+01,0.00000e+00,0.00000e+00,0.00000e+00,0.00000e+00
1.52340e+03,3.24095e+01,-2.47525e+00,0.00000e+00,0.00000e+00,0.00000e+00
1.52340e+03,3.21913e+01,-4.95049e+00,0.00000e+00,0.00000e+00,0.00000e+00
1.52340e+03,3.19709e+01,-7.42574e+00,0.00000e+00,0.00000e+00,0.00000e+00
1.52340e+03,3.17026e+01,-9.90099e+00,0.00000e+00,0.00000e+00,0.00000e+00
1.52340e+03,3.14232e+01,-1.23762e+01,0.00000e+00,0.00000e+00,0.00000e+00
1.52340e+03,3.11072e+01,-1.48515e+01,0.00000e+00,0.00000e+00,0.00000e+00
1.52340e+03,3.07733e+01,-1.73267e+01,0.00000e+00,0.00000e+00,0.00000e+00
1.52340e+03,3.04098e+01,-1.98020e+01,0.00000e+00,0.00000e+00,0.00000e+00
1.52340e+03,3.00222e+01,-2.22772e+01,0.00000e+00,0.00000e+00,0.00000e+00
1.52340e+03,2.96079e+01,-2.47525e+01,0.00000e+00,0.00000e+00,0.00000e+00
1.52340e+03,2.91613e+01,-2.72277e+01,0.00000e+00,0.00000e+00,0.00000e+00
1.52340e+03,2.86816e+01,-2.97030e+01,0.00000e+00,0.00000e+00,0.00000e+00
1.52340e+03,2.81552e+01,-3.21782e+01,0.00000e+00,0.00000e+00,0.00000e+00
1.52340e+03,2.75832e+01,-3.46535e+01,0.00000e+00,0.00000e+00,0.00000e+00
1.52340e+03,2.69567e+01,-3.71287e+01,0.00000e+00,0.00000e+00,0.00000e+00
1.52340e+03,2.62564e+01,-3.96040e+01,0.00000e+00,0.00000e+00,0.00000e+00
1.52340e+03,2.55047e+01,-4.20792e+01,0.00000e+00,0.00000e+00,0.00000e+00
1.52340e+03,2.46375e+01,-4.45544e+01,0.00000e+00,0.00000e+00,0.00000e+00
1.52340e+03,2.37225e+01,-4.70297e+01,0.00000e+00,0.00000e+00,0.00000e+00
1.52340e+03,2.26740e+01,-4.95049e+01,0.00000e+00,0.00000e+00,0.00000e+00
1.52340e+03,2.15185e+01,-5.19802e+01,0.00000e+00,0.00000e+00,0.00000e+00
1.52340e+03,2.02543e+01,-5.44554e+01,0.00000e+00,0.00000e+00,0.00000e+00
1.52340e+03,1.88075e+01,-5.69307e+01,0.00000e+00,0.00000e+00,0.00000e+00
1.52340e+03,1.71490e+01,-5.94059e+01,0.00000e+00,0.00000e+00,0.00000e+00
1.52340e+03,1.52515e+01,-6.18812e+01,0.00000e+00,0.00000e+00,0.00000e+00
1.52340e+03,1.30071e+01,-6.43564e+01,0.00000e+00,0.00000e+00,0.00000e+00
1.52340e+03,1.01263e+01,-6.68317e+01,0.00000e+00,0.00000e+00,0.00000e+00
1.52340e+03,6.23005e+00,-6.93069e+01,0.00000e+00,0.00000e+00,0.00000e+00
1.52340e+03,-2.52437e+00,-7.17822e+01,0.00000e+00,0.00000e+00,0.00000e+00
1.52340e+03,-3.15618e+00,-7.17879e+01,0.00000e+00,0.00000e+00,0.00000e+00
1.52340e+03,-8.91241e+00,-6.92241e+01,0.00000e+00,0.00000e+00,0.00000e+00
1.52340e+03,-9.60935e+00,-6.66602e+01,0.00000e+00,0.00000e+00,0.00000e+00
1.52340e+03,-9.84985e+00,-6.40963e+01,0.00000e+00,0.00000e+00,0.00000e+00
1.52340e+03,-9.88634e+00,-6.15325e+01,0.00000e+00,0.00000e+00,0.00000e+00
1.52340e+03,-9.76914e+00,-5.89686e+01,0.00000e+00,0.00000e+00,0.00000e+00
1.52340e+03,-9.55548e+00,-5.64048e+01,0.00000e+00,0.00000e+00,0.00000e+00
1.52340e+03,-9.24498e+00,-5.38409e+01,0.00000e+00,0.00000e+00,0.00000e+00
1.52340e+03,-8.87540e+00,-5.12771e+01,0.00000e+00,0.00000e+00,0.00000e+00
1.52340e+03,-8.47156e+00,-4.87132e+01,0.00000e+00,0.00000e+00,0.00000e+00
1.52340e+03,-8.01609e+00,-4.61494e+01,0.00000e+00,0.00000e+00,0.00000e+00
1.52340e+03,-7.52837e+00,-4.35855e+01,0.00000e+00,0.00000e+00,0.00000e+00
1.52340e+03,-7.00922e+00,-4.10217e+01,0.00000e+00,0.00000e+00,0.00000e+00
1.52340e+03,-6.45878e+00,-3.84578e+01,0.00000e+00,0.00000e+00,0.00000e+00
1.52340e+03,-5.88872e+00,-3.58940e+01,0.00000e+00,0.00000e+00,0.00000e+00
1.52340e+03,-5.29352e+00,-3.33301e+01,0.00000e+00,0.00000e+00,0.00000e+00
1.52340e+03,-4.68222e+00,-3.07662e+01,0.00000e+00,0.00000e+00,0.00000e+00
1.52340e+03,-4.05649e+00,-2.82024e+01,0.00000e+00,0.00000e+00,0.00000e+00
1.52340e+03,-3.41788e+00,-2.56385e+01,0.00000e+00,0.00000e+00,0.00000e+00
1.52340e+03,-2.77381e+00,-2.30747e+01,0.00000e+00,0.00000e+00,0.00000e+00
1.52340e+03,-2.12129e+00,-2.05108e+01,0.00000e+00,0.00000e+00,0.00000e+00
1.52340e+03,-1.46736e+00,-1.79470e+01,0.00000e+00,0.00000e+00,0.00000e+00
1.52340e+03,-8.08383e-01,-1.53831e+01,0.00000e+00,0.00000e+00,0.00000e+00
1.52340e+03,-1.49473e-01,-1.28193e+01,0.00000e+00,0.00000e+00,0.00000e+00
1.52340e+03,5.06948e-01,-1.02554e+01,0.00000e+00,0.00000e+00,0.00000e+00
1.52340e+03,1.16337e+00,-7.69156e+00,0.00000e+00,0.00000e+00,0.00000e+00
1.52340e+03,1.80424e+00,-5.12771e+00,0.00000e+00,0.00000e+00,0.00000e+00
1.52340e+03,2.44222e+00,-2.56385e+00,0.00000e+00,0.00000e+00,0.00000e+00
1.59310e+03,3.14533e+01,0.00000e+00,0.00000e+00,0.00000e+00,0.00000e+00
1.59310e+03,3.12949e+01,-2.39012e+00,0.00000e+00,0.00000e+00,0.00000e+00
1.59310e+03,3.10841e+01,-4.78023e+00,0.00000e+00,0.00000e+00,0.00000e+00
1.59310e+03,3.08713e+01,-7.17035e+00,0.00000e+00,0.00000e+00,0.00000e+00
1.59310e+03,3.06123e+01,-9.56047e+00,0.00000e+00,0.00000e+00,0.00000e+00
1.59310e+03,3.03425e+01,-1.19506e+01,0.00000e+00,0.00000e+00,0.00000e+00
1.59310e+03,3.00373e+01,-1.43407e+01,0.00000e+00,0.00000e+00,0.00000e+00
1.59310e+03,2.97149e+01,-1.67308e+01,0.00000e+00,0.00000e+00,0.00000e+00
1.59310e+03,2.93640e+01,-1.91209e+01,0.00000e+00,0.00000e+00,0.00000e+00
1.59310e+03,2.89896e+01,-2.15111e+01,0.00000e+00,0.00000e+00,0.00000e+00
1.59310e+03,2.85896e+01,-2.39012e+01,0.00000e+00,0.00000e+00,0.00000e+00
1.59310e+03,2.81583e+01,-2.62913e+01,0.00000e+00,0.00000e+00,0.00000e+00
1.59310e+03,2.76952e+01,-2.86814e+01,0.00000e+00,0.00000e+00,0.00000e+00
1.59310e+03,2.71869e+01,-3.10715e+01,0.00000e+00,0.00000e+00,0.00000e+00
1.59310e+03,2.66345e+01,-3.34616e+01,0.00000e+00,0.00000e+00,0.00000e+00
1.59310e+03,2.60296e+01,-3.58518e+01,0.00000e+00,0.00000e+00,0.00000e+00
1.59310e+03,2.53533e+01,-3.82419e+01,0.00000e+00,0.00000e+00,0.00000e+00
1.59310e+03,2.46276e+01,-4.06320e+01,0.00000e+00,0.00000e+00,0.00000e+00
1.59310e+03,2.37902e+01,-4.30221e+01,0.00000e+00,0.00000e+00,0.00000e+00
1.59310e+03,2.29066e+01,-4.54122e+01,0.00000e+00,0.00000e+00,0.00000e+00
1.59310e+03,2.18941e+01,-4.78023e+01,0.00000e+00,0.00000e+00,0.00000e+00
1.59310e+03,2.07785e+01,-5.01925e+01,0.00000e+00,0.00000e+00,0.00000e+00
1.59310e+03,1.95577e+01,-5.25826e+01,0.00000e+00,0.00000e+00,0.00000e+00
1.59310e+03,1.81606e+01,-5.49727e+01,0.00000e+00,0.00000e+00,0.00000e+00
1.59310e+03,1.65592e+01,-5.73628e+01,0.00000e+00,0.00000e+00,0.00000e+00
1.59310e+03,1.47269e+01,-5.97529e+01,0.00000e+00,0.00000e+00,0.00000e+00
1.59310e+03,1.25597e+01,-6.21430e+01,0.00000e+00,0.00000e+00,0.00000e+00
1.59310e+03,9.77800e+00,-6.45332e+01,0.00000e+00,0.00000e+00,0.00000e+00
1.59310e+03,6.01578e+00,-6.69233e+01,0.00000e+00,0.00000e+00,0.00000e+00
1.59310e+03,-2.43755e+00,-6.93134e+01,0.00000e+00,0.00000e+00,0.00000e+00
1.59310e+03,-3.04763e+00,-6.93189e+01,0.00000e+00,0.00000e+00,0.00000e+00
1.59310e+03,-8.60589e+00,-6.68433e+01,0.00000e+00,0.00000e+00,0.00000e+00
1.59310e+03,-9.27886e+00,-6.43676e+01,0.00000e+00,0.00000e+00,0.00000e+00
1.59310e+03,-9.51109e+00,-6.18919e+01,0.00000e+00,0.00000e+00,0.00000e+00
1.59310e+03,-9.54632e+00,-5.94162e+01,0.00000e+00,0.00000e+00,0.00000e+00
1.59310e+03,-9.43315e+00,-5.69406e+01,0.00000e+00,0.00000e+00,0.00000e+00
1.59310e+03,-9.22684e+00,-5.44649e+01,0.00000e+00,0.00000e+00,0.00000e+00
1.59310e+03,-8.92702e+00,-5.19892e+01,0.00000e+00,0.00000e+00,0.00000e+00
1.59310e+03,-8.57016e+00,-4.95135e+01,0.00000e+00,0.00000e+00,0.00000e+00
1.59310e+03,-8.18020e+00,-4.70379e+01,0.00000e+00,0.00000e+00,0.00000e+00
1.59310e+03,-7.74040e+00,-4.45622e+01,0.00000e+00,0.00000e+00,0.00000e+00
1.59310e+03,-7.26945e+00,-4.20865e+01,0.00000e+00,0.00000e+00,0.00000e+00
1.59310e+03,-6.76816e+00,-3.96108e+01,0.00000e+00,0.00000e+00,0.00000e+00
1.59310e+03,-6.23665e+00,-3.71351e+01,0.00000e+00,0.00000e+00,0.00000e+00
1.59310e+03,-5.68619e+00,-3.46595e+01,0.00000e+00,0.00000e+00,0.00000e+00
1.59310e+03,-5.11146e+00,-3.21838e+01,0.00000e+00,0.00000e+00,0.00000e+00
1.59310e+03,-4.52119e+00,-2.97081e+01,0.00000e+00,0.00000e+00,0.00000e+00
1.59310e+03,-3.91698e+00,-2.72324e+01,0.00000e+00,0.00000e+00,0.00000e+00
1.59310e+03,-3.30033e+00,-2.47568e+01,0.00000e+00,0.00000e+00,0.00000e+00
1.59310e+03,-2.67841e+00,-2.22811e+01,0.00000e+00,0.00000e+00,0.00000e+00
1.59310e+03,-2.04833e+00,-1.98054e+01,0.00000e+00,0.00000e+00,0.00000e+00
1.59310e+03,-1.41689e+00,-1.73297e+01,0.00000e+00,0.00000e+00,0.00000e+00
1.59310e+03,-7.80581e-01,-1.48541e+01,0.00000e+00,0.00000e+00,0.00000e+00
1.59310e+03,-1.44332e-01,-1.23784e+01,0.00000e+00,0.00000e+00,0.00000e+00
1.59310e+03,4.89512e-01,-9.90271e+00,0.00000e+00,0.00000e+00,0.00000e+00
1.59310e+03,1.12336e+00,-7.42703e+00,0.00000e+00,0.00000e+00,0.00000e+00
1.59310e+03,1.74219e+00,-4.95135e+00,0.00000e+00,0.00000e+00,0.00000e+00
1.59310e+03,2.35823e+00,-2.47568e+00,0.00000e+00,0.00000e+00,0.00000e+00
1.65850e+03,3.04021e+01,0.00000e+00,0.00000e+00,0.00000e+00,0.00000e+00
1.65850e+03,3.02490e+01,-2.31024e+00,0.00000e+00,0.00000e+00,0.00000e+00
1.65850e+03,3.00453e+01,-4.62048e+00,0.00000e+00,0.00000e+00,0.00000e+00
1.65850e+03,2.98396e+01,-6.93072e+00,0.00000e+00,0.00000e+00,0.00000e+00
1.65850e+03,2.95892e+01,-9.24096e+00,0.00000e+00,0.00000e+00,0.00000e+00
1.65850e+03,2.93285e+01,-1.15512e+01,0.00000e+00,0.00000e+00,0.00000e+00
1.65850e+03,2.90335e+01,-1.38614e+01,0.00000e+00,0.00000e+00,0.00000e+00
1.65850e+03,2.87218e+01,-1.61717e+01,0.00000e+00,0.00000e+00,0.00000e+00
1.65850e+03,2.83826e+01,-1.84819e+01,0.00000e+00,0.00000e+00,0.00000e+00
1.65850e+03,2.80208e+01,-2.07921e+01,0.00000e+00,0.00000e+00,0.00000e+00
1.65850e+03,2.76341e+01,-2.31024e+01,0.00000e+00,0.00000e+00,0.00000e+00
1.65850e+03,2.72173e+01,-2.54126e+01,0.00000e+00,0.00000e+00,0.00000e+00
1.65850e+03,2.67696e+01,-2.77229e+01,0.00000e+00,0.00000e+00,0.00000e+00
1.65850e+03,2.62783e+01,-3.00331e+01,0.00000e+00,0.00000e+00,0.00000e+00
1.65850e+03,2.57444e+01,-3.23433e+01,0.00000e+00,0.00000e+00,0.00000e+00
1.65850e+03,2.51597e+01,-3.46536e+01,0.00000e+00,0.00000e+00,0.00000e+00
1.65850e+03,2.45060e+01,-3.69638e+01,0.00000e+00,0.00000e+00,0.00000e+00
1.65850e+03,2.38045e+01,-3.92741e+01,0.00000e+00,0.00000e+00,0.00000e+00
1.65850e+03,2.29951e+01,-4.15843e+01,0.00000e+00,0.00000e+00,0.00000e+00
1.65850e+03,2.21410e+01,-4.38945e+01,0.00000e+00,0.00000e+00,0.00000e+00
1.65850e+03,2.11624e+01,-4.62048e+01,0.00000e+00,0.00000e+00,0.00000e+00
1.65850e+03,2.00840e+01,-4.85150e+01,0.00000e+00,0.00000e+00,0.00000e+00
1.65850e+03,1.89041e+01,-5.08253e+01,0.00000e+00,0.00000e+00,0.00000e+00
1.65850e+03,1.75537e+01,-5.31355e+01,0.00000e+00,0.00000e+00,0.00000e+00
1.65850e+03,1.60058e+01,-5.54457e+01,0.00000e+00,0.00000e+00,0.00000e+00
1.65850e+03,1.42348e+01,-5.77560e+01,0.00000e+00,0.00000e+00,0.00000e+00
1.65850e+03,1.21400e+01,-6.00662e+01,0.00000e+00,0.00000e+00,0.00000e+00
1.65850e+03,9.45122e+00,-6.23764e+01,0.00000e+00,0.00000e+00,0.00000e+00
1.65850e+03,5.81473e+00,-6.46867e+01,0.00000e+00,0.00000e+00,0.00000e+00
1.65850e+03,-2.35608e+00,-6.69969e+01,0.00000e+00,0.00000e+00,0.00000e+00
1.65850e+03,-2.94577e+00,-6.70023e+01,0.00000e+00,0.00000e+00,0.00000e+00
1.65850e+03,-8.31828e+00,-6.46093e+01,0.00000e+00,0.00000e+00,0.00000e+00
1.65850e+03,-8.96876e+00,-6.22164e+01,0.00000e+00,0.00000e+00,0.00000e+00
1.65850e+03,-9.19322e+00,-5.98235e+01,0.00000e+00,0.00000e+00,0.00000e+00
1.65850e+03,-9.22728e+00,-5.74305e+01,0.00000e+00,0.00000e+00,0.00000e+00
1.65850e+03,-9.11789e+00,-5.50376e+01,0.00000e+00,0.00000e+00,0.00000e+00
1.65850e+03,-8.91848e+00,-5.26447e+01,0.00000e+00,0.00000e+00,0.00000e+00
1.65850e+03,-8.62868e+00,-5.02517e+01,0.00000e+00,0.00000e+00,0.00000e+00
1.65850e+03,-8.28374e+00,-4.78588e+01,0.00000e+00,0.00000e+00,0.00000e+00
1.65850e+03,-7.90682e+00,-4.54658e+01,0.00000e+00,0.00000e+00,0.00000e+00
1.65850e+03,-7.48171e+00,-4.30729e+01,0.00000e+00,0.00000e+00,0.00000e+00
1.65850e+03,-7.02650e+00,-4.06800e+01,0.00000e+00,0.00000e+00,0.00000e+00
1.65850e+03,-6.54196e+00,-3.82870e+01,0.00000e+00,0.00000e+00,0.00000e+00
1.65850e+03,-6.02822e+00,-3.58941e+01,0.00000e+00,0.00000e+00,0.00000e+00
1.65850e+03,-5.49615e+00,-3.35011e+01,0.00000e+00,0.00000e+00,0.00000e+00
1.65850e+03,-4.94063e+00,-3.11082e+01,0.00000e+00,0.00000e+00,0.00000e+00
1.65850e+03,-4.37009e+00,-2.87153e+01,0.00000e+00,0.00000e+00,0.00000e+00
1.65850e+03,-3.78607e+00,-2.63223e+01,0.00000e+00,0.00000e+00,0.00000e+00
1.65850e+03,-3.19003e+00,-2.39294e+01,0.00000e+00,0.00000e+00,0.00000e+00
1.65850e+03,-2.58890e+00,-2.15364e+01,0.00000e+00,0.00000e+00,0.00000e+00
1.65850e+03,-1.97988e+00,-1.91435e+01,0.00000e+00,0.00000e+00,0.00000e+00
1.65850e+03,-1.36954e+00,-1.67506e+01,0.00000e+00,0.00000e+00,0.00000e+00
1.65850e+03,-7.54494e-01,-1.43576e+01,0.00000e+00,0.00000e+00,0.00000e+00
1.65850e+03,-1.39508e-01,-1.19647e+01,0.00000e+00,0.00000e+00,0.00000e+00
1.65850e+03,4.73153e-01,-9.57176e+00,0.00000e+00,0.00000e+00,0.00000e+00
1.65850e+03,1.08581e+00,-7.17882e+00,0.00000e+00,0.00000e+00,0.00000e+00
1.65850e+03,1.68397e+00,-4.78588e+00,0.00000e+00,0.00000e+00,0.00000e+00
1.65850e+03,2.27942e+00,-2.39294e+00,0.00000e+00,0.00000e+00,0.00000e+00
1.71930e+03,2.94249e+01,0.00000e+00,0.00000e+00,0.00000e+00,0.00000e+00
1.71930e+03,2.92767e+01,-2.23598e+00,0.00000e+00,0.00000e+00,0.00000e+00
1.71930e+03,2.90795e+01,-4.47196e+00,0.00000e+00,0.00000e+00,0.00000e+00
1.71930e+03,2.88804e+01,-6.70794e+00,0.00000e+00,0.00000e+00,0.00000e+00
1.71930e+03,2.86381e+01,-8.94392e+00,0.00000e+00,0.00000e+00,0.00000e+00
1.71930e+03,2.83857e+01,-1.11799e+01,0.00000e+00,0.00000e+00,0.00000e+00
1.71930e+03,2.81002e+01,-1.34159e+01,0.00000e+00,0.00000e+00,0.00000e+00
1.71930e+03,2.77986e+01,-1.56519e+01,0.00000e+00,0.00000e+00,0.00000e+00
1.71930e+03,2.74703e+01,-1.78878e+01,0.00000e+00,0.00000e+00,0.00000e+00
1.71930e+03,2.71201e+01,-2.01238e+01,0.00000e+00,0.00000e+00,0.00000e+00
1.71930e+03,2.67458e+01,-2.23598e+01,0.00000e+00,0.00000e+00,0.00000e+00
1.71930e+03,2.63424e+01,-2.45958e+01,0.00000e+00,0.00000e+00,0.00000e+00
1.71930e+03,2.59091e+01,-2.68317e+01,0.00000e+00,0.00000e+00,0.00000e+00
1.71930e+03,2.54336e+01,-2.90677e+01,0.00000e+00,0.00000e+00,0.00000e+00
1.71930e+03,2.49169e+01,-3.13037e+01,0.00000e+00,0.00000e+00,0.00000e+00
1.71930e+03,2.43509e+01,-3.35397e+01,0.00000e+00,0.00000e+00,0.00000e+00
1.71930e+03,2.37183e+01,-3.57757e+01,0.00000e+00,0.00000e+00,0.00000e+00
1.71930e+03,2.30393e+01,-3.80116e+01,0.00000e+00,0.00000e+00,0.00000e+00
1.71930e+03,2.22560e+01,-4.02476e+01,0.00000e+00,0.00000e+00,0.00000e+00
1.71930e+03,2.14293e+01,-4.24836e+01,0.00000e+00,0.00000e+00,0.00000e+00
1.71930e+03,2.04822e+01,-4.47196e+01,0.00000e+00,0.00000e+00,0.00000e+00
1.71930e+03,1.94385e+01,-4.69556e+01,0.00000e+00,0.00000e+00,0.00000e+00
1.71930e+03,1.82964e+01,-4.91915e+01,0.00000e+00,0.00000e+00,0.00000e+00
1.71930e+03,1.69894e+01,-5.14275e+01,0.00000e+00,0.00000e+00,0.00000e+00
1.71930e+03,1.54913e+01,-5.36635e+01,0.00000e+00,0.00000e+00,0.00000e+00
1.71930e+03,1.37772e+01,-5.58995e+01,0.00000e+00,0.00000e+00,0.00000e+00
1.71930e+03,1.17498e+01,-5.81355e+01,0.00000e+00,0.00000e+00,0.00000e+00
1.71930e+03,9.14742e+00,-6.03714e+01,0.00000e+00,0.00000e+00,0.00000e+00
1.71930e+03,5.62782e+00,-6.26074e+01,0.00000e+00,0.00000e+00,0.00000e+00
1.71930e+03,-2.28035e+00,-6.48434e+01,0.00000e+00,0.00000e+00,0.00000e+00
1.71930e+03,-2.85109e+00,-6.48486e+01,0.00000e+00,0.00000e+00,0.00000e+00
1.71930e+03,-8.05090e+00,-6.25326e+01,0.00000e+00,0.00000e+00,0.00000e+00
1.71930e+03,-8.68047e+00,-6.02165e+01,0.00000e+00,0.00000e+00,0.00000e+00
1.71930e+03,-8.89772e+00,-5.79005e+01,0.00000e+00,0.00000e+00,0.00000e+00
1.71930e+03,-8.93068e+00,-5.55845e+01,0.00000e+00,0.00000e+00,0.00000e+00
1.71930e+03,-8.82481e+00,-5.32685e+01,0.00000e+00,0.00000e+00,0.00000e+00
1.71930e+03,-8.63181e+00,-5.09525e+01,0.00000e+00,0.00000e+00,0.00000e+00
1.71930e+03,-8.35132e+00,-4.86364e+01,0.00000e+00,0.00000e+00,0.00000e+00
1.71930e+03,-8.01747e+00,-4.63204e+01,0.00000e+00,0.00000e+00,0.00000e+00
1.71930e+03,-7.65266e+00,-4.40044e+01,0.00000e+00,0.00000e+00,0.00000e+00
1.71930e+03,-7.24122e+00,-4.16884e+01,0.00000e+00,0.00000e+00,0.00000e+00
1.71930e+03,-6.80064e+00,-3.93724e+01,0.00000e+00,0.00000e+00,0.00000e+00
1.71930e+03,-6.33168e+00,-3.70563e+01,0.00000e+00,0.00000e+00,0.00000e+00
1.71930e+03,-5.83445e+00,-3.47403e+01,0.00000e+00,0.00000e+00,0.00000e+00
1.71930e+03,-5.31949e+00,-3.24243e+01,0.00000e+00,0.00000e+00,0.00000e+00
1.71930e+03,-4.78182e+00,-3.01083e+01,0.00000e+00,0.00000e+00,0.00000e+00
1.71930e+03,-4.22962e+00,-2.77922e+01,0.00000e+00,0.00000e+00,0.00000e+00
1.71930e+03,-3.66437e+00,-2.54762e+01,0.00000e+00,0.00000e+00,0.00000e+00
1.71930e+03,-3.08749e+00,-2.31602e+01,0.00000e+00,0.00000e+00,0.00000e+00
1.71930e+03,-2.50568e+00,-2.08442e+01,0.00000e+00,0.00000e+00,0.00000e+00
1.71930e+03,-1.91624e+00,-1.85282e+01,0.00000e+00,0.00000e+00,0.00000e+00
1.71930e+03,-1.32552e+00,-1.62121e+01,0.00000e+00,0.00000e+00,0.00000e+00
1.71930e+03,-7.30242e-01,-1.38961e+01,0.00000e+00,0.00000e+00,0.00000e+00
1.71930e+03,-1.35024e-01,-1.15801e+01,0.00000e+00,0.00000e+00,0.00000e+00
1.71930e+03,4.57944e-01,-9.26408e+00,0.00000e+00,0.00000e+00,0.00000e+00
1.71930e+03,1.05091e+00,-6.94806e+00,0.00000e+00,0.00000e+00,0.00000e+00
1.71930e+03,1.62984e+00,-4.63204e+00,0.00000e+00,0.00000e+00,0.00000e+00
1.71930e+03,2.20615e+00,-2.31602e+00,0.00000e+00,0.00000e+00,0.00000e+00
1.77540e+03,2.77303e+01,0.00000e+00,0.00000e+00,0.00000e+00,0.00000e+00
1.77540e+03,2.75906e+01,-2.10721e+00,0.00000e+00,0.00000e+00,0.00000e+00
1.77540e+03,2.74048e+01,-4.21442e+00,0.00000e+00,0.00000e+00,0.00000e+00
1.77540e+03,2.72172e+01,-6.32163e+00,0.00000e+00,0.00000e+00,0.00000e+00
1.77540e+03,2.69888e+01,-8.42884e+00,0.00000e+00,0.00000e+00,0.00000e+00
1.77540e+03,2.67510e+01,-1.05361e+01,0.00000e+00,0.00000e+00,0.00000e+00
1.77540e+03,2.64819e+01,-1.26433e+01,0.00000e+00,0.00000e+00,0.00000e+00
1.77540e+03,2.61977e+01,-1.47505e+01,0.00000e+00,0.00000e+00,0.00000e+00
1.77540e+03,2.58883e+01,-1.68577e+01,0.00000e+00,0.00000e+00,0.00000e+00
1.77540e+03,2.55583e+01,-1.89649e+01,0.00000e+00,0.00000e+00,0.00000e+00
1.77540e+03,2.52056e+01,-2.10721e+01,0.00000e+00,0.00000e+00,0.00000e+00
1.77540e+03,2.48254e+01,-2.31793e+01,0.00000e+00,0.00000e+00,0.00000e+00
1.77540e+03,2.44171e+01,-2.52865e+01,0.00000e+00,0.00000e+00,0.00000e+00
1.77540e+03,2.39689e+01,-2.73937e+01,0.00000e+00,0.00000e+00,0.00000e+00
1.77540e+03,2.34819e+01,-2.95009e+01,0.00000e+00,0.00000e+00,0.00000e+00
1.77540e+03,2.29486e+01,-3.16082e+01,0.00000e+00,0.00000e+00,0.00000e+00
1.77540e+03,2.23524e+01,-3.37154e+01,0.00000e+00,0.00000e+00,0.00000e+00
1.77540e+03,2.17125e+01,-3.58226e+01,0.00000e+00,0.00000e+00,0.00000e+00
1.77540e+03,2.09743e+01,-3.79298e+01,0.00000e+00,0.00000e+00,0.00000e+00
1.77540e+03,2.01952e+01,-4.00370e+01,0.00000e+00,0.00000e+00,0.00000e+00
1.77540e+03,1.93026e+01,-4.21442e+01,0.00000e+00,0.00000e+00,0.00000e+00
1.77540e+03,1.83190e+01,-4.42514e+01,0.00000e+00,0.00000e+00,0.00000e+00
1.77540e+03,1.72428e+01,-4.63586e+01,0.00000e+00,0.00000e+00,0.00000e+00
1.77540e+03,1.60110e+01,-4.84658e+01,0.00000e+00,0.00000e+00,0.00000e+00
1.77540e+03,1.45992e+01,-5.05731e+01,0.00000e+00,0.00000e+00,0.00000e+00
1.77540e+03,1.29838e+01,-5.26803e+01,0.00000e+00,0.00000e+00,0.00000e+00
1.77540e+03,1.10731e+01,-5.47875e+01,0.00000e+00,0.00000e+00,0.00000e+00
1.77540e+03,8.62063e+00,-5.68947e+01,0.00000e+00,0.00000e+00,0.00000e+00
1.77540e+03,5.30372e+00,-5.90019e+01,0.00000e+00,0.00000e+00,0.00000e+00
1.77540e+03,-2.14903e+00,-6.11091e+01,0.00000e+00,0.00000e+00,0.00000e+00
1.77540e+03,-2.68689e+00,-6.11140e+01,0.00000e+00,0.00000e+00,0.00000e+00
1.77540e+03,-7.58725e+00,-5.89314e+01,0.00000e+00,0.00000e+00,0.00000e+00
1.77540e+03,-8.18057e+00,-5.67487e+01,0.00000e+00,0.00000e+00,0.00000e+00
1.77540e+03,-8.38530e+00,-5.45661e+01,0.00000e+00,0.00000e+00,0.00000e+00
1.77540e+03,-8.41637e+00,-5.23834e+01,0.00000e+00,0.00000e+00,0.00000e+00
1.77540e+03,-8.31659e+00,-5.02008e+01,0.00000e+00,0.00000e+00,0.00000e+00
1.77540e+03,-8.13471e+00,-4.80181e+01,0.00000e+00,0.00000e+00,0.00000e+00
1.77540e+03,-7.87037e+00,-4.58355e+01,0.00000e+00,0.00000e+00,0.00000e+00
1.77540e+03,-7.55575e+00,-4.36529e+01,0.00000e+00,0.00000e+00,0.00000e+00
1.77540e+03,-7.21195e+00,-4.14702e+01,0.00000e+00,0.00000e+00,0.00000e+00
1.77540e+03,-6.82421e+00,-3.92876e+01,0.00000e+00,0.00000e+00,0.00000e+00
1.77540e+03,-6.40900e+00,-3.71049e+01,0.00000e+00,0.00000e+00,0.00000e+00
1.77540e+03,-5.96704e+00,-3.49223e+01,0.00000e+00,0.00000e+00,0.00000e+00
1.77540e+03,-5.49844e+00,-3.27396e+01,0.00000e+00,0.00000e+00,0.00000e+00
1.77540e+03,-5.01314e+00,-3.05570e+01,0.00000e+00,0.00000e+00,0.00000e+00
1.77540e+03,-4.50644e+00,-2.83744e+01,0.00000e+00,0.00000e+00,0.00000e+00
1.77540e+03,-3.98604e+00,-2.61917e+01,0.00000e+00,0.00000e+00,0.00000e+00
1.77540e+03,-3.45334e+00,-2.40091e+01,0.00000e+00,0.00000e+00,0.00000e+00
1.77540e+03,-2.90969e+00,-2.18264e+01,0.00000e+00,0.00000e+00,0.00000e+00
1.77540e+03,-2.36138e+00,-1.96438e+01,0.00000e+00,0.00000e+00,0.00000e+00
1.77540e+03,-1.80588e+00,-1.74611e+01,0.00000e+00,0.00000e+00,0.00000e+00
1.77540e+03,-1.24918e+00,-1.52785e+01,0.00000e+00,0.00000e+00,0.00000e+00
1.77540e+03,-6.88187e-01,-1.30959e+01,0.00000e+00,0.00000e+00,0.00000e+00
1.77540e+03,-1.27248e-01,-1.09132e+01,0.00000e+00,0.00000e+00,0.00000e+00
1.77540e+03,4.31571e-01,-8.73057e+00,0.00000e+00,0.00000e+00,0.00000e+00
1.77540e+03,9.90390e-01,-6.54793e+00,0.00000e+00,0.00000e+00,0.00000e+00
1.77540e+03,1.53598e+00,-4.36529e+00,0.00000e+00,0.00000e+00,0.00000e+00
1.77540e+03,2.07910e+00,-2.18264e+00,0.00000e+00,0.00000e+00,0.00000e+00
1.82660e+03,2.53092e+01,0.00000e+00,0.00000e+00,0.00000e+00,0.00000e+00
1.82660e+03,2.51817e+01,-1.92323e+00,0.00000e+00,0.00000e+00,0.00000e+00
1.82660e+03,2.50121e+01,-3.84646e+00,0.00000e+00,0.00000e+00,0.00000e+00
1.82660e+03,2.48409e+01,-5.76969e+00,0.00000e+00,0.00000e+00,0.00000e+00
1.82660e+03,2.46324e+01,-7.69292e+00,0.00000e+00,0.00000e+00,0.00000e+00
1.82660e+03,2.44154e+01,-9.61614e+00,0.00000e+00,0.00000e+00,0.00000e+00
1.82660e+03,2.41698e+01,-1.15394e+01,0.00000e+00,0.00000e+00,0.00000e+00
1.82660e+03,2.39103e+01,-1.34626e+01,0.00000e+00,0.00000e+00,0.00000e+00
1.82660e+03,2.36280e+01,-1.53858e+01,0.00000e+00,0.00000e+00,0.00000e+00
1.82660e+03,2.33268e+01,-1.73091e+01,0.00000e+00,0.00000e+00,0.00000e+00
1.82660e+03,2.30049e+01,-1.92323e+01,0.00000e+00,0.00000e+00,0.00000e+00
1.82660e+03,2.26579e+01,-2.11555e+01,0.00000e+00,0.00000e+00,0.00000e+00
1.82660e+03,2.22852e+01,-2.30787e+01,0.00000e+00,0.00000e+00,0.00000e+00
1.82660e+03,2.18762e+01,-2.50020e+01,0.00000e+00,0.00000e+00,0.00000e+00
1.82660e+03,2.14317e+01,-2.69252e+01,0.00000e+00,0.00000e+00,0.00000e+00
1.82660e+03,2.09449e+01,-2.88484e+01,0.00000e+00,0.00000e+00,0.00000e+00
1.82660e+03,2.04008e+01,-3.07717e+01,0.00000e+00,0.00000e+00,0.00000e+00
1.82660e+03,1.98168e+01,-3.26949e+01,0.00000e+00,0.00000e+00,0.00000e+00
1.82660e+03,1.91430e+01,-3.46181e+01,0.00000e+00,0.00000e+00,0.00000e+00
1.82660e+03,1.84320e+01,-3.65413e+01,0.00000e+00,0.00000e+00,0.00000e+00
1.82660e+03,1.76173e+01,-3.84646e+01,0.00000e+00,0.00000e+00,0.00000e+00
1.82660e+03,1.67196e+01,-4.03878e+01,0.00000e+00,0.00000e+00,0.00000e+00
1.82660e+03,1.57373e+01,-4.23110e+01,0.00000e+00,0.00000e+00,0.00000e+00
1.82660e+03,1.46131e+01,-4.42343e+01,0.00000e+00,0.00000e+00,0.00000e+00
1.82660e+03,1.33245e+01,-4.61575e+01,0.00000e+00,0.00000e+00,0.00000e+00
1.82660e+03,1.18502e+01,-4.80807e+01,0.00000e+00,0.00000e+00,0.00000e+00
1.82660e+03,1.01063e+01,-5.00040e+01,0.00000e+00,0.00000e+00,0.00000e+00
1.82660e+03,7.86795e+00,-5.19272e+01,0.00000e+00,0.00000e+00,0.00000e+00
1.82660e+03,4.84065e+00,-5.38504e+01,0.00000e+00,0.00000e+00,0.00000e+00
1.82660e+03,-1.96139e+00,-5.57736e+01,0.00000e+00,0.00000e+00,0.00000e+00
1.82660e+03,-2.45230e+00,-5.57781e+01,0.00000e+00,0.00000e+00,0.00000e+00
1.82660e+03,-6.92480e+00,-5.37860e+01,0.00000e+00,0.00000e+00,0.00000e+00
1.82660e+03,-7.46632e+00,-5.17940e+01,0.00000e+00,0.00000e+00,0.00000e+00
1.82660e+03,-7.65318e+00,-4.98019e+01,0.00000e+00,0.00000e+00,0.00000e+00
1.82660e+03,-7.68153e+00,-4.78098e+01,0.00000e+00,0.00000e+00,0.00000e+00
1.82660e+03,-7.59047e+00,-4.58177e+01,0.00000e+00,0.00000e+00,0.00000e+00
1.82660e+03,-7.42446e+00,-4.38257e+01,0.00000e+00,0.00000e+00,0.00000e+00
1.82660e+03,-7.18321e+00,-4.18336e+01,0.00000e+00,0.00000e+00,0.00000e+00
1.82660e+03,-6.89605e+00,-3.98415e+01,0.00000e+00,0.00000e+00,0.00000e+00
1.82660e+03,-6.58227e+00,-3.78494e+01,0.00000e+00,0.00000e+00,0.00000e+00
1.82660e+03,-6.22838e+00,-3.58574e+01,0.00000e+00,0.00000e+00,0.00000e+00
1.82660e+03,-5.84943e+00,-3.38653e+01,0.00000e+00,0.00000e+00,0.00000e+00
1.82660e+03,-5.44606e+00,-3.18732e+01,0.00000e+00,0.00000e+00,0.00000e+00
1.82660e+03,-5.01837e+00,-2.98811e+01,0.00000e+00,0.00000e+00,0.00000e+00
1.82660e+03,-4.57544e+00,-2.78891e+01,0.00000e+00,0.00000e+00,0.00000e+00
1.82660e+03,-4.11298e+00,-2.58970e+01,0.00000e+00,0.00000e+00,0.00000e+00
1.82660e+03,-3.63801e+00,-2.39049e+01,0.00000e+00,0.00000e+00,0.00000e+00
1.82660e+03,-3.15183e+00,-2.19128e+01,0.00000e+00,0.00000e+00,0.00000e+00
1.82660e+03,-2.65564e+00,-1.99208e+01,0.00000e+00,0.00000e+00,0.00000e+00
1.82660e+03,-2.15521e+00,-1.79287e+01,0.00000e+00,0.00000e+00,0.00000e+00
1.82660e+03,-1.64821e+00,-1.59366e+01,0.00000e+00,0.00000e+00,0.00000e+00
1.82660e+03,-1.14012e+00,-1.39445e+01,0.00000e+00,0.00000e+00,0.00000e+00
1.82660e+03,-6.28101e-01,-1.19525e+01,0.00000e+00,0.00000e+00,0.00000e+00
1.82660e+03,-1.16138e-01,-9.96038e+00,0.00000e+00,0.00000e+00,0.00000e+00
1.82660e+03,3.93890e-01,-7.96830e+00,0.00000e+00,0.00000e+00,0.00000e+00
1.82660e+03,9.03919e-01,-5.97623e+00,0.00000e+00,0.00000e+00,0.00000e+00
1.82660e+03,1.40187e+00,-3.98415e+00,0.00000e+00,0.00000e+00,0.00000e+00
1.82660e+03,1.89757e+00,-1.99208e+00,0.00000e+00,0.00000e+00,0.00000e+00
1.87280e+03,2.31244e+01,0.00000e+00,0.00000e+00,0.00000e+00,0.00000e+00
1.87280e+03,2.30080e+01,-1.75721e+00,0.00000e+00,0.00000e+00,0.00000e+00
1.87280e+03,2.28531e+01,-3.51443e+00,0.00000e+00,0.00000e+00,0.00000e+00
1.87280e+03,2.26966e+01,-5.27164e+00,0.00000e+00,0.00000e+00,0.00000e+00
1.87280e+03,2.25061e+01,-7.02886e+00,0.00000e+00,0.00000e+00,0.00000e+00
1.87280e+03,2.23078e+01,-8.78607e+00,0.00000e+00,0.00000e+00,0.00000e+00
1.87280e+03,2.20834e+01,-1.05433e+01,0.00000e+00,0.00000e+00,0.00000e+00
1.87280e+03,2.18464e+01,-1.23005e+01,0.00000e+00,0.00000e+00,0.00000e+00
1.87280e+03,2.15884e+01,-1.40577e+01,0.00000e+00,0.00000e+00,0.00000e+00
1.87280e+03,2.13132e+01,-1.58149e+01,0.00000e+00,0.00000e+00,0.00000e+00
1.87280e+03,2.10191e+01,-1.75721e+01,0.00000e+00,0.00000e+00,0.00000e+00
1.87280e+03,2.07020e+01,-1.93294e+01,0.00000e+00,0.00000e+00,0.00000e+00
1.87280e+03,2.03615e+01,-2.10866e+01,0.00000e+00,0.00000e+00,0.00000e+00
1.87280e+03,1.99878e+01,-2.28438e+01,0.00000e+00,0.00000e+00,0.00000e+00
1.87280e+03,1.95817e+01,-2.46010e+01,0.00000e+00,0.00000e+00,0.00000e+00
1.87280e+03,1.91369e+01,-2.63582e+01,0.00000e+00,0.00000e+00,0.00000e+00
1.87280e+03,1.86398e+01,-2.81154e+01,0.00000e+00,0.00000e+00,0.00000e+00
1.87280e+03,1.81062e+01,-2.98726e+01,0.00000e+00,0.00000e+00,0.00000e+00
1.87280e+03,1.74905e+01,-3.16299e+01,0.00000e+00,0.00000e+00,0.00000e+00
1.87280e+03,1.68409e+01,-3.33871e+01,0.00000e+00,0.00000e+00,0.00000e+00
1.87280e+03,1.60966e+01,-3.51443e+01,0.00000e+00,0.00000e+00,0.00000e+00
1.87280e+03,1.52763e+01,-3.69015e+01,0.00000e+00,0.00000e+00,0.00000e+00
1.87280e+03,1.43788e+01,-3.86587e+01,0.00000e+00,0.00000e+00,0.00000e+00
1.87280e+03,1.33517e+01,-4.04159e+01,0.00000e+00,0.00000e+00,0.00000e+00
1.87280e+03,1.21743e+01,-4.21731e+01,0.00000e+00,0.00000e+00,0.00000e+00
1.87280e+03,1.08272e+01,-4.39304e+01,0.00000e+00,0.00000e+00,0.00000e+00
1.87280e+03,9.23393e+00,-4.56876e+01,0.00000e+00,0.00000e+00,0.00000e+00
1.87280e+03,7.18879e+00,-4.74448e+01,0.00000e+00,0.00000e+00,0.00000e+00
1.87280e+03,4.42280e+00,-4.92020e+01,0.00000e+00,0.00000e+00,0.00000e+00
1.87280e+03,-1.79208e+00,-5.09592e+01,0.00000e+00,0.00000e+00,0.00000e+00
1.87280e+03,-2.24062e+00,-5.09633e+01,0.00000e+00,0.00000e+00,0.00000e+00
1.87280e+03,-6.32705e+00,-4.91432e+01,0.00000e+00,0.00000e+00,0.00000e+00
1.87280e+03,-6.82182e+00,-4.73231e+01,0.00000e+00,0.00000e+00,0.00000e+00
1.87280e+03,-6.99255e+00,-4.55029e+01,0.00000e+00,0.00000e+00,0.00000e+00
1.87280e+03,-7.01846e+00,-4.36828e+01,0.00000e+00,0.00000e+00,0.00000e+00
1.87280e+03,-6.93525e+00,-4.18627e+01,0.00000e+00,0.00000e+00,0.00000e+00
1.87280e+03,-6.78358e+00,-4.00426e+01,0.00000e+00,0.00000e+00,0.00000e+00
1.87280e+03,-6.56315e+00,-3.82225e+01,0.00000e+00,0.00000e+00,0.00000e+00
1.87280e+03,-6.30078e+00,-3.64024e+01,0.00000e+00,0.00000e+00,0.00000e+00
1.87280e+03,-6.01408e+00,-3.45822e+01,0.00000e+00,0.00000e+00,0.00000e+00
1.87280e+03,-5.69074e+00,-3.27621e+01,0.00000e+00,0.00000e+00,0.00000e+00
1.87280e+03,-5.34450e+00,-3.09420e+01,0.00000e+00,0.00000e+00,0.00000e+00
1.87280e+03,-4.97595e+00,-2.91219e+01,0.00000e+00,0.00000e+00,0.00000e+00
1.87280e+03,-4.58518e+00,-2.73018e+01,0.00000e+00,0.00000e+00,0.00000e+00
1.87280e+03,-4.18049e+00,-2.54816e+01,0.00000e+00,0.00000e+00,0.00000e+00
1.87280e+03,-3.75794e+00,-2.36615e+01,0.00000e+00,0.00000e+00,0.00000e+00
1.87280e+03,-3.32398e+00,-2.18414e+01,0.00000e+00,0.00000e+00,0.00000e+00
1.87280e+03,-2.87976e+00,-2.00213e+01,0.00000e+00,0.00000e+00,0.00000e+00
1.87280e+03,-2.42640e+00,-1.82012e+01,0.00000e+00,0.00000e+00,0.00000e+00
1.87280e+03,-1.96917e+00,-1.63811e+01,0.00000e+00,0.00000e+00,0.00000e+00
1.87280e+03,-1.50594e+00,-1.45609e+01,0.00000e+00,0.00000e+00,0.00000e+00
1.87280e+03,-1.04170e+00,-1.27408e+01,0.00000e+00,0.00000e+00,0.00000e+00
1.87280e+03,-5.73883e-01,-1.09207e+01,0.00000e+00,0.00000e+00,0.00000e+00
1.87280e+03,-1.06113e-01,-9.10059e+00,0.00000e+00,0.00000e+00,0.00000e+00
1.87280e+03,3.59890e-01,-7.28047e+00,0.00000e+00,0.00000e+00,0.00000e+00
1.87280e+03,8.25892e-01,-5.46035e+00,0.00000e+00,0.00000e+00,0.00000e+00
1.87280e+03,1.28086e+00,-3.64024e+00,0.00000e+00,0.00000e+00,0.00000e+00
1.87280e+03,1.73377e+00,-1.82012e+00,0.00000e+00,0.00000e+00,0.00000e+00
1.91380e+03,2.11856e+01,0.00000e+00,0.00000e+00,0.00000e+00,0.00000e+00
1.91380e+03,2.10789e+01,-1.60989e+00,0.00000e+00,0.00000e+00,0.00000e+00
1.91380e+03,2.09370e+01,-3.21977e+00,0.00000e+00,0.00000e+00,0.00000e+00
1.91380e+03,2.07936e+01,-4.82966e+00,0.00000e+00,0.00000e+00,0.00000e+00
1.91380e+03,2.06192e+01,-6.43954e+00,0.00000e+00,0.00000e+00,0.00000e+00
1.91380e+03,2.04375e+01,-8.04943e+00,0.00000e+00,0.00000e+00,0.00000e+00
1.91380e+03,2.02319e+01,-9.65931e+00,0.00000e+00,0.00000e+00,0.00000e+00
1.91380e+03,2.00147e+01,-1.12692e+01,0.00000e+00,0.00000e+00,0.00000e+00
1.91380e+03,1.97784e+01,-1.28791e+01,0.00000e+00,0.00000e+00,0.00000e+00
1.91380e+03,1.95262e+01,-1.44890e+01,0.00000e+00,0.00000e+00,0.00000e+00
1.91380e+03,1.92568e+01,-1.60989e+01,0.00000e+00,0.00000e+00,0.00000e+00
1.91380e+03,1.89663e+01,-1.77087e+01,0.00000e+00,0.00000e+00,0.00000e+00
1.91380e+03,1.86544e+01,-1.93186e+01,0.00000e+00,0.00000e+00,0.00000e+00
1.91380e+03,1.83120e+01,-2.09285e+01,0.00000e+00,0.00000e+00,0.00000e+00
1.91380e+03,1.79399e+01,-2.25384e+01,0.00000e+00,0.00000e+00,0.00000e+00
1.91380e+03,1.75325e+01,-2.41483e+01,0.00000e+00,0.00000e+00,0.00000e+00
1.91380e+03,1.70770e+01,-2.57582e+01,0.00000e+00,0.00000e+00,0.00000e+00
1.91380e+03,1.65881e+01,-2.73680e+01,0.00000e+00,0.00000e+00,0.00000e+00
1.91380e+03,1.60241e+01,-2.89779e+01,0.00000e+00,0.00000e+00,0.00000e+00
1.91380e+03,1.54289e+01,-3.05878e+01,0.00000e+00,0.00000e+00,0.00000e+00
1.91380e+03,1.47470e+01,-3.21977e+01,0.00000e+00,0.00000e+00,0.00000e+00
1.91380e+03,1.39955e+01,-3.38076e+01,0.00000e+00,0.00000e+00,0.00000e+00
1.91380e+03,1.31733e+01,-3.54175e+01,0.00000e+00,0.00000e+00,0.00000e+00
1.91380e+03,1.22322e+01,-3.70274e+01,0.00000e+00,0.00000e+00,0.00000e+00
1.91380e+03,1.11536e+01,-3.86372e+01,0.00000e+00,0.00000e+00,0.00000e+00
1.91380e+03,9.91946e+00,-4.02471e+01,0.00000e+00,0.00000e+00,0.00000e+00
1.91380e+03,8.45973e+00,-4.18570e+01,0.00000e+00,0.00000e+00,0.00000e+00
1.91380e+03,6.58606e+00,-4.34669e+01,0.00000e+00,0.00000e+00,0.00000e+00
1.91380e+03,4.05198e+00,-4.50768e+01,0.00000e+00,0.00000e+00,0.00000e+00
1.91380e+03,-1.64183e+00,-4.66867e+01,0.00000e+00,0.00000e+00,0.00000e+00
1.91380e+03,-2.05276e+00,-4.66904e+01,0.00000e+00,0.00000e+00,0.00000e+00
1.91380e+03,-5.79657e+00,-4.50229e+01,0.00000e+00,0.00000e+00,0.00000e+00
1.91380e+03,-6.24986e+00,-4.33554e+01,0.00000e+00,0.00000e+00,0.00000e+00
1.91380e+03,-6.40628e+00,-4.16879e+01,0.00000e+00,0.00000e+00,0.00000e+00
1.91380e+03,-6.43001e+00,-4.00204e+01,0.00000e+00,0.00000e+00,0.00000e+00
1.91380e+03,-6.35378e+00,-3.83528e+01,0.00000e+00,0.00000e+00,0.00000e+00
1.91380e+03,-6.21483e+00,-3.66853e+01,0.00000e+00,0.00000e+00,0.00000e+00
1.91380e+03,-6.01288e+00,-3.50178e+01,0.00000e+00,0.00000e+00,0.00000e+00
1.91380e+03,-5.77251e+00,-3.33503e+01,0.00000e+00,0.00000e+00,0.00000e+00
1.91380e+03,-5.50985e+00,-3.16828e+01,0.00000e+00,0.00000e+00,0.00000e+00
1.91380e+03,-5.21362e+00,-3.00153e+01,0.00000e+00,0.00000e+00,0.00000e+00
1.91380e+03,-4.89640e+00,-2.83477e+01,0.00000e+00,0.00000e+00,0.00000e+00
1.91380e+03,-4.55876e+00,-2.66802e+01,0.00000e+00,0.00000e+00,0.00000e+00
1.91380e+03,-4.20075e+00,-2.50127e+01,0.00000e+00,0.00000e+00,0.00000e+00
1.91380e+03,-3.82998e+00,-2.33452e+01,0.00000e+00,0.00000e+00,0.00000e+00
1.91380e+03,-3.44287e+00,-2.16777e+01,0.00000e+00,0.00000e+00,0.00000e+00
1.91380e+03,-3.04529e+00,-2.00102e+01,0.00000e+00,0.00000e+00,0.00000e+00
1.91380e+03,-2.63832e+00,-1.83427e+01,0.00000e+00,0.00000e+00,0.00000e+00
1.91380e+03,-2.22297e+00,-1.66751e+01,0.00000e+00,0.00000e+00,0.00000e+00
1.91380e+03,-1.80407e+00,-1.50076e+01,0.00000e+00,0.00000e+00,0.00000e+00
1.91380e+03,-1.37967e+00,-1.33401e+01,0.00000e+00,0.00000e+00,0.00000e+00
1.91380e+03,-9.54362e-01,-1.16726e+01,0.00000e+00,0.00000e+00,0.00000e+00
1.91380e+03,-5.25768e-01,-1.00051e+01,0.00000e+00,0.00000e+00,0.00000e+00
1.91380e+03,-9.72161e-02,-8.33757e+00,0.00000e+00,0.00000e+00,0.00000e+00
1.91380e+03,3.29716e-01,-6.67006e+00,0.00000e+00,0.00000e+00,0.00000e+00
1.91380e+03,7.56647e-01,-5.00254e+00,0.00000e+00,0.00000e+00,0.00000e+00
1.91380e+03,1.17347e+00,-3.33503e+00,0.00000e+00,0.00000e+00,0.00000e+00
1.91380e+03,1.58841e+00,-1.66751e+00,0.00000e+00,0.00000e+00,0.00000e+00
1.94970e+03,1.94880e+01,0.00000e+00,0.00000e+00,0.00000e+00,0.00000e+00
1.94970e+03,1.93899e+01,-1.48088e+00,0.00000e+00,0.00000e+00,0.00000e+00
1.94970e+03,1.92593e+01,-2.96177e+00,0.00000e+00,0.00000e+00,0.00000e+00
1.94970e+03,1.91274e+01,-4.44265e+00,0.00000e+00,0.00000e+00,0.00000e+00
1.94970e+03,1.89669e+01,-5.92353e+00,0.00000e+00,0.00000e+00,0.00000e+00
1.94970e+03,1.87998e+01,-7.40441e+00,0.00000e+00,0.00000e+00,0.00000e+00
1.94970e+03,1.86107e+01,-8.88530e+00,0.00000e+00,0.00000e+00,0.00000e+00
1.94970e+03,1.84109e+01,-1.03662e+01,0.00000e+00,0.00000e+00,0.00000e+00
1.94970e+03,1.81935e+01,-1.18471e+01,0.00000e+00,0.00000e+00,0.00000e+00
1.94970e+03,1.79616e+01,-1.33279e+01,0.00000e+00,0.00000e+00,0.00000e+00
1.94970e+03,1.77137e+01,-1.48088e+01,0.00000e+00,0.00000e+00,0.00000e+00
1.94970e+03,1.74465e+01,-1.62897e+01,0.00000e+00,0.00000e+00,0.00000e+00
1.94970e+03,1.71596e+01,-1.77706e+01,0.00000e+00,0.00000e+00,0.00000e+00
1.94970e+03,1.68446e+01,-1.92515e+01,0.00000e+00,0.00000e+00,0.00000e+00
1.94970e+03,1.65024e+01,-2.07324e+01,0.00000e+00,0.00000e+00,0.00000e+00
1.94970e+03,1.61276e+01,-2.22132e+01,0.00000e+00,0.00000e+00,0.00000e+00
1.94970e+03,1.57086e+01,-2.36941e+01,0.00000e+00,0.00000e+00,0.00000e+00
1.94970e+03,1.52589e+01,-2.51750e+01,0.00000e+00,0.00000e+00,0.00000e+00
1.94970e+03,1.47401e+01,-2.66559e+01,0.00000e+00,0.00000e+00,0.00000e+00
1.94970e+03,1.41926e+01,-2.81368e+01,0.00000e+00,0.00000e+00,0.00000e+00
1.94970e+03,1.35653e+01,-2.96177e+01,0.00000e+00,0.00000e+00,0.00000e+00
1.94970e+03,1.28740e+01,-3.10985e+01,0.00000e+00,0.00000e+00,0.00000e+00
1.94970e+03,1.21177e+01,-3.25794e+01,0.00000e+00,0.00000e+00,0.00000e+00
1.94970e+03,1.12521e+01,-3.40603e+01,0.00000e+00,0.00000e+00,0.00000e+00
1.94970e+03,1.02599e+01,-3.55412e+01,0.00000e+00,0.00000e+00,0.00000e+00
1.94970e+03,9.12460e+00,-3.70221e+01,0.00000e+00,0.00000e+00,0.00000e+00
1.94970e+03,7.78184e+00,-3.85029e+01,0.00000e+00,0.00000e+00,0.00000e+00
1.94970e+03,6.05831e+00,-3.99838e+01,0.00000e+00,0.00000e+00,0.00000e+00
1.94970e+03,3.72729e+00,-4.14647e+01,0.00000e+00,0.00000e+00,0.00000e+00
1.94970e+03,-1.51027e+00,-4.29456e+01,0.00000e+00,0.00000e+00,0.00000e+00
1.94970e+03,-1.88827e+00,-4.29490e+01,0.00000e+00,0.00000e+00,0.00000e+00
1.94970e+03,-5.33209e+00,-4.14151e+01,0.00000e+00,0.00000e+00,0.00000e+00
1.94970e+03,-5.74905e+00,-3.98812e+01,0.00000e+00,0.00000e+00,0.00000e+00
1.94970e+03,-5.89293e+00,-3.83473e+01,0.00000e+00,0.00000e+00,0.00000e+00
1.94970e+03,-5.91477e+00,-3.68135e+01,0.00000e+00,0.00000e+00,0.00000e+00
1.94970e+03,-5.84465e+00,-3.52796e+01,0.00000e+00,0.00000e+00,0.00000e+00
1.94970e+03,-5.71682e+00,-3.37457e+01,0.00000e+00,0.00000e+00,0.00000e+00
1.94970e+03,-5.53106e+00,-3.22118e+01,0.00000e+00,0.00000e+00,0.00000e+00
1.94970e+03,-5.30995e+00,-3.06779e+01,0.00000e+00,0.00000e+00,0.00000e+00
1.94970e+03,-5.06834e+00,-2.91440e+01,0.00000e+00,0.00000e+00,0.00000e+00
1.94970e+03,-4.79584e+00,-2.76101e+01,0.00000e+00,0.00000e+00,0.00000e+00
1.94970e+03,-4.50405e+00,-2.60762e+01,0.00000e+00,0.00000e+00,0.00000e+00
1.94970e+03,-4.19345e+00,-2.45423e+01,0.00000e+00,0.00000e+00,0.00000e+00
1.94970e+03,-3.86414e+00,-2.30084e+01,0.00000e+00,0.00000e+00,0.00000e+00
1.94970e+03,-3.52308e+00,-2.14745e+01,0.00000e+00,0.00000e+00,0.00000e+00
1.94970e+03,-3.16699e+00,-1.99406e+01,0.00000e+00,0.00000e+00,0.00000e+00
1.94970e+03,-2.80126e+00,-1.84067e+01,0.00000e+00,0.00000e+00,0.00000e+00
1.94970e+03,-2.42690e+00,-1.68728e+01,0.00000e+00,0.00000e+00,0.00000e+00
1.94970e+03,-2.04484e+00,-1.53389e+01,0.00000e+00,0.00000e+00,0.00000e+00
1.94970e+03,-1.65951e+00,-1.38050e+01,0.00000e+00,0.00000e+00,0.00000e+00
1.94970e+03,-1.26912e+00,-1.22712e+01,0.00000e+00,0.00000e+00,0.00000e+00
1.94970e+03,-8.77888e-01,-1.07373e+01,0.00000e+00,0.00000e+00,0.00000e+00
1.94970e+03,-4.83637e-01,-9.20336e+00,0.00000e+00,0.00000e+00,0.00000e+00
1.94970e+03,-8.94260e-02,-7.66947e+00,0.00000e+00,0.00000e+00,0.00000e+00
1.94970e+03,3.03295e-01,-6.13558e+00,0.00000e+00,0.00000e+00,0.00000e+00
1.94970e+03,6.96016e-01,-4.60168e+00,0.00000e+00,0.00000e+00,0.00000e+00
1.94970e+03,1.07944e+00,-3.06779e+00,0.00000e+00,0.00000e+00,0.00000e+00
1.94970e+03,1.46113e+00,-1.53389e+00,0.00000e+00,0.00000e+00,0.00000e+00
1.98010e+03,1.80504e+01,0.00000e+00,0.00000e+00,0.00000e+00,0.00000e+00
1.98010e+03,1.79595e+01,-1.37164e+00,0.00000e+00,0.00000e+00,0.00000e+00
1.98010e+03,1.78386e+01,-2.74329e+00,0.00000e+00,0.00000e+00,0.00000e+00
1.98010e+03,1.77165e+01,-4.11493e+00,0.00000e+00,0.00000e+00,0.00000e+00
1.98010e+03,1.75678e+01,-5.48657e+00,0.00000e+00,0.00000e+00,0.00000e+00
1.98010e+03,1.74130e+01,-6.85822e+00,0.00000e+00,0.00000e+00,0.00000e+00
1.98010e+03,1.72378e+01,-8.22986e+00,0.00000e+00,0.00000e+00,0.00000e+00
1.98010e+03,1.70528e+01,-9.60150e+00,0.00000e+00,0.00000e+00,0.00000e+00
1.98010e+03,1.68514e+01,-1.09731e+01,0.00000e+00,0.00000e+00,0.00000e+00
1.98010e+03,1.66366e+01,-1.23448e+01,0.00000e+00,0.00000e+00,0.00000e+00
1.98010e+03,1.64070e+01,-1.37164e+01,0.00000e+00,0.00000e+00,0.00000e+00
1.98010e+03,1.61595e+01,-1.50881e+01,0.00000e+00,0.00000e+00,0.00000e+00
1.98010e+03,1.58938e+01,-1.64597e+01,0.00000e+00,0.00000e+00,0.00000e+00
1.98010e+03,1.56020e+01,-1.78314e+01,0.00000e+00,0.00000e+00,0.00000e+00
1.98010e+03,1.52851e+01,-1.92030e+01,0.00000e+00,0.00000e+00,0.00000e+00
1.98010e+03,1.49379e+01,-2.05747e+01,0.00000e+00,0.00000e+00,0.00000e+00
1.98010e+03,1.45498e+01,-2.19463e+01,0.00000e+00,0.00000e+00,0.00000e+00
1.98010e+03,1.41333e+01,-2.33179e+01,0.00000e+00,0.00000e+00,0.00000e+00
1.98010e+03,1.36527e+01,-2.46896e+01,0.00000e+00,0.00000e+00,0.00000e+00
1.98010e+03,1.31457e+01,-2.60612e+01,0.00000e+00,0.00000e+00,0.00000e+00
1.98010e+03,1.25646e+01,-2.74329e+01,0.00000e+00,0.00000e+00,0.00000e+00
1.98010e+03,1.19244e+01,-2.88045e+01,0.00000e+00,0.00000e+00,0.00000e+00
1.98010e+03,1.12238e+01,-3.01762e+01,0.00000e+00,0.00000e+00,0.00000e+00
1.98010e+03,1.04220e+01,-3.15478e+01,0.00000e+00,0.00000e+00,0.00000e+00
1.98010e+03,9.50303e+00,-3.29194e+01,0.00000e+00,0.00000e+00,0.00000e+00
1.98010e+03,8.45151e+00,-3.42911e+01,0.00000e+00,0.00000e+00,0.00000e+00
1.98010e+03,7.20780e+00,-3.56627e+01,0.00000e+00,0.00000e+00,0.00000e+00
1.98010e+03,5.61141e+00,-3.70344e+01,0.00000e+00,0.00000e+00,0.00000e+00
1.98010e+03,3.45234e+00,-3.84060e+01,0.00000e+00,0.00000e+00,0.00000e+00
1.98010e+03,-1.39886e+00,-3.97777e+01,0.00000e+00,0.00000e+00,0.00000e+00
1.98010e+03,-1.74898e+00,-3.97808e+01,0.00000e+00,0.00000e+00,0.00000e+00
1.98010e+03,-4.93876e+00,-3.83601e+01,0.00000e+00,0.00000e+00,0.00000e+00
1.98010e+03,-5.32496e+00,-3.69394e+01,0.00000e+00,0.00000e+00,0.00000e+00
1.98010e+03,-5.45823e+00,-3.55186e+01,0.00000e+00,0.00000e+00,0.00000e+00
1.98010e+03,-5.47846e+00,-3.40979e+01,0.00000e+00,0.00000e+00,0.00000e+00
1.98010e+03,-5.41351e+00,-3.26771e+01,0.00000e+00,0.00000e+00,0.00000e+00
1.98010e+03,-5.29511e+00,-3.12564e+01,0.00000e+00,0.00000e+00,0.00000e+00
1.98010e+03,-5.12305e+00,-2.98356e+01,0.00000e+00,0.00000e+00,0.00000e+00
1.98010e+03,-4.91825e+00,-2.84149e+01,0.00000e+00,0.00000e+00,0.00000e+00
1.98010e+03,-4.69446e+00,-2.69941e+01,0.00000e+00,0.00000e+00,0.00000e+00
1.98010e+03,-4.44207e+00,-2.55734e+01,0.00000e+00,0.00000e+00,0.00000e+00
1.98010e+03,-4.17180e+00,-2.41527e+01,0.00000e+00,0.00000e+00,0.00000e+00
1.98010e+03,-3.88412e+00,-2.27319e+01,0.00000e+00,0.00000e+00,0.00000e+00
1.98010e+03,-3.57909e+00,-2.13112e+01,0.00000e+00,0.00000e+00,0.00000e+00
1.98010e+03,-3.26320e+00,-1.98904e+01,0.00000e+00,0.00000e+00,0.00000e+00
1.98010e+03,-2.93337e+00,-1.84697e+01,0.00000e+00,0.00000e+00,0.00000e+00
1.98010e+03,-2.59462e+00,-1.70489e+01,0.00000e+00,0.00000e+00,0.00000e+00
1.98010e+03,-2.24788e+00,-1.56282e+01,0.00000e+00,0.00000e+00,0.00000e+00
1.98010e+03,-1.89400e+00,-1.42074e+01,0.00000e+00,0.00000e+00,0.00000e+00
1.98010e+03,-1.53709e+00,-1.27867e+01,0.00000e+00,0.00000e+00,0.00000e+00
1.98010e+03,-1.17550e+00,-1.13660e+01,0.00000e+00,0.00000e+00,0.00000e+00
1.98010e+03,-8.13129e-01,-9.94521e+00,0.00000e+00,0.00000e+00,0.00000e+00
1.98010e+03,-4.47961e-01,-8.52447e+00,0.00000e+00,0.00000e+00,0.00000e+00
1.98010e+03,-8.28294e-02,-7.10372e+00,0.00000e+00,0.00000e+00,0.00000e+00
1.98010e+03,2.80922e-01,-5.68298e+00,0.00000e+00,0.00000e+00,0.00000e+00
1.98010e+03,6.44673e-01,-4.26223e+00,0.00000e+00,0.00000e+00,0.00000e+00
1.98010e+03,9.99811e-01,-2.84149e+00,0.00000e+00,0.00000e+00,0.00000e+00
1.98010e+03,1.35334e+00,-1.42074e+00,0.00000e+00,0.00000e+00,0.00000e+00
2.00520e+03,1.68635e+01,0.00000e+00,0.00000e+00,0.00000e+00,0.00000e+00
2.00520e+03,1.67786e+01,-1.28145e+00,0.00000e+00,0.00000e+00,0.00000e+00
2.00520e+03,1.66656e+01,-2.56290e+00,0.00000e+00,0.00000e+00,0.00000e+00
2.00520e+03,1.65515e+01,-3.84435e+00,0.00000e+00,0.00000e+00,0.00000e+00
2.00520e+03,1.64126e+01,-5.12580e+00,0.00000e+00,0.00000e+00,0.00000e+00
2.00520e+03,1.62680e+01,-6.40725e+00,0.00000e+00,0.00000e+00,0.00000e+00
2.00520e+03,1.61044e+01,-7.68870e+00,0.00000e+00,0.00000e+00,0.00000e+00
2.00520e+03,1.59315e+01,-8.97015e+00,0.00000e+00,0.00000e+00,0.00000e+00
2.00520e+03,1.57433e+01,-1.02516e+01,0.00000e+00,0.00000e+00,0.00000e+00
2.00520e+03,1.55427e+01,-1.15330e+01,0.00000e+00,0.00000e+00,0.00000e+00
2.00520e+03,1.53282e+01,-1.28145e+01,0.00000e+00,0.00000e+00,0.00000e+00
2.00520e+03,1.50970e+01,-1.40959e+01,0.00000e+00,0.00000e+00,0.00000e+00
2.00520e+03,1.48486e+01,-1.53774e+01,0.00000e+00,0.00000e+00,0.00000e+00
2.00520e+03,1.45761e+01,-1.66588e+01,0.00000e+00,0.00000e+00,0.00000e+00
2.00520e+03,1.42800e+01,-1.79403e+01,0.00000e+00,0.00000e+00,0.00000e+00
2.00520e+03,1.39556e+01,-1.92217e+01,0.00000e+00,0.00000e+00,0.00000e+00
2.00520e+03,1.35931e+01,-2.05032e+01,0.00000e+00,0.00000e+00,0.00000e+00
2.00520e+03,1.32039e+01,-2.17846e+01,0.00000e+00,0.00000e+00,0.00000e+00
2.00520e+03,1.27550e+01,-2.30661e+01,0.00000e+00,0.00000e+00,0.00000e+00
2.00520e+03,1.22812e+01,-2.43475e+01,0.00000e+00,0.00000e+00,0.00000e+00
2.00520e+03,1.17384e+01,-2.56290e+01,0.00000e+00,0.00000e+00,0.00000e+00
2.00520e+03,1.11403e+01,-2.69104e+01,0.00000e+00,0.00000e+00,0.00000e+00
2.00520e+03,1.04858e+01,-2.81919e+01,0.00000e+00,0.00000e+00,0.00000e+00
2.00520e+03,9.73672e+00,-2.94733e+01,0.00000e+00,0.00000e+00,0.00000e+00
2.00520e+03,8.87814e+00,-3.07548e+01,0.00000e+00,0.00000e+00,0.00000e+00
2.00520e+03,7.89577e+00,-3.20362e+01,0.00000e+00,0.00000e+00,0.00000e+00
2.00520e+03,6.73385e+00,-3.33177e+01,0.00000e+00,0.00000e+00,0.00000e+00
2.00520e+03,5.24243e+00,-3.45991e+01,0.00000e+00,0.00000e+00,0.00000e+00
2.00520e+03,3.22533e+00,-3.58806e+01,0.00000e+00,0.00000e+00,0.00000e+00
2.00520e+03,-1.30688e+00,-3.71620e+01,0.00000e+00,0.00000e+00,0.00000e+00
2.00520e+03,-1.63397e+00,-3.71650e+01,0.00000e+00,0.00000e+00,0.00000e+00
2.00520e+03,-4.61400e+00,-3.58377e+01,0.00000e+00,0.00000e+00,0.00000e+00
2.00520e+03,-4.97481e+00,-3.45104e+01,0.00000e+00,0.00000e+00,0.00000e+00
2.00520e+03,-5.09932e+00,-3.31830e+01,0.00000e+00,0.00000e+00,0.00000e+00
2.00520e+03,-5.11821e+00,-3.18557e+01,0.00000e+00,0.00000e+00,0.00000e+00
2.00520e+03,-5.05754e+00,-3.05284e+01,0.00000e+00,0.00000e+00,0.00000e+00
2.00520e+03,-4.94693e+00,-2.92011e+01,0.00000e+00,0.00000e+00,0.00000e+00
2.00520e+03,-4.78618e+00,-2.78738e+01,0.00000e+00,0.00000e+00,0.00000e+00
2.00520e+03,-4.59485e+00,-2.65464e+01,0.00000e+00,0.00000e+00,0.00000e+00
2.00520e+03,-4.38577e+00,-2.52191e+01,0.00000e+00,0.00000e+00,0.00000e+00
2.00520e+03,-4.14998e+00,-2.38918e+01,0.00000e+00,0.00000e+00,0.00000e+00
2.00520e+03,-3.89748e+00,-2.25645e+01,0.00000e+00,0.00000e+00,0.00000e+00
2.00520e+03,-3.62871e+00,-2.12371e+01,0.00000e+00,0.00000e+00,0.00000e+00
2.00520e+03,-3.34375e+00,-1.99098e+01,0.00000e+00,0.00000e+00,0.00000e+00
2.00520e+03,-3.04862e+00,-1.85825e+01,0.00000e+00,0.00000e+00,0.00000e+00
2.00520e+03,-2.74048e+00,-1.72552e+01,0.00000e+00,0.00000e+00,0.00000e+00
2.00520e+03,-2.42401e+00,-1.59279e+01,0.00000e+00,0.00000e+00,0.00000e+00
2.00520e+03,-2.10007e+00,-1.46005e+01,0.00000e+00,0.00000e+00,0.00000e+00
2.00520e+03,-1.76946e+00,-1.32732e+01,0.00000e+00,0.00000e+00,0.00000e+00
2.00520e+03,-1.43602e+00,-1.19459e+01,0.00000e+00,0.00000e+00,0.00000e+00
2.00520e+03,-1.09820e+00,-1.06186e+01,0.00000e+00,0.00000e+00,0.00000e+00
2.00520e+03,-7.59661e-01,-9.29125e+00,0.00000e+00,0.00000e+00,0.00000e+00
2.00520e+03,-4.18505e-01,-7.96393e+00,0.00000e+00,0.00000e+00,0.00000e+00
2.00520e+03,-7.73829e-02,-6.63661e+00,0.00000e+00,0.00000e+00,0.00000e+00
2.00520e+03,2.62450e-01,-5.30929e+00,0.00000e+00,0.00000e+00,0.00000e+00
2.00520e+03,6.02282e-01,-3.98196e+00,0.00000e+00,0.00000e+00,0.00000e+00
2.00520e+03,9.34067e-01,-2.65464e+00,0.00000e+00,0.00000e+00,0.00000e+00
2.00520e+03,1.26435e+00,-1.32732e+00,0.00000e+00,0.00000e+00,0.00000e+00
2.02480e+03,1.59367e+01,0.00000e+00,0.00000e+00,0.00000e+00,0.00000e+00
2.02480e+03,1.58564e+01,-1.21102e+00,0.00000e+00,0.00000e+00,0.00000e+00
2.02480e+03,1.57496e+01,-2.42204e+00,0.00000e+00,0.00000e+00,0.00000e+00
2.02480e+03,1.56418e+01,-3.63306e+00,0.00000e+00,0.00000e+00,0.00000e+00
2.02480e+03,1.55106e+01,-4.84408e+00,0.00000e+00,0.00000e+00,0.00000e+00
2.02480e+03,1.53739e+01,-6.05509e+00,0.00000e+00,0.00000e+00,0.00000e+00
2.02480e+03,1.52192e+01,-7.26611e+00,0.00000e+00,0.00000e+00,0.00000e+00
2.02480e+03,1.50559e+01,-8.47713e+00,0.00000e+00,0.00000e+00,0.00000e+00
2.02480e+03,1.48781e+01,-9.68815e+00,0.00000e+00,0.00000e+00,0.00000e+00
2.02480e+03,1.46884e+01,-1.08992e+01,0.00000e+00,0.00000e+00,0.00000e+00
2.02480e+03,1.44857e+01,-1.21102e+01,0.00000e+00,0.00000e+00,0.00000e+00
2.02480e+03,1.42672e+01,-1.33212e+01,0.00000e+00,0.00000e+00,0.00000e+00
2.02480e+03,1.40325e+01,-1.45322e+01,0.00000e+00,0.00000e+00,0.00000e+00
2.02480e+03,1.37750e+01,-1.57432e+01,0.00000e+00,0.00000e+00,0.00000e+00
2.02480e+03,1.34951e+01,-1.69543e+01,0.00000e+00,0.00000e+00,0.00000e+00
2.02480e+03,1.31886e+01,-1.81653e+01,0.00000e+00,0.00000e+00,0.00000e+00
2.02480e+03,1.28460e+01,-1.93763e+01,0.00000e+00,0.00000e+00,0.00000e+00
2.02480e+03,1.24782e+01,-2.05873e+01,0.00000e+00,0.00000e+00,0.00000e+00
2.02480e+03,1.20540e+01,-2.17983e+01,0.00000e+00,0.00000e+00,0.00000e+00
2.02480e+03,1.16063e+01,-2.30094e+01,0.00000e+00,0.00000e+00,0.00000e+00
2.02480e+03,1.10933e+01,-2.42204e+01,0.00000e+00,0.00000e+00,0.00000e+00
2.02480e+03,1.05280e+01,-2.54314e+01,0.00000e+00,0.00000e+00,0.00000e+00
2.02480e+03,9.90946e+00,-2.66424e+01,0.00000e+00,0.00000e+00,0.00000e+00
2.02480e+03,9.20158e+00,-2.78534e+01,0.00000e+00,0.00000e+00,0.00000e+00
2.02480e+03,8.39019e+00,-2.90645e+01,0.00000e+00,0.00000e+00,0.00000e+00
2.02480e+03,7.46181e+00,-3.02755e+01,0.00000e+00,0.00000e+00,0.00000e+00
2.02480e+03,6.36374e+00,-3.14865e+01,0.00000e+00,0.00000e+00,0.00000e+00
2.02480e+03,4.95429e+00,-3.26975e+01,0.00000e+00,0.00000e+00,0.00000e+00
2.02480e+03,3.04806e+00,-3.39085e+01,0.00000e+00,0.00000e+00,0.00000e+00
2.02480e+03,-1.23505e+00,-3.51195e+01,0.00000e+00,0.00000e+00,0.00000e+00
2.02480e+03,-1.54416e+00,-3.51224e+01,0.00000e+00,0.00000e+00,0.00000e+00
2.02480e+03,-4.36041e+00,-3.38680e+01,0.00000e+00,0.00000e+00,0.00000e+00
2.02480e+03,-4.70139e+00,-3.26136e+01,0.00000e+00,0.00000e+00,0.00000e+00
2.02480e+03,-4.81905e+00,-3.13592e+01,0.00000e+00,0.00000e+00,0.00000e+00
2.02480e+03,-4.83691e+00,-3.01049e+01,0.00000e+00,0.00000e+00,0.00000e+00
2.02480e+03,-4.77957e+00,-2.88505e+01,0.00000e+00,0.00000e+00,0.00000e+00
2.02480e+03,-4.67504e+00,-2.75961e+01,0.00000e+00,0.00000e+00,0.00000e+00
2.02480e+03,-4.52312e+00,-2.63418e+01,0.00000e+00,0.00000e+00,0.00000e+00
2.02480e+03,-4.34231e+00,-2.50874e+01,0.00000e+00,0.00000e+00,0.00000e+00
2.02480e+03,-4.14473e+00,-2.38330e+01,0.00000e+00,0.00000e+00,0.00000e+00
2.02480e+03,-3.92189e+00,-2.25787e+01,0.00000e+00,0.00000e+00,0.00000e+00
2.02480e+03,-3.68327e+00,-2.13243e+01,0.00000e+00,0.00000e+00,0.00000e+00
2.02480e+03,-3.42927e+00,-2.00699e+01,0.00000e+00,0.00000e+00,0.00000e+00
2.02480e+03,-3.15997e+00,-1.88155e+01,0.00000e+00,0.00000e+00,0.00000e+00
2.02480e+03,-2.88106e+00,-1.75612e+01,0.00000e+00,0.00000e+00,0.00000e+00
2.02480e+03,-2.58986e+00,-1.63068e+01,0.00000e+00,0.00000e+00,0.00000e+00
2.02480e+03,-2.29078e+00,-1.50524e+01,0.00000e+00,0.00000e+00,0.00000e+00
2.02480e+03,-1.98465e+00,-1.37981e+01,0.00000e+00,0.00000e+00,0.00000e+00
2.02480e+03,-1.67220e+00,-1.25437e+01,0.00000e+00,0.00000e+00,0.00000e+00
2.02480e+03,-1.35709e+00,-1.12893e+01,0.00000e+00,0.00000e+00,0.00000e+00
2.02480e+03,-1.03784e+00,-1.00350e+01,0.00000e+00,0.00000e+00,0.00000e+00
2.02480e+03,-7.17909e-01,-8.78059e+00,0.00000e+00,0.00000e+00,0.00000e+00
2.02480e+03,-3.95503e-01,-7.52622e+00,0.00000e+00,0.00000e+00,0.00000e+00
2.02480e+03,-7.31298e-02,-6.27185e+00,0.00000e+00,0.00000e+00,0.00000e+00
2.02480e+03,2.48025e-01,-5.01748e+00,0.00000e+00,0.00000e+00,0.00000e+00
2.02480e+03,5.69180e-01,-3.76311e+00,0.00000e+00,0.00000e+00,0.00000e+00
2.02480e+03,8.82730e-01,-2.50874e+00,0.00000e+00,0.00000e+00,0.00000e+00
2.02480e+03,1.19486e+00,-1.25437e+00,0.00000e+00,0.00000e+00,0.00000e+00
2.03880e+03,1.52746e+01,0.00000e+00,0.00000e+00,0.00000e+00,0.00000e+00
2.03880e+03,1.51977e+01,-1.16071e+00,0.00000e+00,0.00000e+00,0.00000e+00
2.03880e+03,1.50954e+01,-2.32142e+00,0.00000e+00,0.00000e+00,0.00000e+00
2.03880e+03,1.49920e+01,-3.48213e+00,0.00000e+00,0.00000e+00,0.00000e+00
2.03880e+03,1.48662e+01,-4.64285e+00,0.00000e+00,0.00000e+00,0.00000e+00
2.03880e+03,1.47352e+01,-5.80356e+00,0.00000e+00,0.00000e+00,0.00000e+00
2.03880e+03,1.45870e+01,-6.96427e+00,0.00000e+00,0.00000e+00,0.00000e+00
2.03880e+03,1.44304e+01,-8.12498e+00,0.00000e+00,0.00000e+00,0.00000e+00
2.03880e+03,1.42600e+01,-9.28569e+00,0.00000e+00,0.00000e+00,0.00000e+00
2.03880e+03,1.40782e+01,-1.04464e+01,0.00000e+00,0.00000e+00,0.00000e+00
2.03880e+03,1.38839e+01,-1.16071e+01,0.00000e+00,0.00000e+00,0.00000e+00
2.03880e+03,1.36745e+01,-1.27678e+01,0.00000e+00,0.00000e+00,0.00000e+00
2.03880e+03,1.34496e+01,-1.39285e+01,0.00000e+00,0.00000e+00,0.00000e+00
2.03880e+03,1.32028e+01,-1.50892e+01,0.00000e+00,0.00000e+00,0.00000e+00
2.03880e+03,1.29345e+01,-1.62500e+01,0.00000e+00,0.00000e+00,0.00000e+00
2.03880e+03,1.26407e+01,-1.74107e+01,0.00000e+00,0.00000e+00,0.00000e+00
2.03880e+03,1.23123e+01,-1.85714e+01,0.00000e+00,0.00000e+00,0.00000e+00
2.03880e+03,1.19599e+01,-1.97321e+01,0.00000e+00,0.00000e+00,0.00000e+00
2.03880e+03,1.15532e+01,-2.08928e+01,0.00000e+00,0.00000e+00,0.00000e+00
2.03880e+03,1.11241e+01,-2.20535e+01,0.00000e+00,0.00000e+00,0.00000e+00
2.03880e+03,1.06324e+01,-2.32142e+01,0.00000e+00,0.00000e+00,0.00000e+00
2.03880e+03,1.00906e+01,-2.43749e+01,0.00000e+00,0.00000e+00,0.00000e+00
2.03880e+03,9.49781e+00,-2.55357e+01,0.00000e+00,0.00000e+00,0.00000e+00
2.03880e+03,8.81933e+00,-2.66964e+01,0.00000e+00,0.00000e+00,0.00000e+00
2.03880e+03,8.04165e+00,-2.78571e+01,0.00000e+00,0.00000e+00,0.00000e+00
2.03880e+03,7.15183e+00,-2.90178e+01,0.00000e+00,0.00000e+00,0.00000e+00
2.03880e+03,6.09938e+00,-3.01785e+01,0.00000e+00,0.00000e+00,0.00000e+00
2.03880e+03,4.74849e+00,-3.13392e+01,0.00000e+00,0.00000e+00,0.00000e+00
2.03880e+03,2.92144e+00,-3.24999e+01,0.00000e+00,0.00000e+00,0.00000e+00
2.03880e+03,-1.18374e+00,-3.36606e+01,0.00000e+00,0.00000e+00,0.00000e+00
2.03880e+03,-1.48002e+00,-3.36633e+01,0.00000e+00,0.00000e+00,0.00000e+00
2.03880e+03,-4.17927e+00,-3.24611e+01,0.00000e+00,0.00000e+00,0.00000e+00
2.03880e+03,-4.50609e+00,-3.12588e+01,0.00000e+00,0.00000e+00,0.00000e+00
2.03880e+03,-4.61886e+00,-3.00565e+01,0.00000e+00,0.00000e+00,0.00000e+00
2.03880e+03,-4.63598e+00,-2.88543e+01,0.00000e+00,0.00000e+00,0.00000e+00
2.03880e+03,-4.58102e+00,-2.76520e+01,0.00000e+00,0.00000e+00,0.00000e+00
2.03880e+03,-4.48083e+00,-2.64498e+01,0.00000e+00,0.00000e+00,0.00000e+00
2.03880e+03,-4.33523e+00,-2.52475e+01,0.00000e+00,0.00000e+00,0.00000e+00
2.03880e+03,-4.16192e+00,-2.40452e+01,0.00000e+00,0.00000e+00,0.00000e+00
2.03880e+03,-3.97255e+00,-2.28430e+01,0.00000e+00,0.00000e+00,0.00000e+00
2.03880e+03,-3.75897e+00,-2.16407e+01,0.00000e+00,0.00000e+00,0.00000e+00
2.03880e+03,-3.53026e+00,-2.04384e+01,0.00000e+00,0.00000e+00,0.00000e+00
2.03880e+03,-3.28682e+00,-1.92362e+01,0.00000e+00,0.00000e+00,0.00000e+00
2.03880e+03,-3.02870e+00,-1.80339e+01,0.00000e+00,0.00000e+00,0.00000e+00
2.03880e+03,-2.76138e+00,-1.68317e+01,0.00000e+00,0.00000e+00,0.00000e+00
2.03880e+03,-2.48228e+00,-1.56294e+01,0.00000e+00,0.00000e+00,0.00000e+00
2.03880e+03,-2.19562e+00,-1.44271e+01,0.00000e+00,0.00000e+00,0.00000e+00
2.03880e+03,-1.90220e+00,-1.32249e+01,0.00000e+00,0.00000e+00,0.00000e+00
2.03880e+03,-1.60274e+00,-1.20226e+01,0.00000e+00,0.00000e+00,0.00000e+00
2.03880e+03,-1.30072e+00,-1.08204e+01,0.00000e+00,0.00000e+00,0.00000e+00
2.03880e+03,-9.94731e-01,-9.61809e+00,0.00000e+00,0.00000e+00,0.00000e+00
2.03880e+03,-6.88086e-01,-8.41583e+00,0.00000e+00,0.00000e+00,0.00000e+00
2.03880e+03,-3.79073e-01,-7.21357e+00,0.00000e+00,0.00000e+00,0.00000e+00
2.03880e+03,-7.00919e-02,-6.01131e+00,0.00000e+00,0.00000e+00,0.00000e+00
2.03880e+03,2.37722e-01,-4.80905e+00,0.00000e+00,0.00000e+00,0.00000e+00
2.03880e+03,5.45535e-01,-3.60678e+00,0.00000e+00,0.00000e+00,0.00000e+00
2.03880e+03,8.46060e-01,-2.40452e+00,0.00000e+00,0.00000e+00,0.00000e+00
2.03880e+03,1.14523e+00,-1.20226e+00,0.00000e+00,0.00000e+00,0.00000e+00
2.04720e+03,1.48774e+01,0.00000e+00,0.00000e+00,0.00000e+00,0.00000e+00
2.04720e+03,1.48025e+01,-1.13053e+00,0.00000e+00,0.00000e+00,0.00000e+00
2.04720e+03,1.47028e+01,-2.26105e+00,0.00000e+00,0.00000e+00,0.00000e+00
2.04720e+03,1.46021e+01,-3.39158e+00,0.00000e+00,0.00000e+00,0.00000e+00
2.04720e+03,1.44796e+01,-4.52211e+00,0.00000e+00,0.00000e+00,0.00000e+00
2.04720e+03,1.43520e+01,-5.65264e+00,0.00000e+00,0.00000e+00,0.00000e+00
2.04720e+03,1.42077e+01,-6.78316e+00,0.00000e+00,0.00000e+00,0.00000e+00
2.04720e+03,1.40552e+01,-7.91369e+00,0.00000e+00,0.00000e+00,0.00000e+00
2.04720e+03,1.38892e+01,-9.04422e+00,0.00000e+00,0.00000e+00,0.00000e+00
2.04720e+03,1.37121e+01,-1.01747e+01,0.00000e+00,0.00000e+00,0.00000e+00
2.04720e+03,1.35229e+01,-1.13053e+01,0.00000e+00,0.00000e+00,0.00000e+00
2.04720e+03,1.33189e+01,-1.24358e+01,0.00000e+00,0.00000e+00,0.00000e+00
2.04720e+03,1.30998e+01,-1.35663e+01,0.00000e+00,0.00000e+00,0.00000e+00
2.04720e+03,1.28594e+01,-1.46969e+01,0.00000e+00,0.00000e+00,0.00000e+00
2.04720e+03,1.25982e+01,-1.58274e+01,0.00000e+00,0.00000e+00,0.00000e+00
2.04720e+03,1.23120e+01,-1.69579e+01,0.00000e+00,0.00000e+00,0.00000e+00
2.04720e+03,1.19922e+01,-1.80884e+01,0.00000e+00,0.00000e+00,0.00000e+00
2.04720e+03,1.16489e+01,-1.92190e+01,0.00000e+00,0.00000e+00,0.00000e+00
2.04720e+03,1.12528e+01,-2.03495e+01,0.00000e+00,0.00000e+00,0.00000e+00
2.04720e+03,1.08348e+01,-2.14800e+01,0.00000e+00,0.00000e+00,0.00000e+00
2.04720e+03,1.03559e+01,-2.26105e+01,0.00000e+00,0.00000e+00,0.00000e+00
2.04720e+03,9.82823e+00,-2.37411e+01,0.00000e+00,0.00000e+00,0.00000e+00
2.04720e+03,9.25081e+00,-2.48716e+01,0.00000e+00,0.00000e+00,0.00000e+00
2.04720e+03,8.58998e+00,-2.60021e+01,0.00000e+00,0.00000e+00,0.00000e+00
2.04720e+03,7.83252e+00,-2.71326e+01,0.00000e+00,0.00000e+00,0.00000e+00
2.04720e+03,6.96585e+00,-2.82632e+01,0.00000e+00,0.00000e+00,0.00000e+00
2.04720e+03,5.94077e+00,-2.93937e+01,0.00000e+00,0.00000e+00,0.00000e+00
2.04720e+03,4.62500e+00,-3.05242e+01,0.00000e+00,0.00000e+00,0.00000e+00
2.04720e+03,2.84547e+00,-3.16548e+01,0.00000e+00,0.00000e+00,0.00000e+00
2.04720e+03,-1.15296e+00,-3.27853e+01,0.00000e+00,0.00000e+00,0.00000e+00
2.04720e+03,-1.44153e+00,-3.27879e+01,0.00000e+00,0.00000e+00,0.00000e+00
2.04720e+03,-4.07059e+00,-3.16169e+01,0.00000e+00,0.00000e+00,0.00000e+00
2.04720e+03,-4.38891e+00,-3.04459e+01,0.00000e+00,0.00000e+00,0.00000e+00
2.04720e+03,-4.49875e+00,-2.92749e+01,0.00000e+00,0.00000e+00,0.00000e+00
2.04720e+03,-4.51542e+00,-2.81039e+01,0.00000e+00,0.00000e+00,0.00000e+00
2.04720e+03,-4.46189e+00,-2.69329e+01,0.00000e+00,0.00000e+00,0.00000e+00
2.04720e+03,-4.36430e+00,-2.57619e+01,0.00000e+00,0.00000e+00,0.00000e+00
2.04720e+03,-4.22249e+00,-2.45909e+01,0.00000e+00,0.00000e+00,0.00000e+00
2.04720e+03,-4.05369e+00,-2.34199e+01,0.00000e+00,0.00000e+00,0.00000e+00
2.04720e+03,-3.86924e+00,-2.22489e+01,0.00000e+00,0.00000e+00,0.00000e+00
2.04720e+03,-3.66121e+00,-2.10779e+01,0.00000e+00,0.00000e+00,0.00000e+00
2.04720e+03,-3.43845e+00,-1.99069e+01,0.00000e+00,0.00000e+00,0.00000e+00
2.04720e+03,-3.20134e+00,-1.87359e+01,0.00000e+00,0.00000e+00,0.00000e+00
2.04720e+03,-2.94994e+00,-1.75649e+01,0.00000e+00,0.00000e+00,0.00000e+00
2.04720e+03,-2.68957e+00,-1.63940e+01,0.00000e+00,0.00000e+00,0.00000e+00
2.04720e+03,-2.41772e+00,-1.52230e+01,0.00000e+00,0.00000e+00,0.00000e+00
2.04720e+03,-2.13852e+00,-1.40520e+01,0.00000e+00,0.00000e+00,0.00000e+00
2.04720e+03,-1.85273e+00,-1.28810e+01,0.00000e+00,0.00000e+00,0.00000e+00
2.04720e+03,-1.56106e+00,-1.17100e+01,0.00000e+00,0.00000e+00,0.00000e+00
2.04720e+03,-1.26689e+00,-1.05390e+01,0.00000e+00,0.00000e+00,0.00000e+00
2.04720e+03,-9.68863e-01,-9.36797e+00,0.00000e+00,0.00000e+00,0.00000e+00
2.04720e+03,-6.70192e-01,-8.19698e+00,0.00000e+00,0.00000e+00,0.00000e+00
2.04720e+03,-3.69215e-01,-7.02598e+00,0.00000e+00,0.00000e+00,0.00000e+00
2.04720e+03,-6.82691e-02,-5.85498e+00,0.00000e+00,0.00000e+00,0.00000e+00
2.04720e+03,2.31540e-01,-4.68399e+00,0.00000e+00,0.00000e+00,0.00000e+00
2.04720e+03,5.31348e-01,-3.51299e+00,0.00000e+00,0.00000e+00,0.00000e+00
2.04720e+03,8.24058e-01,-2.34199e+00,0.00000e+00,0.00000e+00,0.00000e+00
2.04720e+03,1.11544e+00,-1.17100e+00,0.00000e+00,0.00000e+00,0.00000e+00
2.05000e+03,1.47450e+01,0.00000e+00,0.00000e+00,0.00000e+00,0.00000e+00
2.05000e+03,1.46708e+01,-1.12047e+00,0.00000e+00,0.00000e+00,0.00000e+00
2.05000e+03,1.45720e+01,-2.24093e+00,0.00000e+00,0.00000e+00,0.00000e+00
2.05000e+03,1.44722e+01,-3.36140e+00,0.00000e+00,0.00000e+00,0.00000e+00
2.05000e+03,1.43508e+01,-4.48186e+00,0.00000e+00,0.00000e+00,0.00000e+00
2.05000e+03,1.42243e+01,-5.60233e+00,0.00000e+00,0.00000e+00,0.00000e+00
2.05000e+03,1.40812e+01,-6.72279e+00,0.00000e+00,0.00000e+00,0.00000e+00
2.05000e+03,1.39301e+01,-7.84326e+00,0.00000e+00,0.00000e+00,0.00000e+00
2.05000e+03,1.37656e+01,-8.96372e+00,0.00000e+00,0.00000e+00,0.00000e+00
2.05000e+03,1.35901e+01,-1.00842e+01,0.00000e+00,0.00000e+00,0.00000e+00
2.05000e+03,1.34025e+01,-1.12047e+01,0.00000e+00,0.00000e+00,0.00000e+00
2.05000e+03,1.32004e+01,-1.23251e+01,0.00000e+00,0.00000e+00,0.00000e+00
2.05000e+03,1.29833e+01,-1.34456e+01,0.00000e+00,0.00000e+00,0.00000e+00
2.05000e+03,1.27450e+01,-1.45661e+01,0.00000e+00,0.00000e+00,0.00000e+00
2.05000e+03,1.24860e+01,-1.56865e+01,0.00000e+00,0.00000e+00,0.00000e+00
2.05000e+03,1.22024e+01,-1.68070e+01,0.00000e+00,0.00000e+00,0.00000e+00
2.05000e+03,1.18854e+01,-1.79274e+01,0.00000e+00,0.00000e+00,0.00000e+00
2.05000e+03,1.15452e+01,-1.90479e+01,0.00000e+00,0.00000e+00,0.00000e+00
2.05000e+03,1.11526e+01,-2.01684e+01,0.00000e+00,0.00000e+00,0.00000e+00
2.05000e+03,1.07384e+01,-2.12888e+01,0.00000e+00,0.00000e+00,0.00000e+00
2.05000e+03,1.02638e+01,-2.24093e+01,0.00000e+00,0.00000e+00,0.00000e+00
2.05000e+03,9.74076e+00,-2.35298e+01,0.00000e+00,0.00000e+00,0.00000e+00
2.05000e+03,9.16848e+00,-2.46502e+01,0.00000e+00,0.00000e+00,0.00000e+00
2.05000e+03,8.51353e+00,-2.57707e+01,0.00000e+00,0.00000e+00,0.00000e+00
2.05000e+03,7.76281e+00,-2.68912e+01,0.00000e+00,0.00000e+00,0.00000e+00
2.05000e+03,6.90385e+00,-2.80116e+01,0.00000e+00,0.00000e+00,0.00000e+00
2.05000e+03,5.88790e+00,-2.91321e+01,0.00000e+00,0.00000e+00,0.00000e+00
2.05000e+03,4.58384e+00,-3.02526e+01,0.00000e+00,0.00000e+00,0.00000e+00
2.05000e+03,2.82014e+00,-3.13730e+01,0.00000e+00,0.00000e+00,0.00000e+00
2.05000e+03,-1.14270e+00,-3.24935e+01,0.00000e+00,0.00000e+00,0.00000e+00
2.05000e+03,-1.42870e+00,-3.24961e+01,0.00000e+00,0.00000e+00,0.00000e+00
2.05000e+03,-4.03436e+00,-3.13355e+01,0.00000e+00,0.00000e+00,0.00000e+00
2.05000e+03,-4.34985e+00,-3.01749e+01,0.00000e+00,0.00000e+00,0.00000e+00
2.05000e+03,-4.45871e+00,-2.90144e+01,0.00000e+00,0.00000e+00,0.00000e+00
2.05000e+03,-4.47523e+00,-2.78538e+01,0.00000e+00,0.00000e+00,0.00000e+00
2.05000e+03,-4.42218e+00,-2.66932e+01,0.00000e+00,0.00000e+00,0.00000e+00
2.05000e+03,-4.32546e+00,-2.55327e+01,0.00000e+00,0.00000e+00,0.00000e+00
2.05000e+03,-4.18491e+00,-2.43721e+01,0.00000e+00,0.00000e+00,0.00000e+00
2.05000e+03,-4.01761e+00,-2.32115e+01,0.00000e+00,0.00000e+00,0.00000e+00
2.05000e+03,-3.83480e+00,-2.20509e+01,0.00000e+00,0.00000e+00,0.00000e+00
2.05000e+03,-3.62863e+00,-2.08903e+01,0.00000e+00,0.00000e+00,0.00000e+00
2.05000e+03,-3.40785e+00,-1.97298e+01,0.00000e+00,0.00000e+00,0.00000e+00
2.05000e+03,-3.17285e+00,-1.85692e+01,0.00000e+00,0.00000e+00,0.00000e+00
2.05000e+03,-2.92368e+00,-1.74086e+01,0.00000e+00,0.00000e+00,0.00000e+00
2.05000e+03,-2.66563e+00,-1.62480e+01,0.00000e+00,0.00000e+00,0.00000e+00
2.05000e+03,-2.39621e+00,-1.50875e+01,0.00000e+00,0.00000e+00,0.00000e+00
2.05000e+03,-2.11949e+00,-1.39269e+01,0.00000e+00,0.00000e+00,0.00000e+00
2.05000e+03,-1.83624e+00,-1.27663e+01,0.00000e+00,0.00000e+00,0.00000e+00
2.05000e+03,-1.54717e+00,-1.16057e+01,0.00000e+00,0.00000e+00,0.00000e+00
2.05000e+03,-1.25562e+00,-1.04452e+01,0.00000e+00,0.00000e+00,0.00000e+00
2.05000e+03,-9.60241e-01,-9.28460e+00,0.00000e+00,0.00000e+00,0.00000e+00
2.05000e+03,-6.64227e-01,-8.12402e+00,0.00000e+00,0.00000e+00,0.00000e+00
2.05000e+03,-3.65929e-01,-6.96345e+00,0.00000e+00,0.00000e+00,0.00000e+00
2.05000e+03,-6.76615e-02,-5.80287e+00,0.00000e+00,0.00000e+00,0.00000e+00
2.05000e+03,2.29479e-01,-4.64230e+00,0.00000e+00,0.00000e+00,0.00000e+00
2.05000e+03,5.26620e-01,-3.48173e+00,0.00000e+00,0.00000e+00,0.00000e+00
2.05000e+03,8.16724e-01,-2.32115e+00,0.00000e+00,0.00000e+00,0.00000e+00
2.05000e+03,1.10552e+00,-1.16058e+00,0.00000e+00,0.00000e+00,0.00000e+00
--------------------------------------------------------------------------------------------------------------------------------------------------------------------------------------------------------------------------------------------------------------------------------------------------------------------------------------------------------------------------------

ALMA 
--------------------------------------------------------------------------------------------------------------------------------------------------------------------------------------------------------------------------------------------------------------------------------------------------------------------------------------------------------------------------------
X,Y,Z,Sigma,Tau,Von Mises
0.00000e+00,4.05613e+00,0.00000e+00,2.56069e-01,1.03958e+00,1.81873e+00
0.00000e+00,1.70710e+01,0.00000e+00,9.66789e-02,1.04068e+00,1.80510e+00
0.00000e+00,3.00859e+01,0.00000e+00,-6.27107e-02,1.04068e+00,1.80360e+00
0.00000e+00,4.31008e+01,0.00000e+00,-2.22100e-01,1.03961e+00,1.81430e+00
1.07300e+02,4.01639e+00,0.00000e+00,2.29453e-01,9.83947e-01,1.71962e+00
1.07300e+02,1.69038e+01,0.00000e+00,8.66492e-02,9.84978e-01,1.70823e+00
1.07300e+02,2.97912e+01,0.00000e+00,-5.61547e-02,9.84978e-01,1.70696e+00
1.07300e+02,4.26785e+01,0.00000e+00,-1.98959e-01,9.83969e-01,1.71586e+00
2.14300e+02,3.97676e+00,0.00000e+00,2.04207e-01,9.27945e-01,1.62017e+00
2.14300e+02,1.67370e+01,0.00000e+00,7.71363e-02,9.28910e-01,1.61077e+00
2.14300e+02,2.94972e+01,0.00000e+00,-4.99348e-02,9.28910e-01,1.60969e+00
2.14300e+02,4.22575e+01,0.00000e+00,-1.77006e-01,9.27965e-01,1.61700e+00
3.20700e+02,3.93736e+00,0.00000e+00,1.80424e-01,8.70871e-01,1.51914e+00
3.20700e+02,1.65712e+01,0.00000e+00,6.81745e-02,8.71768e-01,1.51148e+00
3.20700e+02,2.92050e+01,0.00000e+00,-4.40753e-02,8.71768e-01,1.51059e+00
3.20700e+02,4.18388e+01,0.00000e+00,-1.56325e-01,8.70889e-01,1.51650e+00
4.26200e+02,3.89829e+00,0.00000e+00,1.58188e-01,8.13628e-01,1.41810e+00
4.26200e+02,1.64067e+01,0.00000e+00,5.97946e-02,8.14459e-01,1.41195e+00
4.26200e+02,2.89151e+01,0.00000e+00,-3.85989e-02,8.14459e-01,1.41121e+00
4.26200e+02,4.14236e+01,0.00000e+00,-1.36992e-01,8.13645e-01,1.41592e+00
5.30600e+02,3.85963e+00,0.00000e+00,1.37532e-01,7.56415e-01,1.31735e+00
5.30600e+02,1.62440e+01,0.00000e+00,5.20086e-02,7.57182e-01,1.31251e+00
5.30600e+02,2.86284e+01,0.00000e+00,-3.35147e-02,7.57182e-01,1.31191e+00
5.30600e+02,4.10127e+01,0.00000e+00,-1.19038e-01,7.56430e-01,1.31557e+00
6.33500e+02,3.82152e+00,0.00000e+00,1.18512e-01,6.99494e-01,1.21734e+00
6.33500e+02,1.60836e+01,0.00000e+00,4.48374e-02,7.00198e-01,1.21361e+00
6.33500e+02,2.83457e+01,0.00000e+00,-2.88372e-02,7.00198e-01,1.21312e+00
6.33500e+02,4.06078e+01,0.00000e+00,-1.02512e-01,6.99508e-01,1.21591e+00
7.34700e+02,3.78404e+00,0.00000e+00,1.01129e-01,6.43031e-01,1.11834e+00
7.34700e+02,1.59259e+01,0.00000e+00,3.82810e-02,6.43673e-01,1.11553e+00
7.34700e+02,2.80677e+01,0.00000e+00,-2.45668e-02,6.43673e-01,1.11515e+00
7.34700e+02,4.02095e+01,0.00000e+00,-8.74146e-02,6.43044e-01,1.11721e+00
8.33800e+02,3.74734e+00,0.00000e+00,8.53998e-02,5.87356e-01,1.02091e+00
8.33800e+02,1.57714e+01,0.00000e+00,3.23460e-02,5.87939e-01,1.01885e+00
8.33800e+02,2.77955e+01,0.00000e+00,-2.07079e-02,5.87939e-01,1.01855e+00
8.33800e+02,3.98196e+01,0.00000e+00,-7.37617e-02,5.87368e-01,1.02002e+00
9.30700e+02,3.71145e+00,0.00000e+00,7.12786e-02,5.32519e-01,9.25100e-01
9.30700e+02,1.56204e+01,0.00000e+00,2.70150e-02,5.33044e-01,9.23655e-01
9.30700e+02,2.75293e+01,0.00000e+00,-1.72487e-02,5.33044e-01,9.23421e-01
9.30700e+02,3.94382e+01,0.00000e+00,-6.15124e-02,5.32529e-01,9.24417e-01
1.02500e+03,3.67653e+00,0.00000e+00,5.87434e-02,4.79230e-01,8.32126e-01
1.02500e+03,1.54734e+01,0.00000e+00,2.22801e-02,4.79700e-01,8.31163e-01
1.02500e+03,2.72703e+01,0.00000e+00,-1.41831e-02,4.79700e-01,8.30985e-01
1.02500e+03,3.90671e+01,0.00000e+00,-5.06464e-02,4.79239e-01,8.31609e-01
1.11650e+03,3.64264e+00,0.00000e+00,4.77355e-02,4.26844e-01,7.40854e-01
1.11650e+03,1.53308e+01,0.00000e+00,1.81198e-02,4.27261e-01,7.40259e-01
1.11650e+03,2.70189e+01,0.00000e+00,-1.14959e-02,4.27261e-01,7.40127e-01
1.11650e+03,3.87070e+01,0.00000e+00,-4.11116e-02,4.26851e-01,7.40471e-01
1.20500e+03,3.54704e+00,0.00000e+00,5.48249e-02,3.81066e-01,6.62298e-01
1.20500e+03,1.49284e+01,0.00000e+00,2.09758e-02,3.81584e-01,6.61255e-01
1.20500e+03,2.63098e+01,0.00000e+00,-1.28732e-02,3.81584e-01,6.61047e-01
1.20500e+03,3.76912e+01,0.00000e+00,-4.67223e-02,3.81080e-01,6.61701e-01
1.29010e+03,3.41832e+00,0.00000e+00,4.45867e-02,3.45869e-01,6.00720e-01
1.29010e+03,1.43867e+01,0.00000e+00,1.70661e-02,3.46323e-01,6.00092e-01
1.29010e+03,2.53550e+01,0.00000e+00,-1.04545e-02,3.46323e-01,5.99941e-01
1.29010e+03,3.63234e+01,0.00000e+00,-3.79751e-02,3.45881e-01,6.00286e-01
1.37170e+03,3.29489e+00,0.00000e+00,3.55432e-02,3.10033e-01,5.38168e-01
1.37170e+03,1.38672e+01,0.00000e+00,1.36125e-02,3.10426e-01,5.37846e-01
1.37170e+03,2.44395e+01,0.00000e+00,-8.31819e-03,3.10426e-01,5.37738e-01
1.37170e+03,3.50118e+01,0.00000e+00,-3.02489e-02,3.10043e-01,5.37861e-01
1.44960e+03,3.17706e+00,0.00000e+00,2.76890e-02,2.74196e-01,4.75728e-01
1.44960e+03,1.33713e+01,0.00000e+00,1.06126e-02,2.74532e-01,4.75622e-01
1.44960e+03,2.35655e+01,0.00000e+00,-6.46386e-03,2.74532e-01,4.75548e-01
1.44960e+03,3.37597e+01,0.00000e+00,-2.35403e-02,2.74204e-01,4.75518e-01
1.52340e+03,3.06543e+00,0.00000e+00,2.10220e-02,2.38420e-01,4.13491e-01
1.52340e+03,1.29015e+01,0.00000e+00,8.06505e-03,2.38703e-01,4.13524e-01
1.52340e+03,2.27375e+01,0.00000e+00,-4.89186e-03,2.38703e-01,4.13475e-01
1.52340e+03,3.25736e+01,0.00000e+00,-1.78488e-02,2.38427e-01,4.13353e-01
1.59310e+03,2.96000e+00,0.00000e+00,1.54868e-02,2.03325e-01,3.52509e-01
1.59310e+03,1.24578e+01,0.00000e+00,5.94847e-03,2.03558e-01,3.52623e-01
1.59310e+03,2.19555e+01,0.00000e+00,-3.58988e-03,2.03558e-01,3.52591e-01
1.59310e+03,3.14533e+01,0.00000e+00,-1.31282e-02,2.03330e-01,3.52422e-01
1.65850e+03,2.86108e+00,0.00000e+00,1.10195e-02,1.69349e-01,2.93527e-01
1.65850e+03,1.20414e+01,0.00000e+00,4.23828e-03,1.69537e-01,2.93677e-01
1.65850e+03,2.12218e+01,0.00000e+00,-2.54293e-03,1.69537e-01,2.93657e-01
1.65850e+03,3.04021e+01,0.00000e+00,-9.32414e-03,1.69353e-01,2.93476e-01
1.71930e+03,2.76911e+00,0.00000e+00,7.54298e-03,1.36423e-01,2.36412e-01
1.71930e+03,1.16544e+01,0.00000e+00,2.90571e-03,1.36570e-01,2.36565e-01
1.71930e+03,2.05396e+01,0.00000e+00,-1.73156e-03,1.36570e-01,2.36553e-01
1.71930e+03,2.94249e+01,0.00000e+00,-6.36883e-03,1.36426e-01,2.36383e-01
1.77540e+03,2.60964e+00,0.00000e+00,8.96471e-03,1.79666e-01,3.11320e-01
1.77540e+03,1.09832e+01,0.00000e+00,3.51777e-03,1.79863e-01,3.11551e-01
1.77540e+03,1.93567e+01,0.00000e+00,-1.92917e-03,1.79863e-01,3.11538e-01
1.77540e+03,2.77303e+01,0.00000e+00,-7.37611e-03,1.79674e-01,3.11291e-01
1.82660e+03,2.38179e+00,0.00000e+00,6.06295e-03,1.47328e-01,2.55252e-01
1.82660e+03,1.00242e+01,0.00000e+00,2.38294e-03,1.47476e-01,2.55446e-01
1.82660e+03,1.76667e+01,0.00000e+00,-1.29706e-03,1.47476e-01,2.55439e-01
1.82660e+03,2.53092e+01,0.00000e+00,-4.97707e-03,1.47333e-01,2.55237e-01
1.87280e+03,2.17619e+00,0.00000e+00,3.86818e-03,1.17148e-01,2.02944e-01
1.87280e+03,9.15894e+00,0.00000e+00,1.52611e-03,1.17255e-01,2.03097e-01
1.87280e+03,1.61417e+01,0.00000e+00,-8.15959e-04,1.17255e-01,2.03093e-01
1.87280e+03,2.31244e+01,0.00000e+00,-3.15803e-03,1.17152e-01,2.02937e-01
1.91380e+03,1.99374e+00,0.00000e+00,2.29398e-03,8.95636e-02,1.55146e-01
1.91380e+03,8.39104e+00,0.00000e+00,9.10786e-04,8.96376e-02,1.55259e-01
1.91380e+03,1.47883e+01,0.00000e+00,-4.72405e-04,8.96376e-02,1.55258e-01
1.91380e+03,2.11856e+01,0.00000e+00,-1.85560e-03,8.95659e-02,1.55144e-01
1.94970e+03,1.83398e+00,0.00000e+00,1.23093e-03,6.49454e-02,1.12495e-01
1.94970e+03,7.71865e+00,0.00000e+00,4.93420e-04,6.49938e-02,1.12574e-01
1.94970e+03,1.36033e+01,0.00000e+00,-2.44090e-04,6.49938e-02,1.12573e-01
1.94970e+03,1.94880e+01,0.00000e+00,-9.81599e-04,6.49467e-02,1.12495e-01
1.98010e+03,1.69869e+00,0.00000e+00,5.79907e-04,4.37981e-02,7.58628e-02
1.98010e+03,7.14927e+00,0.00000e+00,2.35716e-04,4.38276e-02,7.59120e-02
1.98010e+03,1.25999e+01,0.00000e+00,-1.08475e-04,4.38276e-02,7.59117e-02
1.98010e+03,1.80504e+01,0.00000e+00,-4.52667e-04,4.37989e-02,7.58632e-02
2.00520e+03,1.58699e+00,0.00000e+00,2.24851e-04,2.64717e-02,4.58509e-02
2.00520e+03,6.67917e+00,0.00000e+00,9.32994e-05,2.64877e-02,4.58782e-02
2.00520e+03,1.17713e+01,0.00000e+00,-3.82522e-05,2.64877e-02,4.58781e-02
2.00520e+03,1.68635e+01,0.00000e+00,-1.69804e-04,2.64721e-02,4.58513e-02
2.02480e+03,1.49977e+00,0.00000e+00,6.49616e-05,1.34730e-02,2.33360e-02
2.02480e+03,6.31207e+00,0.00000e+00,2.78229e-05,1.34803e-02,2.33486e-02
2.02480e+03,1.11244e+01,0.00000e+00,-9.31577e-06,1.34803e-02,2.33486e-02
2.02480e+03,1.59367e+01,0.00000e+00,-4.64545e-05,1.34732e-02,2.33363e-02
2.03880e+03,1.43746e+00,0.00000e+00,1.17406e-05,5.08763e-03,8.81203e-03
2.03880e+03,6.04986e+00,0.00000e+00,5.30547e-06,5.09000e-03,8.81615e-03
2.03880e+03,1.06622e+01,0.00000e+00,-1.12964e-06,5.09000e-03,8.81614e-03
2.03880e+03,1.52746e+01,0.00000e+00,-7.56474e-06,5.08768e-03,8.81212e-03
2.04720e+03,1.40008e+00,0.00000e+00,1.53291e-06,9.41526e-04,1.63077e-03
2.04720e+03,5.89253e+00,0.00000e+00,7.50133e-07,9.41859e-04,1.63135e-03
2.04720e+03,1.03850e+01,0.00000e+00,-3.26472e-08,9.41859e-04,1.63135e-03
2.04720e+03,1.48774e+01,0.00000e+00,-8.15428e-07,9.41533e-04,1.63078e-03
2.05000e+03,1.38762e+00,0.00000e+00,0.00000e+00,0.00000e+00,0.00000e+00
2.05000e+03,5.84009e+00,0.00000e+00,0.00000e+00,0.00000e+00,0.00000e+00
2.05000e+03,1.02925e+01,0.00000e+00,0.00000e+00,0.00000e+00,0.00000e+00
2.05000e+03,1.47450e+01,0.00000e+00,0.00000e+00,0.00000e+00,0.00000e+00
MESA INFERIOR 
--------------------------------------------------------------------------------------------------------------------------------------------------------------------------------------------------------------------------------------------------------------------------------------------------------------------------------------------------------------------------------
X,Y,Z,Sigma,Von Mises
0.00000e+00,4.05613e+00,0.00000e+00,0.00000e+00,0.00000e+00
1.07300e+02,4.01639e+00,0.00000e+00,0.00000e+00,0.00000e+00
2.14300e+02,3.97676e+00,0.00000e+00,0.00000e+00,0.00000e+00
3.20700e+02,3.93736e+00,0.00000e+00,0.00000e+00,0.00000e+00
4.26200e+02,3.89829e+00,0.00000e+00,0.00000e+00,0.00000e+00
5.30600e+02,3.85963e+00,0.00000e+00,0.00000e+00,0.00000e+00
6.33500e+02,3.82152e+00,0.00000e+00,0.00000e+00,0.00000e+00
7.34700e+02,3.78404e+00,0.00000e+00,0.00000e+00,0.00000e+00
8.33800e+02,3.74734e+00,0.00000e+00,0.00000e+00,0.00000e+00
9.30700e+02,3.71145e+00,0.00000e+00,0.00000e+00,0.00000e+00
1.02500e+03,3.67653e+00,0.00000e+00,0.00000e+00,0.00000e+00
1.11650e+03,3.64264e+00,0.00000e+00,0.00000e+00,0.00000e+00
1.20500e+03,3.54704e+00,0.00000e+00,0.00000e+00,0.00000e+00
1.29010e+03,3.41832e+00,0.00000e+00,0.00000e+00,0.00000e+00
1.37170e+03,3.29489e+00,0.00000e+00,0.00000e+00,0.00000e+00
1.44960e+03,3.17706e+00,0.00000e+00,0.00000e+00,0.00000e+00
1.52340e+03,3.06543e+00,0.00000e+00,0.00000e+00,0.00000e+00
1.59310e+03,2.96000e+00,0.00000e+00,0.00000e+00,0.00000e+00
1.65850e+03,2.86108e+00,0.00000e+00,0.00000e+00,0.00000e+00
1.71930e+03,2.76911e+00,0.00000e+00,0.00000e+00,0.00000e+00
1.77540e+03,2.60964e+00,0.00000e+00,0.00000e+00,0.00000e+00
1.82660e+03,2.38179e+00,0.00000e+00,0.00000e+00,0.00000e+00
1.87280e+03,2.17619e+00,0.00000e+00,0.00000e+00,0.00000e+00
1.91380e+03,1.99374e+00,0.00000e+00,0.00000e+00,0.00000e+00
1.94970e+03,1.83398e+00,0.00000e+00,0.00000e+00,0.00000e+00
1.98010e+03,1.69869e+00,0.00000e+00,0.00000e+00,0.00000e+00
2.00520e+03,1.58699e+00,0.00000e+00,0.00000e+00,0.00000e+00
2.02480e+03,1.49977e+00,0.00000e+00,0.00000e+00,0.00000e+00
2.03880e+03,1.43746e+00,0.00000e+00,0.00000e+00,0.00000e+00
2.04720e+03,1.40008e+00,0.00000e+00,0.00000e+00,0.00000e+00
2.05000e+03,1.38762e+00,0.00000e+00,0.00000e+00,0.00000e+00
--------------------------------------------------------------------------------------------------------------------------------------------------------------------------------------------------------------------------------------------------------------------------------------------------------------------------------------------------------------------------------

MESA SUPERIOR 
--------------------------------------------------------------------------------------------------------------------------------------------------------------------------------------------------------------------------------------------------------------------------------------------------------------------------------------------------------------------------------
X,Y,Z,Sigma,Von Mises
0.00000e+00,4.31008e+01,0.00000e+00,0.00000e+00,0.00000e+00
1.07300e+02,4.26785e+01,0.00000e+00,0.00000e+00,0.00000e+00
2.14300e+02,4.22575e+01,0.00000e+00,0.00000e+00,0.00000e+00
3.20700e+02,4.18388e+01,0.00000e+00,0.00000e+00,0.00000e+00
4.26200e+02,4.14236e+01,0.00000e+00,0.00000e+00,0.00000e+00
5.30600e+02,4.10127e+01,0.00000e+00,0.00000e+00,0.00000e+00
6.33500e+02,4.06078e+01,0.00000e+00,0.00000e+00,0.00000e+00
7.34700e+02,4.02095e+01,0.00000e+00,0.00000e+00,0.00000e+00
8.33800e+02,3.98196e+01,0.00000e+00,0.00000e+00,0.00000e+00
9.30700e+02,3.94382e+01,0.00000e+00,0.00000e+00,0.00000e+00
1.02500e+03,3.90671e+01,0.00000e+00,0.00000e+00,0.00000e+00
1.11650e+03,3.87070e+01,0.00000e+00,0.00000e+00,0.00000e+00
1.20500e+03,3.76912e+01,0.00000e+00,0.00000e+00,0.00000e+00
1.29010e+03,3.63234e+01,0.00000e+00,0.00000e+00,0.00000e+00
1.37170e+03,3.50118e+01,0.00000e+00,0.00000e+00,0.00000e+00
1.44960e+03,3.37597e+01,0.00000e+00,0.00000e+00,0.00000e+00
1.52340e+03,3.25736e+01,0.00000e+00,0.00000e+00,0.00000e+00
1.59310e+03,3.14533e+01,0.00000e+00,0.00000e+00,0.00000e+00
1.65850e+03,3.04021e+01,0.00000e+00,0.00000e+00,0.00000e+00
1.71930e+03,2.94249e+01,0.00000e+00,0.00000e+00,0.00000e+00
1.77540e+03,2.77303e+01,0.00000e+00,0.00000e+00,0.00000e+00
1.82660e+03,2.53092e+01,0.00000e+00,0.00000e+00,0.00000e+00
1.87280e+03,2.31244e+01,0.00000e+00,0.00000e+00,0.00000e+00
1.91380e+03,2.11856e+01,0.00000e+00,0.00000e+00,0.00000e+00
1.94970e+03,1.94880e+01,0.00000e+00,0.00000e+00,0.00000e+00
1.98010e+03,1.80504e+01,0.00000e+00,0.00000e+00,0.00000e+00
2.00520e+03,1.68635e+01,0.00000e+00,0.00000e+00,0.00000e+00
2.02480e+03,1.59367e+01,0.00000e+00,0.00000e+00,0.00000e+00
2.03880e+03,1.52746e+01,0.00000e+00,0.00000e+00,0.00000e+00
2.04720e+03,1.48774e+01,0.00000e+00,0.00000e+00,0.00000e+00
2.05000e+03,1.47450e+01,0.00000e+00,0.00000e+00,0.00000e+00
--------------------------------------------------------------------------------------------------------------------------------------------------------------------------------------------------------------------------------------------------------------------------------------------------------------------------------------------------------------------------------

