----------------------------------------------
LOG MATLAB Estruturas Copyright Charles 2020
----------------------------------------------

VISÃO GERAL POR SEÇÃO
--------------------------------------------------------------------------------------------------------------------------------------------------------------------------------------------------------------------------------------------------------------------------------------------------------------------------------------------------------------------------------
SEÇÃO,POSIÇÃO .25c,, ESFORÇOS,,,,,INÉRCIAS,,,,CENTROS GEOMÉTRICOS,,,DEFLEXÇOES,,,,,TENSÕES NORMAIS,,,,,,,,TENSÕES CISALHAMENTO,,,TENSÕES DE VON MISES
NUMERO,X,Y,MFz,MFy,MTx,Vz,Vy,EIzz,EIyy,EIzy,GJ,Zcg,Ycg,Zcc,Z,Y,Z´,Y´,Theta,Sigma_Chap+,Sigma_Chap-,Sigma_Lam+,Sigma_Lam-,Sigma_Mesa+,Sigma_Mesa-,Sigma_Alma+,Sigma_Alma-,  Tau_Alma,  Tau_Chap,  Tau_Lam, Von Mises_Alma,  Von Mises_Chap,  Von Mises_Lam
--------------------------------------------------------------------------------------------------------------------------------------------------------------------------------------------------------------------------------------------------------------------------------------------------------------------------------------------------------------------------------
01,0.00000e+00,0.00000e+00,1.03794e+05,1.07609e+04,-9.31465e+03,1.15538e+01,1.17255e+02,2.43720e+09,3.02407e+09,6.88619e+08,4.38793e+07,8.66395e+01,2.17434e+01,7.43235e+01,0.00000e+00,0.00000e+00,0.00000e+00,0.00000e+00,0.00000e+00,1.39930e+00,-1.84449e+00,0.00000e+00,0.00000e+00,7.91084e+01,-7.35769e+01,9.89633e-02,-9.20434e-02,4.12311e-01,5.29035e-01,0.00000e+00,7.20176e-01,1.99410e+00,0.00000e+00
02,1.07300e+02,0.00000e+00,9.16225e+04,9.55886e+03,-8.61589e+03,1.08512e+01,1.09618e+02,2.38487e+09,2.93941e+09,6.69313e+08,4.26070e+07,8.58583e+01,2.15452e+01,7.36225e+01,-3.57852e-02,2.43240e-01,-6.67012e-04,4.53383e-03,-2.22378e-02,1.24949e+00,-1.65045e+00,0.00000e+00,0.00000e+00,7.06513e+01,-6.56935e+01,8.83836e-02,-8.21814e-02,3.89286e-01,4.98303e-01,0.00000e+00,6.79288e-01,1.79835e+00,0.00000e+00
03,2.14300e+02,0.00000e+00,8.02945e+04,8.43500e+03,-7.93083e+03,1.01554e+01,1.02121e+02,2.33333e+09,2.85653e+09,6.50412e+08,4.13518e+07,8.50782e+01,2.13473e+01,7.29231e+01,-1.38882e-01,9.45693e-01,-1.26004e-03,8.59615e-03,-4.33171e-02,1.10777e+00,-1.46645e+00,0.00000e+00,0.00000e+00,6.26494e+01,-5.82351e+01,7.83734e-02,-7.28511e-02,3.66141e-01,4.67264e-01,0.00000e+00,6.38305e-01,1.61230e+00,0.00000e+00
04,3.20700e+02,0.00000e+00,6.98306e+04,7.39169e+03,-7.26880e+03,9.45569e+00,9.45691e+01,2.28273e+09,2.77562e+09,6.31961e+08,4.01426e+07,8.43013e+01,2.11503e+01,7.22271e+01,-3.00700e-01,2.05201e+00,-1.78165e-03,1.21992e-02,-6.31535e-02,9.74707e-01,-1.29328e+00,0.00000e+00,0.00000e+00,5.51346e+01,-5.12314e+01,6.89724e-02,-6.40896e-02,3.42512e-01,4.36154e-01,0.00000e+00,5.96600e-01,1.43706e+00,0.00000e+00
05,4.26200e+02,0.00000e+00,6.02458e+04,6.43096e+03,-6.63185e+03,8.75717e+00,8.71330e+01,2.23318e+09,2.69686e+09,6.14002e+08,3.89713e+07,8.35299e+01,2.09548e+01,7.15366e+01,-5.12593e-01,3.50582e+00,-2.23528e-03,1.53611e-02,-8.16818e-02,8.50814e-01,-1.13166e+00,0.00000e+00,0.00000e+00,4.81365e+01,-4.47102e+01,6.02180e-02,-5.59317e-02,3.18845e-01,4.05241e-01,0.00000e+00,5.54934e-01,1.27311e+00,0.00000e+00
06,5.30600e+02,0.00000e+00,5.15292e+04,5.55282e+03,-6.01991e+03,8.06540e+00,7.98518e+01,2.18477e+09,2.62035e+09,5.96558e+08,3.78367e+07,8.27655e+01,2.07610e+01,7.08528e+01,-7.66322e-01,5.25288e+00,-2.62544e-03,1.81075e-02,-9.88699e-02,7.36296e-01,-9.81898e-01,0.00000e+00,0.00000e+00,4.16668e+01,-3.86821e+01,5.21244e-02,-4.83906e-02,2.95245e-01,3.74583e-01,0.00000e+00,5.13483e-01,1.12067e+00,0.00000e+00
07,6.33500e+02,0.00000e+00,4.36761e+04,4.75674e+03,-5.42711e+03,7.40756e+00,7.27828e+01,2.13765e+09,2.54632e+09,5.79679e+08,3.67289e+07,8.20110e+01,2.05698e+01,7.01785e+01,-1.05351e+00,7.23729e+00,-2.95638e-03,2.04622e-02,-1.14658e-01,6.31434e-01,-8.44413e-01,0.00000e+00,0.00000e+00,3.57414e+01,-3.31622e+01,4.47118e-02,-4.14853e-02,2.71777e-01,3.43955e-01,0.00000e+00,4.72352e-01,9.79754e-01,0.00000e+00
08,7.34700e+02,0.00000e+00,3.66562e+04,4.03875e+03,-4.85457e+03,6.78194e+00,6.59518e+01,2.09189e+09,2.47483e+09,5.63383e+08,3.56457e+07,8.12680e+01,2.03815e+01,6.95148e+01,-1.36672e+00,9.40904e+00,-3.23355e-03,2.24577e-02,-1.29026e-01,5.36162e-01,-7.19132e-01,0.00000e+00,0.00000e+00,3.03566e+01,-2.81478e+01,3.79755e-02,-3.52124e-02,2.48543e-01,3.13461e-01,0.00000e+00,4.31707e-01,8.50182e-01,0.00000e+00
09,8.33800e+02,0.00000e+00,3.04452e+04,3.39605e+03,-4.30463e+03,6.18877e+00,5.93957e+01,2.04762e+09,2.40610e+09,5.47713e+08,3.45863e+07,8.05393e+01,2.01969e+01,6.88645e+01,-1.69849e+00,1.17172e+01,-3.46208e-03,2.41240e-02,-1.41941e-01,4.50494e-01,-6.06100e-01,0.00000e+00,0.00000e+00,2.55132e+01,-2.36402e+01,3.19166e-02,-2.95734e-02,2.25692e-01,2.83280e-01,0.00000e+00,3.91801e-01,7.31909e-01,0.00000e+00
10,9.30700e+02,0.00000e+00,2.49942e+04,2.82413e+03,-3.78076e+03,5.61551e+00,5.31111e+01,2.00486e+09,2.34009e+09,5.32666e+08,3.35529e+07,7.98259e+01,2.00162e+01,6.82283e+01,-2.04297e+00,1.41214e+01,-3.64798e-03,2.54980e-02,-1.53431e-01,3.74091e-01,-5.04921e-01,0.00000e+00,0.00000e+00,2.11923e+01,-1.96217e+01,2.65112e-02,-2.45464e-02,2.03306e-01,2.53646e-01,0.00000e+00,3.52767e-01,6.24582e-01,0.00000e+00
11,1.02500e+03,0.00000e+00,2.02646e+04,2.32067e+03,-3.28584e+03,5.06241e+00,4.72000e+01,1.96375e+09,2.27699e+09,5.18282e+08,3.25354e+07,7.91308e+01,1.98401e+01,6.76088e+01,-2.39398e+00,1.65783e+01,-3.79653e-03,2.66117e-02,-1.63505e-01,3.06736e-01,-4.15385e-01,0.00000e+00,0.00000e+00,1.73818e+01,-1.60807e+01,2.17444e-02,-2.01167e-02,1.81742e-01,2.24866e-01,0.00000e+00,3.15211e-01,5.28155e-01,0.00000e+00
12,1.11650e+03,0.00000e+00,1.62055e+04,1.88206e+03,-2.82018e+03,4.52468e+00,4.15220e+01,1.92432e+09,2.21681e+09,5.04566e+08,3.15493e+07,7.84554e+01,1.96691e+01,6.70073e+01,-2.74670e+00,1.90539e+01,-3.91320e-03,2.74998e-02,-1.72215e-01,2.48025e-01,-3.37032e-01,0.00000e+00,0.00000e+00,1.40592e+01,-1.29956e+01,1.75879e-02,-1.62573e-02,1.60674e-01,1.96901e-01,0.00000e+00,2.78563e-01,4.42013e-01,0.00000e+00
13,1.20500e+03,0.00000e+00,1.27652e+04,1.50441e+03,-2.38793e+03,4.00976e+00,3.62257e+01,1.32148e+09,1.95268e+09,4.45208e+08,2.87722e+07,7.39632e+01,1.86188e+01,6.42675e+01,-3.09828e+00,2.15247e+01,-4.03209e-03,2.83362e-02,-1.79843e-01,2.84224e-01,-3.66914e-01,0.00000e+00,0.00000e+00,1.60556e+01,-1.47371e+01,2.00852e-02,-1.84359e-02,1.42190e-01,1.89054e-01,0.00000e+00,2.46745e-01,4.51554e-01,0.00000e+00
14,1.29010e+03,0.00000e+00,9.89142e+03,1.18367e+03,-2.00058e+03,3.52817e+00,3.13135e+01,1.21619e+09,1.75686e+09,4.00479e+08,2.58169e+07,7.15330e+01,1.79989e+01,6.20379e+01,-3.44653e+00,2.39700e+01,-4.15238e-03,2.91334e-02,-1.86672e-01,2.30218e-01,-2.98915e-01,0.00000e+00,0.00000e+00,1.30109e+01,-1.19370e+01,1.62765e-02,-1.49330e-02,1.27912e-01,1.69014e-01,0.00000e+00,2.21839e-01,3.81828e-01,0.00000e+00
15,1.37170e+03,0.00000e+00,7.52196e+03,9.14152e+02,-1.65804e+03,3.07767e+00,2.67615e+01,1.12002e+09,1.58132e+09,3.60391e+08,2.31790e+07,6.91884e+01,1.74013e+01,5.98941e+01,-3.78920e+00,2.63733e+01,-4.24638e-03,2.97699e-02,-1.92752e-01,1.82924e-01,-2.38999e-01,0.00000e+00,0.00000e+00,1.03433e+01,-9.48468e+00,1.29393e-02,-1.18652e-02,1.13754e-01,1.49437e-01,0.00000e+00,1.97188e-01,3.19780e-01,0.00000e+00
16,1.44960e+03,0.00000e+00,5.59839e+03,6.90755e+02,-1.35728e+03,2.65780e+00,2.26240e+01,1.03251e+09,1.42458e+09,3.24609e+08,2.08236e+07,6.69366e+01,1.68278e+01,5.78421e+01,-4.12277e+00,2.87116e+01,-4.31791e-03,3.02655e-02,-1.98077e-01,1.42162e-01,-1.86970e-01,0.00000e+00,0.00000e+00,8.04258e+00,-7.37114e+00,1.00611e-02,-9.22117e-03,9.99753e-02,1.30502e-01,0.00000e+00,1.73229e-01,2.65351e-01,0.00000e+00
17,1.52340e+03,0.00000e+00,4.06958e+03,5.09390e+02,-1.09277e+03,2.25726e+00,1.88072e+01,9.53418e+08,1.28561e+09,2.92889e+08,1.87411e+07,6.47909e+01,1.62818e+01,5.58929e+01,-4.44338e+00,3.09590e+01,-4.37061e-03,3.06395e-02,-2.02634e-01,1.07800e-01,-1.42729e-01,0.00000e+00,0.00000e+00,6.10181e+00,-5.58962e+00,7.63326e-03,-6.99252e-03,8.63284e-02,1.11987e-01,0.00000e+00,1.49551e-01,2.19742e-01,0.00000e+00
18,1.59310e+03,0.00000e+00,2.87964e+03,3.66472e+02,-8.64623e+02,1.84368e+00,1.53376e+01,8.82075e+08,1.16263e+09,2.64824e+08,1.69085e+07,6.27531e+01,1.57637e+01,5.40474e+01,-4.74932e+00,3.31042e+01,-4.40823e-03,3.09134e-02,-2.06448e-01,7.94940e-02,-1.06005e-01,0.00000e+00,0.00000e+00,4.50220e+00,-4.12137e+00,5.63218e-03,-5.15576e-03,7.30911e-02,9.43023e-02,0.00000e+00,1.26614e-01,1.79821e-01,0.00000e+00
19,1.65850e+03,0.00000e+00,1.97634e+03,2.56659e+02,-6.72467e+02,1.51452e+00,1.22862e+01,8.18049e+08,1.05434e+09,2.40117e+08,1.52994e+07,6.08309e+01,1.52752e+01,5.23116e+01,-5.03846e+00,3.51322e+01,-4.43401e-03,3.11068e-02,-2.09557e-01,5.67923e-02,-7.63230e-02,0.00000e+00,0.00000e+00,3.21855e+00,-2.94323e+00,4.02636e-03,-3.68193e-03,6.07166e-02,7.79333e-02,0.00000e+00,1.05174e-01,1.44929e-01,0.00000e+00
20,1.71930e+03,0.00000e+00,1.31038e+03,1.73629e+02,-5.09027e+02,1.21675e+00,9.62055e+00,7.61023e+08,9.59670e+08,2.18523e+08,1.38807e+07,5.90349e+01,1.48192e+01,5.06943e+01,-5.30857e+00,3.70275e+01,-4.45088e-03,3.12375e-02,-2.12008e-01,3.91314e-02,-5.30048e-02,0.00000e+00,0.00000e+00,2.21914e+00,-2.02710e+00,2.77610e-03,-2.53586e-03,4.91510e-02,6.26185e-02,0.00000e+00,8.51379e-02,1.14349e-01,0.00000e+00
21,1.77540e+03,0.00000e+00,8.34452e+02,1.13144e+02,-3.72650e+02,9.39571e-01,7.34644e+00,3.98519e+08,7.29057e+08,1.66652e+08,9.90235e+06,5.21005e+01,1.31900e+01,4.07358e+01,-5.55872e+00,3.87831e+01,-4.46724e-03,3.13506e-02,-2.14093e-01,4.69701e-02,-5.87650e-02,0.00000e+00,0.00000e+00,2.65035e+00,-2.38248e+00,3.31555e-03,-2.98044e-03,6.52149e-02,5.85427e-02,0.00000e+00,1.12962e-01,1.10224e-01,0.00000e+00
22,1.82660e+03,0.00000e+00,5.06704e+02,7.11815e+01,-2.62784e+02,6.99579e-01,5.45622e+00,3.22692e+08,5.63581e+08,1.28741e+08,7.63256e+06,4.80842e+01,1.21552e+01,3.73499e+01,-5.78784e+00,4.03908e+01,-4.48295e-03,3.14508e-02,-2.15937e-01,3.20057e-02,-4.05216e-02,0.00000e+00,0.00000e+00,1.80766e+00,-1.62379e+00,2.26135e-03,-2.03133e-03,5.39338e-02,4.80040e-02,0.00000e+00,9.34197e-02,8.80639e-02,0.00000e+00
23,1.87280e+03,0.00000e+00,2.90177e+02,4.30699e+01,-1.81629e+02,5.17373e-01,3.91725e+00,2.62353e+08,4.36581e+08,9.96683e+07,5.91877e+06,4.43938e+01,1.12070e+01,3.42731e+01,-5.99518e+00,4.18453e+01,-4.49274e-03,3.15165e-02,-2.17442e-01,2.05354e-02,-2.63948e-02,0.00000e+00,0.00000e+00,1.16132e+00,-1.04027e+00,1.45280e-03,-1.30135e-03,4.32514e-02,3.84509e-02,0.00000e+00,7.49156e-02,6.91450e-02,0.00000e+00
24,1.91380e+03,0.00000e+00,1.54527e+02,2.47116e+01,-1.21478e+02,3.78157e-01,2.69986e+00,2.14932e+08,3.40501e+08,7.76906e+07,4.62933e+06,4.10625e+01,1.03532e+01,3.15244e+01,-6.17950e+00,4.31383e+01,-4.49824e-03,3.15560e-02,-2.18609e-01,1.22119e-02,-1.60033e-02,0.00000e+00,0.00000e+00,6.91792e-01,-6.16499e-01,8.65420e-04,-7.71229e-04,3.32738e-02,2.96932e-02,0.00000e+00,5.76328e-02,5.25970e-02,0.00000e+00
25,1.94970e+03,0.00000e+00,7.45122e+01,1.31341e+01,-7.74687e+01,2.66831e-01,1.75777e+00,1.77937e+08,2.68420e+08,6.12136e+07,3.66602e+06,3.80992e+01,9.59536e+00,2.91026e+01,-6.34103e+00,4.42716e+01,-4.50094e-03,3.15773e-02,-2.19459e-01,6.54797e-03,-8.79247e-03,0.00000e+00,0.00000e+00,3.71784e-01,-3.28609e-01,4.65095e-04,-4.11084e-04,2.41359e-02,2.17337e-02,0.00000e+00,4.18050e-02,3.80992e-02,0.00000e+00
26,1.98010e+03,0.00000e+00,3.16283e+01,6.32554e+00,-4.67530e+01,1.81098e-01,1.06354e+00,1.49784e+08,2.15653e+08,4.91590e+07,2.96813e+06,3.55543e+01,8.94582e+00,2.70403e+01,-6.47788e+00,4.52317e+01,-4.50201e-03,3.15873e-02,-2.20020e-01,3.07079e-03,-4.25436e-03,0.00000e+00,0.00000e+00,1.74897e-01,-1.52628e-01,2.18793e-04,-1.90935e-04,1.62326e-02,1.48702e-02,0.00000e+00,2.81158e-02,2.59001e-02,0.00000e+00
27,2.00520e+03,0.00000e+00,1.10673e+01,2.61539e+00,-2.56452e+01,1.14532e-01,5.74787e-01,1.28656e+08,1.77484e+08,4.04436e+07,2.46724e+06,3.34272e+01,8.40385e+00,2.53292e+01,-6.59088e+00,4.60246e+01,-4.50233e-03,3.15911e-02,-2.20348e-01,1.17974e-03,-1.71114e-03,0.00000e+00,0.00000e+00,6.74896e-02,-5.77186e-02,8.44284e-05,-7.22049e-05,9.70857e-03,9.11143e-03,0.00000e+00,1.68158e-02,1.58151e-02,0.00000e+00
28,2.02480e+03,0.00000e+00,2.88243e+00,8.55590e-01,-1.22505e+01,6.50390e-02,2.60399e-01,1.13447e+08,1.50904e+08,3.43767e+07,2.13054e+06,3.17493e+01,7.97693e+00,2.39876e+01,-6.67913e+00,4.66438e+01,-4.50239e-03,3.15922e-02,-2.20506e-01,3.35605e-04,-5.21050e-04,0.00000e+00,0.00000e+00,1.93292e-02,-1.59775e-02,2.41805e-05,-1.99876e-05,4.87031e-03,4.75150e-03,0.00000e+00,8.43563e-03,8.23479e-03,0.00000e+00
29,2.03880e+03,0.00000e+00,4.61795e-01,1.91472e-01,-4.56392e+00,2.98349e-02,8.54066e-02,1.03260e+08,1.33576e+08,3.04229e+07,1.93479e+06,3.05414e+01,7.66993e+00,2.30264e+01,-6.74216e+00,4.70861e+01,-4.50238e-03,3.15924e-02,-2.20563e-01,5.89323e-05,-1.02826e-04,0.00000e+00,0.00000e+00,3.43415e-03,-2.65921e-03,4.29607e-06,-3.32663e-06,1.79602e-03,1.87264e-03,0.00000e+00,3.11079e-03,3.24386e-03,0.00000e+00
30,2.04720e+03,0.00000e+00,5.15436e-02,3.30828e-02,-9.09741e-01,7.87685e-03,1.22723e-02,9.74134e+07,1.23821e+08,2.81976e+07,1.88123e+06,2.98129e+01,7.48488e+00,2.24484e+01,-6.77998e+00,4.73514e+01,-4.50238e-03,3.15924e-02,-2.20575e-01,7.32871e-06,-1.54095e-05,0.00000e+00,0.00000e+00,4.35367e-04,-2.99081e-04,5.44636e-07,-3.74146e-07,3.16264e-04,3.77782e-04,0.00000e+00,5.47785e-04,6.54359e-04,0.00000e+00
31,2.05000e+03,0.00000e+00,0.00000e+00,0.00000e+00,0.00000e+00,0.00000e+00,0.00000e+00,5.74754e+07,1.08343e+08,2.47732e+07,NaN,2.74871e+01,6.96602e+00,2.15905e+01,-6.79259e+00,4.74399e+01,-4.50238e-03,3.15924e-02,-2.20575e-01,0.00000e+00,0.00000e+00,0.00000e+00,0.00000e+00,0.00000e+00,0.00000e+00,0.00000e+00,0.00000e+00,0.00000e+00,0.00000e+00,0.00000e+00,0.00000e+00,0.00000e+00,0.00000e+00
--------------------------------------------------------------------------------------------------------------------------------------------------------------------------------------------------------------------------------------------------------------------------------------------------------------------------------------------------------------------------------

CHAPEADO 
--------------------------------------------------------------------------------------------------------------------------------------------------------------------------------------------------------------------------------------------------------------------------------------------------------------------------------------------------------------------------------
X,Y,Z,Sigma,Tau,Von Mises
0.00000e+00,4.31008e+01,0.00000e+00,-1.31491e+00,5.29035e-01,1.60269e+00
0.00000e+00,4.28837e+01,-3.27521e+00,-1.36934e+00,5.23974e-01,1.64278e+00
0.00000e+00,4.25950e+01,-6.55041e+00,-1.41876e+00,5.18791e-01,1.67938e+00
0.00000e+00,4.23033e+01,-9.82562e+00,-1.46798e+00,5.13490e-01,1.71639e+00
0.00000e+00,4.19484e+01,-1.31008e+01,-1.51278e+00,5.08081e-01,1.75013e+00
0.00000e+00,4.15787e+01,-1.63760e+01,-1.55655e+00,5.02572e-01,1.78342e+00
0.00000e+00,4.11605e+01,-1.96512e+01,-1.59692e+00,4.96971e-01,1.81414e+00
0.00000e+00,4.07187e+01,-2.29264e+01,-1.63565e+00,4.91285e-01,1.84376e+00
0.00000e+00,4.02378e+01,-2.62017e+01,-1.67165e+00,4.85523e-01,1.87126e+00
0.00000e+00,3.97249e+01,-2.94769e+01,-1.70540e+00,4.79693e-01,1.89703e+00
0.00000e+00,3.91766e+01,-3.27521e+01,-1.73669e+00,4.73800e-01,1.92082e+00
0.00000e+00,3.85857e+01,-3.60273e+01,-1.76500e+00,4.67855e-01,1.94214e+00
0.00000e+00,3.79511e+01,-3.93025e+01,-1.79025e+00,4.61863e-01,1.96085e+00
0.00000e+00,3.72545e+01,-4.25777e+01,-1.81117e+00,4.55836e-01,1.97578e+00
0.00000e+00,3.64976e+01,-4.58529e+01,-1.82788e+00,4.49785e-01,1.98698e+00
0.00000e+00,3.56687e+01,-4.91281e+01,-1.83955e+00,4.43719e-01,1.99364e+00
0.00000e+00,3.47420e+01,-5.24033e+01,-1.84439e+00,4.37660e-01,1.99410e+00
0.00000e+00,3.37474e+01,-5.56785e+01,-1.84449e+00,4.31611e-01,1.99023e+00
0.00000e+00,3.26000e+01,-5.89537e+01,-1.83390e+00,4.25606e-01,1.97652e+00
0.00000e+00,3.13892e+01,-6.22289e+01,-1.81889e+00,4.19658e-01,1.95875e+00
0.00000e+00,3.00018e+01,-6.55041e+01,-1.79154e+00,4.13782e-01,1.92957e+00
0.00000e+00,2.84730e+01,-6.87793e+01,-1.75429e+00,4.08028e-01,1.89130e+00
0.00000e+00,2.68002e+01,-7.20546e+01,-1.70699e+00,4.02406e-01,1.84380e+00
0.00000e+00,2.48857e+01,-7.53298e+01,-1.64280e+00,3.96935e-01,1.78086e+00
0.00000e+00,2.26913e+01,-7.86050e+01,-1.55905e+00,3.91683e-01,1.70026e+00
0.00000e+00,2.01805e+01,-8.18802e+01,-1.45318e+00,3.86712e-01,1.60012e+00
0.00000e+00,1.72108e+01,-8.51554e+01,-1.31524e+00,3.82064e-01,1.47234e+00
0.00000e+00,1.33989e+01,-8.84306e+01,-1.11845e+00,3.77967e-01,1.29596e+00
0.00000e+00,8.24350e+00,-9.17058e+01,-8.27763e-01,3.75464e-01,1.05267e+00
0.00000e+00,-3.34020e+00,-9.49810e+01,-8.78303e-02,3.76456e-01,6.57930e-01
0.00000e+00,-4.17620e+00,-9.49886e+01,-2.95674e-02,3.79537e-01,6.58043e-01
0.00000e+00,-1.17928e+01,-9.15961e+01,5.74816e-01,3.85381e-01,8.80891e-01
0.00000e+00,-1.27149e+01,-8.82037e+01,7.11358e-01,3.89697e-01,9.80624e-01
0.00000e+00,-1.30332e+01,-8.48113e+01,8.05692e-01,3.94240e-01,1.05613e+00
0.00000e+00,-1.30814e+01,-8.14188e+01,8.81161e-01,3.98993e-01,1.11984e+00
0.00000e+00,-1.29264e+01,-7.80264e+01,9.42418e-01,4.03919e-01,1.17371e+00
0.00000e+00,-1.26437e+01,-7.46339e+01,9.94755e-01,4.08990e-01,1.22121e+00
0.00000e+00,-1.22328e+01,-7.12415e+01,1.03814e+00,4.14175e-01,1.26188e+00
0.00000e+00,-1.17438e+01,-6.78490e+01,1.07606e+00,4.19450e-01,1.29835e+00
0.00000e+00,-1.12094e+01,-6.44565e+01,1.11081e+00,4.24801e-01,1.33239e+00
0.00000e+00,-1.06068e+01,-6.10641e+01,1.14078e+00,4.30212e-01,1.36258e+00
0.00000e+00,-9.96142e+00,-5.76716e+01,1.16778e+00,4.35671e-01,1.39037e+00
0.00000e+00,-9.27449e+00,-5.42792e+01,1.19187e+00,4.41165e-01,1.41578e+00
0.00000e+00,-8.54615e+00,-5.08867e+01,1.21306e+00,4.46682e-01,1.43878e+00
0.00000e+00,-7.79185e+00,-4.74943e+01,1.23244e+00,4.52215e-01,1.46028e+00
0.00000e+00,-7.00429e+00,-4.41018e+01,1.24950e+00,4.57753e-01,1.47982e+00
0.00000e+00,-6.19544e+00,-4.07094e+01,1.26506e+00,4.63290e-01,1.49810e+00
0.00000e+00,-5.36748e+00,-3.73169e+01,1.27930e+00,4.68818e-01,1.51525e+00
0.00000e+00,-4.52248e+00,-3.39245e+01,1.29234e+00,4.74332e-01,1.53137e+00
0.00000e+00,-3.67026e+00,-3.05320e+01,1.30487e+00,4.79828e-01,1.54706e+00
0.00000e+00,-2.80686e+00,-2.71396e+01,1.31663e+00,4.85302e-01,1.56207e+00
0.00000e+00,-1.94159e+00,-2.37472e+01,1.32825e+00,4.90753e-01,1.57695e+00
0.00000e+00,-1.06964e+00,-2.03547e+01,1.33941e+00,4.96178e-01,1.59141e+00
0.00000e+00,-1.97780e-01,-1.69622e+01,1.35058e+00,5.01576e-01,1.60586e+00
0.00000e+00,6.70785e-01,-1.35698e+01,1.36197e+00,5.06947e-01,1.62048e+00
0.00000e+00,1.53935e+00,-1.01774e+01,1.37336e+00,5.12289e-01,1.63507e+00
0.00000e+00,2.38735e+00,-6.78490e+00,1.38620e+00,5.17606e-01,1.65084e+00
0.00000e+00,3.23151e+00,-3.39245e+00,1.39930e+00,5.22900e-01,1.66682e+00
1.07300e+02,4.26785e+01,0.00000e+00,-1.17402e+00,4.98303e-01,1.45714e+00
1.07300e+02,4.24636e+01,-3.24312e+00,-1.22284e+00,4.93565e-01,1.49203e+00
1.07300e+02,4.21777e+01,-6.48624e+00,-1.26717e+00,4.88712e-01,1.52389e+00
1.07300e+02,4.18889e+01,-9.72936e+00,-1.31134e+00,4.83748e-01,1.55616e+00
1.07300e+02,4.15374e+01,-1.29725e+01,-1.35155e+00,4.78684e-01,1.58559e+00
1.07300e+02,4.11714e+01,-1.62156e+01,-1.39084e+00,4.73525e-01,1.61465e+00
1.07300e+02,4.07572e+01,-1.94587e+01,-1.42710e+00,4.68280e-01,1.64148e+00
1.07300e+02,4.03197e+01,-2.27018e+01,-1.46189e+00,4.62957e-01,1.66736e+00
1.07300e+02,3.98436e+01,-2.59450e+01,-1.49424e+00,4.57562e-01,1.69140e+00
1.07300e+02,3.93357e+01,-2.91881e+01,-1.52459e+00,4.52102e-01,1.71393e+00
1.07300e+02,3.87928e+01,-3.24312e+01,-1.55274e+00,4.46585e-01,1.73473e+00
1.07300e+02,3.82077e+01,-3.56743e+01,-1.57822e+00,4.41018e-01,1.75336e+00
1.07300e+02,3.75793e+01,-3.89174e+01,-1.60098e+00,4.35408e-01,1.76971e+00
1.07300e+02,3.68895e+01,-4.21606e+01,-1.61987e+00,4.29764e-01,1.78271e+00
1.07300e+02,3.61401e+01,-4.54037e+01,-1.63499e+00,4.24098e-01,1.79242e+00
1.07300e+02,3.53192e+01,-4.86468e+01,-1.64562e+00,4.18419e-01,1.79813e+00
1.07300e+02,3.44016e+01,-5.18899e+01,-1.65015e+00,4.12745e-01,1.79835e+00
1.07300e+02,3.34168e+01,-5.51330e+01,-1.65045e+00,4.07082e-01,1.79475e+00
1.07300e+02,3.22806e+01,-5.83762e+01,-1.64120e+00,4.01459e-01,1.78242e+00
1.07300e+02,3.10816e+01,-6.16193e+01,-1.62800e+00,3.95890e-01,1.76651e+00
1.07300e+02,2.97079e+01,-6.48624e+01,-1.60378e+00,3.90388e-01,1.74049e+00
1.07300e+02,2.81940e+01,-6.81055e+01,-1.57073e+00,3.85001e-01,1.70642e+00
1.07300e+02,2.65376e+01,-7.13486e+01,-1.52870e+00,3.79736e-01,1.66418e+00
1.07300e+02,2.46419e+01,-7.45918e+01,-1.47158e+00,3.74614e-01,1.60828e+00
1.07300e+02,2.24690e+01,-7.78349e+01,-1.39700e+00,3.69696e-01,1.53676e+00
1.07300e+02,1.99828e+01,-8.10780e+01,-1.30267e+00,3.65042e-01,1.44800e+00
1.07300e+02,1.70422e+01,-8.43211e+01,-1.17970e+00,3.60690e-01,1.33491e+00
1.07300e+02,1.32676e+01,-8.75642e+01,-1.00417e+00,3.56853e-01,1.17915e+00
1.07300e+02,8.16273e+00,-9.08074e+01,-7.44802e-01,3.54510e-01,9.65279e-01
1.07300e+02,-3.30748e+00,-9.40505e+01,-8.42650e-02,3.55439e-01,6.21379e-01
1.07300e+02,-4.13529e+00,-9.40580e+01,-3.22379e-02,3.58325e-01,6.21473e-01
1.07300e+02,-1.16772e+01,-9.06988e+01,5.07678e-01,3.63796e-01,8.09184e-01
1.07300e+02,-1.25904e+01,-8.73396e+01,6.29822e-01,3.67838e-01,8.95873e-01
1.07300e+02,-1.29055e+01,-8.39804e+01,7.14274e-01,3.72091e-01,9.62051e-01
1.07300e+02,-1.29533e+01,-8.06211e+01,7.81881e-01,3.76541e-01,1.01818e+00
1.07300e+02,-1.27997e+01,-7.72619e+01,8.36796e-01,3.81154e-01,1.06586e+00
1.07300e+02,-1.25198e+01,-7.39027e+01,8.83746e-01,3.85902e-01,1.10805e+00
1.07300e+02,-1.21130e+01,-7.05435e+01,9.22700e-01,3.90757e-01,1.14431e+00
1.07300e+02,-1.16287e+01,-6.71843e+01,9.56775e-01,3.95696e-01,1.17692e+00
1.07300e+02,-1.10996e+01,-6.38251e+01,9.88021e-01,4.00706e-01,1.20743e+00
1.07300e+02,-1.05029e+01,-6.04659e+01,1.01500e+00,4.05773e-01,1.23458e+00
1.07300e+02,-9.86382e+00,-5.71066e+01,1.03932e+00,4.10884e-01,1.25963e+00
1.07300e+02,-9.18363e+00,-5.37474e+01,1.06105e+00,4.16028e-01,1.28260e+00
1.07300e+02,-8.46243e+00,-5.03882e+01,1.08019e+00,4.21194e-01,1.30346e+00
1.07300e+02,-7.71552e+00,-4.70290e+01,1.09771e+00,4.26374e-01,1.32301e+00
1.07300e+02,-6.93567e+00,-4.36698e+01,1.11315e+00,4.31560e-01,1.34084e+00
1.07300e+02,-6.13474e+00,-4.03106e+01,1.12727e+00,4.36744e-01,1.35756e+00
1.07300e+02,-5.31490e+00,-3.69514e+01,1.14019e+00,4.41921e-01,1.37329e+00
1.07300e+02,-4.47818e+00,-3.35921e+01,1.15205e+00,4.47083e-01,1.38812e+00
1.07300e+02,-3.63431e+00,-3.02329e+01,1.16346e+00,4.52229e-01,1.40256e+00
1.07300e+02,-2.77936e+00,-2.68737e+01,1.17417e+00,4.57354e-01,1.41640e+00
1.07300e+02,-1.92257e+00,-2.35145e+01,1.18477e+00,4.62458e-01,1.43013e+00
1.07300e+02,-1.05916e+00,-2.01553e+01,1.19494e+00,4.67538e-01,1.44349e+00
1.07300e+02,-1.95842e-01,-1.67961e+01,1.20513e+00,4.72592e-01,1.45683e+00
1.07300e+02,6.64213e-01,-1.34369e+01,1.21552e+00,4.77621e-01,1.47032e+00
1.07300e+02,1.52427e+00,-1.00776e+01,1.22591e+00,4.82623e-01,1.48379e+00
1.07300e+02,2.36396e+00,-6.71843e+00,1.23758e+00,4.87601e-01,1.49829e+00
1.07300e+02,3.19985e+00,-3.35921e+00,1.24949e+00,4.92557e-01,1.51297e+00
2.14300e+02,4.22575e+01,0.00000e+00,-1.04073e+00,4.67264e-01,1.31838e+00
2.14300e+02,4.20447e+01,-3.21112e+00,-1.08420e+00,4.62843e-01,1.34840e+00
2.14300e+02,4.17615e+01,-6.42224e+00,-1.12371e+00,4.58314e-01,1.37582e+00
2.14300e+02,4.14756e+01,-9.63337e+00,-1.16306e+00,4.53683e-01,1.40364e+00
2.14300e+02,4.11276e+01,-1.28445e+01,-1.19891e+00,4.48957e-01,1.42901e+00
2.14300e+02,4.07652e+01,-1.60556e+01,-1.23394e+00,4.44144e-01,1.45410e+00
2.14300e+02,4.03551e+01,-1.92667e+01,-1.26628e+00,4.39250e-01,1.47726e+00
2.14300e+02,3.99219e+01,-2.24779e+01,-1.29732e+00,4.34283e-01,1.49962e+00
2.14300e+02,3.94505e+01,-2.56890e+01,-1.32620e+00,4.29249e-01,1.52039e+00
2.14300e+02,3.89476e+01,-2.89001e+01,-1.35330e+00,4.24155e-01,1.53986e+00
2.14300e+02,3.84101e+01,-3.21112e+01,-1.37846e+00,4.19007e-01,1.55783e+00
2.14300e+02,3.78307e+01,-3.53223e+01,-1.40125e+00,4.13813e-01,1.57392e+00
2.14300e+02,3.72085e+01,-3.85335e+01,-1.42162e+00,4.08578e-01,1.58802e+00
2.14300e+02,3.65256e+01,-4.17446e+01,-1.43856e+00,4.03312e-01,1.59920e+00
2.14300e+02,3.57835e+01,-4.49557e+01,-1.45217e+00,3.98026e-01,1.60750e+00
2.14300e+02,3.49707e+01,-4.81668e+01,-1.46178e+00,3.92726e-01,1.61230e+00
2.14300e+02,3.40622e+01,-5.13780e+01,-1.46600e+00,3.87433e-01,1.61229e+00
2.14300e+02,3.30871e+01,-5.45891e+01,-1.46645e+00,3.82148e-01,1.60891e+00
2.14300e+02,3.19621e+01,-5.78002e+01,-1.45845e+00,3.76902e-01,1.59789e+00
2.14300e+02,3.07750e+01,-6.10113e+01,-1.44694e+00,3.71706e-01,1.58371e+00
2.14300e+02,2.94148e+01,-6.42224e+01,-1.42566e+00,3.66573e-01,1.56065e+00
2.14300e+02,2.79159e+01,-6.74336e+01,-1.39656e+00,3.61546e-01,1.53053e+00
2.14300e+02,2.62758e+01,-7.06447e+01,-1.35949e+00,3.56633e-01,1.49324e+00
2.14300e+02,2.43988e+01,-7.38558e+01,-1.30904e+00,3.51854e-01,1.44395e+00
2.14300e+02,2.22473e+01,-7.70669e+01,-1.24311e+00,3.47266e-01,1.38098e+00
2.14300e+02,1.97856e+01,-8.02781e+01,-1.15967e+00,3.42923e-01,1.30293e+00
2.14300e+02,1.68740e+01,-8.34892e+01,-1.05084e+00,3.38863e-01,1.20364e+00
2.14300e+02,1.31367e+01,-8.67003e+01,-8.95417e-01,3.35283e-01,1.06725e+00
2.14300e+02,8.08220e+00,-8.99114e+01,-6.65652e-01,3.33097e-01,8.80882e-01
2.14300e+02,-3.27484e+00,-9.31226e+01,-8.02092e-02,3.33964e-01,5.83978e-01
2.14300e+02,-4.09449e+00,-9.31300e+01,-3.40819e-02,3.36656e-01,5.84101e-01
2.14300e+02,-1.15620e+01,-8.98039e+01,4.44815e-01,3.41761e-01,7.40448e-01
2.14300e+02,-1.24661e+01,-8.64779e+01,5.53311e-01,3.45533e-01,8.15065e-01
2.14300e+02,-1.27781e+01,-8.31518e+01,6.28389e-01,3.49501e-01,8.72540e-01
2.14300e+02,-1.28255e+01,-7.98257e+01,6.88532e-01,3.53654e-01,9.21569e-01
2.14300e+02,-1.26734e+01,-7.64996e+01,7.37423e-01,3.57958e-01,9.63428e-01
2.14300e+02,-1.23963e+01,-7.31736e+01,7.79252e-01,3.62387e-01,1.00060e+00
2.14300e+02,-1.19935e+01,-6.98475e+01,8.13991e-01,3.66917e-01,1.03270e+00
2.14300e+02,-1.15140e+01,-6.65214e+01,8.44405e-01,3.71526e-01,1.06166e+00
2.14300e+02,-1.09901e+01,-6.31954e+01,8.72310e-01,3.76200e-01,1.08881e+00
2.14300e+02,-1.03992e+01,-5.98693e+01,8.96436e-01,3.80928e-01,1.11307e+00
2.14300e+02,-9.76651e+00,-5.65432e+01,9.18200e-01,3.85697e-01,1.13551e+00
2.14300e+02,-9.09302e+00,-5.32171e+01,9.37664e-01,3.90496e-01,1.15615e+00
2.14300e+02,-8.37893e+00,-4.98911e+01,9.54836e-01,3.95317e-01,1.17496e+00
2.14300e+02,-7.63939e+00,-4.65650e+01,9.70572e-01,4.00150e-01,1.19263e+00
2.14300e+02,-6.86724e+00,-4.32389e+01,9.84467e-01,4.04989e-01,1.20881e+00
2.14300e+02,-6.07421e+00,-3.99129e+01,9.97184e-01,4.09826e-01,1.22403e+00
2.14300e+02,-5.26246e+00,-3.65868e+01,1.00884e+00,4.14655e-01,1.23838e+00
2.14300e+02,-4.43399e+00,-3.32607e+01,1.01956e+00,4.19472e-01,1.25195e+00
2.14300e+02,-3.59845e+00,-2.99346e+01,1.02988e+00,4.24273e-01,1.26518e+00
2.14300e+02,-2.75194e+00,-2.66086e+01,1.03958e+00,4.29056e-01,1.27789e+00
2.14300e+02,-1.90360e+00,-2.32825e+01,1.04917e+00,4.33817e-01,1.29049e+00
2.14300e+02,-1.04871e+00,-1.99564e+01,1.05840e+00,4.38557e-01,1.30277e+00
2.14300e+02,-1.93910e-01,-1.66304e+01,1.06763e+00,4.43272e-01,1.31503e+00
2.14300e+02,6.57660e-01,-1.33043e+01,1.07705e+00,4.47964e-01,1.32742e+00
2.14300e+02,1.50923e+00,-9.97821e+00,1.08646e+00,4.52631e-01,1.33978e+00
2.14300e+02,2.34063e+00,-6.65214e+00,1.09701e+00,4.57276e-01,1.35305e+00
2.14300e+02,3.16828e+00,-3.32607e+00,1.10777e+00,4.61900e-01,1.36646e+00
3.20700e+02,4.18388e+01,0.00000e+00,-9.15566e-01,4.36154e-01,1.18699e+00
3.20700e+02,4.16280e+01,-3.17930e+00,-9.54003e-01,4.32054e-01,1.21249e+00
3.20700e+02,4.13477e+01,-6.35861e+00,-9.88949e-01,4.27854e-01,1.23580e+00
3.20700e+02,4.10646e+01,-9.53791e+00,-1.02376e+00,4.23558e-01,1.25948e+00
3.20700e+02,4.07201e+01,-1.27172e+01,-1.05548e+00,4.19175e-01,1.28108e+00
3.20700e+02,4.03613e+01,-1.58965e+01,-1.08649e+00,4.14711e-01,1.30246e+00
3.20700e+02,3.99553e+01,-1.90758e+01,-1.11513e+00,4.10172e-01,1.32221e+00
3.20700e+02,3.95264e+01,-2.22551e+01,-1.14263e+00,4.05565e-01,1.34128e+00
3.20700e+02,3.90596e+01,-2.54344e+01,-1.16822e+00,4.00896e-01,1.35900e+00
3.20700e+02,3.85617e+01,-2.86137e+01,-1.19225e+00,3.96171e-01,1.37562e+00
3.20700e+02,3.80295e+01,-3.17930e+01,-1.21457e+00,3.91396e-01,1.39095e+00
3.20700e+02,3.74559e+01,-3.49724e+01,-1.23480e+00,3.86578e-01,1.40466e+00
3.20700e+02,3.68398e+01,-3.81517e+01,-1.25291e+00,3.81723e-01,1.41666e+00
3.20700e+02,3.61637e+01,-4.13310e+01,-1.26800e+00,3.76839e-01,1.42613e+00
3.20700e+02,3.54289e+01,-4.45103e+01,-1.28016e+00,3.71936e-01,1.43312e+00
3.20700e+02,3.46242e+01,-4.76896e+01,-1.28881e+00,3.67021e-01,1.43706e+00
3.20700e+02,3.37247e+01,-5.08689e+01,-1.29270e+00,3.62111e-01,1.43682e+00
3.20700e+02,3.27593e+01,-5.40482e+01,-1.29328e+00,3.57210e-01,1.43366e+00
3.20700e+02,3.16454e+01,-5.72275e+01,-1.28642e+00,3.52344e-01,1.42384e+00
3.20700e+02,3.04701e+01,-6.04068e+01,-1.27648e+00,3.47525e-01,1.41128e+00
3.20700e+02,2.91233e+01,-6.35861e+01,-1.25794e+00,3.42764e-01,1.39100e+00
3.20700e+02,2.76393e+01,-6.67654e+01,-1.23252e+00,3.38102e-01,1.36456e+00
3.20700e+02,2.60154e+01,-6.99447e+01,-1.20008e+00,3.33546e-01,1.33190e+00
3.20700e+02,2.41570e+01,-7.31240e+01,-1.15588e+00,3.29113e-01,1.28880e+00
3.20700e+02,2.20269e+01,-7.63033e+01,-1.09805e+00,3.24857e-01,1.23382e+00
3.20700e+02,1.95896e+01,-7.94826e+01,-1.02482e+00,3.20830e-01,1.16578e+00
3.20700e+02,1.67068e+01,-8.26619e+01,-9.29240e-01,3.17064e-01,1.07939e+00
3.20700e+02,1.30066e+01,-8.58412e+01,-7.92665e-01,3.13744e-01,9.61053e-01
3.20700e+02,8.00212e+00,-8.90205e+01,-5.90679e-01,3.11716e-01,8.00251e-01
3.20700e+02,-3.24239e+00,-9.21998e+01,-7.57325e-02,3.12521e-01,5.46574e-01
3.20700e+02,-4.05392e+00,-9.22072e+01,-3.51456e-02,3.15018e-01,5.46757e-01
3.20700e+02,-1.14474e+01,-8.89141e+01,3.86425e-01,3.19753e-01,6.75314e-01
3.20700e+02,-1.23426e+01,-8.56210e+01,4.82080e-01,3.23251e-01,7.38833e-01
3.20700e+02,-1.26515e+01,-8.23279e+01,5.48332e-01,3.26931e-01,7.88239e-01
3.20700e+02,-1.26984e+01,-7.90348e+01,6.01442e-01,3.30783e-01,8.30653e-01
3.20700e+02,-1.25479e+01,-7.57416e+01,6.44651e-01,3.34774e-01,8.67062e-01
3.20700e+02,-1.22734e+01,-7.24485e+01,6.81647e-01,3.38883e-01,8.99537e-01
3.20700e+02,-1.18746e+01,-6.91554e+01,7.12404e-01,3.43085e-01,9.27707e-01
3.20700e+02,-1.13999e+01,-6.58623e+01,7.39355e-01,3.47359e-01,9.53216e-01
3.20700e+02,-1.08812e+01,-6.25692e+01,7.64099e-01,3.51694e-01,9.77197e-01
3.20700e+02,-1.02962e+01,-5.92761e+01,7.85517e-01,3.56080e-01,9.98707e-01
3.20700e+02,-9.66973e+00,-5.59829e+01,8.04858e-01,3.60502e-01,1.01867e+00
3.20700e+02,-9.00292e+00,-5.26898e+01,8.22174e-01,3.64954e-01,1.03708e+00
3.20700e+02,-8.29591e+00,-4.93967e+01,8.37474e-01,3.69425e-01,1.05394e+00
3.20700e+02,-7.56370e+00,-4.61036e+01,8.51510e-01,3.73907e-01,1.06981e+00
3.20700e+02,-6.79920e+00,-4.28105e+01,8.63927e-01,3.78395e-01,1.08440e+00
3.20700e+02,-6.01403e+00,-3.95174e+01,8.75307e-01,3.82881e-01,1.09816e+00
3.20700e+02,-5.21032e+00,-3.62243e+01,8.85757e-01,3.87360e-01,1.11118e+00
3.20700e+02,-4.39006e+00,-3.29311e+01,8.95378e-01,3.91828e-01,1.12352e+00
3.20700e+02,-3.56279e+00,-2.96380e+01,9.04647e-01,3.96281e-01,1.13556e+00
3.20700e+02,-2.72467e+00,-2.63449e+01,9.13371e-01,4.00716e-01,1.14716e+00
3.20700e+02,-1.88474e+00,-2.30518e+01,9.22004e-01,4.05132e-01,1.15866e+00
3.20700e+02,-1.03832e+00,-1.97587e+01,9.30313e-01,4.09528e-01,1.16988e+00
3.20700e+02,-1.91989e-01,-1.64656e+01,9.38626e-01,4.13902e-01,1.18109e+00
3.20700e+02,6.51143e-01,-1.31725e+01,9.47099e-01,4.18253e-01,1.19239e+00
3.20700e+02,1.49428e+00,-9.87934e+00,9.55572e-01,4.22582e-01,1.20368e+00
3.20700e+02,2.31744e+00,-6.58623e+00,9.65046e-01,4.26890e-01,1.21574e+00
3.20700e+02,3.13689e+00,-3.29311e+00,9.74707e-01,4.31179e-01,1.22792e+00
4.26200e+02,4.14236e+01,0.00000e+00,-7.99025e-01,4.05241e-01,1.06353e+00
4.26200e+02,4.12150e+01,-3.14776e+00,-8.32749e-01,4.01457e-01,1.08488e+00
4.26200e+02,4.09374e+01,-6.29551e+00,-8.63425e-01,3.97581e-01,1.10441e+00
4.26200e+02,4.06571e+01,-9.44327e+00,-8.93979e-01,3.93617e-01,1.12428e+00
4.26200e+02,4.03160e+01,-1.25910e+01,-9.21843e-01,3.89572e-01,1.14241e+00
4.26200e+02,3.99607e+01,-1.57388e+01,-9.49083e-01,3.85452e-01,1.16038e+00
4.26200e+02,3.95588e+01,-1.88865e+01,-9.74257e-01,3.81264e-01,1.17697e+00
4.26200e+02,3.91341e+01,-2.20343e+01,-9.98429e-01,3.77013e-01,1.19301e+00
4.26200e+02,3.86720e+01,-2.51820e+01,-1.02094e+00,3.72704e-01,1.20791e+00
4.26200e+02,3.81790e+01,-2.83298e+01,-1.04209e+00,3.68344e-01,1.22188e+00
4.26200e+02,3.76521e+01,-3.14776e+01,-1.06174e+00,3.63938e-01,1.23477e+00
4.26200e+02,3.70842e+01,-3.46253e+01,-1.07958e+00,3.59492e-01,1.24627e+00
4.26200e+02,3.64743e+01,-3.77731e+01,-1.09556e+00,3.55012e-01,1.25632e+00
4.26200e+02,3.58048e+01,-4.09208e+01,-1.10890e+00,3.50505e-01,1.26421e+00
4.26200e+02,3.50774e+01,-4.40686e+01,-1.11969e+00,3.45981e-01,1.26996e+00
4.26200e+02,3.42806e+01,-4.72163e+01,-1.12741e+00,3.41445e-01,1.27311e+00
4.26200e+02,3.33901e+01,-5.03641e+01,-1.13097e+00,3.36914e-01,1.27265e+00
4.26200e+02,3.24342e+01,-5.35118e+01,-1.13166e+00,3.32392e-01,1.26968e+00
4.26200e+02,3.13314e+01,-5.66596e+01,-1.12584e+00,3.27901e-01,1.26098e+00
4.26200e+02,3.01677e+01,-5.98074e+01,-1.11733e+00,3.23454e-01,1.24992e+00
4.26200e+02,2.88343e+01,-6.29551e+01,-1.10132e+00,3.19061e-01,1.23220e+00
4.26200e+02,2.73650e+01,-6.61029e+01,-1.07930e+00,3.14758e-01,1.20918e+00
4.26200e+02,2.57573e+01,-6.92506e+01,-1.05116e+00,3.10554e-01,1.18079e+00
4.26200e+02,2.39173e+01,-7.23984e+01,-1.01275e+00,3.06464e-01,1.14343e+00
4.26200e+02,2.18083e+01,-7.55461e+01,-9.62442e-01,3.02537e-01,1.09585e+00
4.26200e+02,1.93952e+01,-7.86939e+01,-8.98688e-01,2.98820e-01,1.03707e+00
4.26200e+02,1.65410e+01,-8.18417e+01,-8.15433e-01,2.95345e-01,9.62610e-01
4.26200e+02,1.28775e+01,-8.49894e+01,-6.96388e-01,2.92282e-01,8.60955e-01
4.26200e+02,7.92271e+00,-8.81372e+01,-5.20247e-01,2.90411e-01,7.23652e-01
4.26200e+02,-3.21022e+00,-9.12849e+01,-7.09230e-02,2.91153e-01,5.09255e-01
4.26200e+02,-4.01369e+00,-9.12922e+01,-3.54951e-02,2.93458e-01,5.09521e-01
4.26200e+02,-1.13339e+01,-8.80318e+01,3.32671e-01,2.97827e-01,6.13818e-01
4.26200e+02,-1.22201e+01,-8.47713e+01,4.16347e-01,3.01055e-01,6.67268e-01
4.26200e+02,-1.25260e+01,-8.15109e+01,4.74356e-01,3.04452e-01,7.09286e-01
4.26200e+02,-1.25724e+01,-7.82505e+01,5.20894e-01,3.08006e-01,7.45609e-01
4.26200e+02,-1.24233e+01,-7.49900e+01,5.58789e-01,3.11689e-01,7.76978e-01
4.26200e+02,-1.21516e+01,-7.17296e+01,5.91261e-01,3.15480e-01,8.05092e-01
4.26200e+02,-1.17568e+01,-6.84692e+01,6.18287e-01,3.19358e-01,8.29606e-01
4.26200e+02,-1.12868e+01,-6.52087e+01,6.41991e-01,3.23302e-01,8.51894e-01
4.26200e+02,-1.07732e+01,-6.19483e+01,6.63768e-01,3.27302e-01,8.72908e-01
4.26200e+02,-1.01940e+01,-5.86879e+01,6.82642e-01,3.31349e-01,8.91839e-01
4.26200e+02,-9.57378e+00,-5.54274e+01,6.99702e-01,3.35430e-01,9.09463e-01
4.26200e+02,-8.91358e+00,-5.21670e+01,7.14996e-01,3.39538e-01,9.25785e-01
4.26200e+02,-8.21359e+00,-4.89065e+01,7.28529e-01,3.43664e-01,9.40781e-01
4.26200e+02,-7.48864e+00,-4.56461e+01,7.40960e-01,3.47800e-01,9.54943e-01
4.26200e+02,-6.73173e+00,-4.23857e+01,7.51977e-01,3.51941e-01,9.68017e-01
4.26200e+02,-5.95435e+00,-3.91252e+01,7.62088e-01,3.56081e-01,9.80387e-01
4.26200e+02,-5.15861e+00,-3.58648e+01,7.71388e-01,3.60214e-01,9.92120e-01
4.26200e+02,-4.34650e+00,-3.26044e+01,7.79964e-01,3.64337e-01,1.00328e+00
4.26200e+02,-3.52744e+00,-2.93439e+01,7.88233e-01,3.68446e-01,1.01418e+00
4.26200e+02,-2.69763e+00,-2.60835e+01,7.96027e-01,3.72539e-01,1.02470e+00
4.26200e+02,-1.86603e+00,-2.28231e+01,8.03741e-01,3.76614e-01,1.03514e+00
4.26200e+02,-1.02802e+00,-1.95626e+01,8.11172e-01,3.80670e-01,1.04534e+00
4.26200e+02,-1.90083e-01,-1.63022e+01,8.18606e-01,3.84706e-01,1.05551e+00
4.26200e+02,6.44682e-01,-1.30417e+01,8.26180e-01,3.88721e-01,1.06578e+00
4.26200e+02,1.47945e+00,-9.78131e+00,8.33755e-01,3.92715e-01,1.07602e+00
4.26200e+02,2.29445e+00,-6.52087e+00,8.42203e-01,3.96690e-01,1.08692e+00
4.26200e+02,3.10576e+00,-3.26044e+00,8.50814e-01,4.00648e-01,1.09793e+00
5.30600e+02,4.10127e+01,0.00000e+00,-6.91294e-01,3.74583e-01,9.48063e-01
5.30600e+02,4.08062e+01,-3.11654e+00,-7.20640e-01,3.71110e-01,9.65655e-01
5.30600e+02,4.05314e+01,-6.23307e+00,-7.47349e-01,3.67552e-01,9.81740e-01
5.30600e+02,4.02539e+01,-9.34961e+00,-7.73952e-01,3.63913e-01,9.98148e-01
5.30600e+02,3.99161e+01,-1.24661e+01,-7.98227e-01,3.60201e-01,1.01311e+00
5.30600e+02,3.95644e+01,-1.55827e+01,-8.21962e-01,3.56420e-01,1.02797e+00
5.30600e+02,3.91664e+01,-1.86992e+01,-8.43909e-01,3.52575e-01,1.04169e+00
5.30600e+02,3.87460e+01,-2.18158e+01,-8.64989e-01,3.48673e-01,1.05495e+00
5.30600e+02,3.82884e+01,-2.49323e+01,-8.84633e-01,3.44719e-01,1.06727e+00
5.30600e+02,3.78003e+01,-2.80488e+01,-9.03097e-01,3.40717e-01,1.07882e+00
5.30600e+02,3.72787e+01,-3.11654e+01,-9.20265e-01,3.36673e-01,1.08946e+00
5.30600e+02,3.67164e+01,-3.42819e+01,-9.35861e-01,3.32592e-01,1.09895e+00
5.30600e+02,3.61125e+01,-3.73984e+01,-9.49850e-01,3.28480e-01,1.10721e+00
5.30600e+02,3.54497e+01,-4.05150e+01,-9.61562e-01,3.24343e-01,1.11364e+00
5.30600e+02,3.47295e+01,-4.36315e+01,-9.71055e-01,3.20191e-01,1.11826e+00
5.30600e+02,3.39406e+01,-4.67480e+01,-9.77897e-01,3.16028e-01,1.12067e+00
5.30600e+02,3.30589e+01,-4.98646e+01,-9.81146e-01,3.11869e-01,1.12002e+00
5.30600e+02,3.21125e+01,-5.29811e+01,-9.81898e-01,3.07718e-01,1.11723e+00
5.30600e+02,3.10206e+01,-5.60976e+01,-9.77028e-01,3.03597e-01,1.10955e+00
5.30600e+02,2.98685e+01,-5.92142e+01,-9.69827e-01,2.99515e-01,1.09986e+00
5.30600e+02,2.85484e+01,-6.23307e+01,-9.56134e-01,2.95483e-01,1.08449e+00
5.30600e+02,2.70936e+01,-6.54473e+01,-9.37237e-01,2.91534e-01,1.06461e+00
5.30600e+02,2.55018e+01,-6.85638e+01,-9.13046e-01,2.87675e-01,1.04016e+00
5.30600e+02,2.36801e+01,-7.16803e+01,-8.79967e-01,2.83921e-01,1.00806e+00
5.30600e+02,2.15920e+01,-7.47969e+01,-8.36593e-01,2.80317e-01,9.67275e-01
5.30600e+02,1.92028e+01,-7.79134e+01,-7.81583e-01,2.76906e-01,9.17007e-01
5.30600e+02,1.63770e+01,-8.10299e+01,-7.09695e-01,2.73716e-01,8.53481e-01
5.30600e+02,1.27498e+01,-8.41465e+01,-6.06837e-01,2.70905e-01,7.67085e-01
5.30600e+02,7.84413e+00,-8.72630e+01,-4.54567e-01,2.69187e-01,6.51166e-01
5.30600e+02,-3.17838e+00,-9.03795e+01,-6.58874e-02,2.69869e-01,4.72048e-01
5.30600e+02,-3.97388e+00,-9.03868e+01,-3.52288e-02,2.71984e-01,4.72405e-01
5.30600e+02,-1.12214e+01,-8.71587e+01,2.83547e-01,2.75994e-01,5.55804e-01
5.30600e+02,-1.20989e+01,-8.39306e+01,3.56126e-01,2.78957e-01,6.00231e-01
5.30600e+02,-1.24018e+01,-8.07025e+01,4.06495e-01,2.82075e-01,6.35560e-01
5.30600e+02,-1.24477e+01,-7.74744e+01,4.46935e-01,2.85337e-01,6.66335e-01
5.30600e+02,-1.23001e+01,-7.42463e+01,4.79897e-01,2.88718e-01,6.93091e-01
5.30600e+02,-1.20311e+01,-7.10182e+01,5.08165e-01,2.92197e-01,7.17196e-01
5.30600e+02,-1.16402e+01,-6.77901e+01,5.31721e-01,2.95756e-01,7.38337e-01
5.30600e+02,-1.11748e+01,-6.45620e+01,5.52401e-01,2.99376e-01,7.57644e-01
5.30600e+02,-1.06664e+01,-6.13339e+01,5.71414e-01,3.03048e-01,7.75905e-01
5.30600e+02,-1.00929e+01,-5.81058e+01,5.87915e-01,3.06762e-01,7.92435e-01
5.30600e+02,-9.47882e+00,-5.48777e+01,6.02847e-01,3.10508e-01,8.07879e-01
5.30600e+02,-8.82518e+00,-5.16496e+01,6.16249e-01,3.14278e-01,8.22238e-01
5.30600e+02,-8.13212e+00,-4.84215e+01,6.28128e-01,3.18065e-01,8.35488e-01
5.30600e+02,-7.41437e+00,-4.51934e+01,6.39052e-01,3.21861e-01,8.48040e-01
5.30600e+02,-6.66496e+00,-4.19653e+01,6.48754e-01,3.25662e-01,8.59680e-01
5.30600e+02,-5.89529e+00,-3.87372e+01,6.57672e-01,3.29461e-01,8.70728e-01
5.30600e+02,-5.10745e+00,-3.55091e+01,6.65887e-01,3.33255e-01,8.81240e-01
5.30600e+02,-4.30339e+00,-3.22810e+01,6.73476e-01,3.37039e-01,8.91267e-01
5.30600e+02,-3.49245e+00,-2.90529e+01,6.80799e-01,3.40810e-01,9.01079e-01
5.30600e+02,-2.67088e+00,-2.58248e+01,6.87711e-01,3.44567e-01,9.10563e-01
5.30600e+02,-1.84753e+00,-2.25967e+01,6.94555e-01,3.48307e-01,9.19978e-01
5.30600e+02,-1.01782e+00,-1.93686e+01,7.01153e-01,3.52030e-01,9.29188e-01
5.30600e+02,-1.88198e-01,-1.61405e+01,7.07754e-01,3.55734e-01,9.38379e-01
5.30600e+02,6.38288e-01,-1.29124e+01,7.14476e-01,3.59419e-01,9.47640e-01
5.30600e+02,1.46477e+00,-9.68430e+00,7.21198e-01,3.63085e-01,9.56880e-01
5.30600e+02,2.27169e+00,-6.45620e+00,7.28676e-01,3.66733e-01,9.66669e-01
5.30600e+02,3.07496e+00,-3.22810e+00,7.36296e-01,3.70366e-01,9.76547e-01
6.33500e+02,4.06078e+01,0.00000e+00,-5.92648e-01,3.43955e-01,8.40325e-01
6.33500e+02,4.04033e+01,-3.08576e+00,-6.17964e-01,3.40784e-01,8.54564e-01
6.33500e+02,4.01312e+01,-6.17153e+00,-6.41018e-01,3.37536e-01,8.67581e-01
6.33500e+02,3.98564e+01,-9.25729e+00,-6.63982e-01,3.34215e-01,8.80892e-01
6.33500e+02,3.95220e+01,-1.23431e+01,-6.84950e-01,3.30826e-01,8.93025e-01
6.33500e+02,3.91738e+01,-1.54288e+01,-7.05454e-01,3.27374e-01,9.05089e-01
6.33500e+02,3.87797e+01,-1.85146e+01,-7.24425e-01,3.23865e-01,9.16219e-01
6.33500e+02,3.83634e+01,-2.16004e+01,-7.42653e-01,3.20303e-01,9.26992e-01
6.33500e+02,3.79104e+01,-2.46861e+01,-7.59649e-01,3.16693e-01,9.36990e-01
6.33500e+02,3.74271e+01,-2.77719e+01,-7.75634e-01,3.13040e-01,9.46356e-01
6.33500e+02,3.69106e+01,-3.08576e+01,-7.90506e-01,3.09348e-01,9.54981e-01
6.33500e+02,3.63539e+01,-3.39434e+01,-8.04031e-01,3.05623e-01,9.62644e-01
6.33500e+02,3.57559e+01,-3.70292e+01,-8.16178e-01,3.01869e-01,9.69289e-01
6.33500e+02,3.50997e+01,-4.01149e+01,-8.26372e-01,2.98093e-01,9.74407e-01
6.33500e+02,3.43866e+01,-4.32007e+01,-8.34663e-01,2.94302e-01,9.78010e-01
6.33500e+02,3.36055e+01,-4.62865e+01,-8.40680e-01,2.90502e-01,9.79754e-01
6.33500e+02,3.27325e+01,-4.93722e+01,-8.43618e-01,2.86706e-01,9.78924e-01
6.33500e+02,3.17954e+01,-5.24580e+01,-8.44413e-01,2.82917e-01,9.76299e-01
6.33500e+02,3.07144e+01,-5.55438e+01,-8.40387e-01,2.79155e-01,9.69553e-01
6.33500e+02,2.95736e+01,-5.86295e+01,-8.34362e-01,2.75429e-01,9.61115e-01
6.33500e+02,2.82665e+01,-6.17153e+01,-8.22770e-01,2.71748e-01,9.47887e-01
6.33500e+02,2.68261e+01,-6.48011e+01,-8.06715e-01,2.68143e-01,9.30856e-01
6.33500e+02,2.52500e+01,-6.78868e+01,-7.86120e-01,2.64621e-01,9.09977e-01
6.33500e+02,2.34463e+01,-7.09726e+01,-7.57904e-01,2.61194e-01,8.82658e-01
6.33500e+02,2.13788e+01,-7.40584e+01,-7.20858e-01,2.57904e-01,8.48045e-01
6.33500e+02,1.90132e+01,-7.71441e+01,-6.73834e-01,2.54790e-01,8.05485e-01
6.33500e+02,1.62153e+01,-8.02299e+01,-6.12337e-01,2.51879e-01,7.51855e-01
6.33500e+02,1.26239e+01,-8.33156e+01,-5.24281e-01,2.49312e-01,6.79220e-01
6.33500e+02,7.76668e+00,-8.64014e+01,-3.93852e-01,2.47745e-01,5.82453e-01
6.33500e+02,-3.14700e+00,-8.94872e+01,-6.06878e-02,2.48367e-01,4.34444e-01
6.33500e+02,-3.93464e+00,-8.94943e+01,-3.43967e-02,2.50298e-01,4.34891e-01
6.33500e+02,-1.11106e+01,-8.62981e+01,2.39127e-01,2.53959e-01,5.00666e-01
6.33500e+02,-1.19795e+01,-8.31019e+01,3.01524e-01,2.56663e-01,5.37163e-01
6.33500e+02,-1.22793e+01,-7.99057e+01,3.44873e-01,2.59509e-01,5.66544e-01
6.33500e+02,-1.23248e+01,-7.67094e+01,3.79709e-01,2.62487e-01,5.92349e-01
6.33500e+02,-1.21787e+01,-7.35132e+01,4.08131e-01,2.65573e-01,6.14946e-01
6.33500e+02,-1.19123e+01,-7.03170e+01,4.32528e-01,2.68750e-01,6.35421e-01
6.33500e+02,-1.15252e+01,-6.71208e+01,4.52884e-01,2.71998e-01,6.53493e-01
6.33500e+02,-1.10645e+01,-6.39245e+01,4.70774e-01,2.75303e-01,6.70077e-01
6.33500e+02,-1.05611e+01,-6.07283e+01,4.87235e-01,2.78655e-01,6.85816e-01
6.33500e+02,-9.99326e+00,-5.75321e+01,5.01541e-01,2.82045e-01,7.00137e-01
6.33500e+02,-9.38524e+00,-5.43358e+01,5.14502e-01,2.85464e-01,7.13569e-01
6.33500e+02,-8.73804e+00,-5.11396e+01,5.26150e-01,2.88906e-01,7.26109e-01
6.33500e+02,-8.05183e+00,-4.79434e+01,5.36493e-01,2.92362e-01,7.37735e-01
6.33500e+02,-7.34116e+00,-4.47472e+01,5.46017e-01,2.95828e-01,7.48784e-01
6.33500e+02,-6.59916e+00,-4.15509e+01,5.54493e-01,2.99298e-01,7.59078e-01
6.33500e+02,-5.83709e+00,-3.83547e+01,5.62296e-01,3.02766e-01,7.68881e-01
6.33500e+02,-5.05702e+00,-3.51585e+01,5.69497e-01,3.06229e-01,7.78239e-01
6.33500e+02,-4.26090e+00,-3.19623e+01,5.76161e-01,3.09683e-01,7.87192e-01
6.33500e+02,-3.45797e+00,-2.87660e+01,5.82597e-01,3.13125e-01,7.95965e-01
6.33500e+02,-2.64450e+00,-2.55698e+01,5.88680e-01,3.16554e-01,8.04465e-01
6.33500e+02,-1.82928e+00,-2.23736e+01,5.94704e-01,3.19968e-01,8.12903e-01
6.33500e+02,-1.00777e+00,-1.91774e+01,6.00518e-01,3.23367e-01,8.21170e-01
6.33500e+02,-1.86340e-01,-1.59811e+01,6.06334e-01,3.26748e-01,8.29417e-01
6.33500e+02,6.31986e-01,-1.27849e+01,6.12255e-01,3.30112e-01,8.37722e-01
6.33500e+02,1.45031e+00,-9.58868e+00,6.18175e-01,3.33458e-01,8.46004e-01
6.33500e+02,2.24926e+00,-6.39245e+00,6.24744e-01,3.36788e-01,8.54742e-01
6.33500e+02,3.04460e+00,-3.19623e+00,6.31434e-01,3.40104e-01,8.63551e-01
7.34700e+02,4.02095e+01,0.00000e+00,-5.03035e-01,3.13461e-01,7.40147e-01
7.34700e+02,4.00070e+01,-3.05550e+00,-5.24667e-01,3.10584e-01,7.51440e-01
7.34700e+02,3.97376e+01,-6.11100e+00,-5.44379e-01,3.07636e-01,7.61754e-01
7.34700e+02,3.94656e+01,-9.16651e+00,-5.64014e-01,3.04622e-01,7.72331e-01
7.34700e+02,3.91344e+01,-1.22220e+01,-5.81954e-01,3.01547e-01,7.81960e-01
7.34700e+02,3.87896e+01,-1.52775e+01,-5.99501e-01,2.98414e-01,7.91552e-01
7.34700e+02,3.83994e+01,-1.83330e+01,-6.15746e-01,2.95229e-01,8.00390e-01
7.34700e+02,3.79872e+01,-2.13885e+01,-6.31359e-01,2.91997e-01,8.08951e-01
7.34700e+02,3.75386e+01,-2.44440e+01,-6.45928e-01,2.88721e-01,8.16885e-01
7.34700e+02,3.70601e+01,-2.74995e+01,-6.59637e-01,2.85406e-01,8.24312e-01
7.34700e+02,3.65486e+01,-3.05550e+01,-6.72401e-01,2.82056e-01,8.31138e-01
7.34700e+02,3.59973e+01,-3.36105e+01,-6.84023e-01,2.78675e-01,8.37178e-01
7.34700e+02,3.54053e+01,-3.66660e+01,-6.94473e-01,2.75269e-01,8.42384e-01
7.34700e+02,3.47554e+01,-3.97215e+01,-7.03265e-01,2.71842e-01,8.46331e-01
7.34700e+02,3.40493e+01,-4.27770e+01,-7.10442e-01,2.68402e-01,8.49027e-01
7.34700e+02,3.32760e+01,-4.58325e+01,-7.15688e-01,2.64953e-01,8.50182e-01
7.34700e+02,3.24115e+01,-4.88880e+01,-7.18319e-01,2.61508e-01,8.49201e-01
7.34700e+02,3.14836e+01,-5.19435e+01,-7.19132e-01,2.58069e-01,8.46729e-01
7.34700e+02,3.04131e+01,-5.49990e+01,-7.15850e-01,2.54655e-01,8.40826e-01
7.34700e+02,2.92835e+01,-5.80545e+01,-7.10871e-01,2.51274e-01,8.33519e-01
7.34700e+02,2.79893e+01,-6.11100e+01,-7.01165e-01,2.47934e-01,8.22220e-01
7.34700e+02,2.65630e+01,-6.41655e+01,-6.87671e-01,2.44663e-01,8.07757e-01
7.34700e+02,2.50024e+01,-6.72210e+01,-6.70321e-01,2.41466e-01,7.90094e-01
7.34700e+02,2.32164e+01,-7.02765e+01,-6.46500e-01,2.38356e-01,7.67075e-01
7.34700e+02,2.11691e+01,-7.33320e+01,-6.15183e-01,2.35370e-01,7.38003e-01
7.34700e+02,1.88268e+01,-7.63875e+01,-5.75393e-01,2.32545e-01,7.02359e-01
7.34700e+02,1.60563e+01,-7.94430e+01,-5.23314e-01,2.29903e-01,6.57589e-01
7.34700e+02,1.25001e+01,-8.24985e+01,-4.48685e-01,2.27574e-01,5.97233e-01
7.34700e+02,7.69051e+00,-8.55540e+01,-3.38077e-01,2.26151e-01,5.17426e-01
7.34700e+02,-3.11614e+00,-8.86096e+01,-5.53327e-02,2.26716e-01,3.96563e-01
7.34700e+02,-3.89606e+00,-8.86166e+01,-3.30099e-02,2.28468e-01,3.97093e-01
7.34700e+02,-1.10017e+01,-8.54518e+01,1.99374e-01,2.31791e-01,4.48253e-01
7.34700e+02,-1.18620e+01,-8.22869e+01,2.52496e-01,2.34245e-01,4.77877e-01
7.34700e+02,-1.21589e+01,-7.91220e+01,2.89445e-01,2.36828e-01,5.02036e-01
7.34700e+02,-1.22039e+01,-7.59571e+01,3.19165e-01,2.39530e-01,5.23441e-01
7.34700e+02,-1.20592e+01,-7.27922e+01,3.43439e-01,2.42331e-01,5.42331e-01
7.34700e+02,-1.17955e+01,-6.96274e+01,3.64296e-01,2.45213e-01,5.59554e-01
7.34700e+02,-1.14122e+01,-6.64625e+01,3.81722e-01,2.48161e-01,5.74860e-01
7.34700e+02,-1.09560e+01,-6.32976e+01,3.97054e-01,2.51160e-01,5.88979e-01
7.34700e+02,-1.04575e+01,-6.01327e+01,4.11172e-01,2.54202e-01,6.02427e-01
7.34700e+02,-9.89525e+00,-5.69678e+01,4.23461e-01,2.57279e-01,6.14733e-01
7.34700e+02,-9.29319e+00,-5.38030e+01,4.34607e-01,2.60382e-01,6.26322e-01
7.34700e+02,-8.65235e+00,-5.06381e+01,4.44640e-01,2.63505e-01,6.37188e-01
7.34700e+02,-7.97287e+00,-4.74732e+01,4.53564e-01,2.66641e-01,6.47312e-01
7.34700e+02,-7.26917e+00,-4.43083e+01,4.61792e-01,2.69787e-01,6.56968e-01
7.34700e+02,-6.53444e+00,-4.11434e+01,4.69130e-01,2.72935e-01,6.66006e-01
7.34700e+02,-5.77984e+00,-3.79786e+01,4.75898e-01,2.76082e-01,6.74643e-01
7.34700e+02,-5.00742e+00,-3.48137e+01,4.82154e-01,2.79225e-01,6.82915e-01
7.34700e+02,-4.21911e+00,-3.16488e+01,4.87954e-01,2.82359e-01,6.90854e-01
7.34700e+02,-3.42406e+00,-2.84839e+01,4.93560e-01,2.85483e-01,6.98644e-01
7.34700e+02,-2.61857e+00,-2.53190e+01,4.98867e-01,2.88595e-01,7.06208e-01
7.34700e+02,-1.81134e+00,-2.21542e+01,5.04124e-01,2.91693e-01,7.13720e-01
7.34700e+02,-9.97887e-01,-1.89893e+01,5.09203e-01,2.94777e-01,7.21088e-01
7.34700e+02,-1.84513e-01,-1.58244e+01,5.14283e-01,2.97845e-01,7.28438e-01
7.34700e+02,6.25788e-01,-1.26595e+01,5.19452e-01,3.00898e-01,7.35832e-01
7.34700e+02,1.43609e+00,-9.49464e+00,5.24621e-01,3.03935e-01,7.43206e-01
7.34700e+02,2.22720e+00,-6.32976e+00,5.30340e-01,3.06957e-01,7.50951e-01
7.34700e+02,3.01474e+00,-3.16488e+00,5.36162e-01,3.09966e-01,7.58753e-01
8.33800e+02,3.98196e+01,0.00000e+00,-4.22478e-01,2.83280e-01,6.47480e-01
8.33800e+02,3.96190e+01,-3.02587e+00,-4.40774e-01,2.80685e-01,6.56227e-01
8.33800e+02,3.93522e+01,-6.05173e+00,-4.57457e-01,2.78027e-01,6.64202e-01
8.33800e+02,3.90828e+01,-9.07760e+00,-4.74075e-01,2.75308e-01,6.72407e-01
8.33800e+02,3.87549e+01,-1.21035e+01,-4.89269e-01,2.72534e-01,6.79860e-01
8.33800e+02,3.84134e+01,-1.51293e+01,-5.04133e-01,2.69709e-01,6.87298e-01
8.33800e+02,3.80270e+01,-1.81552e+01,-5.17903e-01,2.66837e-01,6.94139e-01
8.33800e+02,3.76188e+01,-2.11811e+01,-5.31142e-01,2.63921e-01,7.00768e-01
8.33800e+02,3.71745e+01,-2.42069e+01,-5.43504e-01,2.60967e-01,7.06899e-01
8.33800e+02,3.67006e+01,-2.72328e+01,-5.55143e-01,2.57977e-01,7.12629e-01
8.33800e+02,3.61941e+01,-3.02587e+01,-5.65989e-01,2.54955e-01,7.17879e-01
8.33800e+02,3.56482e+01,-3.32845e+01,-5.75874e-01,2.51906e-01,7.22497e-01
8.33800e+02,3.50619e+01,-3.63104e+01,-5.84775e-01,2.48834e-01,7.26442e-01
8.33800e+02,3.44183e+01,-3.93363e+01,-5.92284e-01,2.45743e-01,7.29362e-01
8.33800e+02,3.37191e+01,-4.23621e+01,-5.98435e-01,2.42641e-01,7.31265e-01
8.33800e+02,3.29532e+01,-4.53880e+01,-6.02964e-01,2.39530e-01,7.31909e-01
8.33800e+02,3.20971e+01,-4.84139e+01,-6.05296e-01,2.36423e-01,7.30802e-01
8.33800e+02,3.11783e+01,-5.14397e+01,-6.06100e-01,2.33322e-01,7.28475e-01
8.33800e+02,3.01182e+01,-5.44656e+01,-6.03465e-01,2.30243e-01,7.23329e-01
8.33800e+02,2.89995e+01,-5.74915e+01,-5.99403e-01,2.27193e-01,7.17032e-01
8.33800e+02,2.77178e+01,-6.05173e+01,-5.91370e-01,2.24181e-01,7.07453e-01
8.33800e+02,2.63054e+01,-6.35432e+01,-5.80154e-01,2.21230e-01,6.95275e-01
8.33800e+02,2.47599e+01,-6.65691e+01,-5.65699e-01,2.18348e-01,6.80472e-01
8.33800e+02,2.29912e+01,-6.95949e+01,-5.45807e-01,2.15543e-01,6.61272e-01
8.33800e+02,2.09638e+01,-7.26208e+01,-5.19617e-01,2.12850e-01,6.37116e-01
8.33800e+02,1.86442e+01,-7.56467e+01,-4.86308e-01,2.10301e-01,6.07598e-01
8.33800e+02,1.59005e+01,-7.86725e+01,-4.42675e-01,2.07919e-01,5.70659e-01
8.33800e+02,1.23789e+01,-8.16984e+01,-3.80095e-01,2.05818e-01,5.21110e-01
8.33800e+02,7.61592e+00,-8.47243e+01,-2.87288e-01,2.04536e-01,4.56113e-01
8.33800e+02,-3.08591e+00,-8.77501e+01,-4.98569e-02,2.05045e-01,3.58631e-01
8.33800e+02,-3.85827e+00,-8.77572e+01,-3.11023e-02,2.06625e-01,3.59234e-01
8.33800e+02,-1.08950e+01,-8.46230e+01,1.64265e-01,2.09622e-01,3.98506e-01
8.33800e+02,-1.17470e+01,-8.14888e+01,2.09021e-01,2.11835e-01,4.22271e-01
8.33800e+02,-1.20409e+01,-7.83546e+01,2.40190e-01,2.14165e-01,4.41917e-01
8.33800e+02,-1.20856e+01,-7.52204e+01,2.65286e-01,2.16602e-01,4.59484e-01
8.33800e+02,-1.19423e+01,-7.20862e+01,2.85807e-01,2.19128e-01,4.75117e-01
8.33800e+02,-1.16811e+01,-6.89521e+01,3.03456e-01,2.21728e-01,4.89464e-01
8.33800e+02,-1.13015e+01,-6.58179e+01,3.18222e-01,2.24386e-01,5.02308e-01
8.33800e+02,-1.08497e+01,-6.26837e+01,3.31229e-01,2.27091e-01,5.14222e-01
8.33800e+02,-1.03561e+01,-5.95495e+01,3.43217e-01,2.29835e-01,5.25613e-01
8.33800e+02,-9.79928e+00,-5.64153e+01,3.53667e-01,2.32609e-01,5.36099e-01
8.33800e+02,-9.20306e+00,-5.32811e+01,3.63158e-01,2.35408e-01,5.46017e-01
8.33800e+02,-8.56843e+00,-5.01469e+01,3.71713e-01,2.38225e-01,5.55359e-01
8.33800e+02,-7.89554e+00,-4.70128e+01,3.79336e-01,2.41054e-01,5.64107e-01
8.33800e+02,-7.19866e+00,-4.38786e+01,3.86375e-01,2.43890e-01,5.72480e-01
8.33800e+02,-6.47106e+00,-4.07444e+01,3.92666e-01,2.46730e-01,5.80356e-01
8.33800e+02,-5.72378e+00,-3.76102e+01,3.98478e-01,2.49568e-01,5.87910e-01
8.33800e+02,-4.95886e+00,-3.44760e+01,4.03860e-01,2.52403e-01,5.95167e-01
8.33800e+02,-4.17819e+00,-3.13418e+01,4.08859e-01,2.55229e-01,6.02156e-01
8.33800e+02,-3.39085e+00,-2.82077e+01,4.13695e-01,2.58047e-01,6.09022e-01
8.33800e+02,-2.59317e+00,-2.50735e+01,4.18279e-01,2.60853e-01,6.15703e-01
8.33800e+02,-1.79378e+00,-2.19393e+01,4.22822e-01,2.63647e-01,6.22341e-01
8.33800e+02,-9.88209e-01,-1.88051e+01,4.27214e-01,2.66429e-01,6.28860e-01
8.33800e+02,-1.82723e-01,-1.56709e+01,4.31609e-01,2.69196e-01,6.35362e-01
8.33800e+02,6.19718e-01,-1.25367e+01,4.36077e-01,2.71949e-01,6.41897e-01
8.33800e+02,1.42216e+00,-9.40255e+00,4.40545e-01,2.74688e-01,6.48414e-01
8.33800e+02,2.20560e+00,-6.26837e+00,4.45477e-01,2.77413e-01,6.55228e-01
8.33800e+02,2.98550e+00,-3.13418e+00,4.50494e-01,2.80127e-01,6.62086e-01
9.30700e+02,3.94382e+01,0.00000e+00,-3.50662e-01,2.53646e-01,5.62115e-01
9.30700e+02,3.92396e+01,-2.99689e+00,-3.65960e-01,2.51322e-01,5.68696e-01
9.30700e+02,3.89754e+01,-5.99378e+00,-3.79917e-01,2.48942e-01,5.74677e-01
9.30700e+02,3.87085e+01,-8.99067e+00,-3.93822e-01,2.46507e-01,5.80855e-01
9.30700e+02,3.83837e+01,-1.19876e+01,-4.06543e-01,2.44023e-01,5.86446e-01
9.30700e+02,3.80455e+01,-1.49844e+01,-4.18990e-01,2.41493e-01,5.92039e-01
9.30700e+02,3.76628e+01,-1.79813e+01,-4.30529e-01,2.38921e-01,5.97165e-01
9.30700e+02,3.72585e+01,-2.09782e+01,-4.41628e-01,2.36311e-01,6.02132e-01
9.30700e+02,3.68185e+01,-2.39751e+01,-4.51997e-01,2.33665e-01,6.06711e-01
9.30700e+02,3.63492e+01,-2.69720e+01,-4.61767e-01,2.30987e-01,6.10978e-01
9.30700e+02,3.58475e+01,-2.99689e+01,-4.70878e-01,2.28282e-01,6.14869e-01
9.30700e+02,3.53068e+01,-3.29658e+01,-4.79192e-01,2.25551e-01,6.18259e-01
9.30700e+02,3.47261e+01,-3.59627e+01,-4.86688e-01,2.22800e-01,6.21116e-01
9.30700e+02,3.40887e+01,-3.89596e+01,-4.93028e-01,2.20033e-01,6.23153e-01
9.30700e+02,3.33962e+01,-4.19565e+01,-4.98241e-01,2.17254e-01,6.24373e-01
9.30700e+02,3.26376e+01,-4.49533e+01,-5.02107e-01,2.14469e-01,6.24582e-01
9.30700e+02,3.17897e+01,-4.79502e+01,-5.04149e-01,2.11687e-01,6.23378e-01
9.30700e+02,3.08797e+01,-5.09471e+01,-5.04921e-01,2.08910e-01,6.21189e-01
9.30700e+02,2.98297e+01,-5.39440e+01,-5.02838e-01,2.06152e-01,6.16719e-01
9.30700e+02,2.87218e+01,-5.69409e+01,-4.99571e-01,2.03422e-01,6.11320e-01
9.30700e+02,2.74524e+01,-5.99378e+01,-4.93006e-01,2.00724e-01,6.03262e-01
9.30700e+02,2.60534e+01,-6.29347e+01,-4.83798e-01,1.98082e-01,5.93102e-01
9.30700e+02,2.45228e+01,-6.59316e+01,-4.71901e-01,1.95501e-01,5.80820e-01
9.30700e+02,2.27710e+01,-6.89285e+01,-4.55489e-01,1.92989e-01,5.64982e-01
9.30700e+02,2.07631e+01,-7.19254e+01,-4.33848e-01,1.90578e-01,5.45145e-01
9.30700e+02,1.84656e+01,-7.49222e+01,-4.06295e-01,1.88296e-01,5.21001e-01
9.30700e+02,1.57483e+01,-7.79191e+01,-3.70170e-01,1.86162e-01,4.90913e-01
9.30700e+02,1.22603e+01,-8.09160e+01,-3.18313e-01,1.84281e-01,4.50779e-01
9.30700e+02,7.54299e+00,-8.39129e+01,-2.41357e-01,1.83133e-01,3.98580e-01
9.30700e+02,-3.05636e+00,-8.69098e+01,-4.43146e-02,1.83589e-01,3.21058e-01
9.30700e+02,-3.82132e+00,-8.69168e+01,-2.87421e-02,1.85004e-01,3.21723e-01
9.30700e+02,-1.07906e+01,-8.38126e+01,1.33588e-01,1.87687e-01,3.51462e-01
9.30700e+02,-1.16345e+01,-8.07084e+01,1.70860e-01,1.89670e-01,3.70293e-01
9.30700e+02,-1.19256e+01,-7.76042e+01,1.96850e-01,1.91755e-01,3.86083e-01
9.30700e+02,-1.19698e+01,-7.45001e+01,2.17797e-01,1.93938e-01,4.00339e-01
9.30700e+02,-1.18279e+01,-7.13959e+01,2.34945e-01,1.96200e-01,4.13137e-01
9.30700e+02,-1.15692e+01,-6.82917e+01,2.49709e-01,1.98528e-01,4.24964e-01
9.30700e+02,-1.11933e+01,-6.51876e+01,2.62079e-01,2.00909e-01,4.35635e-01
9.30700e+02,-1.07458e+01,-6.20834e+01,2.72988e-01,2.03331e-01,4.45592e-01
9.30700e+02,-1.02569e+01,-5.89792e+01,2.83051e-01,2.05787e-01,4.55152e-01
9.30700e+02,-9.70544e+00,-5.58751e+01,2.91838e-01,2.08272e-01,4.64005e-01
9.30700e+02,-9.11493e+00,-5.27709e+01,2.99827e-01,2.10778e-01,4.72417e-01
9.30700e+02,-8.48637e+00,-4.96667e+01,3.07040e-01,2.13300e-01,4.80379e-01
9.30700e+02,-7.81993e+00,-4.65625e+01,3.13479e-01,2.15833e-01,4.87874e-01
9.30700e+02,-7.12973e+00,-4.34584e+01,3.19433e-01,2.18373e-01,4.95074e-01
9.30700e+02,-6.40909e+00,-4.03542e+01,3.24765e-01,2.20916e-01,5.01881e-01
9.30700e+02,-5.66897e+00,-3.72500e+01,3.29700e-01,2.23458e-01,5.08431e-01
9.30700e+02,-4.91137e+00,-3.41459e+01,3.34278e-01,2.25996e-01,5.14747e-01
9.30700e+02,-4.13818e+00,-3.10417e+01,3.38538e-01,2.28527e-01,5.20847e-01
9.30700e+02,-3.35837e+00,-2.79375e+01,3.42662e-01,2.31050e-01,5.26849e-01
9.30700e+02,-2.56834e+00,-2.48334e+01,3.46578e-01,2.33563e-01,5.32702e-01
9.30700e+02,-1.77660e+00,-2.17292e+01,3.50459e-01,2.36065e-01,5.38518e-01
9.30700e+02,-9.78745e-01,-1.86250e+01,3.54215e-01,2.38555e-01,5.44238e-01
9.30700e+02,-1.80973e-01,-1.55208e+01,3.57973e-01,2.41033e-01,5.49942e-01
9.30700e+02,6.13784e-01,-1.24167e+01,3.61792e-01,2.43499e-01,5.55670e-01
9.30700e+02,1.40854e+00,-9.31251e+00,3.65612e-01,2.45951e-01,5.61380e-01
9.30700e+02,2.18448e+00,-6.20834e+00,3.69815e-01,2.48391e-01,5.67326e-01
9.30700e+02,2.95691e+00,-3.10417e+00,3.74091e-01,2.50821e-01,5.73304e-01
1.02500e+03,3.90671e+01,0.00000e+00,-2.87381e-01,2.24866e-01,4.84026e-01
1.02500e+03,3.88704e+01,-2.96869e+00,-3.00013e-01,2.22798e-01,4.88799e-01
1.02500e+03,3.86086e+01,-5.93738e+00,-3.11547e-01,2.20679e-01,4.93112e-01
1.02500e+03,3.83443e+01,-8.90607e+00,-3.23037e-01,2.18512e-01,4.97590e-01
1.02500e+03,3.80226e+01,-1.18748e+01,-3.33557e-01,2.16302e-01,5.01617e-01
1.02500e+03,3.76875e+01,-1.48435e+01,-3.43852e-01,2.14050e-01,5.05655e-01
1.02500e+03,3.73084e+01,-1.78121e+01,-3.53403e-01,2.11761e-01,5.09335e-01
1.02500e+03,3.69079e+01,-2.07808e+01,-3.62592e-01,2.09438e-01,5.12899e-01
1.02500e+03,3.64721e+01,-2.37495e+01,-3.71184e-01,2.07083e-01,5.16166e-01
1.02500e+03,3.60071e+01,-2.67182e+01,-3.79284e-01,2.04700e-01,5.19195e-01
1.02500e+03,3.55102e+01,-2.96869e+01,-3.86844e-01,2.02293e-01,5.21934e-01
1.02500e+03,3.49746e+01,-3.26556e+01,-3.93750e-01,1.99863e-01,5.24285e-01
1.02500e+03,3.43994e+01,-3.56243e+01,-3.99986e-01,1.97414e-01,5.26219e-01
1.02500e+03,3.37680e+01,-3.85930e+01,-4.05274e-01,1.94951e-01,5.27509e-01
1.02500e+03,3.30819e+01,-4.15617e+01,-4.09638e-01,1.92479e-01,5.28155e-01
1.02500e+03,3.23305e+01,-4.45304e+01,-4.12898e-01,1.90000e-01,5.28001e-01
1.02500e+03,3.14906e+01,-4.74990e+01,-4.14662e-01,1.87524e-01,5.26726e-01
1.02500e+03,3.05891e+01,-5.04677e+01,-4.15385e-01,1.85053e-01,5.24670e-01
1.02500e+03,2.95491e+01,-5.34364e+01,-4.13767e-01,1.82599e-01,5.20798e-01
1.02500e+03,2.84516e+01,-5.64051e+01,-4.11179e-01,1.80169e-01,5.16188e-01
1.02500e+03,2.71940e+01,-5.93738e+01,-4.05886e-01,1.77768e-01,5.09459e-01
1.02500e+03,2.58083e+01,-6.23425e+01,-3.98427e-01,1.75417e-01,5.01057e-01
1.02500e+03,2.42920e+01,-6.53112e+01,-3.88763e-01,1.73120e-01,4.90966e-01
1.02500e+03,2.25567e+01,-6.82799e+01,-3.75397e-01,1.70885e-01,4.78046e-01
1.02500e+03,2.05677e+01,-7.12486e+01,-3.57744e-01,1.68739e-01,4.61951e-01
1.02500e+03,1.82919e+01,-7.42173e+01,-3.35244e-01,1.66708e-01,4.42451e-01
1.02500e+03,1.56001e+01,-7.71859e+01,-3.05716e-01,1.64809e-01,4.18268e-01
1.02500e+03,1.21450e+01,-8.01546e+01,-2.63289e-01,1.63135e-01,3.86213e-01
1.02500e+03,7.47201e+00,-8.31233e+01,-2.00285e-01,1.62113e-01,3.44900e-01
1.02500e+03,-3.02760e+00,-8.60920e+01,-3.88231e-02,1.62519e-01,2.84156e-01
1.02500e+03,-3.78536e+00,-8.60989e+01,-2.60558e-02,1.63779e-01,2.84867e-01
1.02500e+03,-1.06891e+01,-8.30239e+01,1.07129e-01,1.66167e-01,3.07101e-01
1.02500e+03,-1.15250e+01,-7.99490e+01,1.37781e-01,1.67931e-01,3.21847e-01
1.02500e+03,-1.18134e+01,-7.68740e+01,1.59182e-01,1.69787e-01,3.34398e-01
1.02500e+03,-1.18572e+01,-7.37991e+01,1.76450e-01,1.71729e-01,3.45843e-01
1.02500e+03,-1.17166e+01,-7.07241e+01,1.90602e-01,1.73742e-01,3.56214e-01
1.02500e+03,-1.14604e+01,-6.76491e+01,2.02800e-01,1.75814e-01,3.65868e-01
1.02500e+03,-1.10880e+01,-6.45742e+01,2.13035e-01,1.77933e-01,3.74652e-01
1.02500e+03,-1.06447e+01,-6.14992e+01,2.22073e-01,1.80088e-01,3.82899e-01
1.02500e+03,-1.01604e+01,-5.84243e+01,2.30416e-01,1.82275e-01,3.90850e-01
1.02500e+03,-9.61411e+00,-5.53493e+01,2.37714e-01,1.84486e-01,3.98262e-01
1.02500e+03,-9.02916e+00,-5.22743e+01,2.44357e-01,1.86716e-01,4.05338e-01
1.02500e+03,-8.40652e+00,-4.91994e+01,2.50364e-01,1.88961e-01,4.12069e-01
1.02500e+03,-7.74634e+00,-4.61244e+01,2.55736e-01,1.91215e-01,4.18438e-01
1.02500e+03,-7.06264e+00,-4.30495e+01,2.60711e-01,1.93475e-01,4.24580e-01
1.02500e+03,-6.34878e+00,-3.99745e+01,2.65177e-01,1.95738e-01,4.30417e-01
1.02500e+03,-5.61563e+00,-3.68995e+01,2.69316e-01,1.98000e-01,4.36054e-01
1.02500e+03,-4.86516e+00,-3.38246e+01,2.73162e-01,2.00259e-01,4.41507e-01
1.02500e+03,-4.09924e+00,-3.07496e+01,2.76748e-01,2.02511e-01,4.46791e-01
1.02500e+03,-3.32677e+00,-2.76746e+01,2.80223e-01,2.04757e-01,4.51996e-01
1.02500e+03,-2.54417e+00,-2.45997e+01,2.83527e-01,2.06993e-01,4.57084e-01
1.02500e+03,-1.75988e+00,-2.15247e+01,2.86802e-01,2.09219e-01,4.62140e-01
1.02500e+03,-9.69535e-01,-1.84498e+01,2.89975e-01,2.11436e-01,4.67119e-01
1.02500e+03,-1.79270e-01,-1.53748e+01,2.93149e-01,2.13641e-01,4.72084e-01
1.02500e+03,6.08008e-01,-1.22998e+01,2.96374e-01,2.15835e-01,4.77065e-01
1.02500e+03,1.39529e+00,-9.22488e+00,2.99598e-01,2.18017e-01,4.82031e-01
1.02500e+03,2.16392e+00,-6.14992e+00,3.03138e-01,2.20189e-01,4.87178e-01
1.02500e+03,2.92908e+00,-3.07496e+00,3.06736e-01,2.22351e-01,4.92349e-01
1.11650e+03,3.87070e+01,0.00000e+00,-2.32247e-01,1.96901e-01,4.12613e-01
1.11650e+03,3.85121e+01,-2.94133e+00,-2.42536e-01,1.95079e-01,4.15923e-01
1.11650e+03,3.82528e+01,-5.88266e+00,-2.51937e-01,1.93213e-01,4.18887e-01
1.11650e+03,3.79909e+01,-8.82398e+00,-2.61303e-01,1.91305e-01,4.21986e-01
1.11650e+03,3.76721e+01,-1.17653e+01,-2.69885e-01,1.89357e-01,4.24743e-01
1.11650e+03,3.73401e+01,-1.47066e+01,-2.78284e-01,1.87374e-01,4.27515e-01
1.11650e+03,3.69645e+01,-1.76480e+01,-2.86082e-01,1.85358e-01,4.30018e-01
1.11650e+03,3.65678e+01,-2.05893e+01,-2.93588e-01,1.83311e-01,4.32438e-01
1.11650e+03,3.61359e+01,-2.35306e+01,-3.00610e-01,1.81237e-01,4.34634e-01
1.11650e+03,3.56753e+01,-2.64720e+01,-3.07236e-01,1.79138e-01,4.36652e-01
1.11650e+03,3.51829e+01,-2.94133e+01,-3.13424e-01,1.77017e-01,4.38451e-01
1.11650e+03,3.46522e+01,-3.23546e+01,-3.19084e-01,1.74876e-01,4.39954e-01
1.11650e+03,3.40823e+01,-3.52959e+01,-3.24202e-01,1.72720e-01,4.41138e-01
1.11650e+03,3.34567e+01,-3.82373e+01,-3.28553e-01,1.70550e-01,4.41824e-01
1.11650e+03,3.27770e+01,-4.11786e+01,-3.32157e-01,1.68372e-01,4.42013e-01
1.11650e+03,3.20325e+01,-4.41199e+01,-3.34869e-01,1.66188e-01,4.41580e-01
1.11650e+03,3.12004e+01,-4.70612e+01,-3.36371e-01,1.64007e-01,4.40273e-01
1.11650e+03,3.03072e+01,-5.00026e+01,-3.37032e-01,1.61830e-01,4.38358e-01
1.11650e+03,2.92767e+01,-5.29439e+01,-3.35800e-01,1.59669e-01,4.35022e-01
1.11650e+03,2.81893e+01,-5.58852e+01,-3.33783e-01,1.57528e-01,4.31111e-01
1.11650e+03,2.69434e+01,-5.88266e+01,-3.29580e-01,1.55413e-01,4.25538e-01
1.11650e+03,2.55704e+01,-6.17679e+01,-3.23625e-01,1.53342e-01,4.18658e-01
1.11650e+03,2.40681e+01,-6.47092e+01,-3.15887e-01,1.51319e-01,4.10459e-01
1.11650e+03,2.23488e+01,-6.76505e+01,-3.05157e-01,1.49350e-01,4.00046e-01
1.11650e+03,2.03781e+01,-7.05919e+01,-2.90960e-01,1.47459e-01,3.87157e-01
1.11650e+03,1.81233e+01,-7.35332e+01,-2.72845e-01,1.45671e-01,3.71624e-01
1.11650e+03,1.54563e+01,-7.64745e+01,-2.49047e-01,1.43998e-01,3.52464e-01
1.11650e+03,1.20330e+01,-7.94159e+01,-2.14821e-01,1.42524e-01,3.27241e-01
1.11650e+03,7.40314e+00,-8.23572e+01,-1.63957e-01,1.41623e-01,2.95048e-01
1.11650e+03,-2.99970e+00,-8.52985e+01,-3.34891e-02,1.41981e-01,2.48188e-01
1.11650e+03,-3.75047e+00,-8.53053e+01,-2.31667e-02,1.43091e-01,2.48920e-01
1.11650e+03,-1.05906e+01,-8.22587e+01,8.45931e-02,1.45194e-01,2.65330e-01
1.11650e+03,-1.14188e+01,-7.92121e+01,1.09454e-01,1.46748e-01,2.76740e-01
1.11650e+03,-1.17045e+01,-7.61655e+01,1.26837e-01,1.48383e-01,2.86601e-01
1.11650e+03,-1.17479e+01,-7.31189e+01,1.40876e-01,1.50094e-01,2.95687e-01
1.11650e+03,-1.16086e+01,-7.00722e+01,1.52397e-01,1.51867e-01,3.04000e-01
1.11650e+03,-1.13547e+01,-6.70256e+01,1.62338e-01,1.53692e-01,3.11798e-01
1.11650e+03,-1.09858e+01,-6.39790e+01,1.70692e-01,1.55559e-01,3.18954e-01
1.11650e+03,-1.05466e+01,-6.09324e+01,1.78078e-01,1.57457e-01,3.25715e-01
1.11650e+03,-1.00667e+01,-5.78858e+01,1.84903e-01,1.59383e-01,3.32262e-01
1.11650e+03,-9.52550e+00,-5.48391e+01,1.90881e-01,1.61331e-01,3.38406e-01
1.11650e+03,-8.94594e+00,-5.17925e+01,1.96331e-01,1.63296e-01,3.44300e-01
1.11650e+03,-8.32904e+00,-4.87459e+01,2.01267e-01,1.65273e-01,3.49934e-01
1.11650e+03,-7.67495e+00,-4.56993e+01,2.05689e-01,1.67259e-01,3.55295e-01
1.11650e+03,-6.99754e+00,-4.26527e+01,2.09790e-01,1.69250e-01,3.60484e-01
1.11650e+03,-6.29027e+00,-3.96060e+01,2.13479e-01,1.71243e-01,3.65439e-01
1.11650e+03,-5.56387e+00,-3.65594e+01,2.16904e-01,1.73236e-01,3.70242e-01
1.11650e+03,-4.82031e+00,-3.35128e+01,2.20093e-01,1.75225e-01,3.74903e-01
1.11650e+03,-4.06146e+00,-3.04662e+01,2.23071e-01,1.77209e-01,3.79434e-01
1.11650e+03,-3.29611e+00,-2.74196e+01,2.25959e-01,1.79187e-01,3.83903e-01
1.11650e+03,-2.52072e+00,-2.43730e+01,2.28709e-01,1.81157e-01,3.88280e-01
1.11650e+03,-1.74366e+00,-2.13263e+01,2.31436e-01,1.83118e-01,3.92632e-01
1.11650e+03,-9.60599e-01,-1.82797e+01,2.34080e-01,1.85071e-01,3.96922e-01
1.11650e+03,-1.77618e-01,-1.52331e+01,2.36725e-01,1.87013e-01,4.01199e-01
1.11650e+03,6.02404e-01,-1.21865e+01,2.39411e-01,1.88946e-01,4.05486e-01
1.11650e+03,1.38243e+00,-9.13986e+00,2.42097e-01,1.90868e-01,4.09759e-01
1.11650e+03,2.14398e+00,-6.09324e+00,2.45037e-01,1.92781e-01,4.14170e-01
1.11650e+03,2.90209e+00,-3.04662e+00,2.48025e-01,1.94686e-01,4.18598e-01
1.20500e+03,3.76912e+01,0.00000e+00,-2.63370e-01,1.89054e-01,4.20223e-01
1.20500e+03,3.75014e+01,-2.86413e+00,-2.74145e-01,1.86821e-01,4.24101e-01
1.20500e+03,3.72488e+01,-5.72827e+00,-2.83910e-01,1.84534e-01,4.27508e-01
1.20500e+03,3.69938e+01,-8.59240e+00,-2.93634e-01,1.82195e-01,4.31052e-01
1.20500e+03,3.66834e+01,-1.14565e+01,-3.02466e-01,1.79808e-01,4.34141e-01
1.20500e+03,3.63602e+01,-1.43207e+01,-3.11091e-01,1.77377e-01,4.37224e-01
1.20500e+03,3.59944e+01,-1.71848e+01,-3.19031e-01,1.74905e-01,4.39949e-01
1.20500e+03,3.56080e+01,-2.00489e+01,-3.26638e-01,1.72395e-01,4.42553e-01
1.20500e+03,3.51875e+01,-2.29131e+01,-3.33695e-01,1.69852e-01,4.44862e-01
1.20500e+03,3.47390e+01,-2.57772e+01,-3.40301e-01,1.67278e-01,4.46935e-01
1.20500e+03,3.42596e+01,-2.86413e+01,-3.46408e-01,1.64677e-01,4.48726e-01
1.20500e+03,3.37428e+01,-3.15055e+01,-3.51915e-01,1.62053e-01,4.50141e-01
1.20500e+03,3.31878e+01,-3.43696e+01,-3.56804e-01,1.59408e-01,4.51156e-01
1.20500e+03,3.25787e+01,-3.72337e+01,-3.60822e-01,1.56747e-01,4.51554e-01
1.20500e+03,3.19168e+01,-4.00979e+01,-3.63989e-01,1.54075e-01,4.51337e-01
1.20500e+03,3.11919e+01,-4.29620e+01,-3.66139e-01,1.51397e-01,4.50357e-01
1.20500e+03,3.03815e+01,-4.58261e+01,-3.66914e-01,1.48722e-01,4.48308e-01
1.20500e+03,2.95118e+01,-4.86903e+01,-3.66731e-01,1.46051e-01,4.45516e-01
1.20500e+03,2.85084e+01,-5.15544e+01,-3.64393e-01,1.43399e-01,4.40990e-01
1.20500e+03,2.74495e+01,-5.44186e+01,-3.61162e-01,1.40773e-01,4.35763e-01
1.20500e+03,2.62363e+01,-5.72827e+01,-3.55443e-01,1.38178e-01,4.28509e-01
1.20500e+03,2.48993e+01,-6.01468e+01,-3.47730e-01,1.35637e-01,4.19653e-01
1.20500e+03,2.34365e+01,-6.30110e+01,-3.37988e-01,1.33154e-01,4.09177e-01
1.20500e+03,2.17623e+01,-6.58751e+01,-3.24840e-01,1.30738e-01,3.95977e-01
1.20500e+03,1.98433e+01,-6.87392e+01,-3.07746e-01,1.28418e-01,3.79712e-01
1.20500e+03,1.76476e+01,-7.16034e+01,-2.86193e-01,1.26222e-01,3.60142e-01
1.20500e+03,1.50506e+01,-7.44675e+01,-2.58172e-01,1.24169e-01,3.36016e-01
1.20500e+03,1.17172e+01,-7.73316e+01,-2.18282e-01,1.22358e-01,3.04239e-01
1.20500e+03,7.20885e+00,-8.01958e+01,-1.59455e-01,1.21251e-01,2.63688e-01
1.20500e+03,-2.92097e+00,-8.30599e+01,-1.00271e-02,1.21688e-01,2.11008e-01
1.20500e+03,-3.65204e+00,-8.30665e+01,1.72356e-03,1.23047e-01,2.13131e-01
1.20500e+03,-1.03126e+01,-8.00999e+01,1.23402e-01,1.25627e-01,2.50148e-01
1.20500e+03,-1.11191e+01,-7.71332e+01,1.50730e-01,1.27532e-01,2.67419e-01
1.20500e+03,-1.13974e+01,-7.41666e+01,1.69545e-01,1.29538e-01,2.81222e-01
1.20500e+03,-1.14396e+01,-7.11999e+01,1.84555e-01,1.31637e-01,2.93335e-01
1.20500e+03,-1.13040e+01,-6.82332e+01,1.96699e-01,1.33812e-01,3.03986e-01
1.20500e+03,-1.10567e+01,-6.52666e+01,2.07044e-01,1.36051e-01,3.13683e-01
1.20500e+03,-1.06975e+01,-6.22999e+01,2.15584e-01,1.38341e-01,3.22321e-01
1.20500e+03,-1.02698e+01,-5.93332e+01,2.23021e-01,1.40670e-01,3.30307e-01
1.20500e+03,-9.80253e+00,-5.63666e+01,2.29820e-01,1.43034e-01,3.37925e-01
1.20500e+03,-9.27551e+00,-5.33999e+01,2.35656e-01,1.45424e-01,3.44932e-01
1.20500e+03,-8.71115e+00,-5.04333e+01,2.40890e-01,1.47835e-01,3.51558e-01
1.20500e+03,-8.11045e+00,-4.74666e+01,2.45538e-01,1.50262e-01,3.57805e-01
1.20500e+03,-7.47352e+00,-4.44999e+01,2.49603e-01,1.52699e-01,3.63665e-01
1.20500e+03,-6.81389e+00,-4.15333e+01,2.53301e-01,1.55143e-01,3.69283e-01
1.20500e+03,-6.12518e+00,-3.85666e+01,2.56531e-01,1.57590e-01,3.74583e-01
1.20500e+03,-5.41785e+00,-3.55999e+01,2.59461e-01,1.60036e-01,3.79677e-01
1.20500e+03,-4.69381e+00,-3.26333e+01,2.62121e-01,1.62479e-01,3.84585e-01
1.20500e+03,-3.95486e+00,-2.96666e+01,2.64542e-01,1.64915e-01,3.89324e-01
1.20500e+03,-3.20961e+00,-2.67000e+01,2.66860e-01,1.67343e-01,3.93987e-01
1.20500e+03,-2.45457e+00,-2.37333e+01,2.69021e-01,1.69762e-01,3.98535e-01
1.20500e+03,-1.69790e+00,-2.07666e+01,2.71156e-01,1.72171e-01,4.03056e-01
1.20500e+03,-9.35389e-01,-1.78000e+01,2.73196e-01,1.74569e-01,4.07503e-01
1.20500e+03,-1.72956e-01,-1.48333e+01,2.75238e-01,1.76954e-01,4.11940e-01
1.20500e+03,5.86594e-01,-1.18666e+01,2.77326e-01,1.79328e-01,4.16396e-01
1.20500e+03,1.34615e+00,-8.89999e+00,2.79414e-01,1.81690e-01,4.20839e-01
1.20500e+03,2.08771e+00,-5.93332e+00,2.81792e-01,1.84040e-01,4.25463e-01
1.20500e+03,2.82592e+00,-2.96666e+00,2.84224e-01,1.86380e-01,4.30111e-01
1.29010e+03,3.63234e+01,0.00000e+00,-2.13328e-01,1.69014e-01,3.62223e-01
1.29010e+03,3.61405e+01,-2.76019e+00,-2.22164e-01,1.67070e-01,3.64820e-01
1.29010e+03,3.58971e+01,-5.52039e+00,-2.30181e-01,1.65078e-01,3.67064e-01
1.29010e+03,3.56513e+01,-8.28058e+00,-2.38166e-01,1.63041e-01,3.69419e-01
1.29010e+03,3.53522e+01,-1.10408e+01,-2.45427e-01,1.60963e-01,3.71432e-01
1.29010e+03,3.50407e+01,-1.38010e+01,-2.52521e-01,1.58846e-01,3.73447e-01
1.29010e+03,3.46882e+01,-1.65612e+01,-2.59060e-01,1.56693e-01,3.75194e-01
1.29010e+03,3.43158e+01,-1.93214e+01,-2.65330e-01,1.54509e-01,3.76853e-01
1.29010e+03,3.39106e+01,-2.20816e+01,-2.71153e-01,1.52294e-01,3.78292e-01
1.29010e+03,3.34783e+01,-2.48418e+01,-2.76611e-01,1.50053e-01,3.79554e-01
1.29010e+03,3.30163e+01,-2.76019e+01,-2.81665e-01,1.47788e-01,3.80604e-01
1.29010e+03,3.25183e+01,-3.03621e+01,-2.86232e-01,1.45503e-01,3.81369e-01
1.29010e+03,3.19834e+01,-3.31223e+01,-2.90300e-01,1.43200e-01,3.81828e-01
1.29010e+03,3.13964e+01,-3.58825e+01,-2.93661e-01,1.40883e-01,3.81813e-01
1.29010e+03,3.07585e+01,-3.86427e+01,-2.96333e-01,1.38557e-01,3.81323e-01
1.29010e+03,3.00599e+01,-4.14029e+01,-2.98182e-01,1.36225e-01,3.80242e-01
1.29010e+03,2.92790e+01,-4.41631e+01,-2.98915e-01,1.33896e-01,3.78331e-01
1.29010e+03,2.84408e+01,-4.69233e+01,-2.98873e-01,1.31571e-01,3.75842e-01
1.29010e+03,2.74738e+01,-4.96835e+01,-2.97085e-01,1.29262e-01,3.72002e-01
1.29010e+03,2.64534e+01,-5.24437e+01,-2.94573e-01,1.26975e-01,3.67616e-01
1.29010e+03,2.52842e+01,-5.52039e+01,-2.90046e-01,1.24716e-01,3.61648e-01
1.29010e+03,2.39957e+01,-5.79641e+01,-2.83903e-01,1.22504e-01,3.54433e-01
1.29010e+03,2.25860e+01,-6.07243e+01,-2.76116e-01,1.20342e-01,3.45957e-01
1.29010e+03,2.09725e+01,-6.34845e+01,-2.65570e-01,1.18238e-01,3.35363e-01
1.29010e+03,1.91232e+01,-6.62447e+01,-2.51827e-01,1.16218e-01,3.22392e-01
1.29010e+03,1.70072e+01,-6.90049e+01,-2.34470e-01,1.14307e-01,3.06879e-01
1.29010e+03,1.45045e+01,-7.17651e+01,-2.11874e-01,1.12519e-01,2.87876e-01
1.29010e+03,1.12920e+01,-7.45253e+01,-1.79661e-01,1.10943e-01,2.63065e-01
1.29010e+03,6.94724e+00,-7.72855e+01,-1.32107e-01,1.09979e-01,2.31816e-01
1.29010e+03,-2.81497e+00,-8.00457e+01,-1.11479e-02,1.10360e-01,1.91474e-01
1.29010e+03,-3.51951e+00,-8.00521e+01,-1.62789e-03,1.11544e-01,1.93206e-01
1.29010e+03,-9.93839e+00,-7.71931e+01,9.70649e-02,1.13790e-01,2.19695e-01
1.29010e+03,-1.07156e+01,-7.43341e+01,1.19315e-01,1.15449e-01,2.32855e-01
1.29010e+03,-1.09838e+01,-7.14751e+01,1.34669e-01,1.17195e-01,2.43598e-01
1.29010e+03,-1.10244e+01,-6.86160e+01,1.46940e-01,1.19023e-01,2.53161e-01
1.29010e+03,-1.08937e+01,-6.57570e+01,1.56889e-01,1.20917e-01,2.61680e-01
1.29010e+03,-1.06555e+01,-6.28980e+01,1.65380e-01,1.22866e-01,2.69516e-01
1.29010e+03,-1.03093e+01,-6.00390e+01,1.72408e-01,1.24860e-01,2.76577e-01
1.29010e+03,-9.89713e+00,-5.71800e+01,1.78544e-01,1.26888e-01,2.83160e-01
1.29010e+03,-9.44680e+00,-5.43210e+01,1.84162e-01,1.28946e-01,2.89476e-01
1.29010e+03,-8.93890e+00,-5.14620e+01,1.89000e-01,1.31027e-01,2.95339e-01
1.29010e+03,-8.39503e+00,-4.86030e+01,1.93351e-01,1.33126e-01,3.00918e-01
1.29010e+03,-7.81612e+00,-4.57440e+01,1.97226e-01,1.35239e-01,3.06214e-01
1.29010e+03,-7.20231e+00,-4.28850e+01,2.00629e-01,1.37361e-01,3.11217e-01
1.29010e+03,-6.56662e+00,-4.00260e+01,2.03736e-01,1.39489e-01,3.16037e-01
1.29010e+03,-5.90290e+00,-3.71670e+01,2.06462e-01,1.41619e-01,3.20616e-01
1.29010e+03,-5.22123e+00,-3.43080e+01,2.08946e-01,1.43748e-01,3.25037e-01
1.29010e+03,-4.52347e+00,-3.14490e+01,2.11211e-01,1.45875e-01,3.29315e-01
1.29010e+03,-3.81134e+00,-2.85900e+01,2.13282e-01,1.47996e-01,3.33463e-01
1.29010e+03,-3.09313e+00,-2.57310e+01,2.15270e-01,1.50110e-01,3.37551e-01
1.29010e+03,-2.36549e+00,-2.28720e+01,2.17131e-01,1.52216e-01,3.41548e-01
1.29010e+03,-1.63628e+00,-2.00130e+01,2.18970e-01,1.54313e-01,3.45522e-01
1.29010e+03,-9.01444e-01,-1.71540e+01,2.20733e-01,1.56400e-01,3.49437e-01
1.29010e+03,-1.66680e-01,-1.42950e+01,2.22497e-01,1.58477e-01,3.53341e-01
1.29010e+03,5.65307e-01,-1.14360e+01,2.24299e-01,1.60544e-01,3.57257e-01
1.29010e+03,1.29729e+00,-8.57701e+00,2.26101e-01,1.62599e-01,3.61161e-01
1.29010e+03,2.01195e+00,-5.71800e+00,2.28137e-01,1.64645e-01,3.65199e-01
1.29010e+03,2.72337e+00,-2.85900e+00,2.30218e-01,1.66682e-01,3.69255e-01
1.37170e+03,3.50118e+01,0.00000e+00,-1.69502e-01,1.49437e-01,3.09395e-01
1.37170e+03,3.48355e+01,-2.66053e+00,-1.76614e-01,1.47764e-01,3.10958e-01
1.37170e+03,3.46009e+01,-5.32106e+00,-1.83074e-01,1.46050e-01,3.12262e-01
1.37170e+03,3.43640e+01,-7.98159e+00,-1.89509e-01,1.44296e-01,3.13653e-01
1.37170e+03,3.40757e+01,-1.06421e+01,-1.95369e-01,1.42508e-01,3.14792e-01
1.37170e+03,3.37754e+01,-1.33027e+01,-2.01096e-01,1.40685e-01,3.15938e-01
1.37170e+03,3.34357e+01,-1.59632e+01,-2.06381e-01,1.38833e-01,3.16886e-01
1.37170e+03,3.30768e+01,-1.86237e+01,-2.11453e-01,1.36952e-01,3.17774e-01
1.37170e+03,3.26861e+01,-2.12842e+01,-2.16170e-01,1.35046e-01,3.18500e-01
1.37170e+03,3.22695e+01,-2.39448e+01,-2.20596e-01,1.33118e-01,3.19098e-01
1.37170e+03,3.18241e+01,-2.66053e+01,-2.24702e-01,1.31169e-01,3.19541e-01
1.37170e+03,3.13441e+01,-2.92658e+01,-2.28421e-01,1.29202e-01,3.19774e-01
1.37170e+03,3.08286e+01,-3.19264e+01,-2.31742e-01,1.27220e-01,3.19780e-01
1.37170e+03,3.02627e+01,-3.45869e+01,-2.34502e-01,1.25226e-01,3.19430e-01
1.37170e+03,2.96479e+01,-3.72474e+01,-2.36714e-01,1.23224e-01,3.18726e-01
1.37170e+03,2.89745e+01,-3.99080e+01,-2.38272e-01,1.21217e-01,3.17576e-01
1.37170e+03,2.82218e+01,-4.25685e+01,-2.38944e-01,1.19212e-01,3.15799e-01
1.37170e+03,2.74139e+01,-4.52290e+01,-2.38999e-01,1.17211e-01,3.13586e-01
1.37170e+03,2.64818e+01,-4.78895e+01,-2.37667e-01,1.15224e-01,3.10347e-01
1.37170e+03,2.54982e+01,-5.05501e+01,-2.35759e-01,1.13256e-01,3.06698e-01
1.37170e+03,2.43712e+01,-5.32106e+01,-2.32250e-01,1.11312e-01,3.01846e-01
1.37170e+03,2.31293e+01,-5.58711e+01,-2.27456e-01,1.09408e-01,2.96052e-01
1.37170e+03,2.17704e+01,-5.85317e+01,-2.21356e-01,1.07547e-01,2.89306e-01
1.37170e+03,2.02153e+01,-6.11922e+01,-2.13063e-01,1.05737e-01,2.80957e-01
1.37170e+03,1.84327e+01,-6.38527e+01,-2.02229e-01,1.03999e-01,2.70821e-01
1.37170e+03,1.63931e+01,-6.65133e+01,-1.88523e-01,1.02354e-01,2.58786e-01
1.37170e+03,1.39807e+01,-6.91738e+01,-1.70653e-01,1.00816e-01,2.44160e-01
1.37170e+03,1.08843e+01,-7.18343e+01,-1.45140e-01,9.94594e-02,2.25260e-01
1.37170e+03,6.69639e+00,-7.44949e+01,-1.07434e-01,9.86303e-02,2.01806e-01
1.37170e+03,-2.71333e+00,-7.71554e+01,-1.13873e-02,9.89580e-02,1.71778e-01
1.37170e+03,-3.39243e+00,-7.71616e+01,-3.82127e-03,9.99771e-02,1.73208e-01
1.37170e+03,-9.57954e+00,-7.44058e+01,7.47090e-02,1.01910e-01,1.91673e-01
1.37170e+03,-1.03287e+01,-7.16500e+01,9.24847e-02,1.03338e-01,2.01469e-01
1.37170e+03,-1.05872e+01,-6.88942e+01,1.04779e-01,1.04841e-01,2.09651e-01
1.37170e+03,-1.06264e+01,-6.61385e+01,1.14624e-01,1.06414e-01,2.17049e-01
1.37170e+03,-1.05004e+01,-6.33827e+01,1.22623e-01,1.08044e-01,2.23734e-01
1.37170e+03,-1.02708e+01,-6.06269e+01,1.29464e-01,1.09722e-01,2.29951e-01
1.37170e+03,-9.93701e+00,-5.78712e+01,1.35141e-01,1.11437e-01,2.35623e-01
1.37170e+03,-9.53977e+00,-5.51154e+01,1.40110e-01,1.13183e-01,2.40960e-01
1.37170e+03,-9.10569e+00,-5.23596e+01,1.44667e-01,1.14954e-01,2.46113e-01
1.37170e+03,-8.61613e+00,-4.96039e+01,1.48604e-01,1.16745e-01,2.50940e-01
1.37170e+03,-8.09190e+00,-4.68481e+01,1.52153e-01,1.18551e-01,2.55565e-01
1.37170e+03,-7.53389e+00,-4.40923e+01,1.55325e-01,1.20369e-01,2.59985e-01
1.37170e+03,-6.94225e+00,-4.13365e+01,1.58122e-01,1.22196e-01,2.64193e-01
1.37170e+03,-6.32951e+00,-3.85808e+01,1.60683e-01,1.24027e-01,2.68266e-01
1.37170e+03,-5.68976e+00,-3.58250e+01,1.62942e-01,1.25860e-01,2.72162e-01
1.37170e+03,-5.03271e+00,-3.30692e+01,1.65007e-01,1.27693e-01,2.75941e-01
1.37170e+03,-4.36014e+00,-3.03135e+01,1.66900e-01,1.29523e-01,2.79614e-01
1.37170e+03,-3.67372e+00,-2.75577e+01,1.68637e-01,1.31348e-01,2.83188e-01
1.37170e+03,-2.98144e+00,-2.48019e+01,1.70309e-01,1.33167e-01,2.86715e-01
1.37170e+03,-2.28008e+00,-2.20462e+01,1.71880e-01,1.34979e-01,2.90174e-01
1.37170e+03,-1.57720e+00,-1.92904e+01,1.73434e-01,1.36784e-01,2.93613e-01
1.37170e+03,-8.68894e-01,-1.65346e+01,1.74927e-01,1.38580e-01,2.97006e-01
1.37170e+03,-1.60661e-01,-1.37788e+01,1.76421e-01,1.40367e-01,3.00388e-01
1.37170e+03,5.44895e-01,-1.10231e+01,1.77945e-01,1.42145e-01,3.03776e-01
1.37170e+03,1.25045e+00,-8.26731e+00,1.79468e-01,1.43914e-01,3.07153e-01
1.37170e+03,1.93930e+00,-5.51154e+00,1.81179e-01,1.45675e-01,3.10627e-01
1.37170e+03,2.62503e+00,-2.75577e+00,1.82924e-01,1.47427e-01,3.14111e-01
1.44960e+03,3.37597e+01,0.00000e+00,-1.31731e-01,1.30502e-01,2.61621e-01
1.44960e+03,3.35897e+01,-2.56538e+00,-1.37331e-01,1.29078e-01,2.62380e-01
1.44960e+03,3.33635e+01,-5.13077e+00,-1.42424e-01,1.27619e-01,2.62954e-01
1.44960e+03,3.31351e+01,-7.69615e+00,-1.47498e-01,1.26127e-01,2.63590e-01
1.44960e+03,3.28571e+01,-1.02615e+01,-1.52125e-01,1.24604e-01,2.64047e-01
1.44960e+03,3.25675e+01,-1.28269e+01,-1.56648e-01,1.23053e-01,2.64509e-01
1.44960e+03,3.22399e+01,-1.53923e+01,-1.60828e-01,1.21477e-01,2.64831e-01
1.44960e+03,3.18939e+01,-1.79577e+01,-1.64842e-01,1.19876e-01,2.65111e-01
1.44960e+03,3.15172e+01,-2.05231e+01,-1.68580e-01,1.18254e-01,2.65276e-01
1.44960e+03,3.11155e+01,-2.30885e+01,-1.72093e-01,1.16612e-01,2.65351e-01
1.44960e+03,3.06860e+01,-2.56538e+01,-1.75356e-01,1.14953e-01,2.65316e-01
1.44960e+03,3.02232e+01,-2.82192e+01,-1.78318e-01,1.13279e-01,2.65130e-01
1.44960e+03,2.97261e+01,-3.07846e+01,-1.80972e-01,1.11592e-01,2.64781e-01
1.44960e+03,2.91805e+01,-3.33500e+01,-1.83188e-01,1.09895e-01,2.64176e-01
1.44960e+03,2.85877e+01,-3.59154e+01,-1.84979e-01,1.08191e-01,2.63313e-01
1.44960e+03,2.79383e+01,-3.84808e+01,-1.86262e-01,1.06483e-01,2.62125e-01
1.44960e+03,2.72125e+01,-4.10462e+01,-1.86855e-01,1.04777e-01,2.60480e-01
1.44960e+03,2.64335e+01,-4.36115e+01,-1.86970e-01,1.03074e-01,2.58516e-01
1.44960e+03,2.55347e+01,-4.61769e+01,-1.86005e-01,1.01383e-01,2.55800e-01
1.44960e+03,2.45863e+01,-4.87423e+01,-1.84594e-01,9.97082e-02,2.52785e-01
1.44960e+03,2.34997e+01,-5.13077e+01,-1.81937e-01,9.80536e-02,2.48887e-01
1.44960e+03,2.23022e+01,-5.38731e+01,-1.78282e-01,9.64333e-02,2.44300e-01
1.44960e+03,2.09919e+01,-5.64385e+01,-1.73612e-01,9.48498e-02,2.39020e-01
1.44960e+03,1.94923e+01,-5.90039e+01,-1.67236e-01,9.33092e-02,2.32568e-01
1.44960e+03,1.77735e+01,-6.15692e+01,-1.58885e-01,9.18300e-02,2.24817e-01
1.44960e+03,1.58069e+01,-6.41346e+01,-1.48303e-01,9.04300e-02,2.15700e-01
1.44960e+03,1.34808e+01,-6.67000e+01,-1.34482e-01,8.91209e-02,2.04727e-01
1.44960e+03,1.04950e+01,-6.92654e+01,-1.14720e-01,8.79667e-02,1.90723e-01
1.44960e+03,6.45692e+00,-7.18308e+01,-8.54796e-02,8.72613e-02,1.73639e-01
1.44960e+03,-2.61629e+00,-7.43962e+01,-1.08873e-02,8.75404e-02,1.52015e-01
1.44960e+03,-3.27111e+00,-7.44021e+01,-5.00580e-03,8.84078e-02,1.53209e-01
1.44960e+03,-9.23696e+00,-7.17449e+01,5.61155e-02,9.00531e-02,1.65764e-01
1.44960e+03,-9.95928e+00,-6.90877e+01,7.00078e-02,9.12686e-02,1.72890e-01
1.44960e+03,-1.02085e+01,-6.64305e+01,7.96391e-02,9.25478e-02,1.78991e-01
1.44960e+03,-1.02464e+01,-6.37732e+01,8.73661e-02,9.38862e-02,1.84599e-01
1.44960e+03,-1.01249e+01,-6.11160e+01,9.36582e-02,9.52735e-02,1.89745e-01
1.44960e+03,-9.90345e+00,-5.84588e+01,9.90500e-02,9.67015e-02,1.94588e-01
1.44960e+03,-9.58164e+00,-5.58016e+01,1.03538e-01,9.81618e-02,1.99066e-01
1.44960e+03,-9.19861e+00,-5.31444e+01,1.07474e-01,9.96474e-02,2.03321e-01
1.44960e+03,-8.78006e+00,-5.04872e+01,1.11090e-01,1.01154e-01,2.07455e-01
1.44960e+03,-8.30801e+00,-4.78299e+01,1.14225e-01,1.02679e-01,2.11367e-01
1.44960e+03,-7.80252e+00,-4.51727e+01,1.17058e-01,1.04216e-01,2.15141e-01
1.44960e+03,-7.26447e+00,-4.25155e+01,1.19598e-01,1.05763e-01,2.18773e-01
1.44960e+03,-6.69398e+00,-3.98583e+01,1.21846e-01,1.07318e-01,2.22256e-01
1.44960e+03,-6.10316e+00,-3.72011e+01,1.23911e-01,1.08876e-01,2.25645e-01
1.44960e+03,-5.48628e+00,-3.45438e+01,1.25741e-01,1.10436e-01,2.28909e-01
1.44960e+03,-4.85273e+00,-3.18866e+01,1.27420e-01,1.11996e-01,2.32088e-01
1.44960e+03,-4.20421e+00,-2.92294e+01,1.28965e-01,1.13553e-01,2.35191e-01
1.44960e+03,-3.54234e+00,-2.65722e+01,1.30390e-01,1.15106e-01,2.38223e-01
1.44960e+03,-2.87482e+00,-2.39150e+01,1.31764e-01,1.16655e-01,2.41219e-01
1.44960e+03,-2.19854e+00,-2.12577e+01,1.33059e-01,1.18197e-01,2.44164e-01
1.44960e+03,-1.52080e+00,-1.86005e+01,1.34341e-01,1.19732e-01,2.47093e-01
1.44960e+03,-8.37821e-01,-1.59433e+01,1.35575e-01,1.21261e-01,2.49986e-01
1.44960e+03,-1.54916e-01,-1.32861e+01,1.36811e-01,1.22782e-01,2.52870e-01
1.44960e+03,5.25408e-01,-1.06289e+01,1.38069e-01,1.24295e-01,2.55755e-01
1.44960e+03,1.20573e+00,-7.97166e+00,1.39328e-01,1.25800e-01,2.58629e-01
1.44960e+03,1.86995e+00,-5.31444e+00,1.40731e-01,1.27298e-01,2.61572e-01
1.44960e+03,2.53116e+00,-2.65722e+00,1.42162e-01,1.28790e-01,2.64519e-01
1.52340e+03,3.25736e+01,0.00000e+00,-9.98932e-02,1.11987e-01,2.18179e-01
1.52340e+03,3.24095e+01,-2.47525e+00,-1.04196e-01,1.10796e-01,2.18366e-01
1.52340e+03,3.21913e+01,-4.95049e+00,-1.08114e-01,1.09575e-01,2.18423e-01
1.52340e+03,3.19709e+01,-7.42574e+00,-1.12018e-01,1.08326e-01,2.18522e-01
1.52340e+03,3.17026e+01,-9.90099e+00,-1.15582e-01,1.07052e-01,2.18495e-01
1.52340e+03,3.14232e+01,-1.23762e+01,-1.19068e-01,1.05755e-01,2.18471e-01
1.52340e+03,3.11072e+01,-1.48515e+01,-1.22294e-01,1.04436e-01,2.18349e-01
1.52340e+03,3.07733e+01,-1.73267e+01,-1.25394e-01,1.03096e-01,2.18198e-01
1.52340e+03,3.04098e+01,-1.98020e+01,-1.28285e-01,1.01739e-01,2.17967e-01
1.52340e+03,3.00222e+01,-2.22772e+01,-1.31004e-01,1.00366e-01,2.17674e-01
1.52340e+03,2.96079e+01,-2.47525e+01,-1.33534e-01,9.89778e-02,2.17304e-01
1.52340e+03,2.91613e+01,-2.72277e+01,-1.35836e-01,9.75772e-02,2.16830e-01
1.52340e+03,2.86816e+01,-2.97030e+01,-1.37904e-01,9.61658e-02,2.16243e-01
1.52340e+03,2.81552e+01,-3.21782e+01,-1.39640e-01,9.47459e-02,2.15476e-01
1.52340e+03,2.75832e+01,-3.46535e+01,-1.41054e-01,9.33205e-02,2.14528e-01
1.52340e+03,2.69567e+01,-3.71287e+01,-1.42082e-01,9.18915e-02,2.13353e-01
1.52340e+03,2.62564e+01,-3.96040e+01,-1.42587e-01,9.04641e-02,2.11855e-01
1.52340e+03,2.55047e+01,-4.20792e+01,-1.42729e-01,8.90392e-02,2.10132e-01
1.52340e+03,2.46375e+01,-4.45544e+01,-1.42053e-01,8.76244e-02,2.07878e-01
1.52340e+03,2.37225e+01,-4.70297e+01,-1.41037e-01,8.62232e-02,2.05414e-01
1.52340e+03,2.26740e+01,-4.95049e+01,-1.39077e-01,8.48389e-02,2.02325e-01
1.52340e+03,2.15185e+01,-5.19802e+01,-1.36360e-01,8.34833e-02,1.98752e-01
1.52340e+03,2.02543e+01,-5.44554e+01,-1.32873e-01,8.21586e-02,1.94693e-01
1.52340e+03,1.88075e+01,-5.69307e+01,-1.28092e-01,8.08697e-02,1.89808e-01
1.52340e+03,1.71490e+01,-5.94059e+01,-1.21813e-01,7.96322e-02,1.84017e-01
1.52340e+03,1.52515e+01,-6.18812e+01,-1.13841e-01,7.84611e-02,1.77280e-01
1.52340e+03,1.30071e+01,-6.43564e+01,-1.03413e-01,7.73660e-02,1.69265e-01
1.52340e+03,1.01263e+01,-6.68317e+01,-8.84786e-02,7.64005e-02,1.59184e-01
1.52340e+03,6.23005e+00,-6.93069e+01,-6.63544e-02,7.58105e-02,1.47121e-01
1.52340e+03,-2.52437e+00,-7.17822e+01,-9.83061e-03,7.60441e-02,1.32079e-01
1.52340e+03,-3.15618e+00,-7.17879e+01,-5.36960e-03,7.67699e-02,1.33078e-01
1.52340e+03,-8.91241e+00,-6.92241e+01,4.10485e-02,7.81465e-02,1.41441e-01
1.52340e+03,-9.60935e+00,-6.66602e+01,5.16430e-02,7.91635e-02,1.46518e-01
1.52340e+03,-9.84985e+00,-6.40963e+01,5.90056e-02,8.02337e-02,1.50977e-01
1.52340e+03,-9.88634e+00,-6.15325e+01,6.49236e-02,8.13535e-02,1.55146e-01
1.52340e+03,-9.76914e+00,-5.89686e+01,6.97534e-02,8.25142e-02,1.59032e-01
1.52340e+03,-9.55548e+00,-5.64048e+01,7.39002e-02,8.37089e-02,1.62735e-01
1.52340e+03,-9.24498e+00,-5.38409e+01,7.73612e-02,8.49306e-02,1.66206e-01
1.52340e+03,-8.87540e+00,-5.12771e+01,8.04040e-02,8.61735e-02,1.69536e-01
1.52340e+03,-8.47156e+00,-4.87132e+01,8.32041e-02,8.74343e-02,1.72792e-01
1.52340e+03,-8.01609e+00,-4.61494e+01,8.56387e-02,8.87095e-02,1.75904e-01
1.52340e+03,-7.52837e+00,-4.35855e+01,8.78449e-02,8.99956e-02,1.78926e-01
1.52340e+03,-7.00922e+00,-4.10217e+01,8.98286e-02,9.12902e-02,1.81854e-01
1.52340e+03,-6.45878e+00,-3.84578e+01,9.15906e-02,9.25904e-02,1.84683e-01
1.52340e+03,-5.88872e+00,-3.58940e+01,9.32138e-02,9.38941e-02,1.87449e-01
1.52340e+03,-5.29352e+00,-3.33301e+01,9.46590e-02,9.51993e-02,1.90129e-01
1.52340e+03,-4.68222e+00,-3.07662e+01,9.59902e-02,9.65040e-02,1.92752e-01
1.52340e+03,-4.05649e+00,-2.82024e+01,9.72192e-02,9.78068e-02,1.95320e-01
1.52340e+03,-3.41788e+00,-2.56385e+01,9.83570e-02,9.91062e-02,1.97839e-01
1.52340e+03,-2.77381e+00,-2.30747e+01,9.94561e-02,1.00401e-01,2.00332e-01
1.52340e+03,-2.12129e+00,-2.05108e+01,1.00495e-01,1.01692e-01,2.02788e-01
1.52340e+03,-1.46736e+00,-1.79470e+01,1.01525e-01,1.02976e-01,2.05230e-01
1.52340e+03,-8.08383e-01,-1.53831e+01,1.02518e-01,1.04255e-01,2.07647e-01
1.52340e+03,-1.49473e-01,-1.28193e+01,1.03512e-01,1.05527e-01,2.10054e-01
1.52340e+03,5.06948e-01,-1.02554e+01,1.04524e-01,1.06793e-01,2.12460e-01
1.52340e+03,1.16337e+00,-7.69156e+00,1.05536e-01,1.08052e-01,2.14857e-01
1.52340e+03,1.80424e+00,-5.12771e+00,1.06658e-01,1.09305e-01,2.17299e-01
1.52340e+03,2.44222e+00,-2.56385e+00,1.07800e-01,1.10553e-01,2.19742e-01
1.59310e+03,3.14533e+01,0.00000e+00,-7.36537e-02,9.43023e-02,1.79175e-01
1.59310e+03,3.12949e+01,-2.39012e+00,-7.68717e-02,9.33244e-02,1.78990e-01
1.59310e+03,3.10841e+01,-4.78023e+00,-7.98066e-02,9.23227e-02,1.78716e-01
1.59310e+03,3.08713e+01,-7.17035e+00,-8.27302e-02,9.12982e-02,1.78467e-01
1.59310e+03,3.06123e+01,-9.56047e+00,-8.54039e-02,9.02528e-02,1.78131e-01
1.59310e+03,3.03425e+01,-1.19506e+01,-8.80196e-02,8.91881e-02,1.77795e-01
1.59310e+03,3.00373e+01,-1.43407e+01,-9.04435e-02,8.81055e-02,1.77392e-01
1.59310e+03,2.97149e+01,-1.67308e+01,-9.27743e-02,8.70067e-02,1.76968e-01
1.59310e+03,2.93640e+01,-1.91209e+01,-9.49510e-02,8.58931e-02,1.76490e-01
1.59310e+03,2.89896e+01,-2.15111e+01,-9.70011e-02,8.47662e-02,1.75969e-01
1.59310e+03,2.85896e+01,-2.39012e+01,-9.89119e-02,8.36273e-02,1.75397e-01
1.59310e+03,2.81583e+01,-2.62913e+01,-1.00654e-01,8.24781e-02,1.74755e-01
1.59310e+03,2.76952e+01,-2.86814e+01,-1.02224e-01,8.13200e-02,1.74036e-01
1.59310e+03,2.71869e+01,-3.10715e+01,-1.03549e-01,8.01550e-02,1.73196e-01
1.59310e+03,2.66345e+01,-3.34616e+01,-1.04637e-01,7.89854e-02,1.72235e-01
1.59310e+03,2.60296e+01,-3.58518e+01,-1.05439e-01,7.78130e-02,1.71120e-01
1.59310e+03,2.53533e+01,-3.82419e+01,-1.05856e-01,7.66418e-02,1.69786e-01
1.59310e+03,2.46276e+01,-4.06320e+01,-1.06005e-01,7.54726e-02,1.68302e-01
1.59310e+03,2.37902e+01,-4.30221e+01,-1.05551e-01,7.43119e-02,1.66457e-01
1.59310e+03,2.29066e+01,-4.54122e+01,-1.04847e-01,7.31622e-02,1.64472e-01
1.59310e+03,2.18941e+01,-4.78023e+01,-1.03445e-01,7.20265e-02,1.62063e-01
1.59310e+03,2.07785e+01,-5.01925e+01,-1.01486e-01,7.09142e-02,1.59329e-01
1.59310e+03,1.95577e+01,-5.25826e+01,-9.89575e-02,6.98273e-02,1.56270e-01
1.59310e+03,1.81606e+01,-5.49727e+01,-9.54757e-02,6.87699e-02,1.52655e-01
1.59310e+03,1.65592e+01,-5.73628e+01,-9.08888e-02,6.77546e-02,1.48435e-01
1.59310e+03,1.47269e+01,-5.97529e+01,-8.50531e-02,6.67937e-02,1.43590e-01
1.59310e+03,1.25597e+01,-6.21430e+01,-7.74060e-02,6.58953e-02,1.37907e-01
1.59310e+03,9.77800e+00,-6.45332e+01,-6.64350e-02,6.51032e-02,1.30877e-01
1.59310e+03,6.01578e+00,-6.69233e+01,-5.01607e-02,6.46193e-02,1.22650e-01
1.59310e+03,-2.43755e+00,-6.93134e+01,-8.51337e-03,6.48111e-02,1.12578e-01
1.59310e+03,-3.04763e+00,-6.93189e+01,-5.22304e-03,6.54067e-02,1.13408e-01
1.59310e+03,-8.60589e+00,-6.68433e+01,2.90609e-02,6.65362e-02,1.18852e-01
1.59310e+03,-9.27886e+00,-6.43676e+01,3.69214e-02,6.73707e-02,1.22391e-01
1.59310e+03,-9.51109e+00,-6.18919e+01,4.23981e-02,6.82488e-02,1.25584e-01
1.59310e+03,-9.54632e+00,-5.94162e+01,4.68093e-02,6.91677e-02,1.28622e-01
1.59310e+03,-9.43315e+00,-5.69406e+01,5.04177e-02,7.01200e-02,1.31501e-01
1.59310e+03,-9.22684e+00,-5.44649e+01,5.35225e-02,7.11002e-02,1.34277e-01
1.59310e+03,-8.92702e+00,-5.19892e+01,5.61214e-02,7.21026e-02,1.36916e-01
1.59310e+03,-8.57016e+00,-4.95135e+01,5.84118e-02,7.31224e-02,1.39473e-01
1.59310e+03,-8.18020e+00,-4.70379e+01,6.05232e-02,7.41568e-02,1.41989e-01
1.59310e+03,-7.74040e+00,-4.45622e+01,6.23650e-02,7.52031e-02,1.44416e-01
1.59310e+03,-7.26945e+00,-4.20865e+01,6.40384e-02,7.62583e-02,1.46789e-01
1.59310e+03,-6.76816e+00,-3.96108e+01,6.55476e-02,7.73205e-02,1.49104e-01
1.59310e+03,-6.23665e+00,-3.71351e+01,6.68933e-02,7.83873e-02,1.51355e-01
1.59310e+03,-5.68619e+00,-3.46595e+01,6.81366e-02,7.94569e-02,1.53567e-01
1.59310e+03,-5.11146e+00,-3.21838e+01,6.92487e-02,8.05277e-02,1.55723e-01
1.59310e+03,-4.52119e+00,-2.97081e+01,7.02766e-02,8.15981e-02,1.57840e-01
1.59310e+03,-3.91698e+00,-2.72324e+01,7.12292e-02,8.26670e-02,1.59922e-01
1.59310e+03,-3.30033e+00,-2.47568e+01,7.21145e-02,8.37331e-02,1.61970e-01
1.59310e+03,-2.67841e+00,-2.22811e+01,7.29713e-02,8.47957e-02,1.63999e-01
1.59310e+03,-2.04833e+00,-1.98054e+01,7.37839e-02,8.58541e-02,1.66003e-01
1.59310e+03,-1.41689e+00,-1.73297e+01,7.45892e-02,8.69080e-02,1.67996e-01
1.59310e+03,-7.80581e-01,-1.48541e+01,7.53681e-02,8.79570e-02,1.69970e-01
1.59310e+03,-1.44332e-01,-1.23784e+01,7.61474e-02,8.90007e-02,1.71935e-01
1.59310e+03,4.89512e-01,-9.90271e+00,7.69397e-02,9.00393e-02,1.73899e-01
1.59310e+03,1.12336e+00,-7.42703e+00,7.77319e-02,9.10723e-02,1.75854e-01
1.59310e+03,1.74219e+00,-4.95135e+00,7.86054e-02,9.21003e-02,1.77838e-01
1.59310e+03,2.35823e+00,-2.47568e+00,7.94940e-02,9.31239e-02,1.79821e-01
1.65850e+03,3.04021e+01,0.00000e+00,-5.25990e-02,7.79333e-02,1.44870e-01
1.65850e+03,3.02490e+01,-2.31024e+00,-5.49340e-02,7.71454e-02,1.44471e-01
1.65850e+03,3.00453e+01,-4.62048e+00,-5.70669e-02,7.63383e-02,1.44011e-01
1.65850e+03,2.98396e+01,-6.93072e+00,-5.91916e-02,7.55128e-02,1.43562e-01
1.65850e+03,2.95892e+01,-9.24096e+00,-6.11378e-02,7.46705e-02,1.43056e-01
1.65850e+03,2.93285e+01,-1.15512e+01,-6.30426e-02,7.38126e-02,1.42546e-01
1.65850e+03,2.90335e+01,-1.38614e+01,-6.48102e-02,7.29404e-02,1.41990e-01
1.65850e+03,2.87218e+01,-1.61717e+01,-6.65114e-02,7.20551e-02,1.41420e-01
1.65850e+03,2.83826e+01,-1.84819e+01,-6.81025e-02,7.11578e-02,1.40813e-01
1.65850e+03,2.80208e+01,-2.07921e+01,-6.96031e-02,7.02499e-02,1.40178e-01
1.65850e+03,2.76341e+01,-2.31024e+01,-7.10042e-02,6.93323e-02,1.39508e-01
1.65850e+03,2.72173e+01,-2.54126e+01,-7.22849e-02,6.84064e-02,1.38793e-01
1.65850e+03,2.67696e+01,-2.77229e+01,-7.34422e-02,6.74734e-02,1.38028e-01
1.65850e+03,2.62783e+01,-3.00331e+01,-7.44250e-02,6.65348e-02,1.37185e-01
1.65850e+03,2.57444e+01,-3.23433e+01,-7.52376e-02,6.55925e-02,1.36264e-01
1.65850e+03,2.51597e+01,-3.46536e+01,-7.58469e-02,6.46479e-02,1.35243e-01
1.65850e+03,2.45060e+01,-3.69638e+01,-7.61807e-02,6.37043e-02,1.34083e-01
1.65850e+03,2.38045e+01,-3.92741e+01,-7.63230e-02,6.27624e-02,1.32825e-01
1.65850e+03,2.29951e+01,-4.15843e+01,-7.60340e-02,6.18272e-02,1.31335e-01
1.65850e+03,2.21410e+01,-4.38945e+01,-7.55664e-02,6.09009e-02,1.29758e-01
1.65850e+03,2.11624e+01,-4.62048e+01,-7.46009e-02,5.99859e-02,1.27907e-01
1.65850e+03,2.00840e+01,-4.85150e+01,-7.32364e-02,5.90899e-02,1.25851e-01
1.65850e+03,1.89041e+01,-5.08253e+01,-7.14658e-02,5.82142e-02,1.23588e-01
1.65850e+03,1.75537e+01,-5.31355e+01,-6.90136e-02,5.73623e-02,1.20972e-01
1.65850e+03,1.60058e+01,-5.54457e+01,-6.57720e-02,5.65444e-02,1.17974e-01
1.65850e+03,1.42348e+01,-5.77560e+01,-6.16379e-02,5.57703e-02,1.14587e-01
1.65850e+03,1.21400e+01,-6.00662e+01,-5.62096e-02,5.50465e-02,1.10679e-01
1.65850e+03,9.45122e+00,-6.23764e+01,-4.84062e-02,5.44084e-02,1.05943e-01
1.65850e+03,5.81473e+00,-6.46867e+01,-3.68136e-02,5.40187e-02,1.00545e-01
1.65850e+03,-2.35608e+00,-6.69969e+01,-7.09116e-03,5.41733e-02,9.40985e-02
1.65850e+03,-2.94577e+00,-6.70023e+01,-4.74022e-03,5.46532e-02,9.47808e-02
1.65850e+03,-8.31828e+00,-6.46093e+01,1.97936e-02,5.55633e-02,9.82529e-02
1.65850e+03,-8.96876e+00,-6.22164e+01,2.54472e-02,5.62357e-02,1.00672e-01
1.65850e+03,-9.19322e+00,-5.98235e+01,2.93975e-02,5.69432e-02,1.02916e-01
1.65850e+03,-9.22728e+00,-5.74305e+01,3.25865e-02,5.76834e-02,1.05091e-01
1.65850e+03,-9.11789e+00,-5.50376e+01,3.52018e-02,5.84507e-02,1.07185e-01
1.65850e+03,-8.91848e+00,-5.26447e+01,3.74573e-02,5.92404e-02,1.09231e-01
1.65850e+03,-8.62868e+00,-5.02517e+01,3.93513e-02,6.00481e-02,1.11202e-01
1.65850e+03,-8.28374e+00,-4.78588e+01,4.10249e-02,6.08696e-02,1.13130e-01
1.65850e+03,-7.90682e+00,-4.54658e+01,4.25706e-02,6.17030e-02,1.15039e-01
1.65850e+03,-7.48171e+00,-4.30729e+01,4.39236e-02,6.25459e-02,1.16899e-01
1.65850e+03,-7.02650e+00,-4.06800e+01,4.51563e-02,6.33961e-02,1.18728e-01
1.65850e+03,-6.54196e+00,-3.82870e+01,4.62717e-02,6.42518e-02,1.20524e-01
1.65850e+03,-6.02822e+00,-3.58941e+01,4.72704e-02,6.51112e-02,1.22282e-01
1.65850e+03,-5.49615e+00,-3.35011e+01,4.81958e-02,6.59729e-02,1.24017e-01
1.65850e+03,-4.94063e+00,-3.11082e+01,4.90274e-02,6.68356e-02,1.25717e-01
1.65850e+03,-4.37009e+00,-2.87153e+01,4.97989e-02,6.76980e-02,1.27393e-01
1.65850e+03,-3.78607e+00,-2.63223e+01,5.05165e-02,6.85591e-02,1.29046e-01
1.65850e+03,-3.19003e+00,-2.39294e+01,5.11861e-02,6.94179e-02,1.30677e-01
1.65850e+03,-2.58890e+00,-2.15364e+01,5.18354e-02,7.02739e-02,1.32296e-01
1.65850e+03,-1.97988e+00,-1.91435e+01,5.24531e-02,7.11266e-02,1.33897e-01
1.65850e+03,-1.36954e+00,-1.67506e+01,5.30655e-02,7.19756e-02,1.35489e-01
1.65850e+03,-7.54494e-01,-1.43576e+01,5.36591e-02,7.28206e-02,1.37069e-01
1.65850e+03,-1.39508e-01,-1.19647e+01,5.42529e-02,7.36614e-02,1.38641e-01
1.65850e+03,4.73153e-01,-9.57176e+00,5.48561e-02,7.44981e-02,1.40211e-01
1.65850e+03,1.08581e+00,-7.17882e+00,5.54592e-02,7.53302e-02,1.41773e-01
1.65850e+03,1.68397e+00,-4.78588e+00,5.61203e-02,7.61584e-02,1.43352e-01
1.65850e+03,2.27942e+00,-2.39294e+00,5.67923e-02,7.69830e-02,1.44929e-01
1.71930e+03,2.94249e+01,0.00000e+00,-3.62266e-02,6.26185e-02,1.14349e-01
1.71930e+03,2.92767e+01,-2.23598e+00,-3.78610e-02,6.19981e-02,1.13863e-01
1.71930e+03,2.90795e+01,-4.47196e+00,-3.93561e-02,6.13627e-02,1.13336e-01
1.71930e+03,2.88804e+01,-6.70794e+00,-4.08455e-02,6.07128e-02,1.12812e-01
1.71930e+03,2.86381e+01,-8.94392e+00,-4.22120e-02,6.00497e-02,1.12249e-01
1.71930e+03,2.83857e+01,-1.11799e+01,-4.35498e-02,5.93743e-02,1.11680e-01
1.71930e+03,2.81002e+01,-1.34159e+01,-4.47933e-02,5.86876e-02,1.11082e-01
1.71930e+03,2.77986e+01,-1.56519e+01,-4.59908e-02,5.79906e-02,1.10471e-01
1.71930e+03,2.74703e+01,-1.78878e+01,-4.71125e-02,5.72842e-02,1.09836e-01
1.71930e+03,2.71201e+01,-2.01238e+01,-4.81719e-02,5.65694e-02,1.09182e-01
1.71930e+03,2.67458e+01,-2.23598e+01,-4.91627e-02,5.58470e-02,1.08506e-01
1.71930e+03,2.63424e+01,-2.45958e+01,-5.00705e-02,5.51181e-02,1.07801e-01
1.71930e+03,2.59091e+01,-2.68317e+01,-5.08933e-02,5.43835e-02,1.07065e-01
1.71930e+03,2.54336e+01,-2.90677e+01,-5.15958e-02,5.36446e-02,1.06280e-01
1.71930e+03,2.49169e+01,-3.13037e+01,-5.21811e-02,5.29028e-02,1.05447e-01
1.71930e+03,2.43509e+01,-3.35397e+01,-5.26262e-02,5.21591e-02,1.04553e-01
1.71930e+03,2.37183e+01,-3.57757e+01,-5.28815e-02,5.14163e-02,1.03573e-01
1.71930e+03,2.30393e+01,-3.80116e+01,-5.30048e-02,5.06747e-02,1.02534e-01
1.71930e+03,2.22560e+01,-4.02476e+01,-5.28309e-02,4.99385e-02,1.01354e-01
1.71930e+03,2.14293e+01,-4.24836e+01,-5.25339e-02,4.92093e-02,1.00122e-01
1.71930e+03,2.04822e+01,-4.47196e+01,-5.18939e-02,4.84890e-02,9.87245e-02
1.71930e+03,1.94385e+01,-4.69556e+01,-5.09788e-02,4.77836e-02,9.72042e-02
1.71930e+03,1.82964e+01,-4.91915e+01,-4.97839e-02,4.70943e-02,9.55618e-02
1.71930e+03,1.69894e+01,-5.14275e+01,-4.81193e-02,4.64237e-02,9.37067e-02
1.71930e+03,1.54913e+01,-5.36635e+01,-4.59107e-02,4.57798e-02,9.16251e-02
1.71930e+03,1.37772e+01,-5.58995e+01,-4.30871e-02,4.51704e-02,8.93174e-02
1.71930e+03,1.17498e+01,-5.81355e+01,-3.93716e-02,4.46007e-02,8.67051e-02
1.71930e+03,9.14742e+00,-6.03714e+01,-3.40193e-02,4.40984e-02,8.36141e-02
1.71930e+03,5.62782e+00,-6.26074e+01,-2.60558e-02,4.37917e-02,8.02000e-02
1.71930e+03,-2.28035e+00,-6.48434e+01,-5.59860e-03,4.39135e-02,7.62661e-02
1.71930e+03,-2.85109e+00,-6.48486e+01,-3.97857e-03,4.42913e-02,7.68179e-02
1.71930e+03,-8.05090e+00,-6.25326e+01,1.29545e-02,4.50079e-02,7.90249e-02
1.71930e+03,-8.68047e+00,-6.02165e+01,1.68767e-02,4.55372e-02,8.06581e-02
1.71930e+03,-8.89772e+00,-5.79005e+01,1.96250e-02,4.60942e-02,8.22141e-02
1.71930e+03,-8.93068e+00,-5.55845e+01,2.18488e-02,4.66770e-02,8.37471e-02
1.71930e+03,-8.82481e+00,-5.32685e+01,2.36773e-02,4.72810e-02,8.52472e-02
1.71930e+03,-8.63181e+00,-5.09525e+01,2.52577e-02,4.79027e-02,8.67292e-02
1.71930e+03,-8.35132e+00,-4.86364e+01,2.65891e-02,4.85385e-02,8.81756e-02
1.71930e+03,-8.01747e+00,-4.63204e+01,2.77686e-02,4.91853e-02,8.96028e-02
1.71930e+03,-7.65266e+00,-4.40044e+01,2.88599e-02,4.98414e-02,9.10241e-02
1.71930e+03,-7.24122e+00,-4.16884e+01,2.98185e-02,5.05049e-02,9.24196e-02
1.71930e+03,-6.80064e+00,-3.93724e+01,3.06941e-02,5.11742e-02,9.38005e-02
1.71930e+03,-6.33168e+00,-3.70563e+01,3.14890e-02,5.18478e-02,9.51638e-02
1.71930e+03,-5.83445e+00,-3.47403e+01,3.22033e-02,5.25244e-02,9.65064e-02
1.71930e+03,-5.31949e+00,-3.24243e+01,3.28672e-02,5.32028e-02,9.78358e-02
1.71930e+03,-4.78182e+00,-3.01083e+01,3.34664e-02,5.38819e-02,9.91452e-02
1.71930e+03,-4.22962e+00,-2.77922e+01,3.40242e-02,5.45607e-02,1.00440e-01
1.71930e+03,-3.66437e+00,-2.54762e+01,3.45450e-02,5.52386e-02,1.01721e-01
1.71930e+03,-3.08749e+00,-2.31602e+01,3.50326e-02,5.59147e-02,1.02988e-01
1.71930e+03,-2.50568e+00,-2.08442e+01,3.55061e-02,5.65885e-02,1.04247e-01
1.71930e+03,-1.91624e+00,-1.85282e+01,3.59580e-02,5.72597e-02,1.05494e-01
1.71930e+03,-1.32552e+00,-1.62121e+01,3.64062e-02,5.79280e-02,1.06735e-01
1.71930e+03,-7.30242e-01,-1.38961e+01,3.68414e-02,5.85932e-02,1.07967e-01
1.71930e+03,-1.35024e-01,-1.15801e+01,3.72768e-02,5.92551e-02,1.09193e-01
1.71930e+03,4.57944e-01,-9.26408e+00,3.77186e-02,5.99137e-02,1.10416e-01
1.71930e+03,1.05091e+00,-6.94806e+00,3.81604e-02,6.05687e-02,1.11633e-01
1.71930e+03,1.62984e+00,-4.63204e+00,3.86421e-02,6.12206e-02,1.12859e-01
1.71930e+03,2.20615e+00,-2.31602e+00,3.91314e-02,6.18697e-02,1.14083e-01
1.77540e+03,2.77303e+01,0.00000e+00,-4.25777e-02,5.85427e-02,1.09976e-01
1.77540e+03,2.75906e+01,-2.10721e+00,-4.42929e-02,5.77147e-02,1.09338e-01
1.77540e+03,2.74048e+01,-4.21442e+00,-4.58428e-02,5.68664e-02,1.08641e-01
1.77540e+03,2.72172e+01,-6.32163e+00,-4.73861e-02,5.59986e-02,1.07949e-01
1.77540e+03,2.69888e+01,-8.42884e+00,-4.87836e-02,5.51131e-02,1.07202e-01
1.77540e+03,2.67510e+01,-1.05361e+01,-5.01473e-02,5.42109e-02,1.06448e-01
1.77540e+03,2.64819e+01,-1.26433e+01,-5.13990e-02,5.32936e-02,1.05653e-01
1.77540e+03,2.61977e+01,-1.47505e+01,-5.25963e-02,5.23623e-02,1.04842e-01
1.77540e+03,2.58883e+01,-1.68577e+01,-5.37038e-02,5.14183e-02,1.03998e-01
1.77540e+03,2.55583e+01,-1.89649e+01,-5.47373e-02,5.04630e-02,1.03130e-01
1.77540e+03,2.52056e+01,-2.10721e+01,-5.56896e-02,4.94974e-02,1.02232e-01
1.77540e+03,2.48254e+01,-2.31793e+01,-5.65435e-02,4.85229e-02,1.01295e-01
1.77540e+03,2.44171e+01,-2.52865e+01,-5.72967e-02,4.75407e-02,1.00316e-01
1.77540e+03,2.39689e+01,-2.73937e+01,-5.79073e-02,4.65526e-02,9.92708e-02
1.77540e+03,2.34819e+01,-2.95009e+01,-5.83789e-02,4.55605e-02,9.81600e-02
1.77540e+03,2.29486e+01,-3.16082e+01,-5.86844e-02,4.45659e-02,9.69650e-02
1.77540e+03,2.23524e+01,-3.37154e+01,-5.87650e-02,4.35722e-02,9.56500e-02
1.77540e+03,2.17125e+01,-3.58226e+01,-5.86891e-02,4.25801e-02,9.42529e-02
1.77540e+03,2.09743e+01,-3.79298e+01,-5.82610e-02,4.15951e-02,9.26541e-02
1.77540e+03,2.01952e+01,-4.00370e+01,-5.76869e-02,4.06193e-02,9.09810e-02
1.77540e+03,1.93026e+01,-4.21442e+01,-5.67062e-02,3.96552e-02,8.90685e-02
1.77540e+03,1.83190e+01,-4.42514e+01,-5.53995e-02,3.87110e-02,8.69754e-02
1.77540e+03,1.72428e+01,-4.63586e+01,-5.37612e-02,3.77881e-02,8.47001e-02
1.77540e+03,1.60110e+01,-4.84658e+01,-5.15662e-02,3.68901e-02,8.21080e-02
1.77540e+03,1.45992e+01,-5.05731e+01,-4.87264e-02,3.60278e-02,7.91724e-02
1.77540e+03,1.29838e+01,-5.26803e+01,-4.51577e-02,3.52114e-02,7.58864e-02
1.77540e+03,1.10731e+01,-5.47875e+01,-4.05318e-02,3.44479e-02,7.21304e-02
1.77540e+03,8.62063e+00,-5.68947e+01,-3.39660e-02,3.37742e-02,6.76445e-02
1.77540e+03,5.30372e+00,-5.90019e+01,-2.43052e-02,3.33610e-02,6.26866e-02
1.77540e+03,-2.14903e+00,-6.11091e+01,1.63623e-04,3.35219e-02,5.80619e-02
1.77540e+03,-2.68689e+00,-6.11140e+01,2.08428e-03,3.40262e-02,5.89719e-02
1.77540e+03,-7.58725e+00,-5.89314e+01,2.19241e-02,3.49834e-02,6.44374e-02
1.77540e+03,-8.18057e+00,-5.67487e+01,2.63429e-02,3.56909e-02,6.71972e-02
1.77540e+03,-8.38530e+00,-5.45661e+01,2.93704e-02,3.64356e-02,6.96081e-02
1.77540e+03,-8.41637e+00,-5.23834e+01,3.17761e-02,3.72150e-02,7.18651e-02
1.77540e+03,-8.31659e+00,-5.02008e+01,3.37133e-02,3.80229e-02,7.39852e-02
1.77540e+03,-8.13471e+00,-4.80181e+01,3.53565e-02,3.88547e-02,7.60206e-02
1.77540e+03,-7.87037e+00,-4.58355e+01,3.67045e-02,3.97054e-02,7.79537e-02
1.77540e+03,-7.55575e+00,-4.36529e+01,3.78724e-02,4.05709e-02,7.98268e-02
1.77540e+03,-7.21195e+00,-4.14702e+01,3.89360e-02,4.14490e-02,8.16705e-02
1.77540e+03,-6.82421e+00,-3.92876e+01,3.98421e-02,4.23373e-02,8.34550e-02
1.77540e+03,-6.40900e+00,-3.71049e+01,4.06499e-02,4.32333e-02,8.52043e-02
1.77540e+03,-5.96704e+00,-3.49223e+01,4.13620e-02,4.41353e-02,8.69171e-02
1.77540e+03,-5.49844e+00,-3.27396e+01,4.19787e-02,4.50413e-02,8.85910e-02
1.77540e+03,-5.01314e+00,-3.05570e+01,4.25355e-02,4.59499e-02,9.02411e-02
1.77540e+03,-4.50644e+00,-2.83744e+01,4.30158e-02,4.68596e-02,9.18577e-02
1.77540e+03,-3.98604e+00,-2.61917e+01,4.34469e-02,4.77691e-02,9.34522e-02
1.77540e+03,-3.45334e+00,-2.40091e+01,4.38341e-02,4.86774e-02,9.50258e-02
1.77540e+03,-2.90969e+00,-2.18264e+01,4.41820e-02,4.95835e-02,9.65796e-02
1.77540e+03,-2.36138e+00,-1.96438e+01,4.45133e-02,5.04867e-02,9.81232e-02
1.77540e+03,-1.80588e+00,-1.74611e+01,4.48188e-02,5.13865e-02,9.96517e-02
1.77540e+03,-1.24918e+00,-1.52785e+01,4.51201e-02,5.22826e-02,1.01174e-01
1.77540e+03,-6.88187e-01,-1.30959e+01,4.54059e-02,5.31746e-02,1.02686e-01
1.77540e+03,-1.27248e-01,-1.09132e+01,4.56920e-02,5.40623e-02,1.04192e-01
1.77540e+03,4.31571e-01,-8.73057e+00,4.59856e-02,5.49457e-02,1.05697e-01
1.77540e+03,9.90390e-01,-6.54793e+00,4.62792e-02,5.58246e-02,1.07196e-01
1.77540e+03,1.53598e+00,-4.36529e+00,4.66202e-02,5.66993e-02,1.08710e-01
1.77540e+03,2.07910e+00,-2.18264e+00,4.69701e-02,5.75704e-02,1.10224e-01
1.82660e+03,2.53092e+01,0.00000e+00,-2.90190e-02,4.80040e-02,8.80639e-02
1.82660e+03,2.51817e+01,-1.92323e+00,-3.02175e-02,4.73742e-02,8.74416e-02
1.82660e+03,2.50121e+01,-3.84646e+00,-3.13034e-02,4.67289e-02,8.67794e-02
1.82660e+03,2.48409e+01,-5.76969e+00,-3.23848e-02,4.60688e-02,8.61150e-02
1.82660e+03,2.46324e+01,-7.69292e+00,-3.33667e-02,4.53953e-02,8.54139e-02
1.82660e+03,2.44154e+01,-9.61614e+00,-3.43256e-02,4.47091e-02,8.47052e-02
1.82660e+03,2.41698e+01,-1.15394e+01,-3.52082e-02,4.40114e-02,8.39680e-02
1.82660e+03,2.39103e+01,-1.34626e+01,-3.60537e-02,4.33032e-02,8.32187e-02
1.82660e+03,2.36280e+01,-1.53858e+01,-3.68379e-02,4.25852e-02,8.24472e-02
1.82660e+03,2.33268e+01,-1.73091e+01,-3.75717e-02,4.18587e-02,8.16583e-02
1.82660e+03,2.30049e+01,-1.92323e+01,-3.82501e-02,4.11244e-02,8.08499e-02
1.82660e+03,2.26579e+01,-2.11555e+01,-3.88614e-02,4.03833e-02,8.00165e-02
1.82660e+03,2.22852e+01,-2.30787e+01,-3.94041e-02,3.96364e-02,7.91570e-02
1.82660e+03,2.18762e+01,-2.50020e+01,-3.98495e-02,3.88851e-02,7.82568e-02
1.82660e+03,2.14317e+01,-2.69252e+01,-4.02002e-02,3.81307e-02,7.73169e-02
1.82660e+03,2.09449e+01,-2.88484e+01,-4.04376e-02,3.73743e-02,7.63264e-02
1.82660e+03,2.04008e+01,-3.07717e+01,-4.05216e-02,3.66187e-02,7.52648e-02
1.82660e+03,1.98168e+01,-3.26949e+01,-4.04990e-02,3.58644e-02,7.41548e-02
1.82660e+03,1.91430e+01,-3.46181e+01,-4.02362e-02,3.51154e-02,7.29262e-02
1.82660e+03,1.84320e+01,-3.65413e+01,-3.98740e-02,3.43735e-02,7.16557e-02
1.82660e+03,1.76173e+01,-3.84646e+01,-3.92344e-02,3.36405e-02,7.02452e-02
1.82660e+03,1.67196e+01,-4.03878e+01,-3.83727e-02,3.29226e-02,6.87325e-02
1.82660e+03,1.57373e+01,-4.23110e+01,-3.72848e-02,3.22210e-02,6.71173e-02
1.82660e+03,1.46131e+01,-4.42343e+01,-3.58173e-02,3.15383e-02,6.53213e-02
1.82660e+03,1.33245e+01,-4.61575e+01,-3.39102e-02,3.08827e-02,6.33335e-02
1.82660e+03,1.18502e+01,-4.80807e+01,-3.15061e-02,3.02621e-02,6.11558e-02
1.82660e+03,1.01063e+01,-5.00040e+01,-2.83813e-02,2.96817e-02,5.87240e-02
1.82660e+03,7.86795e+00,-5.19272e+01,-2.39338e-02,2.91697e-02,5.59056e-02
1.82660e+03,4.84065e+00,-5.38504e+01,-1.73761e-02,2.88559e-02,5.29142e-02
1.82660e+03,-1.96139e+00,-5.57736e+01,-7.21999e-04,2.89785e-02,5.01974e-02
1.82660e+03,-2.45230e+00,-5.57781e+01,5.87460e-04,2.93621e-02,5.08600e-02
1.82660e+03,-6.92480e+00,-5.37860e+01,1.41447e-02,3.00900e-02,5.40028e-02
1.82660e+03,-7.46632e+00,-5.17940e+01,1.71876e-02,3.06281e-02,5.57643e-02
1.82660e+03,-7.65318e+00,-4.98019e+01,1.92820e-02,3.11944e-02,5.73678e-02
1.82660e+03,-7.68153e+00,-4.78098e+01,2.09523e-02,3.17870e-02,5.89088e-02
1.82660e+03,-7.59047e+00,-4.58177e+01,2.23033e-02,3.24014e-02,6.03902e-02
1.82660e+03,-7.42446e+00,-4.38257e+01,2.34539e-02,3.30338e-02,6.18367e-02
1.82660e+03,-7.18321e+00,-4.18336e+01,2.44031e-02,3.36806e-02,6.32349e-02
1.82660e+03,-6.89605e+00,-3.98415e+01,2.52296e-02,3.43386e-02,6.46062e-02
1.82660e+03,-6.58227e+00,-3.78494e+01,2.59849e-02,3.50063e-02,6.59661e-02
1.82660e+03,-6.22838e+00,-3.58574e+01,2.66329e-02,3.56816e-02,6.72966e-02
1.82660e+03,-5.84943e+00,-3.38653e+01,2.72138e-02,3.63628e-02,6.86101e-02
1.82660e+03,-5.44606e+00,-3.18732e+01,2.77295e-02,3.70485e-02,6.99050e-02
1.82660e+03,-5.01837e+00,-2.98811e+01,2.81801e-02,3.77373e-02,7.11788e-02
1.82660e+03,-4.57544e+00,-2.78891e+01,2.85899e-02,3.84280e-02,7.24397e-02
1.82660e+03,-4.11298e+00,-2.58970e+01,2.89475e-02,3.91195e-02,7.36816e-02
1.82660e+03,-3.63801e+00,-2.39049e+01,2.92717e-02,3.98109e-02,7.49103e-02
1.82660e+03,-3.15183e+00,-2.19128e+01,2.95659e-02,4.05013e-02,7.61263e-02
1.82660e+03,-2.65564e+00,-1.99208e+01,2.98332e-02,4.11901e-02,7.73297e-02
1.82660e+03,-2.15521e+00,-1.79287e+01,3.00893e-02,4.18766e-02,7.85259e-02
1.82660e+03,-1.64821e+00,-1.59366e+01,3.03277e-02,4.25605e-02,7.97117e-02
1.82660e+03,-1.14012e+00,-1.39445e+01,3.05633e-02,4.32416e-02,8.08926e-02
1.82660e+03,-6.28101e-01,-1.19525e+01,3.07884e-02,4.39195e-02,8.20652e-02
1.82660e+03,-1.16138e-01,-9.96038e+00,3.10136e-02,4.45942e-02,8.32332e-02
1.82660e+03,3.93890e-01,-7.96830e+00,3.12439e-02,4.52656e-02,8.43985e-02
1.82660e+03,9.03919e-01,-5.97623e+00,3.14743e-02,4.59335e-02,8.55587e-02
1.82660e+03,1.40187e+00,-3.98415e+00,3.17370e-02,4.65982e-02,8.67261e-02
1.82660e+03,1.89757e+00,-1.99208e+00,3.20057e-02,4.72602e-02,8.78917e-02
1.87280e+03,2.31244e+01,0.00000e+00,-1.85908e-02,3.84509e-02,6.91450e-02
1.87280e+03,2.30080e+01,-1.75721e+00,-1.93855e-02,3.79886e-02,6.85945e-02
1.87280e+03,2.28531e+01,-3.51443e+00,-2.01080e-02,3.75150e-02,6.80181e-02
1.87280e+03,2.26966e+01,-5.27164e+00,-2.08276e-02,3.70306e-02,6.74358e-02
1.87280e+03,2.25061e+01,-7.02886e+00,-2.14834e-02,3.65363e-02,6.68299e-02
1.87280e+03,2.23078e+01,-8.78607e+00,-2.21244e-02,3.60327e-02,6.62160e-02
1.87280e+03,2.20834e+01,-1.05433e+01,-2.27165e-02,3.55207e-02,6.55835e-02
1.87280e+03,2.18464e+01,-1.23005e+01,-2.32847e-02,3.50010e-02,6.49414e-02
1.87280e+03,2.15884e+01,-1.40577e+01,-2.38137e-02,3.44741e-02,6.42844e-02
1.87280e+03,2.13132e+01,-1.58149e+01,-2.43103e-02,3.39410e-02,6.36157e-02
1.87280e+03,2.10191e+01,-1.75721e+01,-2.47713e-02,3.34022e-02,6.29343e-02
1.87280e+03,2.07020e+01,-1.93294e+01,-2.51893e-02,3.28584e-02,6.22377e-02
1.87280e+03,2.03615e+01,-2.10866e+01,-2.55633e-02,3.23104e-02,6.15253e-02
1.87280e+03,1.99878e+01,-2.28438e+01,-2.58749e-02,3.17591e-02,6.07900e-02
1.87280e+03,1.95817e+01,-2.46010e+01,-2.61257e-02,3.12055e-02,6.00326e-02
1.87280e+03,1.91369e+01,-2.63582e+01,-2.63038e-02,3.06506e-02,5.92475e-02
1.87280e+03,1.86398e+01,-2.81154e+01,-2.63835e-02,3.00962e-02,5.84246e-02
1.87280e+03,1.81062e+01,-2.98726e+01,-2.63948e-02,2.95428e-02,5.75762e-02
1.87280e+03,1.74905e+01,-3.16299e+01,-2.62520e-02,2.89933e-02,5.66657e-02
1.87280e+03,1.68409e+01,-3.33871e+01,-2.60453e-02,2.84490e-02,5.57350e-02
1.87280e+03,1.60966e+01,-3.51443e+01,-2.56608e-02,2.79112e-02,5.47320e-02
1.87280e+03,1.52763e+01,-3.69015e+01,-2.51337e-02,2.73846e-02,5.36791e-02
1.87280e+03,1.43788e+01,-3.86587e+01,-2.44615e-02,2.68699e-02,5.25769e-02
1.87280e+03,1.33517e+01,-4.04159e+01,-2.35458e-02,2.63690e-02,5.13847e-02
1.87280e+03,1.21743e+01,-4.21731e+01,-2.23480e-02,2.58881e-02,5.01001e-02
1.87280e+03,1.08272e+01,-4.39304e+01,-2.08314e-02,2.54329e-02,4.87283e-02
1.87280e+03,9.23393e+00,-4.56876e+01,-1.88523e-02,2.50072e-02,4.72386e-02
1.87280e+03,7.18879e+00,-4.74448e+01,-1.60246e-02,2.46317e-02,4.55735e-02
1.87280e+03,4.42280e+00,-4.92020e+01,-1.18430e-02,2.44017e-02,4.38928e-02
1.87280e+03,-1.79208e+00,-5.09592e+01,-1.18372e-03,2.44918e-02,4.24376e-02
1.87280e+03,-2.24062e+00,-5.09633e+01,-3.43645e-04,2.47733e-02,4.29100e-02
1.87280e+03,-6.32705e+00,-4.91432e+01,8.38126e-03,2.53075e-02,4.46280e-02
1.87280e+03,-6.82182e+00,-4.73231e+01,1.03603e-02,2.57023e-02,4.57074e-02
1.87280e+03,-6.99255e+00,-4.55029e+01,1.17307e-02,2.61179e-02,4.67337e-02
1.87280e+03,-7.01846e+00,-4.36828e+01,1.28292e-02,2.65527e-02,4.77465e-02
1.87280e+03,-6.93525e+00,-4.18627e+01,1.37227e-02,2.70034e-02,4.87429e-02
1.87280e+03,-6.78358e+00,-4.00426e+01,1.44876e-02,2.74674e-02,4.97319e-02
1.87280e+03,-6.56315e+00,-3.82225e+01,1.51233e-02,2.79419e-02,5.07048e-02
1.87280e+03,-6.30078e+00,-3.64024e+01,1.56803e-02,2.84247e-02,5.16698e-02
1.87280e+03,-6.01408e+00,-3.45822e+01,1.61916e-02,2.89145e-02,5.26338e-02
1.87280e+03,-5.69074e+00,-3.27621e+01,1.66341e-02,2.94099e-02,5.35866e-02
1.87280e+03,-5.34450e+00,-3.09420e+01,1.70335e-02,2.99096e-02,5.45335e-02
1.87280e+03,-4.97595e+00,-2.91219e+01,1.73911e-02,3.04127e-02,5.54729e-02
1.87280e+03,-4.58518e+00,-2.73018e+01,1.77069e-02,3.09179e-02,5.64029e-02
1.87280e+03,-4.18049e+00,-2.54816e+01,1.79966e-02,3.14246e-02,5.73270e-02
1.87280e+03,-3.75794e+00,-2.36615e+01,1.82527e-02,3.19318e-02,5.82417e-02
1.87280e+03,-3.32398e+00,-2.18414e+01,1.84874e-02,3.24390e-02,5.91493e-02
1.87280e+03,-2.87976e+00,-2.00213e+01,1.87029e-02,3.29454e-02,6.00499e-02
1.87280e+03,-2.42640e+00,-1.82012e+01,1.89011e-02,3.34505e-02,6.09431e-02
1.87280e+03,-1.96917e+00,-1.63811e+01,1.90921e-02,3.39541e-02,6.18316e-02
1.87280e+03,-1.50594e+00,-1.45609e+01,1.92719e-02,3.44557e-02,6.27135e-02
1.87280e+03,-1.04170e+00,-1.27408e+01,1.94497e-02,3.49552e-02,6.35915e-02
1.87280e+03,-5.73883e-01,-1.09207e+01,1.96208e-02,3.54524e-02,6.44639e-02
1.87280e+03,-1.06113e-01,-9.10059e+00,1.97920e-02,3.59472e-02,6.53324e-02
1.87280e+03,3.59890e-01,-7.28047e+00,1.99665e-02,3.64395e-02,6.61981e-02
1.87280e+03,8.25892e-01,-5.46035e+00,2.01411e-02,3.69293e-02,6.70596e-02
1.87280e+03,1.28086e+00,-3.64024e+00,2.03363e-02,3.74168e-02,6.79236e-02
1.87280e+03,1.73377e+00,-1.82012e+00,2.05354e-02,3.79022e-02,6.87855e-02
1.91380e+03,2.11856e+01,0.00000e+00,-1.10176e-02,2.96932e-02,5.25970e-02
1.91380e+03,2.10789e+01,-1.60989e+00,-1.15103e-02,2.93682e-02,5.21532e-02
1.91380e+03,2.09370e+01,-3.21977e+00,-1.19601e-02,2.90352e-02,5.16930e-02
1.91380e+03,2.07936e+01,-4.82966e+00,-1.24082e-02,2.86946e-02,5.12260e-02
1.91380e+03,2.06192e+01,-6.43954e+00,-1.28184e-02,2.83470e-02,5.07442e-02
1.91380e+03,2.04375e+01,-8.04943e+00,-1.32198e-02,2.79930e-02,5.02552e-02
1.91380e+03,2.02319e+01,-9.65931e+00,-1.35921e-02,2.76330e-02,4.97544e-02
1.91380e+03,2.00147e+01,-1.12692e+01,-1.39503e-02,2.72676e-02,4.92462e-02
1.91380e+03,1.97784e+01,-1.28791e+01,-1.42851e-02,2.68973e-02,4.87284e-02
1.91380e+03,1.95262e+01,-1.44890e+01,-1.46007e-02,2.65225e-02,4.82028e-02
1.91380e+03,1.92568e+01,-1.60989e+01,-1.48951e-02,2.61437e-02,4.76691e-02
1.91380e+03,1.89663e+01,-1.77087e+01,-1.51640e-02,2.57614e-02,4.71265e-02
1.91380e+03,1.86544e+01,-1.93186e+01,-1.54067e-02,2.53762e-02,4.65749e-02
1.91380e+03,1.83120e+01,-2.09285e+01,-1.56124e-02,2.49887e-02,4.60114e-02
1.91380e+03,1.79399e+01,-2.25384e+01,-1.57819e-02,2.45996e-02,4.54366e-02
1.91380e+03,1.75325e+01,-2.41483e+01,-1.59082e-02,2.42095e-02,4.48483e-02
1.91380e+03,1.70770e+01,-2.57582e+01,-1.59761e-02,2.38198e-02,4.42423e-02
1.91380e+03,1.65881e+01,-2.73680e+01,-1.60033e-02,2.34308e-02,4.36247e-02
1.91380e+03,1.60241e+01,-2.89779e+01,-1.59389e-02,2.30446e-02,4.29791e-02
1.91380e+03,1.54289e+01,-3.05878e+01,-1.58366e-02,2.26620e-02,4.23260e-02
1.91380e+03,1.47470e+01,-3.21977e+01,-1.56285e-02,2.22840e-02,4.16411e-02
1.91380e+03,1.39955e+01,-3.38076e+01,-1.53358e-02,2.19139e-02,4.09370e-02
1.91380e+03,1.31733e+01,-3.54175e+01,-1.49568e-02,2.15521e-02,4.02143e-02
1.91380e+03,1.22322e+01,-3.70274e+01,-1.44332e-02,2.12001e-02,3.94544e-02
1.91380e+03,1.11536e+01,-3.86372e+01,-1.37418e-02,2.08621e-02,3.86591e-02
1.91380e+03,9.91946e+00,-4.02471e+01,-1.28611e-02,2.05422e-02,3.78333e-02
1.91380e+03,8.45973e+00,-4.18570e+01,-1.17055e-02,2.02431e-02,3.69644e-02
1.91380e+03,6.58606e+00,-4.34669e+01,-1.00456e-02,1.99792e-02,3.60336e-02
1.91380e+03,4.05198e+00,-4.50768e+01,-7.58120e-03,1.98177e-02,3.51525e-02
1.91380e+03,-1.64183e+00,-4.66867e+01,-1.26740e-03,1.98812e-02,3.44585e-02
1.91380e+03,-2.05276e+00,-4.66904e+01,-7.68237e-04,2.00791e-02,3.47865e-02
1.91380e+03,-5.79657e+00,-4.50229e+01,4.43774e-03,2.04547e-02,3.57054e-02
1.91380e+03,-6.24986e+00,-4.33554e+01,5.63500e-03,2.07322e-02,3.63487e-02
1.91380e+03,-6.40628e+00,-4.16879e+01,6.47059e-03,2.10243e-02,3.69856e-02
1.91380e+03,-6.43001e+00,-4.00204e+01,7.14455e-03,2.13300e-02,3.76291e-02
1.91380e+03,-6.35378e+00,-3.83528e+01,7.69672e-03,2.16468e-02,3.82752e-02
1.91380e+03,-6.21483e+00,-3.66853e+01,8.17247e-03,2.19729e-02,3.89258e-02
1.91380e+03,-6.01288e+00,-3.50178e+01,8.57148e-03,2.23065e-02,3.95753e-02
1.91380e+03,-5.77251e+00,-3.33503e+01,8.92368e-03,2.26458e-02,4.02260e-02
1.91380e+03,-5.50985e+00,-3.16828e+01,9.24874e-03,2.29900e-02,4.08799e-02
1.91380e+03,-5.21362e+00,-3.00153e+01,9.53289e-03,2.33382e-02,4.15319e-02
1.91380e+03,-4.89640e+00,-2.83477e+01,9.79148e-03,2.36894e-02,4.21834e-02
1.91380e+03,-4.55876e+00,-2.66802e+01,1.00252e-02,2.40430e-02,4.28334e-02
1.91380e+03,-4.20075e+00,-2.50127e+01,1.02341e-02,2.43981e-02,4.34802e-02
1.91380e+03,-3.82998e+00,-2.33452e+01,1.04274e-02,2.47541e-02,4.41252e-02
1.91380e+03,-3.44287e+00,-2.16777e+01,1.06008e-02,2.51106e-02,4.47661e-02
1.91380e+03,-3.04529e+00,-2.00102e+01,1.07615e-02,2.54670e-02,4.54039e-02
1.91380e+03,-2.63832e+00,-1.83427e+01,1.09108e-02,2.58229e-02,4.60381e-02
1.91380e+03,-2.22297e+00,-1.66751e+01,1.10498e-02,2.61778e-02,4.66683e-02
1.91380e+03,-1.80407e+00,-1.50076e+01,1.11845e-02,2.65317e-02,4.72957e-02
1.91380e+03,-1.37967e+00,-1.33401e+01,1.13125e-02,2.68841e-02,4.79191e-02
1.91380e+03,-9.54362e-01,-1.16726e+01,1.14394e-02,2.72351e-02,4.85398e-02
1.91380e+03,-5.25768e-01,-1.00051e+01,1.15623e-02,2.75845e-02,4.91569e-02
1.91380e+03,-9.72161e-02,-8.33757e+00,1.16853e-02,2.79321e-02,4.97711e-02
1.91380e+03,3.29716e-01,-6.67006e+00,1.18102e-02,2.82781e-02,5.03828e-02
1.91380e+03,7.56647e-01,-5.00254e+00,1.19351e-02,2.86222e-02,5.09916e-02
1.91380e+03,1.17347e+00,-3.33503e+00,1.20724e-02,2.89647e-02,5.16004e-02
1.91380e+03,1.58841e+00,-1.66751e+00,1.22119e-02,2.93058e-02,5.22074e-02
1.94970e+03,1.94880e+01,0.00000e+00,-5.87263e-03,2.17337e-02,3.80992e-02
1.94970e+03,1.93899e+01,-1.48088e+00,-6.15118e-03,2.15182e-02,3.77749e-02
1.94970e+03,1.92593e+01,-2.96177e+00,-6.40674e-03,2.12976e-02,3.74407e-02
1.94970e+03,1.91274e+01,-4.44265e+00,-6.66138e-03,2.10718e-02,3.71004e-02
1.94970e+03,1.89669e+01,-5.92353e+00,-6.89573e-03,2.08415e-02,3.67513e-02
1.94970e+03,1.87998e+01,-7.40441e+00,-7.12537e-03,2.06069e-02,3.63965e-02
1.94970e+03,1.86107e+01,-8.88530e+00,-7.33942e-03,2.03683e-02,3.60344e-02
1.94970e+03,1.84109e+01,-1.03662e+01,-7.54592e-03,2.01262e-02,3.56670e-02
1.94970e+03,1.81935e+01,-1.18471e+01,-7.73990e-03,1.98808e-02,3.52936e-02
1.94970e+03,1.79616e+01,-1.33279e+01,-7.92360e-03,1.96324e-02,3.49153e-02
1.94970e+03,1.77137e+01,-1.48088e+01,-8.09599e-03,1.93814e-02,3.45320e-02
1.94970e+03,1.74465e+01,-1.62897e+01,-8.25469e-03,1.91281e-02,3.41437e-02
1.94970e+03,1.71596e+01,-1.77706e+01,-8.39938e-03,1.88728e-02,3.37506e-02
1.94970e+03,1.68446e+01,-1.92515e+01,-8.52421e-03,1.86161e-02,3.33517e-02
1.94970e+03,1.65024e+01,-2.07324e+01,-8.62971e-03,1.83582e-02,3.29476e-02
1.94970e+03,1.61276e+01,-2.22132e+01,-8.71209e-03,1.80998e-02,3.25378e-02
1.94970e+03,1.57086e+01,-2.36941e+01,-8.76317e-03,1.78416e-02,3.21210e-02
1.94970e+03,1.52589e+01,-2.51750e+01,-8.79247e-03,1.75838e-02,3.16999e-02
1.94970e+03,1.47401e+01,-2.66559e+01,-8.77276e-03,1.73279e-02,3.12687e-02
1.94970e+03,1.41926e+01,-2.81368e+01,-8.73273e-03,1.70745e-02,3.08362e-02
1.94970e+03,1.35653e+01,-2.96177e+01,-8.63612e-03,1.68240e-02,3.03929e-02
1.94970e+03,1.28740e+01,-3.10985e+01,-8.49414e-03,1.65788e-02,2.99453e-02
1.94970e+03,1.21177e+01,-3.25794e+01,-8.30601e-03,1.63391e-02,2.94939e-02
1.94970e+03,1.12521e+01,-3.40603e+01,-8.04042e-03,1.61059e-02,2.90319e-02
1.94970e+03,1.02599e+01,-3.55412e+01,-7.68507e-03,1.58820e-02,2.85618e-02
1.94970e+03,9.12460e+00,-3.70221e+01,-7.22830e-03,1.56701e-02,2.80875e-02
1.94970e+03,7.78184e+00,-3.85029e+01,-6.62441e-03,1.54719e-02,2.76048e-02
1.94970e+03,6.05831e+00,-3.99838e+01,-5.75055e-03,1.52972e-02,2.71124e-02
1.94970e+03,3.72729e+00,-4.14647e+01,-4.44598e-03,1.51903e-02,2.66833e-02
1.94970e+03,-1.51027e+00,-4.29456e+01,-1.08064e-03,1.52324e-02,2.64054e-02
1.94970e+03,-1.88827e+00,-4.29490e+01,-8.13444e-04,1.53636e-02,2.66229e-02
1.94970e+03,-5.33209e+00,-4.14151e+01,1.98885e-03,1.56125e-02,2.71146e-02
1.94970e+03,-5.74905e+00,-3.98812e+01,2.64508e-03,1.57964e-02,2.74877e-02
1.94970e+03,-5.89293e+00,-3.83473e+01,3.10769e-03,1.59899e-02,2.78691e-02
1.94970e+03,-5.91477e+00,-3.68135e+01,3.48377e-03,1.61924e-02,2.82617e-02
1.94970e+03,-5.84465e+00,-3.52796e+01,3.79465e-03,1.64024e-02,2.86620e-02
1.94970e+03,-5.71682e+00,-3.37457e+01,4.06463e-03,1.66184e-02,2.90696e-02
1.94970e+03,-5.53106e+00,-3.22118e+01,4.29351e-03,1.68394e-02,2.94811e-02
1.94970e+03,-5.30995e+00,-3.06779e+01,4.49734e-03,1.70643e-02,2.98964e-02
1.94970e+03,-5.06834e+00,-2.91440e+01,4.68664e-03,1.72923e-02,3.03156e-02
1.94970e+03,-4.79584e+00,-2.76101e+01,4.85404e-03,1.75230e-02,3.07364e-02
1.94970e+03,-4.50405e+00,-2.60762e+01,5.00775e-03,1.77557e-02,3.11588e-02
1.94970e+03,-4.19345e+00,-2.45423e+01,5.14814e-03,1.79899e-02,3.15818e-02
1.94970e+03,-3.86414e+00,-2.30084e+01,5.27525e-03,1.82251e-02,3.20046e-02
1.94970e+03,-3.52308e+00,-2.14745e+01,5.39403e-03,1.84610e-02,3.24272e-02
1.94970e+03,-3.16699e+00,-1.99406e+01,5.50216e-03,1.86972e-02,3.28485e-02
1.94970e+03,-2.80126e+00,-1.84067e+01,5.60346e-03,1.89332e-02,3.32686e-02
1.94970e+03,-2.42690e+00,-1.68728e+01,5.69863e-03,1.91690e-02,3.36872e-02
1.94970e+03,-2.04484e+00,-1.53389e+01,5.78834e-03,1.94041e-02,3.41038e-02
1.94970e+03,-1.65951e+00,-1.38050e+01,5.87574e-03,1.96385e-02,3.45187e-02
1.94970e+03,-1.26912e+00,-1.22712e+01,5.95955e-03,1.98720e-02,3.49314e-02
1.94970e+03,-8.77888e-01,-1.07373e+01,6.04276e-03,2.01045e-02,3.53424e-02
1.94970e+03,-4.83637e-01,-9.20336e+00,6.12383e-03,2.03359e-02,3.57512e-02
1.94970e+03,-8.94260e-02,-7.66947e+00,6.20493e-03,2.05661e-02,3.61580e-02
1.94970e+03,3.03295e-01,-6.13558e+00,6.28709e-03,2.07953e-02,3.65631e-02
1.94970e+03,6.96016e-01,-4.60168e+00,6.36925e-03,2.10232e-02,3.69661e-02
1.94970e+03,1.07944e+00,-3.06779e+00,6.45800e-03,2.12500e-02,3.73684e-02
1.94970e+03,1.46113e+00,-1.53389e+00,6.54797e-03,2.14759e-02,3.77693e-02
1.98010e+03,1.80504e+01,0.00000e+00,-2.72765e-03,1.48702e-02,2.59001e-02
1.98010e+03,1.79595e+01,-1.37164e+00,-2.86738e-03,1.47379e-02,2.56873e-02
1.98010e+03,1.78386e+01,-2.74329e+00,-2.99636e-03,1.46023e-02,2.54688e-02
1.98010e+03,1.77165e+01,-4.11493e+00,-3.12491e-03,1.44636e-02,2.52459e-02
1.98010e+03,1.75678e+01,-5.48657e+00,-3.24397e-03,1.43221e-02,2.50178e-02
1.98010e+03,1.74130e+01,-6.85822e+00,-3.36083e-03,1.41780e-02,2.47859e-02
1.98010e+03,1.72378e+01,-8.22986e+00,-3.47041e-03,1.40314e-02,2.45497e-02
1.98010e+03,1.70528e+01,-9.60150e+00,-3.57645e-03,1.38827e-02,2.43100e-02
1.98010e+03,1.68514e+01,-1.09731e+01,-3.67663e-03,1.37319e-02,2.40668e-02
1.98010e+03,1.66366e+01,-1.23448e+01,-3.77201e-03,1.35793e-02,2.38206e-02
1.98010e+03,1.64070e+01,-1.37164e+01,-3.86210e-03,1.34251e-02,2.35716e-02
1.98010e+03,1.61595e+01,-1.50881e+01,-3.94578e-03,1.32695e-02,2.33198e-02
1.98010e+03,1.58938e+01,-1.64597e+01,-4.02292e-03,1.31127e-02,2.30655e-02
1.98010e+03,1.56020e+01,-1.78314e+01,-4.09077e-03,1.29550e-02,2.28085e-02
1.98010e+03,1.52851e+01,-1.92030e+01,-4.14957e-03,1.27966e-02,2.25495e-02
1.98010e+03,1.49379e+01,-2.05747e+01,-4.19757e-03,1.26379e-02,2.22883e-02
1.98010e+03,1.45498e+01,-2.19463e+01,-4.23093e-03,1.24793e-02,2.20249e-02
1.98010e+03,1.41333e+01,-2.33179e+01,-4.25411e-03,1.23210e-02,2.17604e-02
1.98010e+03,1.36527e+01,-2.46896e+01,-4.25436e-03,1.21638e-02,2.14935e-02
1.98010e+03,1.31457e+01,-2.60612e+01,-4.24512e-03,1.20081e-02,2.12274e-02
1.98010e+03,1.25646e+01,-2.74329e+01,-4.20941e-03,1.18543e-02,2.09593e-02
1.98010e+03,1.19244e+01,-2.88045e+01,-4.15250e-03,1.17036e-02,2.06922e-02
1.98010e+03,1.12238e+01,-3.01762e+01,-4.07399e-03,1.15564e-02,2.04267e-02
1.98010e+03,1.04220e+01,-3.15478e+01,-3.95927e-03,1.14132e-02,2.01609e-02
1.98010e+03,9.50303e+00,-3.29194e+01,-3.80257e-03,1.12757e-02,1.98968e-02
1.98010e+03,8.45151e+00,-3.42911e+01,-3.59844e-03,1.11456e-02,1.96372e-02
1.98010e+03,7.20780e+00,-3.56627e+01,-3.32552e-03,1.10238e-02,1.93813e-02
1.98010e+03,5.61141e+00,-3.70344e+01,-2.92635e-03,1.09165e-02,1.91331e-02
1.98010e+03,3.45234e+00,-3.84060e+01,-2.32577e-03,1.08509e-02,1.89377e-02
1.98010e+03,-1.39886e+00,-3.97777e+01,-7.61506e-04,1.08768e-02,1.88546e-02
1.98010e+03,-1.74898e+00,-3.97808e+01,-6.36579e-04,1.09574e-02,1.89895e-02
1.98010e+03,-4.93876e+00,-3.83601e+01,6.83672e-04,1.11103e-02,1.92558e-02
1.98010e+03,-5.32496e+00,-3.69394e+01,1.00036e-03,1.12233e-02,1.94650e-02
1.98010e+03,-5.45823e+00,-3.55186e+01,1.22650e-03,1.13422e-02,1.96835e-02
1.98010e+03,-5.47846e+00,-3.40979e+01,1.41218e-03,1.14666e-02,1.99109e-02
1.98010e+03,-5.41351e+00,-3.26771e+01,1.56737e-03,1.15955e-02,2.01451e-02
1.98010e+03,-5.29511e+00,-3.12564e+01,1.70343e-03,1.17283e-02,2.03852e-02
1.98010e+03,-5.12305e+00,-2.98356e+01,1.82028e-03,1.18640e-02,2.06295e-02
1.98010e+03,-4.91825e+00,-2.84149e+01,1.92541e-03,1.20021e-02,2.08772e-02
1.98010e+03,-4.69446e+00,-2.69941e+01,2.02374e-03,1.21422e-02,2.11280e-02
1.98010e+03,-4.44207e+00,-2.55734e+01,2.11184e-03,1.22839e-02,2.13808e-02
1.98010e+03,-4.17180e+00,-2.41527e+01,2.19353e-03,1.24268e-02,2.16353e-02
1.98010e+03,-3.88412e+00,-2.27319e+01,2.26899e-03,1.25706e-02,2.18909e-02
1.98010e+03,-3.57909e+00,-2.13112e+01,2.33825e-03,1.27151e-02,2.21470e-02
1.98010e+03,-3.26320e+00,-1.98904e+01,2.40361e-03,1.28600e-02,2.24034e-02
1.98010e+03,-2.93337e+00,-1.84697e+01,2.46398e-03,1.30050e-02,2.26597e-02
1.98010e+03,-2.59462e+00,-1.70489e+01,2.52117e-03,1.31500e-02,2.29156e-02
1.98010e+03,-2.24788e+00,-1.56282e+01,2.57548e-03,1.32948e-02,2.31708e-02
1.98010e+03,-1.89400e+00,-1.42074e+01,2.62725e-03,1.34392e-02,2.34251e-02
1.98010e+03,-1.53709e+00,-1.27867e+01,2.67793e-03,1.35831e-02,2.36786e-02
1.98010e+03,-1.17550e+00,-1.13660e+01,2.72694e-03,1.37265e-02,2.39309e-02
1.98010e+03,-8.13129e-01,-9.94521e+00,2.77566e-03,1.38693e-02,2.41821e-02
1.98010e+03,-4.47961e-01,-8.52447e+00,2.82339e-03,1.40114e-02,2.44321e-02
1.98010e+03,-8.28294e-02,-7.10372e+00,2.87112e-03,1.41528e-02,2.46809e-02
1.98010e+03,2.80922e-01,-5.68298e+00,2.91936e-03,1.42935e-02,2.49285e-02
1.98010e+03,6.44673e-01,-4.26223e+00,2.96759e-03,1.44334e-02,2.51749e-02
1.98010e+03,9.99811e-01,-2.84149e+00,3.01890e-03,1.45727e-02,2.54206e-02
1.98010e+03,1.35334e+00,-1.42074e+00,3.07079e-03,1.47114e-02,2.56653e-02
2.00520e+03,1.68635e+01,0.00000e+00,-1.03150e-03,9.11143e-03,1.58151e-02
2.00520e+03,1.67786e+01,-1.28145e+00,-1.09016e-03,9.03897e-03,1.56939e-02
2.00520e+03,1.66656e+01,-2.56290e+00,-1.14470e-03,8.96475e-03,1.55695e-02
2.00520e+03,1.65515e+01,-3.84435e+00,-1.19908e-03,8.88883e-03,1.54425e-02
2.00520e+03,1.64126e+01,-5.12580e+00,-1.24984e-03,8.81137e-03,1.53128e-02
2.00520e+03,1.62680e+01,-6.40725e+00,-1.29975e-03,8.73247e-03,1.51808e-02
2.00520e+03,1.61044e+01,-7.68870e+00,-1.34688e-03,8.65225e-03,1.50465e-02
2.00520e+03,1.59315e+01,-8.97015e+00,-1.39265e-03,8.57082e-03,1.49103e-02
2.00520e+03,1.57433e+01,-1.02516e+01,-1.43619e-03,8.48830e-03,1.47721e-02
2.00520e+03,1.55427e+01,-1.15330e+01,-1.47789e-03,8.40478e-03,1.46323e-02
2.00520e+03,1.53282e+01,-1.28145e+01,-1.51757e-03,8.32039e-03,1.44910e-02
2.00520e+03,1.50970e+01,-1.40959e+01,-1.55480e-03,8.23522e-03,1.43483e-02
2.00520e+03,1.48486e+01,-1.53774e+01,-1.58953e-03,8.14940e-03,1.42044e-02
2.00520e+03,1.45761e+01,-1.66588e+01,-1.62070e-03,8.06306e-03,1.40594e-02
2.00520e+03,1.42800e+01,-1.79403e+01,-1.64842e-03,7.97638e-03,1.39135e-02
2.00520e+03,1.39556e+01,-1.92217e+01,-1.67201e-03,7.88949e-03,1.37669e-02
2.00520e+03,1.35931e+01,-2.05032e+01,-1.69000e-03,7.80268e-03,1.36199e-02
2.00520e+03,1.32039e+01,-2.17846e+01,-1.70410e-03,7.71604e-03,1.34728e-02
2.00520e+03,1.27550e+01,-2.30661e+01,-1.70944e-03,7.63001e-03,1.33257e-02
2.00520e+03,1.22812e+01,-2.43475e+01,-1.71114e-03,7.54479e-03,1.31795e-02
2.00520e+03,1.17384e+01,-2.56290e+01,-1.70273e-03,7.46062e-03,1.30339e-02
2.00520e+03,1.11403e+01,-2.69104e+01,-1.68621e-03,7.37818e-03,1.28902e-02
2.00520e+03,1.04858e+01,-2.81919e+01,-1.66144e-03,7.29762e-03,1.27486e-02
2.00520e+03,9.73672e+00,-2.94733e+01,-1.62282e-03,7.21924e-03,1.26090e-02
2.00520e+03,8.87814e+00,-3.07548e+01,-1.56815e-03,7.14399e-03,1.24727e-02
2.00520e+03,7.89577e+00,-3.20362e+01,-1.49536e-03,7.07276e-03,1.23413e-02
2.00520e+03,6.73385e+00,-3.33177e+01,-1.39626e-03,7.00616e-03,1.22151e-02
2.00520e+03,5.24243e+00,-3.45991e+01,-1.24890e-03,6.94744e-03,1.20980e-02
2.00520e+03,3.22533e+00,-3.58806e+01,-1.02455e-03,6.91155e-03,1.20149e-02
2.00520e+03,-1.30688e+00,-3.71620e+01,-4.31791e-04,6.92574e-03,1.20035e-02
2.00520e+03,-1.63397e+00,-3.71650e+01,-3.84046e-04,6.96987e-03,1.20783e-02
2.00520e+03,-4.61400e+00,-3.58377e+01,1.26094e-04,7.05357e-03,1.22178e-02
2.00520e+03,-4.97481e+00,-3.45104e+01,2.52584e-04,7.11540e-03,1.23268e-02
2.00520e+03,-5.09932e+00,-3.31830e+01,3.44463e-04,7.18048e-03,1.24417e-02
2.00520e+03,-5.11821e+00,-3.18557e+01,4.20871e-04,7.24857e-03,1.25619e-02
2.00520e+03,-5.05754e+00,-3.05284e+01,4.85625e-04,7.31914e-03,1.26864e-02
2.00520e+03,-4.94693e+00,-2.92011e+01,5.43064e-04,7.39179e-03,1.28145e-02
2.00520e+03,-4.78618e+00,-2.78738e+01,5.93160e-04,7.46608e-03,1.29452e-02
2.00520e+03,-4.59485e+00,-2.65464e+01,6.38776e-04,7.54166e-03,1.30781e-02
2.00520e+03,-4.38577e+00,-2.52191e+01,6.81794e-04,7.61832e-03,1.32129e-02
2.00520e+03,-4.14998e+00,-2.38918e+01,7.20897e-04,7.69587e-03,1.33491e-02
2.00520e+03,-3.89748e+00,-2.25645e+01,7.57553e-04,7.77408e-03,1.34864e-02
2.00520e+03,-3.62871e+00,-2.12371e+01,7.91827e-04,7.85280e-03,1.36245e-02
2.00520e+03,-3.34375e+00,-1.99098e+01,8.23728e-04,7.93187e-03,1.37631e-02
2.00520e+03,-3.04862e+00,-1.85825e+01,8.54141e-04,8.01115e-03,1.39020e-02
2.00520e+03,-2.74048e+00,-1.72552e+01,8.82648e-04,8.09052e-03,1.40410e-02
2.00520e+03,-2.42401e+00,-1.59279e+01,9.09934e-04,8.16986e-03,1.41798e-02
2.00520e+03,-2.10007e+00,-1.46005e+01,9.36126e-04,8.24909e-03,1.43185e-02
2.00520e+03,-1.76946e+00,-1.32732e+01,9.61341e-04,8.32811e-03,1.44567e-02
2.00520e+03,-1.43602e+00,-1.19459e+01,9.86142e-04,8.40688e-03,1.45945e-02
2.00520e+03,-1.09820e+00,-1.06186e+01,1.01030e-03,8.48533e-03,1.47317e-02
2.00520e+03,-7.59661e-01,-9.29125e+00,1.03436e-03,8.56346e-03,1.48684e-02
2.00520e+03,-4.18505e-01,-7.96393e+00,1.05803e-03,8.64122e-03,1.50044e-02
2.00520e+03,-7.73829e-02,-6.63661e+00,1.08170e-03,8.71859e-03,1.51397e-02
2.00520e+03,2.62450e-01,-5.30929e+00,1.10557e-03,8.79558e-03,1.52744e-02
2.00520e+03,6.02282e-01,-3.98196e+00,1.12943e-03,8.87216e-03,1.54085e-02
2.00520e+03,9.34067e-01,-2.65464e+00,1.15447e-03,8.94837e-03,1.55420e-02
2.00520e+03,1.26435e+00,-1.32732e+00,1.17974e-03,9.02426e-03,1.56749e-02
2.02480e+03,1.59367e+01,0.00000e+00,-2.85537e-04,4.75150e-03,8.23479e-03
2.02480e+03,1.58564e+01,-1.21102e+00,-3.04386e-04,4.71834e-03,8.17807e-03
2.02480e+03,1.57496e+01,-2.42204e+00,-3.22076e-04,4.68437e-03,8.11996e-03
2.02480e+03,1.56418e+01,-3.63306e+00,-3.39719e-04,4.64963e-03,8.06056e-03
2.02480e+03,1.55106e+01,-4.84408e+00,-3.56340e-04,4.61418e-03,7.99994e-03
2.02480e+03,1.53739e+01,-6.05509e+00,-3.72723e-04,4.57807e-03,7.93821e-03
2.02480e+03,1.52192e+01,-7.26611e+00,-3.88321e-04,4.54136e-03,7.87545e-03
2.02480e+03,1.50559e+01,-8.47713e+00,-4.03537e-04,4.50410e-03,7.81177e-03
2.02480e+03,1.48781e+01,-9.68815e+00,-4.18123e-04,4.46634e-03,7.74721e-03
2.02480e+03,1.46884e+01,-1.08992e+01,-4.32190e-04,4.42812e-03,7.68190e-03
2.02480e+03,1.44857e+01,-1.21102e+01,-4.45688e-04,4.38950e-03,7.61589e-03
2.02480e+03,1.42672e+01,-1.33212e+01,-4.58495e-04,4.35053e-03,7.54927e-03
2.02480e+03,1.40325e+01,-1.45322e+01,-4.70595e-04,4.31126e-03,7.48213e-03
2.02480e+03,1.37750e+01,-1.57432e+01,-4.81695e-04,4.27175e-03,7.41455e-03
2.02480e+03,1.34951e+01,-1.69543e+01,-4.91821e-04,4.23209e-03,7.34667e-03
2.02480e+03,1.31886e+01,-1.81653e+01,-5.00781e-04,4.19233e-03,7.27857e-03
2.02480e+03,1.28460e+01,-1.93763e+01,-5.08163e-04,4.15261e-03,7.21046e-03
2.02480e+03,1.24782e+01,-2.05873e+01,-5.14447e-04,4.11296e-03,7.14241e-03
2.02480e+03,1.20540e+01,-2.17983e+01,-5.18260e-04,4.07360e-03,7.07468e-03
2.02480e+03,1.16063e+01,-2.30094e+01,-5.21050e-04,4.03461e-03,7.00754e-03
2.02480e+03,1.10933e+01,-2.42204e+01,-5.20986e-04,3.99609e-03,6.94101e-03
2.02480e+03,1.05280e+01,-2.54314e+01,-5.18637e-04,3.95837e-03,6.87569e-03
2.02480e+03,9.90946e+00,-2.66424e+01,-5.13960e-04,3.92151e-03,6.81167e-03
2.02480e+03,9.20158e+00,-2.78534e+01,-5.05379e-04,3.88565e-03,6.74909e-03
2.02480e+03,8.39019e+00,-2.90645e+01,-4.92273e-04,3.85122e-03,6.68864e-03
2.02480e+03,7.46181e+00,-3.02755e+01,-4.74054e-04,3.81863e-03,6.63103e-03
2.02480e+03,6.36374e+00,-3.14865e+01,-4.48419e-04,3.78816e-03,6.57659e-03
2.02480e+03,4.95429e+00,-3.26975e+01,-4.09175e-04,3.76129e-03,6.52759e-03
2.02480e+03,3.04806e+00,-3.39085e+01,-3.48219e-04,3.74488e-03,6.49566e-03
2.02480e+03,-1.23505e+00,-3.51195e+01,-1.83380e-04,3.75138e-03,6.50017e-03
2.02480e+03,-1.54416e+00,-3.51224e+01,-1.69922e-04,3.77158e-03,6.53477e-03
2.02480e+03,-4.36041e+00,-3.38680e+01,-2.36794e-05,3.80988e-03,6.59895e-03
2.02480e+03,-4.70139e+00,-3.26136e+01,1.43803e-05,3.83818e-03,6.64793e-03
2.02480e+03,-4.81905e+00,-3.13592e+01,4.26798e-05,3.86795e-03,6.69963e-03
2.02480e+03,-4.83691e+00,-3.01049e+01,6.66171e-05,3.89911e-03,6.75379e-03
2.02480e+03,-4.77957e+00,-2.88505e+01,8.72678e-05,3.93141e-03,6.80995e-03
2.02480e+03,-4.67504e+00,-2.75961e+01,1.05856e-04,3.96465e-03,6.86778e-03
2.02480e+03,-4.52312e+00,-2.63418e+01,1.22374e-04,3.99864e-03,6.92693e-03
2.02480e+03,-4.34231e+00,-2.50874e+01,1.37628e-04,4.03322e-03,6.98710e-03
2.02480e+03,-4.14473e+00,-2.38330e+01,1.52149e-04,4.06830e-03,7.04815e-03
2.02480e+03,-3.92189e+00,-2.25787e+01,1.65567e-04,4.10378e-03,7.10989e-03
2.02480e+03,-3.68327e+00,-2.13243e+01,1.78295e-04,4.13957e-03,7.17216e-03
2.02480e+03,-3.42927e+00,-2.00699e+01,1.90351e-04,4.17559e-03,7.23483e-03
2.02480e+03,-3.15997e+00,-1.88155e+01,2.01738e-04,4.21176e-03,7.29778e-03
2.02480e+03,-2.88106e+00,-1.75612e+01,2.12705e-04,4.24804e-03,7.36089e-03
2.02480e+03,-2.58986e+00,-1.63068e+01,2.23135e-04,4.28435e-03,7.42407e-03
2.02480e+03,-2.29078e+00,-1.50524e+01,2.33221e-04,4.32065e-03,7.48722e-03
2.02480e+03,-1.98465e+00,-1.37981e+01,2.42998e-04,4.35690e-03,7.55029e-03
2.02480e+03,-1.67220e+00,-1.25437e+01,2.52499e-04,4.39306e-03,7.61318e-03
2.02480e+03,-1.35709e+00,-1.12893e+01,2.61884e-04,4.42909e-03,7.67588e-03
2.02480e+03,-1.03784e+00,-1.00350e+01,2.71088e-04,4.46499e-03,7.73833e-03
2.02480e+03,-7.17909e-01,-8.78059e+00,2.80262e-04,4.50073e-03,7.80052e-03
2.02480e+03,-3.95503e-01,-7.52622e+00,2.89328e-04,4.53630e-03,7.86243e-03
2.02480e+03,-7.31298e-02,-6.27185e+00,2.98395e-04,4.57170e-03,7.92403e-03
2.02480e+03,2.48025e-01,-5.01748e+00,3.07516e-04,4.60692e-03,7.98534e-03
2.02480e+03,5.69180e-01,-3.76311e+00,3.16637e-04,4.64195e-03,8.04633e-03
2.02480e+03,8.82730e-01,-2.50874e+00,3.26090e-04,4.67682e-03,8.10705e-03
2.02480e+03,1.19486e+00,-1.25437e+00,3.35605e-04,4.71153e-03,8.16751e-03
2.03880e+03,1.52746e+01,0.00000e+00,-4.75233e-05,1.87264e-03,3.24386e-03
2.03880e+03,1.51977e+01,-1.16071e+00,-5.14941e-05,1.86169e-03,3.22495e-03
2.03880e+03,1.50954e+01,-2.32142e+00,-5.52648e-05,1.85046e-03,3.20557e-03
2.03880e+03,1.49920e+01,-3.48213e+00,-5.90276e-05,1.83899e-03,3.18576e-03
2.03880e+03,1.48662e+01,-4.64285e+00,-6.26139e-05,1.82727e-03,3.16555e-03
2.03880e+03,1.47352e+01,-5.80356e+00,-6.61591e-05,1.81535e-03,3.14497e-03
2.03880e+03,1.45870e+01,-6.96427e+00,-6.95688e-05,1.80322e-03,3.12404e-03
2.03880e+03,1.44304e+01,-8.12498e+00,-7.29127e-05,1.79091e-03,3.10280e-03
2.03880e+03,1.42600e+01,-9.28569e+00,-7.61478e-05,1.77843e-03,3.08127e-03
2.03880e+03,1.40782e+01,-1.04464e+01,-7.92934e-05,1.76581e-03,3.05949e-03
2.03880e+03,1.38839e+01,-1.16071e+01,-8.23405e-05,1.75305e-03,3.03748e-03
2.03880e+03,1.36745e+01,-1.27678e+01,-8.52687e-05,1.74017e-03,3.01527e-03
2.03880e+03,1.34496e+01,-1.39285e+01,-8.80748e-05,1.72720e-03,2.99289e-03
2.03880e+03,1.32028e+01,-1.50892e+01,-9.07083e-05,1.71415e-03,2.97037e-03
2.03880e+03,1.29345e+01,-1.62500e+01,-9.31735e-05,1.70104e-03,2.94777e-03
2.03880e+03,1.26407e+01,-1.74107e+01,-9.54376e-05,1.68791e-03,2.92510e-03
2.03880e+03,1.23123e+01,-1.85714e+01,-9.74294e-05,1.67479e-03,2.90245e-03
2.03880e+03,1.19599e+01,-1.97321e+01,-9.92317e-05,1.66169e-03,2.87984e-03
2.03880e+03,1.15532e+01,-2.08928e+01,-1.00608e-04,1.64869e-03,2.85738e-03
2.03880e+03,1.11241e+01,-2.20535e+01,-1.01807e-04,1.63581e-03,2.83513e-03
2.03880e+03,1.06324e+01,-2.32142e+01,-1.02514e-04,1.62308e-03,2.81313e-03
2.03880e+03,1.00906e+01,-2.43749e+01,-1.02826e-04,1.61062e-03,2.79158e-03
2.03880e+03,9.49781e+00,-2.55357e+01,-1.02737e-04,1.59845e-03,2.77050e-03
2.03880e+03,8.81933e+00,-2.66964e+01,-1.01973e-04,1.58660e-03,2.74996e-03
2.03880e+03,8.04165e+00,-2.78571e+01,-1.00429e-04,1.57523e-03,2.73022e-03
2.03880e+03,7.15183e+00,-2.90178e+01,-9.80029e-05,1.56446e-03,2.71150e-03
2.03880e+03,6.09938e+00,-3.01785e+01,-9.42965e-05,1.55440e-03,2.69395e-03
2.03880e+03,4.74849e+00,-3.13392e+01,-8.82414e-05,1.54552e-03,2.67838e-03
2.03880e+03,2.92144e+00,-3.24999e+01,-7.84391e-05,1.54010e-03,2.66869e-03
2.03880e+03,-1.18374e+00,-3.36606e+01,-5.07083e-05,1.54225e-03,2.67174e-03
2.03880e+03,-1.48002e+00,-3.36633e+01,-4.83873e-05,1.54893e-03,2.68325e-03
2.03880e+03,-4.17927e+00,-3.24611e+01,-2.24047e-05,1.56158e-03,2.70483e-03
2.03880e+03,-4.50609e+00,-3.12588e+01,-1.50928e-05,1.57093e-03,2.72097e-03
2.03880e+03,-4.61886e+00,-3.00565e+01,-9.46527e-06,1.58077e-03,2.73798e-03
2.03880e+03,-4.63598e+00,-2.88543e+01,-4.59061e-06,1.59106e-03,2.75580e-03
2.03880e+03,-4.58102e+00,-2.76520e+01,-2.83147e-07,1.60173e-03,2.77427e-03
2.03880e+03,-4.48083e+00,-2.64498e+01,3.66838e-06,1.61271e-03,2.79330e-03
2.03880e+03,-4.33523e+00,-2.52475e+01,7.26251e-06,1.62394e-03,2.81275e-03
2.03880e+03,-4.16192e+00,-2.40452e+01,1.06386e-05,1.63536e-03,2.83255e-03
2.03880e+03,-3.97255e+00,-2.28430e+01,1.38883e-05,1.64695e-03,2.85264e-03
2.03880e+03,-3.75897e+00,-2.16407e+01,1.69474e-05,1.65867e-03,2.87295e-03
2.03880e+03,-3.53026e+00,-2.04384e+01,1.98876e-05,1.67049e-03,2.89345e-03
2.03880e+03,-3.28682e+00,-1.92362e+01,2.27117e-05,1.68239e-03,2.91408e-03
2.03880e+03,-3.02870e+00,-1.80339e+01,2.54204e-05,1.69434e-03,2.93479e-03
2.03880e+03,-2.76138e+00,-1.68317e+01,2.80566e-05,1.70632e-03,2.95557e-03
2.03880e+03,-2.48228e+00,-1.56294e+01,3.06001e-05,1.71832e-03,2.97637e-03
2.03880e+03,-2.19562e+00,-1.44271e+01,3.30842e-05,1.73031e-03,2.99717e-03
2.03880e+03,-1.90220e+00,-1.32249e+01,3.55150e-05,1.74228e-03,3.01793e-03
2.03880e+03,-1.60274e+00,-1.20226e+01,3.78983e-05,1.75423e-03,3.03865e-03
2.03880e+03,-1.30072e+00,-1.08204e+01,4.02614e-05,1.76613e-03,3.05929e-03
2.03880e+03,-9.94731e-01,-9.61809e+00,4.25934e-05,1.77799e-03,3.07986e-03
2.03880e+03,-6.88086e-01,-8.41583e+00,4.49201e-05,1.78979e-03,3.10033e-03
2.03880e+03,-3.79073e-01,-7.21357e+00,4.72283e-05,1.80154e-03,3.12072e-03
2.03880e+03,-7.00919e-02,-6.01131e+00,4.95366e-05,1.81323e-03,3.14100e-03
2.03880e+03,2.37722e-01,-4.80905e+00,5.18542e-05,1.82487e-03,3.16119e-03
2.03880e+03,5.45535e-01,-3.60678e+00,5.41717e-05,1.83644e-03,3.18127e-03
2.03880e+03,8.46060e-01,-2.40452e+00,5.65467e-05,1.84795e-03,3.20125e-03
2.03880e+03,1.14523e+00,-1.20226e+00,5.89323e-05,1.85942e-03,3.22115e-03
2.04720e+03,1.48774e+01,0.00000e+00,-5.34494e-06,3.77782e-04,6.54359e-04
2.04720e+03,1.48025e+01,-1.13053e+00,-5.97579e-06,3.76200e-04,6.51626e-04
2.04720e+03,1.47028e+01,-2.26105e+00,-6.58253e-06,3.74581e-04,6.48826e-04
2.04720e+03,1.46021e+01,-3.39158e+00,-7.18831e-06,3.72924e-04,6.45963e-04
2.04720e+03,1.44796e+01,-4.52211e+00,-7.77281e-06,3.71234e-04,6.43043e-04
2.04720e+03,1.43520e+01,-5.65264e+00,-8.35236e-06,3.69512e-04,6.40068e-04
2.04720e+03,1.42077e+01,-6.78316e+00,-8.91558e-06,3.67762e-04,6.37045e-04
2.04720e+03,1.40552e+01,-7.91369e+00,-9.47088e-06,3.65985e-04,6.33976e-04
2.04720e+03,1.38892e+01,-9.04422e+00,-1.00130e-05,3.64185e-04,6.30866e-04
2.04720e+03,1.37121e+01,-1.01747e+01,-1.05444e-05,3.62362e-04,6.27719e-04
2.04720e+03,1.35229e+01,-1.13053e+01,-1.10640e-05,3.60521e-04,6.24539e-04
2.04720e+03,1.33189e+01,-1.24358e+01,-1.15691e-05,3.58663e-04,6.21330e-04
2.04720e+03,1.30998e+01,-1.35663e+01,-1.20596e-05,3.56791e-04,6.18097e-04
2.04720e+03,1.28594e+01,-1.46969e+01,-1.25293e-05,3.54907e-04,6.14845e-04
2.04720e+03,1.25982e+01,-1.58274e+01,-1.29786e-05,3.53016e-04,6.11580e-04
2.04720e+03,1.23120e+01,-1.69579e+01,-1.34038e-05,3.51121e-04,6.08306e-04
2.04720e+03,1.19922e+01,-1.80884e+01,-1.37961e-05,3.49227e-04,6.05036e-04
2.04720e+03,1.16489e+01,-1.92190e+01,-1.41656e-05,3.47337e-04,6.01772e-04
2.04720e+03,1.12528e+01,-2.03495e+01,-1.44837e-05,3.45460e-04,5.98530e-04
2.04720e+03,1.08348e+01,-2.14800e+01,-1.47804e-05,3.43601e-04,5.95318e-04
2.04720e+03,1.03559e+01,-2.26105e+01,-1.50179e-05,3.41765e-04,5.92145e-04
2.04720e+03,9.82823e+00,-2.37411e+01,-1.52078e-05,3.39967e-04,5.89037e-04
2.04720e+03,9.25081e+00,-2.48716e+01,-1.53492e-05,3.38210e-04,5.85998e-04
2.04720e+03,8.58998e+00,-2.60021e+01,-1.54095e-05,3.36500e-04,5.83039e-04
2.04720e+03,7.83252e+00,-2.71326e+01,-1.53756e-05,3.34859e-04,5.80196e-04
2.04720e+03,6.96585e+00,-2.82632e+01,-1.52354e-05,3.33306e-04,5.77503e-04
2.04720e+03,5.94077e+00,-2.93937e+01,-1.49409e-05,3.31853e-04,5.74981e-04
2.04720e+03,4.62500e+00,-3.05242e+01,-1.43633e-05,3.30573e-04,5.72749e-04
2.04720e+03,2.84547e+00,-3.16548e+01,-1.33340e-05,3.29791e-04,5.71370e-04
2.04720e+03,-1.15296e+00,-3.27853e+01,-1.01438e-05,3.30101e-04,5.71841e-04
2.04720e+03,-1.44153e+00,-3.27879e+01,-9.86442e-06,3.31064e-04,5.73504e-04
2.04720e+03,-4.07059e+00,-3.16169e+01,-6.57499e-06,3.32890e-04,5.76620e-04
2.04720e+03,-4.38891e+00,-3.04459e+01,-5.53597e-06,3.34239e-04,5.78946e-04
2.04720e+03,-4.49875e+00,-2.92749e+01,-4.69998e-06,3.35659e-04,5.81398e-04
2.04720e+03,-4.51542e+00,-2.81039e+01,-3.95474e-06,3.37145e-04,5.83965e-04
2.04720e+03,-4.46189e+00,-2.69329e+01,-3.27786e-06,3.38684e-04,5.86628e-04
2.04720e+03,-4.36430e+00,-2.57619e+01,-2.64388e-06,3.40269e-04,5.89369e-04
2.04720e+03,-4.22249e+00,-2.45909e+01,-2.05298e-06,3.41890e-04,5.92174e-04
2.04720e+03,-4.05369e+00,-2.34199e+01,-1.48836e-06,3.43538e-04,5.95028e-04
2.04720e+03,-3.86924e+00,-2.22489e+01,-9.38977e-07,3.45211e-04,5.97923e-04
2.04720e+03,-3.66121e+00,-2.10779e+01,-4.12559e-07,3.46902e-04,6.00852e-04
2.04720e+03,-3.43845e+00,-1.99069e+01,9.95104e-08,3.48608e-04,6.03807e-04
2.04720e+03,-3.20134e+00,-1.87359e+01,5.97603e-07,3.50325e-04,6.06781e-04
2.04720e+03,-2.94994e+00,-1.75649e+01,1.08177e-06,3.52050e-04,6.09769e-04
2.04720e+03,-2.68957e+00,-1.63940e+01,1.55722e-06,3.53779e-04,6.12765e-04
2.04720e+03,-2.41772e+00,-1.52230e+01,2.02148e-06,3.55510e-04,6.15765e-04
2.04720e+03,-2.13852e+00,-1.40520e+01,2.47858e-06,3.57241e-04,6.18764e-04
2.04720e+03,-1.85273e+00,-1.28810e+01,2.92927e-06,3.58968e-04,6.21758e-04
2.04720e+03,-1.56106e+00,-1.17100e+01,3.37422e-06,3.60692e-04,6.24746e-04
2.04720e+03,-1.26689e+00,-1.05390e+01,3.81675e-06,3.62410e-04,6.27723e-04
2.04720e+03,-9.68863e-01,-9.36797e+00,4.25551e-06,3.64121e-04,6.30690e-04
2.04720e+03,-6.70192e-01,-8.19698e+00,4.69365e-06,3.65824e-04,6.33643e-04
2.04720e+03,-3.69215e-01,-7.02598e+00,5.12955e-06,3.67520e-04,6.36584e-04
2.04720e+03,-6.82691e-02,-5.85498e+00,5.56547e-06,3.69207e-04,6.39509e-04
2.04720e+03,2.31540e-01,-4.68399e+00,6.00250e-06,3.70886e-04,6.42421e-04
2.04720e+03,5.31348e-01,-3.51299e+00,6.43953e-06,3.72556e-04,6.45317e-04
2.04720e+03,8.24058e-01,-2.34199e+00,6.88348e-06,3.74217e-04,6.48200e-04
2.04720e+03,1.11544e+00,-1.17100e+00,7.32871e-06,3.75872e-04,6.51071e-04
2.05000e+03,1.47450e+01,0.00000e+00,0.00000e+00,0.00000e+00,0.00000e+00
2.05000e+03,1.46708e+01,-1.12047e+00,0.00000e+00,0.00000e+00,0.00000e+00
2.05000e+03,1.45720e+01,-2.24093e+00,0.00000e+00,0.00000e+00,0.00000e+00
2.05000e+03,1.44722e+01,-3.36140e+00,0.00000e+00,0.00000e+00,0.00000e+00
2.05000e+03,1.43508e+01,-4.48186e+00,0.00000e+00,0.00000e+00,0.00000e+00
2.05000e+03,1.42243e+01,-5.60233e+00,0.00000e+00,0.00000e+00,0.00000e+00
2.05000e+03,1.40812e+01,-6.72279e+00,0.00000e+00,0.00000e+00,0.00000e+00
2.05000e+03,1.39301e+01,-7.84326e+00,0.00000e+00,0.00000e+00,0.00000e+00
2.05000e+03,1.37656e+01,-8.96372e+00,0.00000e+00,0.00000e+00,0.00000e+00
2.05000e+03,1.35901e+01,-1.00842e+01,0.00000e+00,0.00000e+00,0.00000e+00
2.05000e+03,1.34025e+01,-1.12047e+01,0.00000e+00,0.00000e+00,0.00000e+00
2.05000e+03,1.32004e+01,-1.23251e+01,0.00000e+00,0.00000e+00,0.00000e+00
2.05000e+03,1.29833e+01,-1.34456e+01,0.00000e+00,0.00000e+00,0.00000e+00
2.05000e+03,1.27450e+01,-1.45661e+01,0.00000e+00,0.00000e+00,0.00000e+00
2.05000e+03,1.24860e+01,-1.56865e+01,0.00000e+00,0.00000e+00,0.00000e+00
2.05000e+03,1.22024e+01,-1.68070e+01,0.00000e+00,0.00000e+00,0.00000e+00
2.05000e+03,1.18854e+01,-1.79274e+01,0.00000e+00,0.00000e+00,0.00000e+00
2.05000e+03,1.15452e+01,-1.90479e+01,0.00000e+00,0.00000e+00,0.00000e+00
2.05000e+03,1.11526e+01,-2.01684e+01,0.00000e+00,0.00000e+00,0.00000e+00
2.05000e+03,1.07384e+01,-2.12888e+01,0.00000e+00,0.00000e+00,0.00000e+00
2.05000e+03,1.02638e+01,-2.24093e+01,0.00000e+00,0.00000e+00,0.00000e+00
2.05000e+03,9.74076e+00,-2.35298e+01,0.00000e+00,0.00000e+00,0.00000e+00
2.05000e+03,9.16848e+00,-2.46502e+01,0.00000e+00,0.00000e+00,0.00000e+00
2.05000e+03,8.51353e+00,-2.57707e+01,0.00000e+00,0.00000e+00,0.00000e+00
2.05000e+03,7.76281e+00,-2.68912e+01,0.00000e+00,0.00000e+00,0.00000e+00
2.05000e+03,6.90385e+00,-2.80116e+01,0.00000e+00,0.00000e+00,0.00000e+00
2.05000e+03,5.88790e+00,-2.91321e+01,0.00000e+00,0.00000e+00,0.00000e+00
2.05000e+03,4.58384e+00,-3.02526e+01,0.00000e+00,0.00000e+00,0.00000e+00
2.05000e+03,2.82014e+00,-3.13730e+01,0.00000e+00,0.00000e+00,0.00000e+00
2.05000e+03,-1.14270e+00,-3.24935e+01,0.00000e+00,0.00000e+00,0.00000e+00
2.05000e+03,-1.42870e+00,-3.24961e+01,0.00000e+00,0.00000e+00,0.00000e+00
2.05000e+03,-4.03436e+00,-3.13355e+01,0.00000e+00,0.00000e+00,0.00000e+00
2.05000e+03,-4.34985e+00,-3.01749e+01,0.00000e+00,0.00000e+00,0.00000e+00
2.05000e+03,-4.45871e+00,-2.90144e+01,0.00000e+00,0.00000e+00,0.00000e+00
2.05000e+03,-4.47523e+00,-2.78538e+01,0.00000e+00,0.00000e+00,0.00000e+00
2.05000e+03,-4.42218e+00,-2.66932e+01,0.00000e+00,0.00000e+00,0.00000e+00
2.05000e+03,-4.32546e+00,-2.55327e+01,0.00000e+00,0.00000e+00,0.00000e+00
2.05000e+03,-4.18491e+00,-2.43721e+01,0.00000e+00,0.00000e+00,0.00000e+00
2.05000e+03,-4.01761e+00,-2.32115e+01,0.00000e+00,0.00000e+00,0.00000e+00
2.05000e+03,-3.83480e+00,-2.20509e+01,0.00000e+00,0.00000e+00,0.00000e+00
2.05000e+03,-3.62863e+00,-2.08903e+01,0.00000e+00,0.00000e+00,0.00000e+00
2.05000e+03,-3.40785e+00,-1.97298e+01,0.00000e+00,0.00000e+00,0.00000e+00
2.05000e+03,-3.17285e+00,-1.85692e+01,0.00000e+00,0.00000e+00,0.00000e+00
2.05000e+03,-2.92368e+00,-1.74086e+01,0.00000e+00,0.00000e+00,0.00000e+00
2.05000e+03,-2.66563e+00,-1.62480e+01,0.00000e+00,0.00000e+00,0.00000e+00
2.05000e+03,-2.39621e+00,-1.50875e+01,0.00000e+00,0.00000e+00,0.00000e+00
2.05000e+03,-2.11949e+00,-1.39269e+01,0.00000e+00,0.00000e+00,0.00000e+00
2.05000e+03,-1.83624e+00,-1.27663e+01,0.00000e+00,0.00000e+00,0.00000e+00
2.05000e+03,-1.54717e+00,-1.16057e+01,0.00000e+00,0.00000e+00,0.00000e+00
2.05000e+03,-1.25562e+00,-1.04452e+01,0.00000e+00,0.00000e+00,0.00000e+00
2.05000e+03,-9.60241e-01,-9.28460e+00,0.00000e+00,0.00000e+00,0.00000e+00
2.05000e+03,-6.64227e-01,-8.12402e+00,0.00000e+00,0.00000e+00,0.00000e+00
2.05000e+03,-3.65929e-01,-6.96345e+00,0.00000e+00,0.00000e+00,0.00000e+00
2.05000e+03,-6.76615e-02,-5.80287e+00,0.00000e+00,0.00000e+00,0.00000e+00
2.05000e+03,2.29479e-01,-4.64230e+00,0.00000e+00,0.00000e+00,0.00000e+00
2.05000e+03,5.26620e-01,-3.48173e+00,0.00000e+00,0.00000e+00,0.00000e+00
2.05000e+03,8.16724e-01,-2.32115e+00,0.00000e+00,0.00000e+00,0.00000e+00
2.05000e+03,1.10552e+00,-1.16058e+00,0.00000e+00,0.00000e+00,0.00000e+00
--------------------------------------------------------------------------------------------------------------------------------------------------------------------------------------------------------------------------------------------------------------------------------------------------------------------------------------------------------------------------------

LAMINADO 
--------------------------------------------------------------------------------------------------------------------------------------------------------------------------------------------------------------------------------------------------------------------------------------------------------------------------------------------------------------------------------
X,Y,Z,Sigma,Tau,Von Mises
0.00000e+00,4.31008e+01,0.00000e+00,0.00000e+00,0.00000e+00,0.00000e+00
0.00000e+00,4.28837e+01,-3.27521e+00,0.00000e+00,0.00000e+00,0.00000e+00
0.00000e+00,4.25950e+01,-6.55041e+00,0.00000e+00,0.00000e+00,0.00000e+00
0.00000e+00,4.23033e+01,-9.82562e+00,0.00000e+00,0.00000e+00,0.00000e+00
0.00000e+00,4.19484e+01,-1.31008e+01,0.00000e+00,0.00000e+00,0.00000e+00
0.00000e+00,4.15787e+01,-1.63760e+01,0.00000e+00,0.00000e+00,0.00000e+00
0.00000e+00,4.11605e+01,-1.96512e+01,0.00000e+00,0.00000e+00,0.00000e+00
0.00000e+00,4.07187e+01,-2.29264e+01,0.00000e+00,0.00000e+00,0.00000e+00
0.00000e+00,4.02378e+01,-2.62017e+01,0.00000e+00,0.00000e+00,0.00000e+00
0.00000e+00,3.97249e+01,-2.94769e+01,0.00000e+00,0.00000e+00,0.00000e+00
0.00000e+00,3.91766e+01,-3.27521e+01,0.00000e+00,0.00000e+00,0.00000e+00
0.00000e+00,3.85857e+01,-3.60273e+01,0.00000e+00,0.00000e+00,0.00000e+00
0.00000e+00,3.79511e+01,-3.93025e+01,0.00000e+00,0.00000e+00,0.00000e+00
0.00000e+00,3.72545e+01,-4.25777e+01,0.00000e+00,0.00000e+00,0.00000e+00
0.00000e+00,3.64976e+01,-4.58529e+01,0.00000e+00,0.00000e+00,0.00000e+00
0.00000e+00,3.56687e+01,-4.91281e+01,0.00000e+00,0.00000e+00,0.00000e+00
0.00000e+00,3.47420e+01,-5.24033e+01,0.00000e+00,0.00000e+00,0.00000e+00
0.00000e+00,3.37474e+01,-5.56785e+01,0.00000e+00,0.00000e+00,0.00000e+00
0.00000e+00,3.26000e+01,-5.89537e+01,0.00000e+00,0.00000e+00,0.00000e+00
0.00000e+00,3.13892e+01,-6.22289e+01,0.00000e+00,0.00000e+00,0.00000e+00
0.00000e+00,3.00018e+01,-6.55041e+01,0.00000e+00,0.00000e+00,0.00000e+00
0.00000e+00,2.84730e+01,-6.87793e+01,0.00000e+00,0.00000e+00,0.00000e+00
0.00000e+00,2.68002e+01,-7.20546e+01,0.00000e+00,0.00000e+00,0.00000e+00
0.00000e+00,2.48857e+01,-7.53298e+01,0.00000e+00,0.00000e+00,0.00000e+00
0.00000e+00,2.26913e+01,-7.86050e+01,0.00000e+00,0.00000e+00,0.00000e+00
0.00000e+00,2.01805e+01,-8.18802e+01,0.00000e+00,0.00000e+00,0.00000e+00
0.00000e+00,1.72108e+01,-8.51554e+01,0.00000e+00,0.00000e+00,0.00000e+00
0.00000e+00,1.33989e+01,-8.84306e+01,0.00000e+00,0.00000e+00,0.00000e+00
0.00000e+00,8.24350e+00,-9.17058e+01,0.00000e+00,0.00000e+00,0.00000e+00
0.00000e+00,-3.34020e+00,-9.49810e+01,0.00000e+00,0.00000e+00,0.00000e+00
0.00000e+00,-4.17620e+00,-9.49886e+01,0.00000e+00,0.00000e+00,0.00000e+00
0.00000e+00,-1.17928e+01,-9.15961e+01,0.00000e+00,0.00000e+00,0.00000e+00
0.00000e+00,-1.27149e+01,-8.82037e+01,0.00000e+00,0.00000e+00,0.00000e+00
0.00000e+00,-1.30332e+01,-8.48113e+01,0.00000e+00,0.00000e+00,0.00000e+00
0.00000e+00,-1.30814e+01,-8.14188e+01,0.00000e+00,0.00000e+00,0.00000e+00
0.00000e+00,-1.29264e+01,-7.80264e+01,0.00000e+00,0.00000e+00,0.00000e+00
0.00000e+00,-1.26437e+01,-7.46339e+01,0.00000e+00,0.00000e+00,0.00000e+00
0.00000e+00,-1.22328e+01,-7.12415e+01,0.00000e+00,0.00000e+00,0.00000e+00
0.00000e+00,-1.17438e+01,-6.78490e+01,0.00000e+00,0.00000e+00,0.00000e+00
0.00000e+00,-1.12094e+01,-6.44565e+01,0.00000e+00,0.00000e+00,0.00000e+00
0.00000e+00,-1.06068e+01,-6.10641e+01,0.00000e+00,0.00000e+00,0.00000e+00
0.00000e+00,-9.96142e+00,-5.76716e+01,0.00000e+00,0.00000e+00,0.00000e+00
0.00000e+00,-9.27449e+00,-5.42792e+01,0.00000e+00,0.00000e+00,0.00000e+00
0.00000e+00,-8.54615e+00,-5.08867e+01,0.00000e+00,0.00000e+00,0.00000e+00
0.00000e+00,-7.79185e+00,-4.74943e+01,0.00000e+00,0.00000e+00,0.00000e+00
0.00000e+00,-7.00429e+00,-4.41018e+01,0.00000e+00,0.00000e+00,0.00000e+00
0.00000e+00,-6.19544e+00,-4.07094e+01,0.00000e+00,0.00000e+00,0.00000e+00
0.00000e+00,-5.36748e+00,-3.73169e+01,0.00000e+00,0.00000e+00,0.00000e+00
0.00000e+00,-4.52248e+00,-3.39245e+01,0.00000e+00,0.00000e+00,0.00000e+00
0.00000e+00,-3.67026e+00,-3.05320e+01,0.00000e+00,0.00000e+00,0.00000e+00
0.00000e+00,-2.80686e+00,-2.71396e+01,0.00000e+00,0.00000e+00,0.00000e+00
0.00000e+00,-1.94159e+00,-2.37472e+01,0.00000e+00,0.00000e+00,0.00000e+00
0.00000e+00,-1.06964e+00,-2.03547e+01,0.00000e+00,0.00000e+00,0.00000e+00
0.00000e+00,-1.97780e-01,-1.69622e+01,0.00000e+00,0.00000e+00,0.00000e+00
0.00000e+00,6.70785e-01,-1.35698e+01,0.00000e+00,0.00000e+00,0.00000e+00
0.00000e+00,1.53935e+00,-1.01774e+01,0.00000e+00,0.00000e+00,0.00000e+00
0.00000e+00,2.38735e+00,-6.78490e+00,0.00000e+00,0.00000e+00,0.00000e+00
0.00000e+00,3.23151e+00,-3.39245e+00,0.00000e+00,0.00000e+00,0.00000e+00
1.07300e+02,4.26785e+01,0.00000e+00,0.00000e+00,0.00000e+00,0.00000e+00
1.07300e+02,4.24636e+01,-3.24312e+00,0.00000e+00,0.00000e+00,0.00000e+00
1.07300e+02,4.21777e+01,-6.48624e+00,0.00000e+00,0.00000e+00,0.00000e+00
1.07300e+02,4.18889e+01,-9.72936e+00,0.00000e+00,0.00000e+00,0.00000e+00
1.07300e+02,4.15374e+01,-1.29725e+01,0.00000e+00,0.00000e+00,0.00000e+00
1.07300e+02,4.11714e+01,-1.62156e+01,0.00000e+00,0.00000e+00,0.00000e+00
1.07300e+02,4.07572e+01,-1.94587e+01,0.00000e+00,0.00000e+00,0.00000e+00
1.07300e+02,4.03197e+01,-2.27018e+01,0.00000e+00,0.00000e+00,0.00000e+00
1.07300e+02,3.98436e+01,-2.59450e+01,0.00000e+00,0.00000e+00,0.00000e+00
1.07300e+02,3.93357e+01,-2.91881e+01,0.00000e+00,0.00000e+00,0.00000e+00
1.07300e+02,3.87928e+01,-3.24312e+01,0.00000e+00,0.00000e+00,0.00000e+00
1.07300e+02,3.82077e+01,-3.56743e+01,0.00000e+00,0.00000e+00,0.00000e+00
1.07300e+02,3.75793e+01,-3.89174e+01,0.00000e+00,0.00000e+00,0.00000e+00
1.07300e+02,3.68895e+01,-4.21606e+01,0.00000e+00,0.00000e+00,0.00000e+00
1.07300e+02,3.61401e+01,-4.54037e+01,0.00000e+00,0.00000e+00,0.00000e+00
1.07300e+02,3.53192e+01,-4.86468e+01,0.00000e+00,0.00000e+00,0.00000e+00
1.07300e+02,3.44016e+01,-5.18899e+01,0.00000e+00,0.00000e+00,0.00000e+00
1.07300e+02,3.34168e+01,-5.51330e+01,0.00000e+00,0.00000e+00,0.00000e+00
1.07300e+02,3.22806e+01,-5.83762e+01,0.00000e+00,0.00000e+00,0.00000e+00
1.07300e+02,3.10816e+01,-6.16193e+01,0.00000e+00,0.00000e+00,0.00000e+00
1.07300e+02,2.97079e+01,-6.48624e+01,0.00000e+00,0.00000e+00,0.00000e+00
1.07300e+02,2.81940e+01,-6.81055e+01,0.00000e+00,0.00000e+00,0.00000e+00
1.07300e+02,2.65376e+01,-7.13486e+01,0.00000e+00,0.00000e+00,0.00000e+00
1.07300e+02,2.46419e+01,-7.45918e+01,0.00000e+00,0.00000e+00,0.00000e+00
1.07300e+02,2.24690e+01,-7.78349e+01,0.00000e+00,0.00000e+00,0.00000e+00
1.07300e+02,1.99828e+01,-8.10780e+01,0.00000e+00,0.00000e+00,0.00000e+00
1.07300e+02,1.70422e+01,-8.43211e+01,0.00000e+00,0.00000e+00,0.00000e+00
1.07300e+02,1.32676e+01,-8.75642e+01,0.00000e+00,0.00000e+00,0.00000e+00
1.07300e+02,8.16273e+00,-9.08074e+01,0.00000e+00,0.00000e+00,0.00000e+00
1.07300e+02,-3.30748e+00,-9.40505e+01,0.00000e+00,0.00000e+00,0.00000e+00
1.07300e+02,-4.13529e+00,-9.40580e+01,0.00000e+00,0.00000e+00,0.00000e+00
1.07300e+02,-1.16772e+01,-9.06988e+01,0.00000e+00,0.00000e+00,0.00000e+00
1.07300e+02,-1.25904e+01,-8.73396e+01,0.00000e+00,0.00000e+00,0.00000e+00
1.07300e+02,-1.29055e+01,-8.39804e+01,0.00000e+00,0.00000e+00,0.00000e+00
1.07300e+02,-1.29533e+01,-8.06211e+01,0.00000e+00,0.00000e+00,0.00000e+00
1.07300e+02,-1.27997e+01,-7.72619e+01,0.00000e+00,0.00000e+00,0.00000e+00
1.07300e+02,-1.25198e+01,-7.39027e+01,0.00000e+00,0.00000e+00,0.00000e+00
1.07300e+02,-1.21130e+01,-7.05435e+01,0.00000e+00,0.00000e+00,0.00000e+00
1.07300e+02,-1.16287e+01,-6.71843e+01,0.00000e+00,0.00000e+00,0.00000e+00
1.07300e+02,-1.10996e+01,-6.38251e+01,0.00000e+00,0.00000e+00,0.00000e+00
1.07300e+02,-1.05029e+01,-6.04659e+01,0.00000e+00,0.00000e+00,0.00000e+00
1.07300e+02,-9.86382e+00,-5.71066e+01,0.00000e+00,0.00000e+00,0.00000e+00
1.07300e+02,-9.18363e+00,-5.37474e+01,0.00000e+00,0.00000e+00,0.00000e+00
1.07300e+02,-8.46243e+00,-5.03882e+01,0.00000e+00,0.00000e+00,0.00000e+00
1.07300e+02,-7.71552e+00,-4.70290e+01,0.00000e+00,0.00000e+00,0.00000e+00
1.07300e+02,-6.93567e+00,-4.36698e+01,0.00000e+00,0.00000e+00,0.00000e+00
1.07300e+02,-6.13474e+00,-4.03106e+01,0.00000e+00,0.00000e+00,0.00000e+00
1.07300e+02,-5.31490e+00,-3.69514e+01,0.00000e+00,0.00000e+00,0.00000e+00
1.07300e+02,-4.47818e+00,-3.35921e+01,0.00000e+00,0.00000e+00,0.00000e+00
1.07300e+02,-3.63431e+00,-3.02329e+01,0.00000e+00,0.00000e+00,0.00000e+00
1.07300e+02,-2.77936e+00,-2.68737e+01,0.00000e+00,0.00000e+00,0.00000e+00
1.07300e+02,-1.92257e+00,-2.35145e+01,0.00000e+00,0.00000e+00,0.00000e+00
1.07300e+02,-1.05916e+00,-2.01553e+01,0.00000e+00,0.00000e+00,0.00000e+00
1.07300e+02,-1.95842e-01,-1.67961e+01,0.00000e+00,0.00000e+00,0.00000e+00
1.07300e+02,6.64213e-01,-1.34369e+01,0.00000e+00,0.00000e+00,0.00000e+00
1.07300e+02,1.52427e+00,-1.00776e+01,0.00000e+00,0.00000e+00,0.00000e+00
1.07300e+02,2.36396e+00,-6.71843e+00,0.00000e+00,0.00000e+00,0.00000e+00
1.07300e+02,3.19985e+00,-3.35921e+00,0.00000e+00,0.00000e+00,0.00000e+00
2.14300e+02,4.22575e+01,0.00000e+00,0.00000e+00,0.00000e+00,0.00000e+00
2.14300e+02,4.20447e+01,-3.21112e+00,0.00000e+00,0.00000e+00,0.00000e+00
2.14300e+02,4.17615e+01,-6.42224e+00,0.00000e+00,0.00000e+00,0.00000e+00
2.14300e+02,4.14756e+01,-9.63337e+00,0.00000e+00,0.00000e+00,0.00000e+00
2.14300e+02,4.11276e+01,-1.28445e+01,0.00000e+00,0.00000e+00,0.00000e+00
2.14300e+02,4.07652e+01,-1.60556e+01,0.00000e+00,0.00000e+00,0.00000e+00
2.14300e+02,4.03551e+01,-1.92667e+01,0.00000e+00,0.00000e+00,0.00000e+00
2.14300e+02,3.99219e+01,-2.24779e+01,0.00000e+00,0.00000e+00,0.00000e+00
2.14300e+02,3.94505e+01,-2.56890e+01,0.00000e+00,0.00000e+00,0.00000e+00
2.14300e+02,3.89476e+01,-2.89001e+01,0.00000e+00,0.00000e+00,0.00000e+00
2.14300e+02,3.84101e+01,-3.21112e+01,0.00000e+00,0.00000e+00,0.00000e+00
2.14300e+02,3.78307e+01,-3.53223e+01,0.00000e+00,0.00000e+00,0.00000e+00
2.14300e+02,3.72085e+01,-3.85335e+01,0.00000e+00,0.00000e+00,0.00000e+00
2.14300e+02,3.65256e+01,-4.17446e+01,0.00000e+00,0.00000e+00,0.00000e+00
2.14300e+02,3.57835e+01,-4.49557e+01,0.00000e+00,0.00000e+00,0.00000e+00
2.14300e+02,3.49707e+01,-4.81668e+01,0.00000e+00,0.00000e+00,0.00000e+00
2.14300e+02,3.40622e+01,-5.13780e+01,0.00000e+00,0.00000e+00,0.00000e+00
2.14300e+02,3.30871e+01,-5.45891e+01,0.00000e+00,0.00000e+00,0.00000e+00
2.14300e+02,3.19621e+01,-5.78002e+01,0.00000e+00,0.00000e+00,0.00000e+00
2.14300e+02,3.07750e+01,-6.10113e+01,0.00000e+00,0.00000e+00,0.00000e+00
2.14300e+02,2.94148e+01,-6.42224e+01,0.00000e+00,0.00000e+00,0.00000e+00
2.14300e+02,2.79159e+01,-6.74336e+01,0.00000e+00,0.00000e+00,0.00000e+00
2.14300e+02,2.62758e+01,-7.06447e+01,0.00000e+00,0.00000e+00,0.00000e+00
2.14300e+02,2.43988e+01,-7.38558e+01,0.00000e+00,0.00000e+00,0.00000e+00
2.14300e+02,2.22473e+01,-7.70669e+01,0.00000e+00,0.00000e+00,0.00000e+00
2.14300e+02,1.97856e+01,-8.02781e+01,0.00000e+00,0.00000e+00,0.00000e+00
2.14300e+02,1.68740e+01,-8.34892e+01,0.00000e+00,0.00000e+00,0.00000e+00
2.14300e+02,1.31367e+01,-8.67003e+01,0.00000e+00,0.00000e+00,0.00000e+00
2.14300e+02,8.08220e+00,-8.99114e+01,0.00000e+00,0.00000e+00,0.00000e+00
2.14300e+02,-3.27484e+00,-9.31226e+01,0.00000e+00,0.00000e+00,0.00000e+00
2.14300e+02,-4.09449e+00,-9.31300e+01,0.00000e+00,0.00000e+00,0.00000e+00
2.14300e+02,-1.15620e+01,-8.98039e+01,0.00000e+00,0.00000e+00,0.00000e+00
2.14300e+02,-1.24661e+01,-8.64779e+01,0.00000e+00,0.00000e+00,0.00000e+00
2.14300e+02,-1.27781e+01,-8.31518e+01,0.00000e+00,0.00000e+00,0.00000e+00
2.14300e+02,-1.28255e+01,-7.98257e+01,0.00000e+00,0.00000e+00,0.00000e+00
2.14300e+02,-1.26734e+01,-7.64996e+01,0.00000e+00,0.00000e+00,0.00000e+00
2.14300e+02,-1.23963e+01,-7.31736e+01,0.00000e+00,0.00000e+00,0.00000e+00
2.14300e+02,-1.19935e+01,-6.98475e+01,0.00000e+00,0.00000e+00,0.00000e+00
2.14300e+02,-1.15140e+01,-6.65214e+01,0.00000e+00,0.00000e+00,0.00000e+00
2.14300e+02,-1.09901e+01,-6.31954e+01,0.00000e+00,0.00000e+00,0.00000e+00
2.14300e+02,-1.03992e+01,-5.98693e+01,0.00000e+00,0.00000e+00,0.00000e+00
2.14300e+02,-9.76651e+00,-5.65432e+01,0.00000e+00,0.00000e+00,0.00000e+00
2.14300e+02,-9.09302e+00,-5.32171e+01,0.00000e+00,0.00000e+00,0.00000e+00
2.14300e+02,-8.37893e+00,-4.98911e+01,0.00000e+00,0.00000e+00,0.00000e+00
2.14300e+02,-7.63939e+00,-4.65650e+01,0.00000e+00,0.00000e+00,0.00000e+00
2.14300e+02,-6.86724e+00,-4.32389e+01,0.00000e+00,0.00000e+00,0.00000e+00
2.14300e+02,-6.07421e+00,-3.99129e+01,0.00000e+00,0.00000e+00,0.00000e+00
2.14300e+02,-5.26246e+00,-3.65868e+01,0.00000e+00,0.00000e+00,0.00000e+00
2.14300e+02,-4.43399e+00,-3.32607e+01,0.00000e+00,0.00000e+00,0.00000e+00
2.14300e+02,-3.59845e+00,-2.99346e+01,0.00000e+00,0.00000e+00,0.00000e+00
2.14300e+02,-2.75194e+00,-2.66086e+01,0.00000e+00,0.00000e+00,0.00000e+00
2.14300e+02,-1.90360e+00,-2.32825e+01,0.00000e+00,0.00000e+00,0.00000e+00
2.14300e+02,-1.04871e+00,-1.99564e+01,0.00000e+00,0.00000e+00,0.00000e+00
2.14300e+02,-1.93910e-01,-1.66304e+01,0.00000e+00,0.00000e+00,0.00000e+00
2.14300e+02,6.57660e-01,-1.33043e+01,0.00000e+00,0.00000e+00,0.00000e+00
2.14300e+02,1.50923e+00,-9.97821e+00,0.00000e+00,0.00000e+00,0.00000e+00
2.14300e+02,2.34063e+00,-6.65214e+00,0.00000e+00,0.00000e+00,0.00000e+00
2.14300e+02,3.16828e+00,-3.32607e+00,0.00000e+00,0.00000e+00,0.00000e+00
3.20700e+02,4.18388e+01,0.00000e+00,0.00000e+00,0.00000e+00,0.00000e+00
3.20700e+02,4.16280e+01,-3.17930e+00,0.00000e+00,0.00000e+00,0.00000e+00
3.20700e+02,4.13477e+01,-6.35861e+00,0.00000e+00,0.00000e+00,0.00000e+00
3.20700e+02,4.10646e+01,-9.53791e+00,0.00000e+00,0.00000e+00,0.00000e+00
3.20700e+02,4.07201e+01,-1.27172e+01,0.00000e+00,0.00000e+00,0.00000e+00
3.20700e+02,4.03613e+01,-1.58965e+01,0.00000e+00,0.00000e+00,0.00000e+00
3.20700e+02,3.99553e+01,-1.90758e+01,0.00000e+00,0.00000e+00,0.00000e+00
3.20700e+02,3.95264e+01,-2.22551e+01,0.00000e+00,0.00000e+00,0.00000e+00
3.20700e+02,3.90596e+01,-2.54344e+01,0.00000e+00,0.00000e+00,0.00000e+00
3.20700e+02,3.85617e+01,-2.86137e+01,0.00000e+00,0.00000e+00,0.00000e+00
3.20700e+02,3.80295e+01,-3.17930e+01,0.00000e+00,0.00000e+00,0.00000e+00
3.20700e+02,3.74559e+01,-3.49724e+01,0.00000e+00,0.00000e+00,0.00000e+00
3.20700e+02,3.68398e+01,-3.81517e+01,0.00000e+00,0.00000e+00,0.00000e+00
3.20700e+02,3.61637e+01,-4.13310e+01,0.00000e+00,0.00000e+00,0.00000e+00
3.20700e+02,3.54289e+01,-4.45103e+01,0.00000e+00,0.00000e+00,0.00000e+00
3.20700e+02,3.46242e+01,-4.76896e+01,0.00000e+00,0.00000e+00,0.00000e+00
3.20700e+02,3.37247e+01,-5.08689e+01,0.00000e+00,0.00000e+00,0.00000e+00
3.20700e+02,3.27593e+01,-5.40482e+01,0.00000e+00,0.00000e+00,0.00000e+00
3.20700e+02,3.16454e+01,-5.72275e+01,0.00000e+00,0.00000e+00,0.00000e+00
3.20700e+02,3.04701e+01,-6.04068e+01,0.00000e+00,0.00000e+00,0.00000e+00
3.20700e+02,2.91233e+01,-6.35861e+01,0.00000e+00,0.00000e+00,0.00000e+00
3.20700e+02,2.76393e+01,-6.67654e+01,0.00000e+00,0.00000e+00,0.00000e+00
3.20700e+02,2.60154e+01,-6.99447e+01,0.00000e+00,0.00000e+00,0.00000e+00
3.20700e+02,2.41570e+01,-7.31240e+01,0.00000e+00,0.00000e+00,0.00000e+00
3.20700e+02,2.20269e+01,-7.63033e+01,0.00000e+00,0.00000e+00,0.00000e+00
3.20700e+02,1.95896e+01,-7.94826e+01,0.00000e+00,0.00000e+00,0.00000e+00
3.20700e+02,1.67068e+01,-8.26619e+01,0.00000e+00,0.00000e+00,0.00000e+00
3.20700e+02,1.30066e+01,-8.58412e+01,0.00000e+00,0.00000e+00,0.00000e+00
3.20700e+02,8.00212e+00,-8.90205e+01,0.00000e+00,0.00000e+00,0.00000e+00
3.20700e+02,-3.24239e+00,-9.21998e+01,0.00000e+00,0.00000e+00,0.00000e+00
3.20700e+02,-4.05392e+00,-9.22072e+01,0.00000e+00,0.00000e+00,0.00000e+00
3.20700e+02,-1.14474e+01,-8.89141e+01,0.00000e+00,0.00000e+00,0.00000e+00
3.20700e+02,-1.23426e+01,-8.56210e+01,0.00000e+00,0.00000e+00,0.00000e+00
3.20700e+02,-1.26515e+01,-8.23279e+01,0.00000e+00,0.00000e+00,0.00000e+00
3.20700e+02,-1.26984e+01,-7.90348e+01,0.00000e+00,0.00000e+00,0.00000e+00
3.20700e+02,-1.25479e+01,-7.57416e+01,0.00000e+00,0.00000e+00,0.00000e+00
3.20700e+02,-1.22734e+01,-7.24485e+01,0.00000e+00,0.00000e+00,0.00000e+00
3.20700e+02,-1.18746e+01,-6.91554e+01,0.00000e+00,0.00000e+00,0.00000e+00
3.20700e+02,-1.13999e+01,-6.58623e+01,0.00000e+00,0.00000e+00,0.00000e+00
3.20700e+02,-1.08812e+01,-6.25692e+01,0.00000e+00,0.00000e+00,0.00000e+00
3.20700e+02,-1.02962e+01,-5.92761e+01,0.00000e+00,0.00000e+00,0.00000e+00
3.20700e+02,-9.66973e+00,-5.59829e+01,0.00000e+00,0.00000e+00,0.00000e+00
3.20700e+02,-9.00292e+00,-5.26898e+01,0.00000e+00,0.00000e+00,0.00000e+00
3.20700e+02,-8.29591e+00,-4.93967e+01,0.00000e+00,0.00000e+00,0.00000e+00
3.20700e+02,-7.56370e+00,-4.61036e+01,0.00000e+00,0.00000e+00,0.00000e+00
3.20700e+02,-6.79920e+00,-4.28105e+01,0.00000e+00,0.00000e+00,0.00000e+00
3.20700e+02,-6.01403e+00,-3.95174e+01,0.00000e+00,0.00000e+00,0.00000e+00
3.20700e+02,-5.21032e+00,-3.62243e+01,0.00000e+00,0.00000e+00,0.00000e+00
3.20700e+02,-4.39006e+00,-3.29311e+01,0.00000e+00,0.00000e+00,0.00000e+00
3.20700e+02,-3.56279e+00,-2.96380e+01,0.00000e+00,0.00000e+00,0.00000e+00
3.20700e+02,-2.72467e+00,-2.63449e+01,0.00000e+00,0.00000e+00,0.00000e+00
3.20700e+02,-1.88474e+00,-2.30518e+01,0.00000e+00,0.00000e+00,0.00000e+00
3.20700e+02,-1.03832e+00,-1.97587e+01,0.00000e+00,0.00000e+00,0.00000e+00
3.20700e+02,-1.91989e-01,-1.64656e+01,0.00000e+00,0.00000e+00,0.00000e+00
3.20700e+02,6.51143e-01,-1.31725e+01,0.00000e+00,0.00000e+00,0.00000e+00
3.20700e+02,1.49428e+00,-9.87934e+00,0.00000e+00,0.00000e+00,0.00000e+00
3.20700e+02,2.31744e+00,-6.58623e+00,0.00000e+00,0.00000e+00,0.00000e+00
3.20700e+02,3.13689e+00,-3.29311e+00,0.00000e+00,0.00000e+00,0.00000e+00
4.26200e+02,4.14236e+01,0.00000e+00,0.00000e+00,0.00000e+00,0.00000e+00
4.26200e+02,4.12150e+01,-3.14776e+00,0.00000e+00,0.00000e+00,0.00000e+00
4.26200e+02,4.09374e+01,-6.29551e+00,0.00000e+00,0.00000e+00,0.00000e+00
4.26200e+02,4.06571e+01,-9.44327e+00,0.00000e+00,0.00000e+00,0.00000e+00
4.26200e+02,4.03160e+01,-1.25910e+01,0.00000e+00,0.00000e+00,0.00000e+00
4.26200e+02,3.99607e+01,-1.57388e+01,0.00000e+00,0.00000e+00,0.00000e+00
4.26200e+02,3.95588e+01,-1.88865e+01,0.00000e+00,0.00000e+00,0.00000e+00
4.26200e+02,3.91341e+01,-2.20343e+01,0.00000e+00,0.00000e+00,0.00000e+00
4.26200e+02,3.86720e+01,-2.51820e+01,0.00000e+00,0.00000e+00,0.00000e+00
4.26200e+02,3.81790e+01,-2.83298e+01,0.00000e+00,0.00000e+00,0.00000e+00
4.26200e+02,3.76521e+01,-3.14776e+01,0.00000e+00,0.00000e+00,0.00000e+00
4.26200e+02,3.70842e+01,-3.46253e+01,0.00000e+00,0.00000e+00,0.00000e+00
4.26200e+02,3.64743e+01,-3.77731e+01,0.00000e+00,0.00000e+00,0.00000e+00
4.26200e+02,3.58048e+01,-4.09208e+01,0.00000e+00,0.00000e+00,0.00000e+00
4.26200e+02,3.50774e+01,-4.40686e+01,0.00000e+00,0.00000e+00,0.00000e+00
4.26200e+02,3.42806e+01,-4.72163e+01,0.00000e+00,0.00000e+00,0.00000e+00
4.26200e+02,3.33901e+01,-5.03641e+01,0.00000e+00,0.00000e+00,0.00000e+00
4.26200e+02,3.24342e+01,-5.35118e+01,0.00000e+00,0.00000e+00,0.00000e+00
4.26200e+02,3.13314e+01,-5.66596e+01,0.00000e+00,0.00000e+00,0.00000e+00
4.26200e+02,3.01677e+01,-5.98074e+01,0.00000e+00,0.00000e+00,0.00000e+00
4.26200e+02,2.88343e+01,-6.29551e+01,0.00000e+00,0.00000e+00,0.00000e+00
4.26200e+02,2.73650e+01,-6.61029e+01,0.00000e+00,0.00000e+00,0.00000e+00
4.26200e+02,2.57573e+01,-6.92506e+01,0.00000e+00,0.00000e+00,0.00000e+00
4.26200e+02,2.39173e+01,-7.23984e+01,0.00000e+00,0.00000e+00,0.00000e+00
4.26200e+02,2.18083e+01,-7.55461e+01,0.00000e+00,0.00000e+00,0.00000e+00
4.26200e+02,1.93952e+01,-7.86939e+01,0.00000e+00,0.00000e+00,0.00000e+00
4.26200e+02,1.65410e+01,-8.18417e+01,0.00000e+00,0.00000e+00,0.00000e+00
4.26200e+02,1.28775e+01,-8.49894e+01,0.00000e+00,0.00000e+00,0.00000e+00
4.26200e+02,7.92271e+00,-8.81372e+01,0.00000e+00,0.00000e+00,0.00000e+00
4.26200e+02,-3.21022e+00,-9.12849e+01,0.00000e+00,0.00000e+00,0.00000e+00
4.26200e+02,-4.01369e+00,-9.12922e+01,0.00000e+00,0.00000e+00,0.00000e+00
4.26200e+02,-1.13339e+01,-8.80318e+01,0.00000e+00,0.00000e+00,0.00000e+00
4.26200e+02,-1.22201e+01,-8.47713e+01,0.00000e+00,0.00000e+00,0.00000e+00
4.26200e+02,-1.25260e+01,-8.15109e+01,0.00000e+00,0.00000e+00,0.00000e+00
4.26200e+02,-1.25724e+01,-7.82505e+01,0.00000e+00,0.00000e+00,0.00000e+00
4.26200e+02,-1.24233e+01,-7.49900e+01,0.00000e+00,0.00000e+00,0.00000e+00
4.26200e+02,-1.21516e+01,-7.17296e+01,0.00000e+00,0.00000e+00,0.00000e+00
4.26200e+02,-1.17568e+01,-6.84692e+01,0.00000e+00,0.00000e+00,0.00000e+00
4.26200e+02,-1.12868e+01,-6.52087e+01,0.00000e+00,0.00000e+00,0.00000e+00
4.26200e+02,-1.07732e+01,-6.19483e+01,0.00000e+00,0.00000e+00,0.00000e+00
4.26200e+02,-1.01940e+01,-5.86879e+01,0.00000e+00,0.00000e+00,0.00000e+00
4.26200e+02,-9.57378e+00,-5.54274e+01,0.00000e+00,0.00000e+00,0.00000e+00
4.26200e+02,-8.91358e+00,-5.21670e+01,0.00000e+00,0.00000e+00,0.00000e+00
4.26200e+02,-8.21359e+00,-4.89065e+01,0.00000e+00,0.00000e+00,0.00000e+00
4.26200e+02,-7.48864e+00,-4.56461e+01,0.00000e+00,0.00000e+00,0.00000e+00
4.26200e+02,-6.73173e+00,-4.23857e+01,0.00000e+00,0.00000e+00,0.00000e+00
4.26200e+02,-5.95435e+00,-3.91252e+01,0.00000e+00,0.00000e+00,0.00000e+00
4.26200e+02,-5.15861e+00,-3.58648e+01,0.00000e+00,0.00000e+00,0.00000e+00
4.26200e+02,-4.34650e+00,-3.26044e+01,0.00000e+00,0.00000e+00,0.00000e+00
4.26200e+02,-3.52744e+00,-2.93439e+01,0.00000e+00,0.00000e+00,0.00000e+00
4.26200e+02,-2.69763e+00,-2.60835e+01,0.00000e+00,0.00000e+00,0.00000e+00
4.26200e+02,-1.86603e+00,-2.28231e+01,0.00000e+00,0.00000e+00,0.00000e+00
4.26200e+02,-1.02802e+00,-1.95626e+01,0.00000e+00,0.00000e+00,0.00000e+00
4.26200e+02,-1.90083e-01,-1.63022e+01,0.00000e+00,0.00000e+00,0.00000e+00
4.26200e+02,6.44682e-01,-1.30417e+01,0.00000e+00,0.00000e+00,0.00000e+00
4.26200e+02,1.47945e+00,-9.78131e+00,0.00000e+00,0.00000e+00,0.00000e+00
4.26200e+02,2.29445e+00,-6.52087e+00,0.00000e+00,0.00000e+00,0.00000e+00
4.26200e+02,3.10576e+00,-3.26044e+00,0.00000e+00,0.00000e+00,0.00000e+00
5.30600e+02,4.10127e+01,0.00000e+00,0.00000e+00,0.00000e+00,0.00000e+00
5.30600e+02,4.08062e+01,-3.11654e+00,0.00000e+00,0.00000e+00,0.00000e+00
5.30600e+02,4.05314e+01,-6.23307e+00,0.00000e+00,0.00000e+00,0.00000e+00
5.30600e+02,4.02539e+01,-9.34961e+00,0.00000e+00,0.00000e+00,0.00000e+00
5.30600e+02,3.99161e+01,-1.24661e+01,0.00000e+00,0.00000e+00,0.00000e+00
5.30600e+02,3.95644e+01,-1.55827e+01,0.00000e+00,0.00000e+00,0.00000e+00
5.30600e+02,3.91664e+01,-1.86992e+01,0.00000e+00,0.00000e+00,0.00000e+00
5.30600e+02,3.87460e+01,-2.18158e+01,0.00000e+00,0.00000e+00,0.00000e+00
5.30600e+02,3.82884e+01,-2.49323e+01,0.00000e+00,0.00000e+00,0.00000e+00
5.30600e+02,3.78003e+01,-2.80488e+01,0.00000e+00,0.00000e+00,0.00000e+00
5.30600e+02,3.72787e+01,-3.11654e+01,0.00000e+00,0.00000e+00,0.00000e+00
5.30600e+02,3.67164e+01,-3.42819e+01,0.00000e+00,0.00000e+00,0.00000e+00
5.30600e+02,3.61125e+01,-3.73984e+01,0.00000e+00,0.00000e+00,0.00000e+00
5.30600e+02,3.54497e+01,-4.05150e+01,0.00000e+00,0.00000e+00,0.00000e+00
5.30600e+02,3.47295e+01,-4.36315e+01,0.00000e+00,0.00000e+00,0.00000e+00
5.30600e+02,3.39406e+01,-4.67480e+01,0.00000e+00,0.00000e+00,0.00000e+00
5.30600e+02,3.30589e+01,-4.98646e+01,0.00000e+00,0.00000e+00,0.00000e+00
5.30600e+02,3.21125e+01,-5.29811e+01,0.00000e+00,0.00000e+00,0.00000e+00
5.30600e+02,3.10206e+01,-5.60976e+01,0.00000e+00,0.00000e+00,0.00000e+00
5.30600e+02,2.98685e+01,-5.92142e+01,0.00000e+00,0.00000e+00,0.00000e+00
5.30600e+02,2.85484e+01,-6.23307e+01,0.00000e+00,0.00000e+00,0.00000e+00
5.30600e+02,2.70936e+01,-6.54473e+01,0.00000e+00,0.00000e+00,0.00000e+00
5.30600e+02,2.55018e+01,-6.85638e+01,0.00000e+00,0.00000e+00,0.00000e+00
5.30600e+02,2.36801e+01,-7.16803e+01,0.00000e+00,0.00000e+00,0.00000e+00
5.30600e+02,2.15920e+01,-7.47969e+01,0.00000e+00,0.00000e+00,0.00000e+00
5.30600e+02,1.92028e+01,-7.79134e+01,0.00000e+00,0.00000e+00,0.00000e+00
5.30600e+02,1.63770e+01,-8.10299e+01,0.00000e+00,0.00000e+00,0.00000e+00
5.30600e+02,1.27498e+01,-8.41465e+01,0.00000e+00,0.00000e+00,0.00000e+00
5.30600e+02,7.84413e+00,-8.72630e+01,0.00000e+00,0.00000e+00,0.00000e+00
5.30600e+02,-3.17838e+00,-9.03795e+01,0.00000e+00,0.00000e+00,0.00000e+00
5.30600e+02,-3.97388e+00,-9.03868e+01,0.00000e+00,0.00000e+00,0.00000e+00
5.30600e+02,-1.12214e+01,-8.71587e+01,0.00000e+00,0.00000e+00,0.00000e+00
5.30600e+02,-1.20989e+01,-8.39306e+01,0.00000e+00,0.00000e+00,0.00000e+00
5.30600e+02,-1.24018e+01,-8.07025e+01,0.00000e+00,0.00000e+00,0.00000e+00
5.30600e+02,-1.24477e+01,-7.74744e+01,0.00000e+00,0.00000e+00,0.00000e+00
5.30600e+02,-1.23001e+01,-7.42463e+01,0.00000e+00,0.00000e+00,0.00000e+00
5.30600e+02,-1.20311e+01,-7.10182e+01,0.00000e+00,0.00000e+00,0.00000e+00
5.30600e+02,-1.16402e+01,-6.77901e+01,0.00000e+00,0.00000e+00,0.00000e+00
5.30600e+02,-1.11748e+01,-6.45620e+01,0.00000e+00,0.00000e+00,0.00000e+00
5.30600e+02,-1.06664e+01,-6.13339e+01,0.00000e+00,0.00000e+00,0.00000e+00
5.30600e+02,-1.00929e+01,-5.81058e+01,0.00000e+00,0.00000e+00,0.00000e+00
5.30600e+02,-9.47882e+00,-5.48777e+01,0.00000e+00,0.00000e+00,0.00000e+00
5.30600e+02,-8.82518e+00,-5.16496e+01,0.00000e+00,0.00000e+00,0.00000e+00
5.30600e+02,-8.13212e+00,-4.84215e+01,0.00000e+00,0.00000e+00,0.00000e+00
5.30600e+02,-7.41437e+00,-4.51934e+01,0.00000e+00,0.00000e+00,0.00000e+00
5.30600e+02,-6.66496e+00,-4.19653e+01,0.00000e+00,0.00000e+00,0.00000e+00
5.30600e+02,-5.89529e+00,-3.87372e+01,0.00000e+00,0.00000e+00,0.00000e+00
5.30600e+02,-5.10745e+00,-3.55091e+01,0.00000e+00,0.00000e+00,0.00000e+00
5.30600e+02,-4.30339e+00,-3.22810e+01,0.00000e+00,0.00000e+00,0.00000e+00
5.30600e+02,-3.49245e+00,-2.90529e+01,0.00000e+00,0.00000e+00,0.00000e+00
5.30600e+02,-2.67088e+00,-2.58248e+01,0.00000e+00,0.00000e+00,0.00000e+00
5.30600e+02,-1.84753e+00,-2.25967e+01,0.00000e+00,0.00000e+00,0.00000e+00
5.30600e+02,-1.01782e+00,-1.93686e+01,0.00000e+00,0.00000e+00,0.00000e+00
5.30600e+02,-1.88198e-01,-1.61405e+01,0.00000e+00,0.00000e+00,0.00000e+00
5.30600e+02,6.38288e-01,-1.29124e+01,0.00000e+00,0.00000e+00,0.00000e+00
5.30600e+02,1.46477e+00,-9.68430e+00,0.00000e+00,0.00000e+00,0.00000e+00
5.30600e+02,2.27169e+00,-6.45620e+00,0.00000e+00,0.00000e+00,0.00000e+00
5.30600e+02,3.07496e+00,-3.22810e+00,0.00000e+00,0.00000e+00,0.00000e+00
6.33500e+02,4.06078e+01,0.00000e+00,0.00000e+00,0.00000e+00,0.00000e+00
6.33500e+02,4.04033e+01,-3.08576e+00,0.00000e+00,0.00000e+00,0.00000e+00
6.33500e+02,4.01312e+01,-6.17153e+00,0.00000e+00,0.00000e+00,0.00000e+00
6.33500e+02,3.98564e+01,-9.25729e+00,0.00000e+00,0.00000e+00,0.00000e+00
6.33500e+02,3.95220e+01,-1.23431e+01,0.00000e+00,0.00000e+00,0.00000e+00
6.33500e+02,3.91738e+01,-1.54288e+01,0.00000e+00,0.00000e+00,0.00000e+00
6.33500e+02,3.87797e+01,-1.85146e+01,0.00000e+00,0.00000e+00,0.00000e+00
6.33500e+02,3.83634e+01,-2.16004e+01,0.00000e+00,0.00000e+00,0.00000e+00
6.33500e+02,3.79104e+01,-2.46861e+01,0.00000e+00,0.00000e+00,0.00000e+00
6.33500e+02,3.74271e+01,-2.77719e+01,0.00000e+00,0.00000e+00,0.00000e+00
6.33500e+02,3.69106e+01,-3.08576e+01,0.00000e+00,0.00000e+00,0.00000e+00
6.33500e+02,3.63539e+01,-3.39434e+01,0.00000e+00,0.00000e+00,0.00000e+00
6.33500e+02,3.57559e+01,-3.70292e+01,0.00000e+00,0.00000e+00,0.00000e+00
6.33500e+02,3.50997e+01,-4.01149e+01,0.00000e+00,0.00000e+00,0.00000e+00
6.33500e+02,3.43866e+01,-4.32007e+01,0.00000e+00,0.00000e+00,0.00000e+00
6.33500e+02,3.36055e+01,-4.62865e+01,0.00000e+00,0.00000e+00,0.00000e+00
6.33500e+02,3.27325e+01,-4.93722e+01,0.00000e+00,0.00000e+00,0.00000e+00
6.33500e+02,3.17954e+01,-5.24580e+01,0.00000e+00,0.00000e+00,0.00000e+00
6.33500e+02,3.07144e+01,-5.55438e+01,0.00000e+00,0.00000e+00,0.00000e+00
6.33500e+02,2.95736e+01,-5.86295e+01,0.00000e+00,0.00000e+00,0.00000e+00
6.33500e+02,2.82665e+01,-6.17153e+01,0.00000e+00,0.00000e+00,0.00000e+00
6.33500e+02,2.68261e+01,-6.48011e+01,0.00000e+00,0.00000e+00,0.00000e+00
6.33500e+02,2.52500e+01,-6.78868e+01,0.00000e+00,0.00000e+00,0.00000e+00
6.33500e+02,2.34463e+01,-7.09726e+01,0.00000e+00,0.00000e+00,0.00000e+00
6.33500e+02,2.13788e+01,-7.40584e+01,0.00000e+00,0.00000e+00,0.00000e+00
6.33500e+02,1.90132e+01,-7.71441e+01,0.00000e+00,0.00000e+00,0.00000e+00
6.33500e+02,1.62153e+01,-8.02299e+01,0.00000e+00,0.00000e+00,0.00000e+00
6.33500e+02,1.26239e+01,-8.33156e+01,0.00000e+00,0.00000e+00,0.00000e+00
6.33500e+02,7.76668e+00,-8.64014e+01,0.00000e+00,0.00000e+00,0.00000e+00
6.33500e+02,-3.14700e+00,-8.94872e+01,0.00000e+00,0.00000e+00,0.00000e+00
6.33500e+02,-3.93464e+00,-8.94943e+01,0.00000e+00,0.00000e+00,0.00000e+00
6.33500e+02,-1.11106e+01,-8.62981e+01,0.00000e+00,0.00000e+00,0.00000e+00
6.33500e+02,-1.19795e+01,-8.31019e+01,0.00000e+00,0.00000e+00,0.00000e+00
6.33500e+02,-1.22793e+01,-7.99057e+01,0.00000e+00,0.00000e+00,0.00000e+00
6.33500e+02,-1.23248e+01,-7.67094e+01,0.00000e+00,0.00000e+00,0.00000e+00
6.33500e+02,-1.21787e+01,-7.35132e+01,0.00000e+00,0.00000e+00,0.00000e+00
6.33500e+02,-1.19123e+01,-7.03170e+01,0.00000e+00,0.00000e+00,0.00000e+00
6.33500e+02,-1.15252e+01,-6.71208e+01,0.00000e+00,0.00000e+00,0.00000e+00
6.33500e+02,-1.10645e+01,-6.39245e+01,0.00000e+00,0.00000e+00,0.00000e+00
6.33500e+02,-1.05611e+01,-6.07283e+01,0.00000e+00,0.00000e+00,0.00000e+00
6.33500e+02,-9.99326e+00,-5.75321e+01,0.00000e+00,0.00000e+00,0.00000e+00
6.33500e+02,-9.38524e+00,-5.43358e+01,0.00000e+00,0.00000e+00,0.00000e+00
6.33500e+02,-8.73804e+00,-5.11396e+01,0.00000e+00,0.00000e+00,0.00000e+00
6.33500e+02,-8.05183e+00,-4.79434e+01,0.00000e+00,0.00000e+00,0.00000e+00
6.33500e+02,-7.34116e+00,-4.47472e+01,0.00000e+00,0.00000e+00,0.00000e+00
6.33500e+02,-6.59916e+00,-4.15509e+01,0.00000e+00,0.00000e+00,0.00000e+00
6.33500e+02,-5.83709e+00,-3.83547e+01,0.00000e+00,0.00000e+00,0.00000e+00
6.33500e+02,-5.05702e+00,-3.51585e+01,0.00000e+00,0.00000e+00,0.00000e+00
6.33500e+02,-4.26090e+00,-3.19623e+01,0.00000e+00,0.00000e+00,0.00000e+00
6.33500e+02,-3.45797e+00,-2.87660e+01,0.00000e+00,0.00000e+00,0.00000e+00
6.33500e+02,-2.64450e+00,-2.55698e+01,0.00000e+00,0.00000e+00,0.00000e+00
6.33500e+02,-1.82928e+00,-2.23736e+01,0.00000e+00,0.00000e+00,0.00000e+00
6.33500e+02,-1.00777e+00,-1.91774e+01,0.00000e+00,0.00000e+00,0.00000e+00
6.33500e+02,-1.86340e-01,-1.59811e+01,0.00000e+00,0.00000e+00,0.00000e+00
6.33500e+02,6.31986e-01,-1.27849e+01,0.00000e+00,0.00000e+00,0.00000e+00
6.33500e+02,1.45031e+00,-9.58868e+00,0.00000e+00,0.00000e+00,0.00000e+00
6.33500e+02,2.24926e+00,-6.39245e+00,0.00000e+00,0.00000e+00,0.00000e+00
6.33500e+02,3.04460e+00,-3.19623e+00,0.00000e+00,0.00000e+00,0.00000e+00
7.34700e+02,4.02095e+01,0.00000e+00,0.00000e+00,0.00000e+00,0.00000e+00
7.34700e+02,4.00070e+01,-3.05550e+00,0.00000e+00,0.00000e+00,0.00000e+00
7.34700e+02,3.97376e+01,-6.11100e+00,0.00000e+00,0.00000e+00,0.00000e+00
7.34700e+02,3.94656e+01,-9.16651e+00,0.00000e+00,0.00000e+00,0.00000e+00
7.34700e+02,3.91344e+01,-1.22220e+01,0.00000e+00,0.00000e+00,0.00000e+00
7.34700e+02,3.87896e+01,-1.52775e+01,0.00000e+00,0.00000e+00,0.00000e+00
7.34700e+02,3.83994e+01,-1.83330e+01,0.00000e+00,0.00000e+00,0.00000e+00
7.34700e+02,3.79872e+01,-2.13885e+01,0.00000e+00,0.00000e+00,0.00000e+00
7.34700e+02,3.75386e+01,-2.44440e+01,0.00000e+00,0.00000e+00,0.00000e+00
7.34700e+02,3.70601e+01,-2.74995e+01,0.00000e+00,0.00000e+00,0.00000e+00
7.34700e+02,3.65486e+01,-3.05550e+01,0.00000e+00,0.00000e+00,0.00000e+00
7.34700e+02,3.59973e+01,-3.36105e+01,0.00000e+00,0.00000e+00,0.00000e+00
7.34700e+02,3.54053e+01,-3.66660e+01,0.00000e+00,0.00000e+00,0.00000e+00
7.34700e+02,3.47554e+01,-3.97215e+01,0.00000e+00,0.00000e+00,0.00000e+00
7.34700e+02,3.40493e+01,-4.27770e+01,0.00000e+00,0.00000e+00,0.00000e+00
7.34700e+02,3.32760e+01,-4.58325e+01,0.00000e+00,0.00000e+00,0.00000e+00
7.34700e+02,3.24115e+01,-4.88880e+01,0.00000e+00,0.00000e+00,0.00000e+00
7.34700e+02,3.14836e+01,-5.19435e+01,0.00000e+00,0.00000e+00,0.00000e+00
7.34700e+02,3.04131e+01,-5.49990e+01,0.00000e+00,0.00000e+00,0.00000e+00
7.34700e+02,2.92835e+01,-5.80545e+01,0.00000e+00,0.00000e+00,0.00000e+00
7.34700e+02,2.79893e+01,-6.11100e+01,0.00000e+00,0.00000e+00,0.00000e+00
7.34700e+02,2.65630e+01,-6.41655e+01,0.00000e+00,0.00000e+00,0.00000e+00
7.34700e+02,2.50024e+01,-6.72210e+01,0.00000e+00,0.00000e+00,0.00000e+00
7.34700e+02,2.32164e+01,-7.02765e+01,0.00000e+00,0.00000e+00,0.00000e+00
7.34700e+02,2.11691e+01,-7.33320e+01,0.00000e+00,0.00000e+00,0.00000e+00
7.34700e+02,1.88268e+01,-7.63875e+01,0.00000e+00,0.00000e+00,0.00000e+00
7.34700e+02,1.60563e+01,-7.94430e+01,0.00000e+00,0.00000e+00,0.00000e+00
7.34700e+02,1.25001e+01,-8.24985e+01,0.00000e+00,0.00000e+00,0.00000e+00
7.34700e+02,7.69051e+00,-8.55540e+01,0.00000e+00,0.00000e+00,0.00000e+00
7.34700e+02,-3.11614e+00,-8.86096e+01,0.00000e+00,0.00000e+00,0.00000e+00
7.34700e+02,-3.89606e+00,-8.86166e+01,0.00000e+00,0.00000e+00,0.00000e+00
7.34700e+02,-1.10017e+01,-8.54518e+01,0.00000e+00,0.00000e+00,0.00000e+00
7.34700e+02,-1.18620e+01,-8.22869e+01,0.00000e+00,0.00000e+00,0.00000e+00
7.34700e+02,-1.21589e+01,-7.91220e+01,0.00000e+00,0.00000e+00,0.00000e+00
7.34700e+02,-1.22039e+01,-7.59571e+01,0.00000e+00,0.00000e+00,0.00000e+00
7.34700e+02,-1.20592e+01,-7.27922e+01,0.00000e+00,0.00000e+00,0.00000e+00
7.34700e+02,-1.17955e+01,-6.96274e+01,0.00000e+00,0.00000e+00,0.00000e+00
7.34700e+02,-1.14122e+01,-6.64625e+01,0.00000e+00,0.00000e+00,0.00000e+00
7.34700e+02,-1.09560e+01,-6.32976e+01,0.00000e+00,0.00000e+00,0.00000e+00
7.34700e+02,-1.04575e+01,-6.01327e+01,0.00000e+00,0.00000e+00,0.00000e+00
7.34700e+02,-9.89525e+00,-5.69678e+01,0.00000e+00,0.00000e+00,0.00000e+00
7.34700e+02,-9.29319e+00,-5.38030e+01,0.00000e+00,0.00000e+00,0.00000e+00
7.34700e+02,-8.65235e+00,-5.06381e+01,0.00000e+00,0.00000e+00,0.00000e+00
7.34700e+02,-7.97287e+00,-4.74732e+01,0.00000e+00,0.00000e+00,0.00000e+00
7.34700e+02,-7.26917e+00,-4.43083e+01,0.00000e+00,0.00000e+00,0.00000e+00
7.34700e+02,-6.53444e+00,-4.11434e+01,0.00000e+00,0.00000e+00,0.00000e+00
7.34700e+02,-5.77984e+00,-3.79786e+01,0.00000e+00,0.00000e+00,0.00000e+00
7.34700e+02,-5.00742e+00,-3.48137e+01,0.00000e+00,0.00000e+00,0.00000e+00
7.34700e+02,-4.21911e+00,-3.16488e+01,0.00000e+00,0.00000e+00,0.00000e+00
7.34700e+02,-3.42406e+00,-2.84839e+01,0.00000e+00,0.00000e+00,0.00000e+00
7.34700e+02,-2.61857e+00,-2.53190e+01,0.00000e+00,0.00000e+00,0.00000e+00
7.34700e+02,-1.81134e+00,-2.21542e+01,0.00000e+00,0.00000e+00,0.00000e+00
7.34700e+02,-9.97887e-01,-1.89893e+01,0.00000e+00,0.00000e+00,0.00000e+00
7.34700e+02,-1.84513e-01,-1.58244e+01,0.00000e+00,0.00000e+00,0.00000e+00
7.34700e+02,6.25788e-01,-1.26595e+01,0.00000e+00,0.00000e+00,0.00000e+00
7.34700e+02,1.43609e+00,-9.49464e+00,0.00000e+00,0.00000e+00,0.00000e+00
7.34700e+02,2.22720e+00,-6.32976e+00,0.00000e+00,0.00000e+00,0.00000e+00
7.34700e+02,3.01474e+00,-3.16488e+00,0.00000e+00,0.00000e+00,0.00000e+00
8.33800e+02,3.98196e+01,0.00000e+00,0.00000e+00,0.00000e+00,0.00000e+00
8.33800e+02,3.96190e+01,-3.02587e+00,0.00000e+00,0.00000e+00,0.00000e+00
8.33800e+02,3.93522e+01,-6.05173e+00,0.00000e+00,0.00000e+00,0.00000e+00
8.33800e+02,3.90828e+01,-9.07760e+00,0.00000e+00,0.00000e+00,0.00000e+00
8.33800e+02,3.87549e+01,-1.21035e+01,0.00000e+00,0.00000e+00,0.00000e+00
8.33800e+02,3.84134e+01,-1.51293e+01,0.00000e+00,0.00000e+00,0.00000e+00
8.33800e+02,3.80270e+01,-1.81552e+01,0.00000e+00,0.00000e+00,0.00000e+00
8.33800e+02,3.76188e+01,-2.11811e+01,0.00000e+00,0.00000e+00,0.00000e+00
8.33800e+02,3.71745e+01,-2.42069e+01,0.00000e+00,0.00000e+00,0.00000e+00
8.33800e+02,3.67006e+01,-2.72328e+01,0.00000e+00,0.00000e+00,0.00000e+00
8.33800e+02,3.61941e+01,-3.02587e+01,0.00000e+00,0.00000e+00,0.00000e+00
8.33800e+02,3.56482e+01,-3.32845e+01,0.00000e+00,0.00000e+00,0.00000e+00
8.33800e+02,3.50619e+01,-3.63104e+01,0.00000e+00,0.00000e+00,0.00000e+00
8.33800e+02,3.44183e+01,-3.93363e+01,0.00000e+00,0.00000e+00,0.00000e+00
8.33800e+02,3.37191e+01,-4.23621e+01,0.00000e+00,0.00000e+00,0.00000e+00
8.33800e+02,3.29532e+01,-4.53880e+01,0.00000e+00,0.00000e+00,0.00000e+00
8.33800e+02,3.20971e+01,-4.84139e+01,0.00000e+00,0.00000e+00,0.00000e+00
8.33800e+02,3.11783e+01,-5.14397e+01,0.00000e+00,0.00000e+00,0.00000e+00
8.33800e+02,3.01182e+01,-5.44656e+01,0.00000e+00,0.00000e+00,0.00000e+00
8.33800e+02,2.89995e+01,-5.74915e+01,0.00000e+00,0.00000e+00,0.00000e+00
8.33800e+02,2.77178e+01,-6.05173e+01,0.00000e+00,0.00000e+00,0.00000e+00
8.33800e+02,2.63054e+01,-6.35432e+01,0.00000e+00,0.00000e+00,0.00000e+00
8.33800e+02,2.47599e+01,-6.65691e+01,0.00000e+00,0.00000e+00,0.00000e+00
8.33800e+02,2.29912e+01,-6.95949e+01,0.00000e+00,0.00000e+00,0.00000e+00
8.33800e+02,2.09638e+01,-7.26208e+01,0.00000e+00,0.00000e+00,0.00000e+00
8.33800e+02,1.86442e+01,-7.56467e+01,0.00000e+00,0.00000e+00,0.00000e+00
8.33800e+02,1.59005e+01,-7.86725e+01,0.00000e+00,0.00000e+00,0.00000e+00
8.33800e+02,1.23789e+01,-8.16984e+01,0.00000e+00,0.00000e+00,0.00000e+00
8.33800e+02,7.61592e+00,-8.47243e+01,0.00000e+00,0.00000e+00,0.00000e+00
8.33800e+02,-3.08591e+00,-8.77501e+01,0.00000e+00,0.00000e+00,0.00000e+00
8.33800e+02,-3.85827e+00,-8.77572e+01,0.00000e+00,0.00000e+00,0.00000e+00
8.33800e+02,-1.08950e+01,-8.46230e+01,0.00000e+00,0.00000e+00,0.00000e+00
8.33800e+02,-1.17470e+01,-8.14888e+01,0.00000e+00,0.00000e+00,0.00000e+00
8.33800e+02,-1.20409e+01,-7.83546e+01,0.00000e+00,0.00000e+00,0.00000e+00
8.33800e+02,-1.20856e+01,-7.52204e+01,0.00000e+00,0.00000e+00,0.00000e+00
8.33800e+02,-1.19423e+01,-7.20862e+01,0.00000e+00,0.00000e+00,0.00000e+00
8.33800e+02,-1.16811e+01,-6.89521e+01,0.00000e+00,0.00000e+00,0.00000e+00
8.33800e+02,-1.13015e+01,-6.58179e+01,0.00000e+00,0.00000e+00,0.00000e+00
8.33800e+02,-1.08497e+01,-6.26837e+01,0.00000e+00,0.00000e+00,0.00000e+00
8.33800e+02,-1.03561e+01,-5.95495e+01,0.00000e+00,0.00000e+00,0.00000e+00
8.33800e+02,-9.79928e+00,-5.64153e+01,0.00000e+00,0.00000e+00,0.00000e+00
8.33800e+02,-9.20306e+00,-5.32811e+01,0.00000e+00,0.00000e+00,0.00000e+00
8.33800e+02,-8.56843e+00,-5.01469e+01,0.00000e+00,0.00000e+00,0.00000e+00
8.33800e+02,-7.89554e+00,-4.70128e+01,0.00000e+00,0.00000e+00,0.00000e+00
8.33800e+02,-7.19866e+00,-4.38786e+01,0.00000e+00,0.00000e+00,0.00000e+00
8.33800e+02,-6.47106e+00,-4.07444e+01,0.00000e+00,0.00000e+00,0.00000e+00
8.33800e+02,-5.72378e+00,-3.76102e+01,0.00000e+00,0.00000e+00,0.00000e+00
8.33800e+02,-4.95886e+00,-3.44760e+01,0.00000e+00,0.00000e+00,0.00000e+00
8.33800e+02,-4.17819e+00,-3.13418e+01,0.00000e+00,0.00000e+00,0.00000e+00
8.33800e+02,-3.39085e+00,-2.82077e+01,0.00000e+00,0.00000e+00,0.00000e+00
8.33800e+02,-2.59317e+00,-2.50735e+01,0.00000e+00,0.00000e+00,0.00000e+00
8.33800e+02,-1.79378e+00,-2.19393e+01,0.00000e+00,0.00000e+00,0.00000e+00
8.33800e+02,-9.88209e-01,-1.88051e+01,0.00000e+00,0.00000e+00,0.00000e+00
8.33800e+02,-1.82723e-01,-1.56709e+01,0.00000e+00,0.00000e+00,0.00000e+00
8.33800e+02,6.19718e-01,-1.25367e+01,0.00000e+00,0.00000e+00,0.00000e+00
8.33800e+02,1.42216e+00,-9.40255e+00,0.00000e+00,0.00000e+00,0.00000e+00
8.33800e+02,2.20560e+00,-6.26837e+00,0.00000e+00,0.00000e+00,0.00000e+00
8.33800e+02,2.98550e+00,-3.13418e+00,0.00000e+00,0.00000e+00,0.00000e+00
9.30700e+02,3.94382e+01,0.00000e+00,0.00000e+00,0.00000e+00,0.00000e+00
9.30700e+02,3.92396e+01,-2.99689e+00,0.00000e+00,0.00000e+00,0.00000e+00
9.30700e+02,3.89754e+01,-5.99378e+00,0.00000e+00,0.00000e+00,0.00000e+00
9.30700e+02,3.87085e+01,-8.99067e+00,0.00000e+00,0.00000e+00,0.00000e+00
9.30700e+02,3.83837e+01,-1.19876e+01,0.00000e+00,0.00000e+00,0.00000e+00
9.30700e+02,3.80455e+01,-1.49844e+01,0.00000e+00,0.00000e+00,0.00000e+00
9.30700e+02,3.76628e+01,-1.79813e+01,0.00000e+00,0.00000e+00,0.00000e+00
9.30700e+02,3.72585e+01,-2.09782e+01,0.00000e+00,0.00000e+00,0.00000e+00
9.30700e+02,3.68185e+01,-2.39751e+01,0.00000e+00,0.00000e+00,0.00000e+00
9.30700e+02,3.63492e+01,-2.69720e+01,0.00000e+00,0.00000e+00,0.00000e+00
9.30700e+02,3.58475e+01,-2.99689e+01,0.00000e+00,0.00000e+00,0.00000e+00
9.30700e+02,3.53068e+01,-3.29658e+01,0.00000e+00,0.00000e+00,0.00000e+00
9.30700e+02,3.47261e+01,-3.59627e+01,0.00000e+00,0.00000e+00,0.00000e+00
9.30700e+02,3.40887e+01,-3.89596e+01,0.00000e+00,0.00000e+00,0.00000e+00
9.30700e+02,3.33962e+01,-4.19565e+01,0.00000e+00,0.00000e+00,0.00000e+00
9.30700e+02,3.26376e+01,-4.49533e+01,0.00000e+00,0.00000e+00,0.00000e+00
9.30700e+02,3.17897e+01,-4.79502e+01,0.00000e+00,0.00000e+00,0.00000e+00
9.30700e+02,3.08797e+01,-5.09471e+01,0.00000e+00,0.00000e+00,0.00000e+00
9.30700e+02,2.98297e+01,-5.39440e+01,0.00000e+00,0.00000e+00,0.00000e+00
9.30700e+02,2.87218e+01,-5.69409e+01,0.00000e+00,0.00000e+00,0.00000e+00
9.30700e+02,2.74524e+01,-5.99378e+01,0.00000e+00,0.00000e+00,0.00000e+00
9.30700e+02,2.60534e+01,-6.29347e+01,0.00000e+00,0.00000e+00,0.00000e+00
9.30700e+02,2.45228e+01,-6.59316e+01,0.00000e+00,0.00000e+00,0.00000e+00
9.30700e+02,2.27710e+01,-6.89285e+01,0.00000e+00,0.00000e+00,0.00000e+00
9.30700e+02,2.07631e+01,-7.19254e+01,0.00000e+00,0.00000e+00,0.00000e+00
9.30700e+02,1.84656e+01,-7.49222e+01,0.00000e+00,0.00000e+00,0.00000e+00
9.30700e+02,1.57483e+01,-7.79191e+01,0.00000e+00,0.00000e+00,0.00000e+00
9.30700e+02,1.22603e+01,-8.09160e+01,0.00000e+00,0.00000e+00,0.00000e+00
9.30700e+02,7.54299e+00,-8.39129e+01,0.00000e+00,0.00000e+00,0.00000e+00
9.30700e+02,-3.05636e+00,-8.69098e+01,0.00000e+00,0.00000e+00,0.00000e+00
9.30700e+02,-3.82132e+00,-8.69168e+01,0.00000e+00,0.00000e+00,0.00000e+00
9.30700e+02,-1.07906e+01,-8.38126e+01,0.00000e+00,0.00000e+00,0.00000e+00
9.30700e+02,-1.16345e+01,-8.07084e+01,0.00000e+00,0.00000e+00,0.00000e+00
9.30700e+02,-1.19256e+01,-7.76042e+01,0.00000e+00,0.00000e+00,0.00000e+00
9.30700e+02,-1.19698e+01,-7.45001e+01,0.00000e+00,0.00000e+00,0.00000e+00
9.30700e+02,-1.18279e+01,-7.13959e+01,0.00000e+00,0.00000e+00,0.00000e+00
9.30700e+02,-1.15692e+01,-6.82917e+01,0.00000e+00,0.00000e+00,0.00000e+00
9.30700e+02,-1.11933e+01,-6.51876e+01,0.00000e+00,0.00000e+00,0.00000e+00
9.30700e+02,-1.07458e+01,-6.20834e+01,0.00000e+00,0.00000e+00,0.00000e+00
9.30700e+02,-1.02569e+01,-5.89792e+01,0.00000e+00,0.00000e+00,0.00000e+00
9.30700e+02,-9.70544e+00,-5.58751e+01,0.00000e+00,0.00000e+00,0.00000e+00
9.30700e+02,-9.11493e+00,-5.27709e+01,0.00000e+00,0.00000e+00,0.00000e+00
9.30700e+02,-8.48637e+00,-4.96667e+01,0.00000e+00,0.00000e+00,0.00000e+00
9.30700e+02,-7.81993e+00,-4.65625e+01,0.00000e+00,0.00000e+00,0.00000e+00
9.30700e+02,-7.12973e+00,-4.34584e+01,0.00000e+00,0.00000e+00,0.00000e+00
9.30700e+02,-6.40909e+00,-4.03542e+01,0.00000e+00,0.00000e+00,0.00000e+00
9.30700e+02,-5.66897e+00,-3.72500e+01,0.00000e+00,0.00000e+00,0.00000e+00
9.30700e+02,-4.91137e+00,-3.41459e+01,0.00000e+00,0.00000e+00,0.00000e+00
9.30700e+02,-4.13818e+00,-3.10417e+01,0.00000e+00,0.00000e+00,0.00000e+00
9.30700e+02,-3.35837e+00,-2.79375e+01,0.00000e+00,0.00000e+00,0.00000e+00
9.30700e+02,-2.56834e+00,-2.48334e+01,0.00000e+00,0.00000e+00,0.00000e+00
9.30700e+02,-1.77660e+00,-2.17292e+01,0.00000e+00,0.00000e+00,0.00000e+00
9.30700e+02,-9.78745e-01,-1.86250e+01,0.00000e+00,0.00000e+00,0.00000e+00
9.30700e+02,-1.80973e-01,-1.55208e+01,0.00000e+00,0.00000e+00,0.00000e+00
9.30700e+02,6.13784e-01,-1.24167e+01,0.00000e+00,0.00000e+00,0.00000e+00
9.30700e+02,1.40854e+00,-9.31251e+00,0.00000e+00,0.00000e+00,0.00000e+00
9.30700e+02,2.18448e+00,-6.20834e+00,0.00000e+00,0.00000e+00,0.00000e+00
9.30700e+02,2.95691e+00,-3.10417e+00,0.00000e+00,0.00000e+00,0.00000e+00
1.02500e+03,3.90671e+01,0.00000e+00,0.00000e+00,0.00000e+00,0.00000e+00
1.02500e+03,3.88704e+01,-2.96869e+00,0.00000e+00,0.00000e+00,0.00000e+00
1.02500e+03,3.86086e+01,-5.93738e+00,0.00000e+00,0.00000e+00,0.00000e+00
1.02500e+03,3.83443e+01,-8.90607e+00,0.00000e+00,0.00000e+00,0.00000e+00
1.02500e+03,3.80226e+01,-1.18748e+01,0.00000e+00,0.00000e+00,0.00000e+00
1.02500e+03,3.76875e+01,-1.48435e+01,0.00000e+00,0.00000e+00,0.00000e+00
1.02500e+03,3.73084e+01,-1.78121e+01,0.00000e+00,0.00000e+00,0.00000e+00
1.02500e+03,3.69079e+01,-2.07808e+01,0.00000e+00,0.00000e+00,0.00000e+00
1.02500e+03,3.64721e+01,-2.37495e+01,0.00000e+00,0.00000e+00,0.00000e+00
1.02500e+03,3.60071e+01,-2.67182e+01,0.00000e+00,0.00000e+00,0.00000e+00
1.02500e+03,3.55102e+01,-2.96869e+01,0.00000e+00,0.00000e+00,0.00000e+00
1.02500e+03,3.49746e+01,-3.26556e+01,0.00000e+00,0.00000e+00,0.00000e+00
1.02500e+03,3.43994e+01,-3.56243e+01,0.00000e+00,0.00000e+00,0.00000e+00
1.02500e+03,3.37680e+01,-3.85930e+01,0.00000e+00,0.00000e+00,0.00000e+00
1.02500e+03,3.30819e+01,-4.15617e+01,0.00000e+00,0.00000e+00,0.00000e+00
1.02500e+03,3.23305e+01,-4.45304e+01,0.00000e+00,0.00000e+00,0.00000e+00
1.02500e+03,3.14906e+01,-4.74990e+01,0.00000e+00,0.00000e+00,0.00000e+00
1.02500e+03,3.05891e+01,-5.04677e+01,0.00000e+00,0.00000e+00,0.00000e+00
1.02500e+03,2.95491e+01,-5.34364e+01,0.00000e+00,0.00000e+00,0.00000e+00
1.02500e+03,2.84516e+01,-5.64051e+01,0.00000e+00,0.00000e+00,0.00000e+00
1.02500e+03,2.71940e+01,-5.93738e+01,0.00000e+00,0.00000e+00,0.00000e+00
1.02500e+03,2.58083e+01,-6.23425e+01,0.00000e+00,0.00000e+00,0.00000e+00
1.02500e+03,2.42920e+01,-6.53112e+01,0.00000e+00,0.00000e+00,0.00000e+00
1.02500e+03,2.25567e+01,-6.82799e+01,0.00000e+00,0.00000e+00,0.00000e+00
1.02500e+03,2.05677e+01,-7.12486e+01,0.00000e+00,0.00000e+00,0.00000e+00
1.02500e+03,1.82919e+01,-7.42173e+01,0.00000e+00,0.00000e+00,0.00000e+00
1.02500e+03,1.56001e+01,-7.71859e+01,0.00000e+00,0.00000e+00,0.00000e+00
1.02500e+03,1.21450e+01,-8.01546e+01,0.00000e+00,0.00000e+00,0.00000e+00
1.02500e+03,7.47201e+00,-8.31233e+01,0.00000e+00,0.00000e+00,0.00000e+00
1.02500e+03,-3.02760e+00,-8.60920e+01,0.00000e+00,0.00000e+00,0.00000e+00
1.02500e+03,-3.78536e+00,-8.60989e+01,0.00000e+00,0.00000e+00,0.00000e+00
1.02500e+03,-1.06891e+01,-8.30239e+01,0.00000e+00,0.00000e+00,0.00000e+00
1.02500e+03,-1.15250e+01,-7.99490e+01,0.00000e+00,0.00000e+00,0.00000e+00
1.02500e+03,-1.18134e+01,-7.68740e+01,0.00000e+00,0.00000e+00,0.00000e+00
1.02500e+03,-1.18572e+01,-7.37991e+01,0.00000e+00,0.00000e+00,0.00000e+00
1.02500e+03,-1.17166e+01,-7.07241e+01,0.00000e+00,0.00000e+00,0.00000e+00
1.02500e+03,-1.14604e+01,-6.76491e+01,0.00000e+00,0.00000e+00,0.00000e+00
1.02500e+03,-1.10880e+01,-6.45742e+01,0.00000e+00,0.00000e+00,0.00000e+00
1.02500e+03,-1.06447e+01,-6.14992e+01,0.00000e+00,0.00000e+00,0.00000e+00
1.02500e+03,-1.01604e+01,-5.84243e+01,0.00000e+00,0.00000e+00,0.00000e+00
1.02500e+03,-9.61411e+00,-5.53493e+01,0.00000e+00,0.00000e+00,0.00000e+00
1.02500e+03,-9.02916e+00,-5.22743e+01,0.00000e+00,0.00000e+00,0.00000e+00
1.02500e+03,-8.40652e+00,-4.91994e+01,0.00000e+00,0.00000e+00,0.00000e+00
1.02500e+03,-7.74634e+00,-4.61244e+01,0.00000e+00,0.00000e+00,0.00000e+00
1.02500e+03,-7.06264e+00,-4.30495e+01,0.00000e+00,0.00000e+00,0.00000e+00
1.02500e+03,-6.34878e+00,-3.99745e+01,0.00000e+00,0.00000e+00,0.00000e+00
1.02500e+03,-5.61563e+00,-3.68995e+01,0.00000e+00,0.00000e+00,0.00000e+00
1.02500e+03,-4.86516e+00,-3.38246e+01,0.00000e+00,0.00000e+00,0.00000e+00
1.02500e+03,-4.09924e+00,-3.07496e+01,0.00000e+00,0.00000e+00,0.00000e+00
1.02500e+03,-3.32677e+00,-2.76746e+01,0.00000e+00,0.00000e+00,0.00000e+00
1.02500e+03,-2.54417e+00,-2.45997e+01,0.00000e+00,0.00000e+00,0.00000e+00
1.02500e+03,-1.75988e+00,-2.15247e+01,0.00000e+00,0.00000e+00,0.00000e+00
1.02500e+03,-9.69535e-01,-1.84498e+01,0.00000e+00,0.00000e+00,0.00000e+00
1.02500e+03,-1.79270e-01,-1.53748e+01,0.00000e+00,0.00000e+00,0.00000e+00
1.02500e+03,6.08008e-01,-1.22998e+01,0.00000e+00,0.00000e+00,0.00000e+00
1.02500e+03,1.39529e+00,-9.22488e+00,0.00000e+00,0.00000e+00,0.00000e+00
1.02500e+03,2.16392e+00,-6.14992e+00,0.00000e+00,0.00000e+00,0.00000e+00
1.02500e+03,2.92908e+00,-3.07496e+00,0.00000e+00,0.00000e+00,0.00000e+00
1.11650e+03,3.87070e+01,0.00000e+00,0.00000e+00,0.00000e+00,0.00000e+00
1.11650e+03,3.85121e+01,-2.94133e+00,0.00000e+00,0.00000e+00,0.00000e+00
1.11650e+03,3.82528e+01,-5.88266e+00,0.00000e+00,0.00000e+00,0.00000e+00
1.11650e+03,3.79909e+01,-8.82398e+00,0.00000e+00,0.00000e+00,0.00000e+00
1.11650e+03,3.76721e+01,-1.17653e+01,0.00000e+00,0.00000e+00,0.00000e+00
1.11650e+03,3.73401e+01,-1.47066e+01,0.00000e+00,0.00000e+00,0.00000e+00
1.11650e+03,3.69645e+01,-1.76480e+01,0.00000e+00,0.00000e+00,0.00000e+00
1.11650e+03,3.65678e+01,-2.05893e+01,0.00000e+00,0.00000e+00,0.00000e+00
1.11650e+03,3.61359e+01,-2.35306e+01,0.00000e+00,0.00000e+00,0.00000e+00
1.11650e+03,3.56753e+01,-2.64720e+01,0.00000e+00,0.00000e+00,0.00000e+00
1.11650e+03,3.51829e+01,-2.94133e+01,0.00000e+00,0.00000e+00,0.00000e+00
1.11650e+03,3.46522e+01,-3.23546e+01,0.00000e+00,0.00000e+00,0.00000e+00
1.11650e+03,3.40823e+01,-3.52959e+01,0.00000e+00,0.00000e+00,0.00000e+00
1.11650e+03,3.34567e+01,-3.82373e+01,0.00000e+00,0.00000e+00,0.00000e+00
1.11650e+03,3.27770e+01,-4.11786e+01,0.00000e+00,0.00000e+00,0.00000e+00
1.11650e+03,3.20325e+01,-4.41199e+01,0.00000e+00,0.00000e+00,0.00000e+00
1.11650e+03,3.12004e+01,-4.70612e+01,0.00000e+00,0.00000e+00,0.00000e+00
1.11650e+03,3.03072e+01,-5.00026e+01,0.00000e+00,0.00000e+00,0.00000e+00
1.11650e+03,2.92767e+01,-5.29439e+01,0.00000e+00,0.00000e+00,0.00000e+00
1.11650e+03,2.81893e+01,-5.58852e+01,0.00000e+00,0.00000e+00,0.00000e+00
1.11650e+03,2.69434e+01,-5.88266e+01,0.00000e+00,0.00000e+00,0.00000e+00
1.11650e+03,2.55704e+01,-6.17679e+01,0.00000e+00,0.00000e+00,0.00000e+00
1.11650e+03,2.40681e+01,-6.47092e+01,0.00000e+00,0.00000e+00,0.00000e+00
1.11650e+03,2.23488e+01,-6.76505e+01,0.00000e+00,0.00000e+00,0.00000e+00
1.11650e+03,2.03781e+01,-7.05919e+01,0.00000e+00,0.00000e+00,0.00000e+00
1.11650e+03,1.81233e+01,-7.35332e+01,0.00000e+00,0.00000e+00,0.00000e+00
1.11650e+03,1.54563e+01,-7.64745e+01,0.00000e+00,0.00000e+00,0.00000e+00
1.11650e+03,1.20330e+01,-7.94159e+01,0.00000e+00,0.00000e+00,0.00000e+00
1.11650e+03,7.40314e+00,-8.23572e+01,0.00000e+00,0.00000e+00,0.00000e+00
1.11650e+03,-2.99970e+00,-8.52985e+01,0.00000e+00,0.00000e+00,0.00000e+00
1.11650e+03,-3.75047e+00,-8.53053e+01,0.00000e+00,0.00000e+00,0.00000e+00
1.11650e+03,-1.05906e+01,-8.22587e+01,0.00000e+00,0.00000e+00,0.00000e+00
1.11650e+03,-1.14188e+01,-7.92121e+01,0.00000e+00,0.00000e+00,0.00000e+00
1.11650e+03,-1.17045e+01,-7.61655e+01,0.00000e+00,0.00000e+00,0.00000e+00
1.11650e+03,-1.17479e+01,-7.31189e+01,0.00000e+00,0.00000e+00,0.00000e+00
1.11650e+03,-1.16086e+01,-7.00722e+01,0.00000e+00,0.00000e+00,0.00000e+00
1.11650e+03,-1.13547e+01,-6.70256e+01,0.00000e+00,0.00000e+00,0.00000e+00
1.11650e+03,-1.09858e+01,-6.39790e+01,0.00000e+00,0.00000e+00,0.00000e+00
1.11650e+03,-1.05466e+01,-6.09324e+01,0.00000e+00,0.00000e+00,0.00000e+00
1.11650e+03,-1.00667e+01,-5.78858e+01,0.00000e+00,0.00000e+00,0.00000e+00
1.11650e+03,-9.52550e+00,-5.48391e+01,0.00000e+00,0.00000e+00,0.00000e+00
1.11650e+03,-8.94594e+00,-5.17925e+01,0.00000e+00,0.00000e+00,0.00000e+00
1.11650e+03,-8.32904e+00,-4.87459e+01,0.00000e+00,0.00000e+00,0.00000e+00
1.11650e+03,-7.67495e+00,-4.56993e+01,0.00000e+00,0.00000e+00,0.00000e+00
1.11650e+03,-6.99754e+00,-4.26527e+01,0.00000e+00,0.00000e+00,0.00000e+00
1.11650e+03,-6.29027e+00,-3.96060e+01,0.00000e+00,0.00000e+00,0.00000e+00
1.11650e+03,-5.56387e+00,-3.65594e+01,0.00000e+00,0.00000e+00,0.00000e+00
1.11650e+03,-4.82031e+00,-3.35128e+01,0.00000e+00,0.00000e+00,0.00000e+00
1.11650e+03,-4.06146e+00,-3.04662e+01,0.00000e+00,0.00000e+00,0.00000e+00
1.11650e+03,-3.29611e+00,-2.74196e+01,0.00000e+00,0.00000e+00,0.00000e+00
1.11650e+03,-2.52072e+00,-2.43730e+01,0.00000e+00,0.00000e+00,0.00000e+00
1.11650e+03,-1.74366e+00,-2.13263e+01,0.00000e+00,0.00000e+00,0.00000e+00
1.11650e+03,-9.60599e-01,-1.82797e+01,0.00000e+00,0.00000e+00,0.00000e+00
1.11650e+03,-1.77618e-01,-1.52331e+01,0.00000e+00,0.00000e+00,0.00000e+00
1.11650e+03,6.02404e-01,-1.21865e+01,0.00000e+00,0.00000e+00,0.00000e+00
1.11650e+03,1.38243e+00,-9.13986e+00,0.00000e+00,0.00000e+00,0.00000e+00
1.11650e+03,2.14398e+00,-6.09324e+00,0.00000e+00,0.00000e+00,0.00000e+00
1.11650e+03,2.90209e+00,-3.04662e+00,0.00000e+00,0.00000e+00,0.00000e+00
1.20500e+03,3.76912e+01,0.00000e+00,0.00000e+00,0.00000e+00,0.00000e+00
1.20500e+03,3.75014e+01,-2.86413e+00,0.00000e+00,0.00000e+00,0.00000e+00
1.20500e+03,3.72488e+01,-5.72827e+00,0.00000e+00,0.00000e+00,0.00000e+00
1.20500e+03,3.69938e+01,-8.59240e+00,0.00000e+00,0.00000e+00,0.00000e+00
1.20500e+03,3.66834e+01,-1.14565e+01,0.00000e+00,0.00000e+00,0.00000e+00
1.20500e+03,3.63602e+01,-1.43207e+01,0.00000e+00,0.00000e+00,0.00000e+00
1.20500e+03,3.59944e+01,-1.71848e+01,0.00000e+00,0.00000e+00,0.00000e+00
1.20500e+03,3.56080e+01,-2.00489e+01,0.00000e+00,0.00000e+00,0.00000e+00
1.20500e+03,3.51875e+01,-2.29131e+01,0.00000e+00,0.00000e+00,0.00000e+00
1.20500e+03,3.47390e+01,-2.57772e+01,0.00000e+00,0.00000e+00,0.00000e+00
1.20500e+03,3.42596e+01,-2.86413e+01,0.00000e+00,0.00000e+00,0.00000e+00
1.20500e+03,3.37428e+01,-3.15055e+01,0.00000e+00,0.00000e+00,0.00000e+00
1.20500e+03,3.31878e+01,-3.43696e+01,0.00000e+00,0.00000e+00,0.00000e+00
1.20500e+03,3.25787e+01,-3.72337e+01,0.00000e+00,0.00000e+00,0.00000e+00
1.20500e+03,3.19168e+01,-4.00979e+01,0.00000e+00,0.00000e+00,0.00000e+00
1.20500e+03,3.11919e+01,-4.29620e+01,0.00000e+00,0.00000e+00,0.00000e+00
1.20500e+03,3.03815e+01,-4.58261e+01,0.00000e+00,0.00000e+00,0.00000e+00
1.20500e+03,2.95118e+01,-4.86903e+01,0.00000e+00,0.00000e+00,0.00000e+00
1.20500e+03,2.85084e+01,-5.15544e+01,0.00000e+00,0.00000e+00,0.00000e+00
1.20500e+03,2.74495e+01,-5.44186e+01,0.00000e+00,0.00000e+00,0.00000e+00
1.20500e+03,2.62363e+01,-5.72827e+01,0.00000e+00,0.00000e+00,0.00000e+00
1.20500e+03,2.48993e+01,-6.01468e+01,0.00000e+00,0.00000e+00,0.00000e+00
1.20500e+03,2.34365e+01,-6.30110e+01,0.00000e+00,0.00000e+00,0.00000e+00
1.20500e+03,2.17623e+01,-6.58751e+01,0.00000e+00,0.00000e+00,0.00000e+00
1.20500e+03,1.98433e+01,-6.87392e+01,0.00000e+00,0.00000e+00,0.00000e+00
1.20500e+03,1.76476e+01,-7.16034e+01,0.00000e+00,0.00000e+00,0.00000e+00
1.20500e+03,1.50506e+01,-7.44675e+01,0.00000e+00,0.00000e+00,0.00000e+00
1.20500e+03,1.17172e+01,-7.73316e+01,0.00000e+00,0.00000e+00,0.00000e+00
1.20500e+03,7.20885e+00,-8.01958e+01,0.00000e+00,0.00000e+00,0.00000e+00
1.20500e+03,-2.92097e+00,-8.30599e+01,0.00000e+00,0.00000e+00,0.00000e+00
1.20500e+03,-3.65204e+00,-8.30665e+01,0.00000e+00,0.00000e+00,0.00000e+00
1.20500e+03,-1.03126e+01,-8.00999e+01,0.00000e+00,0.00000e+00,0.00000e+00
1.20500e+03,-1.11191e+01,-7.71332e+01,0.00000e+00,0.00000e+00,0.00000e+00
1.20500e+03,-1.13974e+01,-7.41666e+01,0.00000e+00,0.00000e+00,0.00000e+00
1.20500e+03,-1.14396e+01,-7.11999e+01,0.00000e+00,0.00000e+00,0.00000e+00
1.20500e+03,-1.13040e+01,-6.82332e+01,0.00000e+00,0.00000e+00,0.00000e+00
1.20500e+03,-1.10567e+01,-6.52666e+01,0.00000e+00,0.00000e+00,0.00000e+00
1.20500e+03,-1.06975e+01,-6.22999e+01,0.00000e+00,0.00000e+00,0.00000e+00
1.20500e+03,-1.02698e+01,-5.93332e+01,0.00000e+00,0.00000e+00,0.00000e+00
1.20500e+03,-9.80253e+00,-5.63666e+01,0.00000e+00,0.00000e+00,0.00000e+00
1.20500e+03,-9.27551e+00,-5.33999e+01,0.00000e+00,0.00000e+00,0.00000e+00
1.20500e+03,-8.71115e+00,-5.04333e+01,0.00000e+00,0.00000e+00,0.00000e+00
1.20500e+03,-8.11045e+00,-4.74666e+01,0.00000e+00,0.00000e+00,0.00000e+00
1.20500e+03,-7.47352e+00,-4.44999e+01,0.00000e+00,0.00000e+00,0.00000e+00
1.20500e+03,-6.81389e+00,-4.15333e+01,0.00000e+00,0.00000e+00,0.00000e+00
1.20500e+03,-6.12518e+00,-3.85666e+01,0.00000e+00,0.00000e+00,0.00000e+00
1.20500e+03,-5.41785e+00,-3.55999e+01,0.00000e+00,0.00000e+00,0.00000e+00
1.20500e+03,-4.69381e+00,-3.26333e+01,0.00000e+00,0.00000e+00,0.00000e+00
1.20500e+03,-3.95486e+00,-2.96666e+01,0.00000e+00,0.00000e+00,0.00000e+00
1.20500e+03,-3.20961e+00,-2.67000e+01,0.00000e+00,0.00000e+00,0.00000e+00
1.20500e+03,-2.45457e+00,-2.37333e+01,0.00000e+00,0.00000e+00,0.00000e+00
1.20500e+03,-1.69790e+00,-2.07666e+01,0.00000e+00,0.00000e+00,0.00000e+00
1.20500e+03,-9.35389e-01,-1.78000e+01,0.00000e+00,0.00000e+00,0.00000e+00
1.20500e+03,-1.72956e-01,-1.48333e+01,0.00000e+00,0.00000e+00,0.00000e+00
1.20500e+03,5.86594e-01,-1.18666e+01,0.00000e+00,0.00000e+00,0.00000e+00
1.20500e+03,1.34615e+00,-8.89999e+00,0.00000e+00,0.00000e+00,0.00000e+00
1.20500e+03,2.08771e+00,-5.93332e+00,0.00000e+00,0.00000e+00,0.00000e+00
1.20500e+03,2.82592e+00,-2.96666e+00,0.00000e+00,0.00000e+00,0.00000e+00
1.29010e+03,3.63234e+01,0.00000e+00,0.00000e+00,0.00000e+00,0.00000e+00
1.29010e+03,3.61405e+01,-2.76019e+00,0.00000e+00,0.00000e+00,0.00000e+00
1.29010e+03,3.58971e+01,-5.52039e+00,0.00000e+00,0.00000e+00,0.00000e+00
1.29010e+03,3.56513e+01,-8.28058e+00,0.00000e+00,0.00000e+00,0.00000e+00
1.29010e+03,3.53522e+01,-1.10408e+01,0.00000e+00,0.00000e+00,0.00000e+00
1.29010e+03,3.50407e+01,-1.38010e+01,0.00000e+00,0.00000e+00,0.00000e+00
1.29010e+03,3.46882e+01,-1.65612e+01,0.00000e+00,0.00000e+00,0.00000e+00
1.29010e+03,3.43158e+01,-1.93214e+01,0.00000e+00,0.00000e+00,0.00000e+00
1.29010e+03,3.39106e+01,-2.20816e+01,0.00000e+00,0.00000e+00,0.00000e+00
1.29010e+03,3.34783e+01,-2.48418e+01,0.00000e+00,0.00000e+00,0.00000e+00
1.29010e+03,3.30163e+01,-2.76019e+01,0.00000e+00,0.00000e+00,0.00000e+00
1.29010e+03,3.25183e+01,-3.03621e+01,0.00000e+00,0.00000e+00,0.00000e+00
1.29010e+03,3.19834e+01,-3.31223e+01,0.00000e+00,0.00000e+00,0.00000e+00
1.29010e+03,3.13964e+01,-3.58825e+01,0.00000e+00,0.00000e+00,0.00000e+00
1.29010e+03,3.07585e+01,-3.86427e+01,0.00000e+00,0.00000e+00,0.00000e+00
1.29010e+03,3.00599e+01,-4.14029e+01,0.00000e+00,0.00000e+00,0.00000e+00
1.29010e+03,2.92790e+01,-4.41631e+01,0.00000e+00,0.00000e+00,0.00000e+00
1.29010e+03,2.84408e+01,-4.69233e+01,0.00000e+00,0.00000e+00,0.00000e+00
1.29010e+03,2.74738e+01,-4.96835e+01,0.00000e+00,0.00000e+00,0.00000e+00
1.29010e+03,2.64534e+01,-5.24437e+01,0.00000e+00,0.00000e+00,0.00000e+00
1.29010e+03,2.52842e+01,-5.52039e+01,0.00000e+00,0.00000e+00,0.00000e+00
1.29010e+03,2.39957e+01,-5.79641e+01,0.00000e+00,0.00000e+00,0.00000e+00
1.29010e+03,2.25860e+01,-6.07243e+01,0.00000e+00,0.00000e+00,0.00000e+00
1.29010e+03,2.09725e+01,-6.34845e+01,0.00000e+00,0.00000e+00,0.00000e+00
1.29010e+03,1.91232e+01,-6.62447e+01,0.00000e+00,0.00000e+00,0.00000e+00
1.29010e+03,1.70072e+01,-6.90049e+01,0.00000e+00,0.00000e+00,0.00000e+00
1.29010e+03,1.45045e+01,-7.17651e+01,0.00000e+00,0.00000e+00,0.00000e+00
1.29010e+03,1.12920e+01,-7.45253e+01,0.00000e+00,0.00000e+00,0.00000e+00
1.29010e+03,6.94724e+00,-7.72855e+01,0.00000e+00,0.00000e+00,0.00000e+00
1.29010e+03,-2.81497e+00,-8.00457e+01,0.00000e+00,0.00000e+00,0.00000e+00
1.29010e+03,-3.51951e+00,-8.00521e+01,0.00000e+00,0.00000e+00,0.00000e+00
1.29010e+03,-9.93839e+00,-7.71931e+01,0.00000e+00,0.00000e+00,0.00000e+00
1.29010e+03,-1.07156e+01,-7.43341e+01,0.00000e+00,0.00000e+00,0.00000e+00
1.29010e+03,-1.09838e+01,-7.14751e+01,0.00000e+00,0.00000e+00,0.00000e+00
1.29010e+03,-1.10244e+01,-6.86160e+01,0.00000e+00,0.00000e+00,0.00000e+00
1.29010e+03,-1.08937e+01,-6.57570e+01,0.00000e+00,0.00000e+00,0.00000e+00
1.29010e+03,-1.06555e+01,-6.28980e+01,0.00000e+00,0.00000e+00,0.00000e+00
1.29010e+03,-1.03093e+01,-6.00390e+01,0.00000e+00,0.00000e+00,0.00000e+00
1.29010e+03,-9.89713e+00,-5.71800e+01,0.00000e+00,0.00000e+00,0.00000e+00
1.29010e+03,-9.44680e+00,-5.43210e+01,0.00000e+00,0.00000e+00,0.00000e+00
1.29010e+03,-8.93890e+00,-5.14620e+01,0.00000e+00,0.00000e+00,0.00000e+00
1.29010e+03,-8.39503e+00,-4.86030e+01,0.00000e+00,0.00000e+00,0.00000e+00
1.29010e+03,-7.81612e+00,-4.57440e+01,0.00000e+00,0.00000e+00,0.00000e+00
1.29010e+03,-7.20231e+00,-4.28850e+01,0.00000e+00,0.00000e+00,0.00000e+00
1.29010e+03,-6.56662e+00,-4.00260e+01,0.00000e+00,0.00000e+00,0.00000e+00
1.29010e+03,-5.90290e+00,-3.71670e+01,0.00000e+00,0.00000e+00,0.00000e+00
1.29010e+03,-5.22123e+00,-3.43080e+01,0.00000e+00,0.00000e+00,0.00000e+00
1.29010e+03,-4.52347e+00,-3.14490e+01,0.00000e+00,0.00000e+00,0.00000e+00
1.29010e+03,-3.81134e+00,-2.85900e+01,0.00000e+00,0.00000e+00,0.00000e+00
1.29010e+03,-3.09313e+00,-2.57310e+01,0.00000e+00,0.00000e+00,0.00000e+00
1.29010e+03,-2.36549e+00,-2.28720e+01,0.00000e+00,0.00000e+00,0.00000e+00
1.29010e+03,-1.63628e+00,-2.00130e+01,0.00000e+00,0.00000e+00,0.00000e+00
1.29010e+03,-9.01444e-01,-1.71540e+01,0.00000e+00,0.00000e+00,0.00000e+00
1.29010e+03,-1.66680e-01,-1.42950e+01,0.00000e+00,0.00000e+00,0.00000e+00
1.29010e+03,5.65307e-01,-1.14360e+01,0.00000e+00,0.00000e+00,0.00000e+00
1.29010e+03,1.29729e+00,-8.57701e+00,0.00000e+00,0.00000e+00,0.00000e+00
1.29010e+03,2.01195e+00,-5.71800e+00,0.00000e+00,0.00000e+00,0.00000e+00
1.29010e+03,2.72337e+00,-2.85900e+00,0.00000e+00,0.00000e+00,0.00000e+00
1.37170e+03,3.50118e+01,0.00000e+00,0.00000e+00,0.00000e+00,0.00000e+00
1.37170e+03,3.48355e+01,-2.66053e+00,0.00000e+00,0.00000e+00,0.00000e+00
1.37170e+03,3.46009e+01,-5.32106e+00,0.00000e+00,0.00000e+00,0.00000e+00
1.37170e+03,3.43640e+01,-7.98159e+00,0.00000e+00,0.00000e+00,0.00000e+00
1.37170e+03,3.40757e+01,-1.06421e+01,0.00000e+00,0.00000e+00,0.00000e+00
1.37170e+03,3.37754e+01,-1.33027e+01,0.00000e+00,0.00000e+00,0.00000e+00
1.37170e+03,3.34357e+01,-1.59632e+01,0.00000e+00,0.00000e+00,0.00000e+00
1.37170e+03,3.30768e+01,-1.86237e+01,0.00000e+00,0.00000e+00,0.00000e+00
1.37170e+03,3.26861e+01,-2.12842e+01,0.00000e+00,0.00000e+00,0.00000e+00
1.37170e+03,3.22695e+01,-2.39448e+01,0.00000e+00,0.00000e+00,0.00000e+00
1.37170e+03,3.18241e+01,-2.66053e+01,0.00000e+00,0.00000e+00,0.00000e+00
1.37170e+03,3.13441e+01,-2.92658e+01,0.00000e+00,0.00000e+00,0.00000e+00
1.37170e+03,3.08286e+01,-3.19264e+01,0.00000e+00,0.00000e+00,0.00000e+00
1.37170e+03,3.02627e+01,-3.45869e+01,0.00000e+00,0.00000e+00,0.00000e+00
1.37170e+03,2.96479e+01,-3.72474e+01,0.00000e+00,0.00000e+00,0.00000e+00
1.37170e+03,2.89745e+01,-3.99080e+01,0.00000e+00,0.00000e+00,0.00000e+00
1.37170e+03,2.82218e+01,-4.25685e+01,0.00000e+00,0.00000e+00,0.00000e+00
1.37170e+03,2.74139e+01,-4.52290e+01,0.00000e+00,0.00000e+00,0.00000e+00
1.37170e+03,2.64818e+01,-4.78895e+01,0.00000e+00,0.00000e+00,0.00000e+00
1.37170e+03,2.54982e+01,-5.05501e+01,0.00000e+00,0.00000e+00,0.00000e+00
1.37170e+03,2.43712e+01,-5.32106e+01,0.00000e+00,0.00000e+00,0.00000e+00
1.37170e+03,2.31293e+01,-5.58711e+01,0.00000e+00,0.00000e+00,0.00000e+00
1.37170e+03,2.17704e+01,-5.85317e+01,0.00000e+00,0.00000e+00,0.00000e+00
1.37170e+03,2.02153e+01,-6.11922e+01,0.00000e+00,0.00000e+00,0.00000e+00
1.37170e+03,1.84327e+01,-6.38527e+01,0.00000e+00,0.00000e+00,0.00000e+00
1.37170e+03,1.63931e+01,-6.65133e+01,0.00000e+00,0.00000e+00,0.00000e+00
1.37170e+03,1.39807e+01,-6.91738e+01,0.00000e+00,0.00000e+00,0.00000e+00
1.37170e+03,1.08843e+01,-7.18343e+01,0.00000e+00,0.00000e+00,0.00000e+00
1.37170e+03,6.69639e+00,-7.44949e+01,0.00000e+00,0.00000e+00,0.00000e+00
1.37170e+03,-2.71333e+00,-7.71554e+01,0.00000e+00,0.00000e+00,0.00000e+00
1.37170e+03,-3.39243e+00,-7.71616e+01,0.00000e+00,0.00000e+00,0.00000e+00
1.37170e+03,-9.57954e+00,-7.44058e+01,0.00000e+00,0.00000e+00,0.00000e+00
1.37170e+03,-1.03287e+01,-7.16500e+01,0.00000e+00,0.00000e+00,0.00000e+00
1.37170e+03,-1.05872e+01,-6.88942e+01,0.00000e+00,0.00000e+00,0.00000e+00
1.37170e+03,-1.06264e+01,-6.61385e+01,0.00000e+00,0.00000e+00,0.00000e+00
1.37170e+03,-1.05004e+01,-6.33827e+01,0.00000e+00,0.00000e+00,0.00000e+00
1.37170e+03,-1.02708e+01,-6.06269e+01,0.00000e+00,0.00000e+00,0.00000e+00
1.37170e+03,-9.93701e+00,-5.78712e+01,0.00000e+00,0.00000e+00,0.00000e+00
1.37170e+03,-9.53977e+00,-5.51154e+01,0.00000e+00,0.00000e+00,0.00000e+00
1.37170e+03,-9.10569e+00,-5.23596e+01,0.00000e+00,0.00000e+00,0.00000e+00
1.37170e+03,-8.61613e+00,-4.96039e+01,0.00000e+00,0.00000e+00,0.00000e+00
1.37170e+03,-8.09190e+00,-4.68481e+01,0.00000e+00,0.00000e+00,0.00000e+00
1.37170e+03,-7.53389e+00,-4.40923e+01,0.00000e+00,0.00000e+00,0.00000e+00
1.37170e+03,-6.94225e+00,-4.13365e+01,0.00000e+00,0.00000e+00,0.00000e+00
1.37170e+03,-6.32951e+00,-3.85808e+01,0.00000e+00,0.00000e+00,0.00000e+00
1.37170e+03,-5.68976e+00,-3.58250e+01,0.00000e+00,0.00000e+00,0.00000e+00
1.37170e+03,-5.03271e+00,-3.30692e+01,0.00000e+00,0.00000e+00,0.00000e+00
1.37170e+03,-4.36014e+00,-3.03135e+01,0.00000e+00,0.00000e+00,0.00000e+00
1.37170e+03,-3.67372e+00,-2.75577e+01,0.00000e+00,0.00000e+00,0.00000e+00
1.37170e+03,-2.98144e+00,-2.48019e+01,0.00000e+00,0.00000e+00,0.00000e+00
1.37170e+03,-2.28008e+00,-2.20462e+01,0.00000e+00,0.00000e+00,0.00000e+00
1.37170e+03,-1.57720e+00,-1.92904e+01,0.00000e+00,0.00000e+00,0.00000e+00
1.37170e+03,-8.68894e-01,-1.65346e+01,0.00000e+00,0.00000e+00,0.00000e+00
1.37170e+03,-1.60661e-01,-1.37788e+01,0.00000e+00,0.00000e+00,0.00000e+00
1.37170e+03,5.44895e-01,-1.10231e+01,0.00000e+00,0.00000e+00,0.00000e+00
1.37170e+03,1.25045e+00,-8.26731e+00,0.00000e+00,0.00000e+00,0.00000e+00
1.37170e+03,1.93930e+00,-5.51154e+00,0.00000e+00,0.00000e+00,0.00000e+00
1.37170e+03,2.62503e+00,-2.75577e+00,0.00000e+00,0.00000e+00,0.00000e+00
1.44960e+03,3.37597e+01,0.00000e+00,0.00000e+00,0.00000e+00,0.00000e+00
1.44960e+03,3.35897e+01,-2.56538e+00,0.00000e+00,0.00000e+00,0.00000e+00
1.44960e+03,3.33635e+01,-5.13077e+00,0.00000e+00,0.00000e+00,0.00000e+00
1.44960e+03,3.31351e+01,-7.69615e+00,0.00000e+00,0.00000e+00,0.00000e+00
1.44960e+03,3.28571e+01,-1.02615e+01,0.00000e+00,0.00000e+00,0.00000e+00
1.44960e+03,3.25675e+01,-1.28269e+01,0.00000e+00,0.00000e+00,0.00000e+00
1.44960e+03,3.22399e+01,-1.53923e+01,0.00000e+00,0.00000e+00,0.00000e+00
1.44960e+03,3.18939e+01,-1.79577e+01,0.00000e+00,0.00000e+00,0.00000e+00
1.44960e+03,3.15172e+01,-2.05231e+01,0.00000e+00,0.00000e+00,0.00000e+00
1.44960e+03,3.11155e+01,-2.30885e+01,0.00000e+00,0.00000e+00,0.00000e+00
1.44960e+03,3.06860e+01,-2.56538e+01,0.00000e+00,0.00000e+00,0.00000e+00
1.44960e+03,3.02232e+01,-2.82192e+01,0.00000e+00,0.00000e+00,0.00000e+00
1.44960e+03,2.97261e+01,-3.07846e+01,0.00000e+00,0.00000e+00,0.00000e+00
1.44960e+03,2.91805e+01,-3.33500e+01,0.00000e+00,0.00000e+00,0.00000e+00
1.44960e+03,2.85877e+01,-3.59154e+01,0.00000e+00,0.00000e+00,0.00000e+00
1.44960e+03,2.79383e+01,-3.84808e+01,0.00000e+00,0.00000e+00,0.00000e+00
1.44960e+03,2.72125e+01,-4.10462e+01,0.00000e+00,0.00000e+00,0.00000e+00
1.44960e+03,2.64335e+01,-4.36115e+01,0.00000e+00,0.00000e+00,0.00000e+00
1.44960e+03,2.55347e+01,-4.61769e+01,0.00000e+00,0.00000e+00,0.00000e+00
1.44960e+03,2.45863e+01,-4.87423e+01,0.00000e+00,0.00000e+00,0.00000e+00
1.44960e+03,2.34997e+01,-5.13077e+01,0.00000e+00,0.00000e+00,0.00000e+00
1.44960e+03,2.23022e+01,-5.38731e+01,0.00000e+00,0.00000e+00,0.00000e+00
1.44960e+03,2.09919e+01,-5.64385e+01,0.00000e+00,0.00000e+00,0.00000e+00
1.44960e+03,1.94923e+01,-5.90039e+01,0.00000e+00,0.00000e+00,0.00000e+00
1.44960e+03,1.77735e+01,-6.15692e+01,0.00000e+00,0.00000e+00,0.00000e+00
1.44960e+03,1.58069e+01,-6.41346e+01,0.00000e+00,0.00000e+00,0.00000e+00
1.44960e+03,1.34808e+01,-6.67000e+01,0.00000e+00,0.00000e+00,0.00000e+00
1.44960e+03,1.04950e+01,-6.92654e+01,0.00000e+00,0.00000e+00,0.00000e+00
1.44960e+03,6.45692e+00,-7.18308e+01,0.00000e+00,0.00000e+00,0.00000e+00
1.44960e+03,-2.61629e+00,-7.43962e+01,0.00000e+00,0.00000e+00,0.00000e+00
1.44960e+03,-3.27111e+00,-7.44021e+01,0.00000e+00,0.00000e+00,0.00000e+00
1.44960e+03,-9.23696e+00,-7.17449e+01,0.00000e+00,0.00000e+00,0.00000e+00
1.44960e+03,-9.95928e+00,-6.90877e+01,0.00000e+00,0.00000e+00,0.00000e+00
1.44960e+03,-1.02085e+01,-6.64305e+01,0.00000e+00,0.00000e+00,0.00000e+00
1.44960e+03,-1.02464e+01,-6.37732e+01,0.00000e+00,0.00000e+00,0.00000e+00
1.44960e+03,-1.01249e+01,-6.11160e+01,0.00000e+00,0.00000e+00,0.00000e+00
1.44960e+03,-9.90345e+00,-5.84588e+01,0.00000e+00,0.00000e+00,0.00000e+00
1.44960e+03,-9.58164e+00,-5.58016e+01,0.00000e+00,0.00000e+00,0.00000e+00
1.44960e+03,-9.19861e+00,-5.31444e+01,0.00000e+00,0.00000e+00,0.00000e+00
1.44960e+03,-8.78006e+00,-5.04872e+01,0.00000e+00,0.00000e+00,0.00000e+00
1.44960e+03,-8.30801e+00,-4.78299e+01,0.00000e+00,0.00000e+00,0.00000e+00
1.44960e+03,-7.80252e+00,-4.51727e+01,0.00000e+00,0.00000e+00,0.00000e+00
1.44960e+03,-7.26447e+00,-4.25155e+01,0.00000e+00,0.00000e+00,0.00000e+00
1.44960e+03,-6.69398e+00,-3.98583e+01,0.00000e+00,0.00000e+00,0.00000e+00
1.44960e+03,-6.10316e+00,-3.72011e+01,0.00000e+00,0.00000e+00,0.00000e+00
1.44960e+03,-5.48628e+00,-3.45438e+01,0.00000e+00,0.00000e+00,0.00000e+00
1.44960e+03,-4.85273e+00,-3.18866e+01,0.00000e+00,0.00000e+00,0.00000e+00
1.44960e+03,-4.20421e+00,-2.92294e+01,0.00000e+00,0.00000e+00,0.00000e+00
1.44960e+03,-3.54234e+00,-2.65722e+01,0.00000e+00,0.00000e+00,0.00000e+00
1.44960e+03,-2.87482e+00,-2.39150e+01,0.00000e+00,0.00000e+00,0.00000e+00
1.44960e+03,-2.19854e+00,-2.12577e+01,0.00000e+00,0.00000e+00,0.00000e+00
1.44960e+03,-1.52080e+00,-1.86005e+01,0.00000e+00,0.00000e+00,0.00000e+00
1.44960e+03,-8.37821e-01,-1.59433e+01,0.00000e+00,0.00000e+00,0.00000e+00
1.44960e+03,-1.54916e-01,-1.32861e+01,0.00000e+00,0.00000e+00,0.00000e+00
1.44960e+03,5.25408e-01,-1.06289e+01,0.00000e+00,0.00000e+00,0.00000e+00
1.44960e+03,1.20573e+00,-7.97166e+00,0.00000e+00,0.00000e+00,0.00000e+00
1.44960e+03,1.86995e+00,-5.31444e+00,0.00000e+00,0.00000e+00,0.00000e+00
1.44960e+03,2.53116e+00,-2.65722e+00,0.00000e+00,0.00000e+00,0.00000e+00
1.52340e+03,3.25736e+01,0.00000e+00,0.00000e+00,0.00000e+00,0.00000e+00
1.52340e+03,3.24095e+01,-2.47525e+00,0.00000e+00,0.00000e+00,0.00000e+00
1.52340e+03,3.21913e+01,-4.95049e+00,0.00000e+00,0.00000e+00,0.00000e+00
1.52340e+03,3.19709e+01,-7.42574e+00,0.00000e+00,0.00000e+00,0.00000e+00
1.52340e+03,3.17026e+01,-9.90099e+00,0.00000e+00,0.00000e+00,0.00000e+00
1.52340e+03,3.14232e+01,-1.23762e+01,0.00000e+00,0.00000e+00,0.00000e+00
1.52340e+03,3.11072e+01,-1.48515e+01,0.00000e+00,0.00000e+00,0.00000e+00
1.52340e+03,3.07733e+01,-1.73267e+01,0.00000e+00,0.00000e+00,0.00000e+00
1.52340e+03,3.04098e+01,-1.98020e+01,0.00000e+00,0.00000e+00,0.00000e+00
1.52340e+03,3.00222e+01,-2.22772e+01,0.00000e+00,0.00000e+00,0.00000e+00
1.52340e+03,2.96079e+01,-2.47525e+01,0.00000e+00,0.00000e+00,0.00000e+00
1.52340e+03,2.91613e+01,-2.72277e+01,0.00000e+00,0.00000e+00,0.00000e+00
1.52340e+03,2.86816e+01,-2.97030e+01,0.00000e+00,0.00000e+00,0.00000e+00
1.52340e+03,2.81552e+01,-3.21782e+01,0.00000e+00,0.00000e+00,0.00000e+00
1.52340e+03,2.75832e+01,-3.46535e+01,0.00000e+00,0.00000e+00,0.00000e+00
1.52340e+03,2.69567e+01,-3.71287e+01,0.00000e+00,0.00000e+00,0.00000e+00
1.52340e+03,2.62564e+01,-3.96040e+01,0.00000e+00,0.00000e+00,0.00000e+00
1.52340e+03,2.55047e+01,-4.20792e+01,0.00000e+00,0.00000e+00,0.00000e+00
1.52340e+03,2.46375e+01,-4.45544e+01,0.00000e+00,0.00000e+00,0.00000e+00
1.52340e+03,2.37225e+01,-4.70297e+01,0.00000e+00,0.00000e+00,0.00000e+00
1.52340e+03,2.26740e+01,-4.95049e+01,0.00000e+00,0.00000e+00,0.00000e+00
1.52340e+03,2.15185e+01,-5.19802e+01,0.00000e+00,0.00000e+00,0.00000e+00
1.52340e+03,2.02543e+01,-5.44554e+01,0.00000e+00,0.00000e+00,0.00000e+00
1.52340e+03,1.88075e+01,-5.69307e+01,0.00000e+00,0.00000e+00,0.00000e+00
1.52340e+03,1.71490e+01,-5.94059e+01,0.00000e+00,0.00000e+00,0.00000e+00
1.52340e+03,1.52515e+01,-6.18812e+01,0.00000e+00,0.00000e+00,0.00000e+00
1.52340e+03,1.30071e+01,-6.43564e+01,0.00000e+00,0.00000e+00,0.00000e+00
1.52340e+03,1.01263e+01,-6.68317e+01,0.00000e+00,0.00000e+00,0.00000e+00
1.52340e+03,6.23005e+00,-6.93069e+01,0.00000e+00,0.00000e+00,0.00000e+00
1.52340e+03,-2.52437e+00,-7.17822e+01,0.00000e+00,0.00000e+00,0.00000e+00
1.52340e+03,-3.15618e+00,-7.17879e+01,0.00000e+00,0.00000e+00,0.00000e+00
1.52340e+03,-8.91241e+00,-6.92241e+01,0.00000e+00,0.00000e+00,0.00000e+00
1.52340e+03,-9.60935e+00,-6.66602e+01,0.00000e+00,0.00000e+00,0.00000e+00
1.52340e+03,-9.84985e+00,-6.40963e+01,0.00000e+00,0.00000e+00,0.00000e+00
1.52340e+03,-9.88634e+00,-6.15325e+01,0.00000e+00,0.00000e+00,0.00000e+00
1.52340e+03,-9.76914e+00,-5.89686e+01,0.00000e+00,0.00000e+00,0.00000e+00
1.52340e+03,-9.55548e+00,-5.64048e+01,0.00000e+00,0.00000e+00,0.00000e+00
1.52340e+03,-9.24498e+00,-5.38409e+01,0.00000e+00,0.00000e+00,0.00000e+00
1.52340e+03,-8.87540e+00,-5.12771e+01,0.00000e+00,0.00000e+00,0.00000e+00
1.52340e+03,-8.47156e+00,-4.87132e+01,0.00000e+00,0.00000e+00,0.00000e+00
1.52340e+03,-8.01609e+00,-4.61494e+01,0.00000e+00,0.00000e+00,0.00000e+00
1.52340e+03,-7.52837e+00,-4.35855e+01,0.00000e+00,0.00000e+00,0.00000e+00
1.52340e+03,-7.00922e+00,-4.10217e+01,0.00000e+00,0.00000e+00,0.00000e+00
1.52340e+03,-6.45878e+00,-3.84578e+01,0.00000e+00,0.00000e+00,0.00000e+00
1.52340e+03,-5.88872e+00,-3.58940e+01,0.00000e+00,0.00000e+00,0.00000e+00
1.52340e+03,-5.29352e+00,-3.33301e+01,0.00000e+00,0.00000e+00,0.00000e+00
1.52340e+03,-4.68222e+00,-3.07662e+01,0.00000e+00,0.00000e+00,0.00000e+00
1.52340e+03,-4.05649e+00,-2.82024e+01,0.00000e+00,0.00000e+00,0.00000e+00
1.52340e+03,-3.41788e+00,-2.56385e+01,0.00000e+00,0.00000e+00,0.00000e+00
1.52340e+03,-2.77381e+00,-2.30747e+01,0.00000e+00,0.00000e+00,0.00000e+00
1.52340e+03,-2.12129e+00,-2.05108e+01,0.00000e+00,0.00000e+00,0.00000e+00
1.52340e+03,-1.46736e+00,-1.79470e+01,0.00000e+00,0.00000e+00,0.00000e+00
1.52340e+03,-8.08383e-01,-1.53831e+01,0.00000e+00,0.00000e+00,0.00000e+00
1.52340e+03,-1.49473e-01,-1.28193e+01,0.00000e+00,0.00000e+00,0.00000e+00
1.52340e+03,5.06948e-01,-1.02554e+01,0.00000e+00,0.00000e+00,0.00000e+00
1.52340e+03,1.16337e+00,-7.69156e+00,0.00000e+00,0.00000e+00,0.00000e+00
1.52340e+03,1.80424e+00,-5.12771e+00,0.00000e+00,0.00000e+00,0.00000e+00
1.52340e+03,2.44222e+00,-2.56385e+00,0.00000e+00,0.00000e+00,0.00000e+00
1.59310e+03,3.14533e+01,0.00000e+00,0.00000e+00,0.00000e+00,0.00000e+00
1.59310e+03,3.12949e+01,-2.39012e+00,0.00000e+00,0.00000e+00,0.00000e+00
1.59310e+03,3.10841e+01,-4.78023e+00,0.00000e+00,0.00000e+00,0.00000e+00
1.59310e+03,3.08713e+01,-7.17035e+00,0.00000e+00,0.00000e+00,0.00000e+00
1.59310e+03,3.06123e+01,-9.56047e+00,0.00000e+00,0.00000e+00,0.00000e+00
1.59310e+03,3.03425e+01,-1.19506e+01,0.00000e+00,0.00000e+00,0.00000e+00
1.59310e+03,3.00373e+01,-1.43407e+01,0.00000e+00,0.00000e+00,0.00000e+00
1.59310e+03,2.97149e+01,-1.67308e+01,0.00000e+00,0.00000e+00,0.00000e+00
1.59310e+03,2.93640e+01,-1.91209e+01,0.00000e+00,0.00000e+00,0.00000e+00
1.59310e+03,2.89896e+01,-2.15111e+01,0.00000e+00,0.00000e+00,0.00000e+00
1.59310e+03,2.85896e+01,-2.39012e+01,0.00000e+00,0.00000e+00,0.00000e+00
1.59310e+03,2.81583e+01,-2.62913e+01,0.00000e+00,0.00000e+00,0.00000e+00
1.59310e+03,2.76952e+01,-2.86814e+01,0.00000e+00,0.00000e+00,0.00000e+00
1.59310e+03,2.71869e+01,-3.10715e+01,0.00000e+00,0.00000e+00,0.00000e+00
1.59310e+03,2.66345e+01,-3.34616e+01,0.00000e+00,0.00000e+00,0.00000e+00
1.59310e+03,2.60296e+01,-3.58518e+01,0.00000e+00,0.00000e+00,0.00000e+00
1.59310e+03,2.53533e+01,-3.82419e+01,0.00000e+00,0.00000e+00,0.00000e+00
1.59310e+03,2.46276e+01,-4.06320e+01,0.00000e+00,0.00000e+00,0.00000e+00
1.59310e+03,2.37902e+01,-4.30221e+01,0.00000e+00,0.00000e+00,0.00000e+00
1.59310e+03,2.29066e+01,-4.54122e+01,0.00000e+00,0.00000e+00,0.00000e+00
1.59310e+03,2.18941e+01,-4.78023e+01,0.00000e+00,0.00000e+00,0.00000e+00
1.59310e+03,2.07785e+01,-5.01925e+01,0.00000e+00,0.00000e+00,0.00000e+00
1.59310e+03,1.95577e+01,-5.25826e+01,0.00000e+00,0.00000e+00,0.00000e+00
1.59310e+03,1.81606e+01,-5.49727e+01,0.00000e+00,0.00000e+00,0.00000e+00
1.59310e+03,1.65592e+01,-5.73628e+01,0.00000e+00,0.00000e+00,0.00000e+00
1.59310e+03,1.47269e+01,-5.97529e+01,0.00000e+00,0.00000e+00,0.00000e+00
1.59310e+03,1.25597e+01,-6.21430e+01,0.00000e+00,0.00000e+00,0.00000e+00
1.59310e+03,9.77800e+00,-6.45332e+01,0.00000e+00,0.00000e+00,0.00000e+00
1.59310e+03,6.01578e+00,-6.69233e+01,0.00000e+00,0.00000e+00,0.00000e+00
1.59310e+03,-2.43755e+00,-6.93134e+01,0.00000e+00,0.00000e+00,0.00000e+00
1.59310e+03,-3.04763e+00,-6.93189e+01,0.00000e+00,0.00000e+00,0.00000e+00
1.59310e+03,-8.60589e+00,-6.68433e+01,0.00000e+00,0.00000e+00,0.00000e+00
1.59310e+03,-9.27886e+00,-6.43676e+01,0.00000e+00,0.00000e+00,0.00000e+00
1.59310e+03,-9.51109e+00,-6.18919e+01,0.00000e+00,0.00000e+00,0.00000e+00
1.59310e+03,-9.54632e+00,-5.94162e+01,0.00000e+00,0.00000e+00,0.00000e+00
1.59310e+03,-9.43315e+00,-5.69406e+01,0.00000e+00,0.00000e+00,0.00000e+00
1.59310e+03,-9.22684e+00,-5.44649e+01,0.00000e+00,0.00000e+00,0.00000e+00
1.59310e+03,-8.92702e+00,-5.19892e+01,0.00000e+00,0.00000e+00,0.00000e+00
1.59310e+03,-8.57016e+00,-4.95135e+01,0.00000e+00,0.00000e+00,0.00000e+00
1.59310e+03,-8.18020e+00,-4.70379e+01,0.00000e+00,0.00000e+00,0.00000e+00
1.59310e+03,-7.74040e+00,-4.45622e+01,0.00000e+00,0.00000e+00,0.00000e+00
1.59310e+03,-7.26945e+00,-4.20865e+01,0.00000e+00,0.00000e+00,0.00000e+00
1.59310e+03,-6.76816e+00,-3.96108e+01,0.00000e+00,0.00000e+00,0.00000e+00
1.59310e+03,-6.23665e+00,-3.71351e+01,0.00000e+00,0.00000e+00,0.00000e+00
1.59310e+03,-5.68619e+00,-3.46595e+01,0.00000e+00,0.00000e+00,0.00000e+00
1.59310e+03,-5.11146e+00,-3.21838e+01,0.00000e+00,0.00000e+00,0.00000e+00
1.59310e+03,-4.52119e+00,-2.97081e+01,0.00000e+00,0.00000e+00,0.00000e+00
1.59310e+03,-3.91698e+00,-2.72324e+01,0.00000e+00,0.00000e+00,0.00000e+00
1.59310e+03,-3.30033e+00,-2.47568e+01,0.00000e+00,0.00000e+00,0.00000e+00
1.59310e+03,-2.67841e+00,-2.22811e+01,0.00000e+00,0.00000e+00,0.00000e+00
1.59310e+03,-2.04833e+00,-1.98054e+01,0.00000e+00,0.00000e+00,0.00000e+00
1.59310e+03,-1.41689e+00,-1.73297e+01,0.00000e+00,0.00000e+00,0.00000e+00
1.59310e+03,-7.80581e-01,-1.48541e+01,0.00000e+00,0.00000e+00,0.00000e+00
1.59310e+03,-1.44332e-01,-1.23784e+01,0.00000e+00,0.00000e+00,0.00000e+00
1.59310e+03,4.89512e-01,-9.90271e+00,0.00000e+00,0.00000e+00,0.00000e+00
1.59310e+03,1.12336e+00,-7.42703e+00,0.00000e+00,0.00000e+00,0.00000e+00
1.59310e+03,1.74219e+00,-4.95135e+00,0.00000e+00,0.00000e+00,0.00000e+00
1.59310e+03,2.35823e+00,-2.47568e+00,0.00000e+00,0.00000e+00,0.00000e+00
1.65850e+03,3.04021e+01,0.00000e+00,0.00000e+00,0.00000e+00,0.00000e+00
1.65850e+03,3.02490e+01,-2.31024e+00,0.00000e+00,0.00000e+00,0.00000e+00
1.65850e+03,3.00453e+01,-4.62048e+00,0.00000e+00,0.00000e+00,0.00000e+00
1.65850e+03,2.98396e+01,-6.93072e+00,0.00000e+00,0.00000e+00,0.00000e+00
1.65850e+03,2.95892e+01,-9.24096e+00,0.00000e+00,0.00000e+00,0.00000e+00
1.65850e+03,2.93285e+01,-1.15512e+01,0.00000e+00,0.00000e+00,0.00000e+00
1.65850e+03,2.90335e+01,-1.38614e+01,0.00000e+00,0.00000e+00,0.00000e+00
1.65850e+03,2.87218e+01,-1.61717e+01,0.00000e+00,0.00000e+00,0.00000e+00
1.65850e+03,2.83826e+01,-1.84819e+01,0.00000e+00,0.00000e+00,0.00000e+00
1.65850e+03,2.80208e+01,-2.07921e+01,0.00000e+00,0.00000e+00,0.00000e+00
1.65850e+03,2.76341e+01,-2.31024e+01,0.00000e+00,0.00000e+00,0.00000e+00
1.65850e+03,2.72173e+01,-2.54126e+01,0.00000e+00,0.00000e+00,0.00000e+00
1.65850e+03,2.67696e+01,-2.77229e+01,0.00000e+00,0.00000e+00,0.00000e+00
1.65850e+03,2.62783e+01,-3.00331e+01,0.00000e+00,0.00000e+00,0.00000e+00
1.65850e+03,2.57444e+01,-3.23433e+01,0.00000e+00,0.00000e+00,0.00000e+00
1.65850e+03,2.51597e+01,-3.46536e+01,0.00000e+00,0.00000e+00,0.00000e+00
1.65850e+03,2.45060e+01,-3.69638e+01,0.00000e+00,0.00000e+00,0.00000e+00
1.65850e+03,2.38045e+01,-3.92741e+01,0.00000e+00,0.00000e+00,0.00000e+00
1.65850e+03,2.29951e+01,-4.15843e+01,0.00000e+00,0.00000e+00,0.00000e+00
1.65850e+03,2.21410e+01,-4.38945e+01,0.00000e+00,0.00000e+00,0.00000e+00
1.65850e+03,2.11624e+01,-4.62048e+01,0.00000e+00,0.00000e+00,0.00000e+00
1.65850e+03,2.00840e+01,-4.85150e+01,0.00000e+00,0.00000e+00,0.00000e+00
1.65850e+03,1.89041e+01,-5.08253e+01,0.00000e+00,0.00000e+00,0.00000e+00
1.65850e+03,1.75537e+01,-5.31355e+01,0.00000e+00,0.00000e+00,0.00000e+00
1.65850e+03,1.60058e+01,-5.54457e+01,0.00000e+00,0.00000e+00,0.00000e+00
1.65850e+03,1.42348e+01,-5.77560e+01,0.00000e+00,0.00000e+00,0.00000e+00
1.65850e+03,1.21400e+01,-6.00662e+01,0.00000e+00,0.00000e+00,0.00000e+00
1.65850e+03,9.45122e+00,-6.23764e+01,0.00000e+00,0.00000e+00,0.00000e+00
1.65850e+03,5.81473e+00,-6.46867e+01,0.00000e+00,0.00000e+00,0.00000e+00
1.65850e+03,-2.35608e+00,-6.69969e+01,0.00000e+00,0.00000e+00,0.00000e+00
1.65850e+03,-2.94577e+00,-6.70023e+01,0.00000e+00,0.00000e+00,0.00000e+00
1.65850e+03,-8.31828e+00,-6.46093e+01,0.00000e+00,0.00000e+00,0.00000e+00
1.65850e+03,-8.96876e+00,-6.22164e+01,0.00000e+00,0.00000e+00,0.00000e+00
1.65850e+03,-9.19322e+00,-5.98235e+01,0.00000e+00,0.00000e+00,0.00000e+00
1.65850e+03,-9.22728e+00,-5.74305e+01,0.00000e+00,0.00000e+00,0.00000e+00
1.65850e+03,-9.11789e+00,-5.50376e+01,0.00000e+00,0.00000e+00,0.00000e+00
1.65850e+03,-8.91848e+00,-5.26447e+01,0.00000e+00,0.00000e+00,0.00000e+00
1.65850e+03,-8.62868e+00,-5.02517e+01,0.00000e+00,0.00000e+00,0.00000e+00
1.65850e+03,-8.28374e+00,-4.78588e+01,0.00000e+00,0.00000e+00,0.00000e+00
1.65850e+03,-7.90682e+00,-4.54658e+01,0.00000e+00,0.00000e+00,0.00000e+00
1.65850e+03,-7.48171e+00,-4.30729e+01,0.00000e+00,0.00000e+00,0.00000e+00
1.65850e+03,-7.02650e+00,-4.06800e+01,0.00000e+00,0.00000e+00,0.00000e+00
1.65850e+03,-6.54196e+00,-3.82870e+01,0.00000e+00,0.00000e+00,0.00000e+00
1.65850e+03,-6.02822e+00,-3.58941e+01,0.00000e+00,0.00000e+00,0.00000e+00
1.65850e+03,-5.49615e+00,-3.35011e+01,0.00000e+00,0.00000e+00,0.00000e+00
1.65850e+03,-4.94063e+00,-3.11082e+01,0.00000e+00,0.00000e+00,0.00000e+00
1.65850e+03,-4.37009e+00,-2.87153e+01,0.00000e+00,0.00000e+00,0.00000e+00
1.65850e+03,-3.78607e+00,-2.63223e+01,0.00000e+00,0.00000e+00,0.00000e+00
1.65850e+03,-3.19003e+00,-2.39294e+01,0.00000e+00,0.00000e+00,0.00000e+00
1.65850e+03,-2.58890e+00,-2.15364e+01,0.00000e+00,0.00000e+00,0.00000e+00
1.65850e+03,-1.97988e+00,-1.91435e+01,0.00000e+00,0.00000e+00,0.00000e+00
1.65850e+03,-1.36954e+00,-1.67506e+01,0.00000e+00,0.00000e+00,0.00000e+00
1.65850e+03,-7.54494e-01,-1.43576e+01,0.00000e+00,0.00000e+00,0.00000e+00
1.65850e+03,-1.39508e-01,-1.19647e+01,0.00000e+00,0.00000e+00,0.00000e+00
1.65850e+03,4.73153e-01,-9.57176e+00,0.00000e+00,0.00000e+00,0.00000e+00
1.65850e+03,1.08581e+00,-7.17882e+00,0.00000e+00,0.00000e+00,0.00000e+00
1.65850e+03,1.68397e+00,-4.78588e+00,0.00000e+00,0.00000e+00,0.00000e+00
1.65850e+03,2.27942e+00,-2.39294e+00,0.00000e+00,0.00000e+00,0.00000e+00
1.71930e+03,2.94249e+01,0.00000e+00,0.00000e+00,0.00000e+00,0.00000e+00
1.71930e+03,2.92767e+01,-2.23598e+00,0.00000e+00,0.00000e+00,0.00000e+00
1.71930e+03,2.90795e+01,-4.47196e+00,0.00000e+00,0.00000e+00,0.00000e+00
1.71930e+03,2.88804e+01,-6.70794e+00,0.00000e+00,0.00000e+00,0.00000e+00
1.71930e+03,2.86381e+01,-8.94392e+00,0.00000e+00,0.00000e+00,0.00000e+00
1.71930e+03,2.83857e+01,-1.11799e+01,0.00000e+00,0.00000e+00,0.00000e+00
1.71930e+03,2.81002e+01,-1.34159e+01,0.00000e+00,0.00000e+00,0.00000e+00
1.71930e+03,2.77986e+01,-1.56519e+01,0.00000e+00,0.00000e+00,0.00000e+00
1.71930e+03,2.74703e+01,-1.78878e+01,0.00000e+00,0.00000e+00,0.00000e+00
1.71930e+03,2.71201e+01,-2.01238e+01,0.00000e+00,0.00000e+00,0.00000e+00
1.71930e+03,2.67458e+01,-2.23598e+01,0.00000e+00,0.00000e+00,0.00000e+00
1.71930e+03,2.63424e+01,-2.45958e+01,0.00000e+00,0.00000e+00,0.00000e+00
1.71930e+03,2.59091e+01,-2.68317e+01,0.00000e+00,0.00000e+00,0.00000e+00
1.71930e+03,2.54336e+01,-2.90677e+01,0.00000e+00,0.00000e+00,0.00000e+00
1.71930e+03,2.49169e+01,-3.13037e+01,0.00000e+00,0.00000e+00,0.00000e+00
1.71930e+03,2.43509e+01,-3.35397e+01,0.00000e+00,0.00000e+00,0.00000e+00
1.71930e+03,2.37183e+01,-3.57757e+01,0.00000e+00,0.00000e+00,0.00000e+00
1.71930e+03,2.30393e+01,-3.80116e+01,0.00000e+00,0.00000e+00,0.00000e+00
1.71930e+03,2.22560e+01,-4.02476e+01,0.00000e+00,0.00000e+00,0.00000e+00
1.71930e+03,2.14293e+01,-4.24836e+01,0.00000e+00,0.00000e+00,0.00000e+00
1.71930e+03,2.04822e+01,-4.47196e+01,0.00000e+00,0.00000e+00,0.00000e+00
1.71930e+03,1.94385e+01,-4.69556e+01,0.00000e+00,0.00000e+00,0.00000e+00
1.71930e+03,1.82964e+01,-4.91915e+01,0.00000e+00,0.00000e+00,0.00000e+00
1.71930e+03,1.69894e+01,-5.14275e+01,0.00000e+00,0.00000e+00,0.00000e+00
1.71930e+03,1.54913e+01,-5.36635e+01,0.00000e+00,0.00000e+00,0.00000e+00
1.71930e+03,1.37772e+01,-5.58995e+01,0.00000e+00,0.00000e+00,0.00000e+00
1.71930e+03,1.17498e+01,-5.81355e+01,0.00000e+00,0.00000e+00,0.00000e+00
1.71930e+03,9.14742e+00,-6.03714e+01,0.00000e+00,0.00000e+00,0.00000e+00
1.71930e+03,5.62782e+00,-6.26074e+01,0.00000e+00,0.00000e+00,0.00000e+00
1.71930e+03,-2.28035e+00,-6.48434e+01,0.00000e+00,0.00000e+00,0.00000e+00
1.71930e+03,-2.85109e+00,-6.48486e+01,0.00000e+00,0.00000e+00,0.00000e+00
1.71930e+03,-8.05090e+00,-6.25326e+01,0.00000e+00,0.00000e+00,0.00000e+00
1.71930e+03,-8.68047e+00,-6.02165e+01,0.00000e+00,0.00000e+00,0.00000e+00
1.71930e+03,-8.89772e+00,-5.79005e+01,0.00000e+00,0.00000e+00,0.00000e+00
1.71930e+03,-8.93068e+00,-5.55845e+01,0.00000e+00,0.00000e+00,0.00000e+00
1.71930e+03,-8.82481e+00,-5.32685e+01,0.00000e+00,0.00000e+00,0.00000e+00
1.71930e+03,-8.63181e+00,-5.09525e+01,0.00000e+00,0.00000e+00,0.00000e+00
1.71930e+03,-8.35132e+00,-4.86364e+01,0.00000e+00,0.00000e+00,0.00000e+00
1.71930e+03,-8.01747e+00,-4.63204e+01,0.00000e+00,0.00000e+00,0.00000e+00
1.71930e+03,-7.65266e+00,-4.40044e+01,0.00000e+00,0.00000e+00,0.00000e+00
1.71930e+03,-7.24122e+00,-4.16884e+01,0.00000e+00,0.00000e+00,0.00000e+00
1.71930e+03,-6.80064e+00,-3.93724e+01,0.00000e+00,0.00000e+00,0.00000e+00
1.71930e+03,-6.33168e+00,-3.70563e+01,0.00000e+00,0.00000e+00,0.00000e+00
1.71930e+03,-5.83445e+00,-3.47403e+01,0.00000e+00,0.00000e+00,0.00000e+00
1.71930e+03,-5.31949e+00,-3.24243e+01,0.00000e+00,0.00000e+00,0.00000e+00
1.71930e+03,-4.78182e+00,-3.01083e+01,0.00000e+00,0.00000e+00,0.00000e+00
1.71930e+03,-4.22962e+00,-2.77922e+01,0.00000e+00,0.00000e+00,0.00000e+00
1.71930e+03,-3.66437e+00,-2.54762e+01,0.00000e+00,0.00000e+00,0.00000e+00
1.71930e+03,-3.08749e+00,-2.31602e+01,0.00000e+00,0.00000e+00,0.00000e+00
1.71930e+03,-2.50568e+00,-2.08442e+01,0.00000e+00,0.00000e+00,0.00000e+00
1.71930e+03,-1.91624e+00,-1.85282e+01,0.00000e+00,0.00000e+00,0.00000e+00
1.71930e+03,-1.32552e+00,-1.62121e+01,0.00000e+00,0.00000e+00,0.00000e+00
1.71930e+03,-7.30242e-01,-1.38961e+01,0.00000e+00,0.00000e+00,0.00000e+00
1.71930e+03,-1.35024e-01,-1.15801e+01,0.00000e+00,0.00000e+00,0.00000e+00
1.71930e+03,4.57944e-01,-9.26408e+00,0.00000e+00,0.00000e+00,0.00000e+00
1.71930e+03,1.05091e+00,-6.94806e+00,0.00000e+00,0.00000e+00,0.00000e+00
1.71930e+03,1.62984e+00,-4.63204e+00,0.00000e+00,0.00000e+00,0.00000e+00
1.71930e+03,2.20615e+00,-2.31602e+00,0.00000e+00,0.00000e+00,0.00000e+00
1.77540e+03,2.77303e+01,0.00000e+00,0.00000e+00,0.00000e+00,0.00000e+00
1.77540e+03,2.75906e+01,-2.10721e+00,0.00000e+00,0.00000e+00,0.00000e+00
1.77540e+03,2.74048e+01,-4.21442e+00,0.00000e+00,0.00000e+00,0.00000e+00
1.77540e+03,2.72172e+01,-6.32163e+00,0.00000e+00,0.00000e+00,0.00000e+00
1.77540e+03,2.69888e+01,-8.42884e+00,0.00000e+00,0.00000e+00,0.00000e+00
1.77540e+03,2.67510e+01,-1.05361e+01,0.00000e+00,0.00000e+00,0.00000e+00
1.77540e+03,2.64819e+01,-1.26433e+01,0.00000e+00,0.00000e+00,0.00000e+00
1.77540e+03,2.61977e+01,-1.47505e+01,0.00000e+00,0.00000e+00,0.00000e+00
1.77540e+03,2.58883e+01,-1.68577e+01,0.00000e+00,0.00000e+00,0.00000e+00
1.77540e+03,2.55583e+01,-1.89649e+01,0.00000e+00,0.00000e+00,0.00000e+00
1.77540e+03,2.52056e+01,-2.10721e+01,0.00000e+00,0.00000e+00,0.00000e+00
1.77540e+03,2.48254e+01,-2.31793e+01,0.00000e+00,0.00000e+00,0.00000e+00
1.77540e+03,2.44171e+01,-2.52865e+01,0.00000e+00,0.00000e+00,0.00000e+00
1.77540e+03,2.39689e+01,-2.73937e+01,0.00000e+00,0.00000e+00,0.00000e+00
1.77540e+03,2.34819e+01,-2.95009e+01,0.00000e+00,0.00000e+00,0.00000e+00
1.77540e+03,2.29486e+01,-3.16082e+01,0.00000e+00,0.00000e+00,0.00000e+00
1.77540e+03,2.23524e+01,-3.37154e+01,0.00000e+00,0.00000e+00,0.00000e+00
1.77540e+03,2.17125e+01,-3.58226e+01,0.00000e+00,0.00000e+00,0.00000e+00
1.77540e+03,2.09743e+01,-3.79298e+01,0.00000e+00,0.00000e+00,0.00000e+00
1.77540e+03,2.01952e+01,-4.00370e+01,0.00000e+00,0.00000e+00,0.00000e+00
1.77540e+03,1.93026e+01,-4.21442e+01,0.00000e+00,0.00000e+00,0.00000e+00
1.77540e+03,1.83190e+01,-4.42514e+01,0.00000e+00,0.00000e+00,0.00000e+00
1.77540e+03,1.72428e+01,-4.63586e+01,0.00000e+00,0.00000e+00,0.00000e+00
1.77540e+03,1.60110e+01,-4.84658e+01,0.00000e+00,0.00000e+00,0.00000e+00
1.77540e+03,1.45992e+01,-5.05731e+01,0.00000e+00,0.00000e+00,0.00000e+00
1.77540e+03,1.29838e+01,-5.26803e+01,0.00000e+00,0.00000e+00,0.00000e+00
1.77540e+03,1.10731e+01,-5.47875e+01,0.00000e+00,0.00000e+00,0.00000e+00
1.77540e+03,8.62063e+00,-5.68947e+01,0.00000e+00,0.00000e+00,0.00000e+00
1.77540e+03,5.30372e+00,-5.90019e+01,0.00000e+00,0.00000e+00,0.00000e+00
1.77540e+03,-2.14903e+00,-6.11091e+01,0.00000e+00,0.00000e+00,0.00000e+00
1.77540e+03,-2.68689e+00,-6.11140e+01,0.00000e+00,0.00000e+00,0.00000e+00
1.77540e+03,-7.58725e+00,-5.89314e+01,0.00000e+00,0.00000e+00,0.00000e+00
1.77540e+03,-8.18057e+00,-5.67487e+01,0.00000e+00,0.00000e+00,0.00000e+00
1.77540e+03,-8.38530e+00,-5.45661e+01,0.00000e+00,0.00000e+00,0.00000e+00
1.77540e+03,-8.41637e+00,-5.23834e+01,0.00000e+00,0.00000e+00,0.00000e+00
1.77540e+03,-8.31659e+00,-5.02008e+01,0.00000e+00,0.00000e+00,0.00000e+00
1.77540e+03,-8.13471e+00,-4.80181e+01,0.00000e+00,0.00000e+00,0.00000e+00
1.77540e+03,-7.87037e+00,-4.58355e+01,0.00000e+00,0.00000e+00,0.00000e+00
1.77540e+03,-7.55575e+00,-4.36529e+01,0.00000e+00,0.00000e+00,0.00000e+00
1.77540e+03,-7.21195e+00,-4.14702e+01,0.00000e+00,0.00000e+00,0.00000e+00
1.77540e+03,-6.82421e+00,-3.92876e+01,0.00000e+00,0.00000e+00,0.00000e+00
1.77540e+03,-6.40900e+00,-3.71049e+01,0.00000e+00,0.00000e+00,0.00000e+00
1.77540e+03,-5.96704e+00,-3.49223e+01,0.00000e+00,0.00000e+00,0.00000e+00
1.77540e+03,-5.49844e+00,-3.27396e+01,0.00000e+00,0.00000e+00,0.00000e+00
1.77540e+03,-5.01314e+00,-3.05570e+01,0.00000e+00,0.00000e+00,0.00000e+00
1.77540e+03,-4.50644e+00,-2.83744e+01,0.00000e+00,0.00000e+00,0.00000e+00
1.77540e+03,-3.98604e+00,-2.61917e+01,0.00000e+00,0.00000e+00,0.00000e+00
1.77540e+03,-3.45334e+00,-2.40091e+01,0.00000e+00,0.00000e+00,0.00000e+00
1.77540e+03,-2.90969e+00,-2.18264e+01,0.00000e+00,0.00000e+00,0.00000e+00
1.77540e+03,-2.36138e+00,-1.96438e+01,0.00000e+00,0.00000e+00,0.00000e+00
1.77540e+03,-1.80588e+00,-1.74611e+01,0.00000e+00,0.00000e+00,0.00000e+00
1.77540e+03,-1.24918e+00,-1.52785e+01,0.00000e+00,0.00000e+00,0.00000e+00
1.77540e+03,-6.88187e-01,-1.30959e+01,0.00000e+00,0.00000e+00,0.00000e+00
1.77540e+03,-1.27248e-01,-1.09132e+01,0.00000e+00,0.00000e+00,0.00000e+00
1.77540e+03,4.31571e-01,-8.73057e+00,0.00000e+00,0.00000e+00,0.00000e+00
1.77540e+03,9.90390e-01,-6.54793e+00,0.00000e+00,0.00000e+00,0.00000e+00
1.77540e+03,1.53598e+00,-4.36529e+00,0.00000e+00,0.00000e+00,0.00000e+00
1.77540e+03,2.07910e+00,-2.18264e+00,0.00000e+00,0.00000e+00,0.00000e+00
1.82660e+03,2.53092e+01,0.00000e+00,0.00000e+00,0.00000e+00,0.00000e+00
1.82660e+03,2.51817e+01,-1.92323e+00,0.00000e+00,0.00000e+00,0.00000e+00
1.82660e+03,2.50121e+01,-3.84646e+00,0.00000e+00,0.00000e+00,0.00000e+00
1.82660e+03,2.48409e+01,-5.76969e+00,0.00000e+00,0.00000e+00,0.00000e+00
1.82660e+03,2.46324e+01,-7.69292e+00,0.00000e+00,0.00000e+00,0.00000e+00
1.82660e+03,2.44154e+01,-9.61614e+00,0.00000e+00,0.00000e+00,0.00000e+00
1.82660e+03,2.41698e+01,-1.15394e+01,0.00000e+00,0.00000e+00,0.00000e+00
1.82660e+03,2.39103e+01,-1.34626e+01,0.00000e+00,0.00000e+00,0.00000e+00
1.82660e+03,2.36280e+01,-1.53858e+01,0.00000e+00,0.00000e+00,0.00000e+00
1.82660e+03,2.33268e+01,-1.73091e+01,0.00000e+00,0.00000e+00,0.00000e+00
1.82660e+03,2.30049e+01,-1.92323e+01,0.00000e+00,0.00000e+00,0.00000e+00
1.82660e+03,2.26579e+01,-2.11555e+01,0.00000e+00,0.00000e+00,0.00000e+00
1.82660e+03,2.22852e+01,-2.30787e+01,0.00000e+00,0.00000e+00,0.00000e+00
1.82660e+03,2.18762e+01,-2.50020e+01,0.00000e+00,0.00000e+00,0.00000e+00
1.82660e+03,2.14317e+01,-2.69252e+01,0.00000e+00,0.00000e+00,0.00000e+00
1.82660e+03,2.09449e+01,-2.88484e+01,0.00000e+00,0.00000e+00,0.00000e+00
1.82660e+03,2.04008e+01,-3.07717e+01,0.00000e+00,0.00000e+00,0.00000e+00
1.82660e+03,1.98168e+01,-3.26949e+01,0.00000e+00,0.00000e+00,0.00000e+00
1.82660e+03,1.91430e+01,-3.46181e+01,0.00000e+00,0.00000e+00,0.00000e+00
1.82660e+03,1.84320e+01,-3.65413e+01,0.00000e+00,0.00000e+00,0.00000e+00
1.82660e+03,1.76173e+01,-3.84646e+01,0.00000e+00,0.00000e+00,0.00000e+00
1.82660e+03,1.67196e+01,-4.03878e+01,0.00000e+00,0.00000e+00,0.00000e+00
1.82660e+03,1.57373e+01,-4.23110e+01,0.00000e+00,0.00000e+00,0.00000e+00
1.82660e+03,1.46131e+01,-4.42343e+01,0.00000e+00,0.00000e+00,0.00000e+00
1.82660e+03,1.33245e+01,-4.61575e+01,0.00000e+00,0.00000e+00,0.00000e+00
1.82660e+03,1.18502e+01,-4.80807e+01,0.00000e+00,0.00000e+00,0.00000e+00
1.82660e+03,1.01063e+01,-5.00040e+01,0.00000e+00,0.00000e+00,0.00000e+00
1.82660e+03,7.86795e+00,-5.19272e+01,0.00000e+00,0.00000e+00,0.00000e+00
1.82660e+03,4.84065e+00,-5.38504e+01,0.00000e+00,0.00000e+00,0.00000e+00
1.82660e+03,-1.96139e+00,-5.57736e+01,0.00000e+00,0.00000e+00,0.00000e+00
1.82660e+03,-2.45230e+00,-5.57781e+01,0.00000e+00,0.00000e+00,0.00000e+00
1.82660e+03,-6.92480e+00,-5.37860e+01,0.00000e+00,0.00000e+00,0.00000e+00
1.82660e+03,-7.46632e+00,-5.17940e+01,0.00000e+00,0.00000e+00,0.00000e+00
1.82660e+03,-7.65318e+00,-4.98019e+01,0.00000e+00,0.00000e+00,0.00000e+00
1.82660e+03,-7.68153e+00,-4.78098e+01,0.00000e+00,0.00000e+00,0.00000e+00
1.82660e+03,-7.59047e+00,-4.58177e+01,0.00000e+00,0.00000e+00,0.00000e+00
1.82660e+03,-7.42446e+00,-4.38257e+01,0.00000e+00,0.00000e+00,0.00000e+00
1.82660e+03,-7.18321e+00,-4.18336e+01,0.00000e+00,0.00000e+00,0.00000e+00
1.82660e+03,-6.89605e+00,-3.98415e+01,0.00000e+00,0.00000e+00,0.00000e+00
1.82660e+03,-6.58227e+00,-3.78494e+01,0.00000e+00,0.00000e+00,0.00000e+00
1.82660e+03,-6.22838e+00,-3.58574e+01,0.00000e+00,0.00000e+00,0.00000e+00
1.82660e+03,-5.84943e+00,-3.38653e+01,0.00000e+00,0.00000e+00,0.00000e+00
1.82660e+03,-5.44606e+00,-3.18732e+01,0.00000e+00,0.00000e+00,0.00000e+00
1.82660e+03,-5.01837e+00,-2.98811e+01,0.00000e+00,0.00000e+00,0.00000e+00
1.82660e+03,-4.57544e+00,-2.78891e+01,0.00000e+00,0.00000e+00,0.00000e+00
1.82660e+03,-4.11298e+00,-2.58970e+01,0.00000e+00,0.00000e+00,0.00000e+00
1.82660e+03,-3.63801e+00,-2.39049e+01,0.00000e+00,0.00000e+00,0.00000e+00
1.82660e+03,-3.15183e+00,-2.19128e+01,0.00000e+00,0.00000e+00,0.00000e+00
1.82660e+03,-2.65564e+00,-1.99208e+01,0.00000e+00,0.00000e+00,0.00000e+00
1.82660e+03,-2.15521e+00,-1.79287e+01,0.00000e+00,0.00000e+00,0.00000e+00
1.82660e+03,-1.64821e+00,-1.59366e+01,0.00000e+00,0.00000e+00,0.00000e+00
1.82660e+03,-1.14012e+00,-1.39445e+01,0.00000e+00,0.00000e+00,0.00000e+00
1.82660e+03,-6.28101e-01,-1.19525e+01,0.00000e+00,0.00000e+00,0.00000e+00
1.82660e+03,-1.16138e-01,-9.96038e+00,0.00000e+00,0.00000e+00,0.00000e+00
1.82660e+03,3.93890e-01,-7.96830e+00,0.00000e+00,0.00000e+00,0.00000e+00
1.82660e+03,9.03919e-01,-5.97623e+00,0.00000e+00,0.00000e+00,0.00000e+00
1.82660e+03,1.40187e+00,-3.98415e+00,0.00000e+00,0.00000e+00,0.00000e+00
1.82660e+03,1.89757e+00,-1.99208e+00,0.00000e+00,0.00000e+00,0.00000e+00
1.87280e+03,2.31244e+01,0.00000e+00,0.00000e+00,0.00000e+00,0.00000e+00
1.87280e+03,2.30080e+01,-1.75721e+00,0.00000e+00,0.00000e+00,0.00000e+00
1.87280e+03,2.28531e+01,-3.51443e+00,0.00000e+00,0.00000e+00,0.00000e+00
1.87280e+03,2.26966e+01,-5.27164e+00,0.00000e+00,0.00000e+00,0.00000e+00
1.87280e+03,2.25061e+01,-7.02886e+00,0.00000e+00,0.00000e+00,0.00000e+00
1.87280e+03,2.23078e+01,-8.78607e+00,0.00000e+00,0.00000e+00,0.00000e+00
1.87280e+03,2.20834e+01,-1.05433e+01,0.00000e+00,0.00000e+00,0.00000e+00
1.87280e+03,2.18464e+01,-1.23005e+01,0.00000e+00,0.00000e+00,0.00000e+00
1.87280e+03,2.15884e+01,-1.40577e+01,0.00000e+00,0.00000e+00,0.00000e+00
1.87280e+03,2.13132e+01,-1.58149e+01,0.00000e+00,0.00000e+00,0.00000e+00
1.87280e+03,2.10191e+01,-1.75721e+01,0.00000e+00,0.00000e+00,0.00000e+00
1.87280e+03,2.07020e+01,-1.93294e+01,0.00000e+00,0.00000e+00,0.00000e+00
1.87280e+03,2.03615e+01,-2.10866e+01,0.00000e+00,0.00000e+00,0.00000e+00
1.87280e+03,1.99878e+01,-2.28438e+01,0.00000e+00,0.00000e+00,0.00000e+00
1.87280e+03,1.95817e+01,-2.46010e+01,0.00000e+00,0.00000e+00,0.00000e+00
1.87280e+03,1.91369e+01,-2.63582e+01,0.00000e+00,0.00000e+00,0.00000e+00
1.87280e+03,1.86398e+01,-2.81154e+01,0.00000e+00,0.00000e+00,0.00000e+00
1.87280e+03,1.81062e+01,-2.98726e+01,0.00000e+00,0.00000e+00,0.00000e+00
1.87280e+03,1.74905e+01,-3.16299e+01,0.00000e+00,0.00000e+00,0.00000e+00
1.87280e+03,1.68409e+01,-3.33871e+01,0.00000e+00,0.00000e+00,0.00000e+00
1.87280e+03,1.60966e+01,-3.51443e+01,0.00000e+00,0.00000e+00,0.00000e+00
1.87280e+03,1.52763e+01,-3.69015e+01,0.00000e+00,0.00000e+00,0.00000e+00
1.87280e+03,1.43788e+01,-3.86587e+01,0.00000e+00,0.00000e+00,0.00000e+00
1.87280e+03,1.33517e+01,-4.04159e+01,0.00000e+00,0.00000e+00,0.00000e+00
1.87280e+03,1.21743e+01,-4.21731e+01,0.00000e+00,0.00000e+00,0.00000e+00
1.87280e+03,1.08272e+01,-4.39304e+01,0.00000e+00,0.00000e+00,0.00000e+00
1.87280e+03,9.23393e+00,-4.56876e+01,0.00000e+00,0.00000e+00,0.00000e+00
1.87280e+03,7.18879e+00,-4.74448e+01,0.00000e+00,0.00000e+00,0.00000e+00
1.87280e+03,4.42280e+00,-4.92020e+01,0.00000e+00,0.00000e+00,0.00000e+00
1.87280e+03,-1.79208e+00,-5.09592e+01,0.00000e+00,0.00000e+00,0.00000e+00
1.87280e+03,-2.24062e+00,-5.09633e+01,0.00000e+00,0.00000e+00,0.00000e+00
1.87280e+03,-6.32705e+00,-4.91432e+01,0.00000e+00,0.00000e+00,0.00000e+00
1.87280e+03,-6.82182e+00,-4.73231e+01,0.00000e+00,0.00000e+00,0.00000e+00
1.87280e+03,-6.99255e+00,-4.55029e+01,0.00000e+00,0.00000e+00,0.00000e+00
1.87280e+03,-7.01846e+00,-4.36828e+01,0.00000e+00,0.00000e+00,0.00000e+00
1.87280e+03,-6.93525e+00,-4.18627e+01,0.00000e+00,0.00000e+00,0.00000e+00
1.87280e+03,-6.78358e+00,-4.00426e+01,0.00000e+00,0.00000e+00,0.00000e+00
1.87280e+03,-6.56315e+00,-3.82225e+01,0.00000e+00,0.00000e+00,0.00000e+00
1.87280e+03,-6.30078e+00,-3.64024e+01,0.00000e+00,0.00000e+00,0.00000e+00
1.87280e+03,-6.01408e+00,-3.45822e+01,0.00000e+00,0.00000e+00,0.00000e+00
1.87280e+03,-5.69074e+00,-3.27621e+01,0.00000e+00,0.00000e+00,0.00000e+00
1.87280e+03,-5.34450e+00,-3.09420e+01,0.00000e+00,0.00000e+00,0.00000e+00
1.87280e+03,-4.97595e+00,-2.91219e+01,0.00000e+00,0.00000e+00,0.00000e+00
1.87280e+03,-4.58518e+00,-2.73018e+01,0.00000e+00,0.00000e+00,0.00000e+00
1.87280e+03,-4.18049e+00,-2.54816e+01,0.00000e+00,0.00000e+00,0.00000e+00
1.87280e+03,-3.75794e+00,-2.36615e+01,0.00000e+00,0.00000e+00,0.00000e+00
1.87280e+03,-3.32398e+00,-2.18414e+01,0.00000e+00,0.00000e+00,0.00000e+00
1.87280e+03,-2.87976e+00,-2.00213e+01,0.00000e+00,0.00000e+00,0.00000e+00
1.87280e+03,-2.42640e+00,-1.82012e+01,0.00000e+00,0.00000e+00,0.00000e+00
1.87280e+03,-1.96917e+00,-1.63811e+01,0.00000e+00,0.00000e+00,0.00000e+00
1.87280e+03,-1.50594e+00,-1.45609e+01,0.00000e+00,0.00000e+00,0.00000e+00
1.87280e+03,-1.04170e+00,-1.27408e+01,0.00000e+00,0.00000e+00,0.00000e+00
1.87280e+03,-5.73883e-01,-1.09207e+01,0.00000e+00,0.00000e+00,0.00000e+00
1.87280e+03,-1.06113e-01,-9.10059e+00,0.00000e+00,0.00000e+00,0.00000e+00
1.87280e+03,3.59890e-01,-7.28047e+00,0.00000e+00,0.00000e+00,0.00000e+00
1.87280e+03,8.25892e-01,-5.46035e+00,0.00000e+00,0.00000e+00,0.00000e+00
1.87280e+03,1.28086e+00,-3.64024e+00,0.00000e+00,0.00000e+00,0.00000e+00
1.87280e+03,1.73377e+00,-1.82012e+00,0.00000e+00,0.00000e+00,0.00000e+00
1.91380e+03,2.11856e+01,0.00000e+00,0.00000e+00,0.00000e+00,0.00000e+00
1.91380e+03,2.10789e+01,-1.60989e+00,0.00000e+00,0.00000e+00,0.00000e+00
1.91380e+03,2.09370e+01,-3.21977e+00,0.00000e+00,0.00000e+00,0.00000e+00
1.91380e+03,2.07936e+01,-4.82966e+00,0.00000e+00,0.00000e+00,0.00000e+00
1.91380e+03,2.06192e+01,-6.43954e+00,0.00000e+00,0.00000e+00,0.00000e+00
1.91380e+03,2.04375e+01,-8.04943e+00,0.00000e+00,0.00000e+00,0.00000e+00
1.91380e+03,2.02319e+01,-9.65931e+00,0.00000e+00,0.00000e+00,0.00000e+00
1.91380e+03,2.00147e+01,-1.12692e+01,0.00000e+00,0.00000e+00,0.00000e+00
1.91380e+03,1.97784e+01,-1.28791e+01,0.00000e+00,0.00000e+00,0.00000e+00
1.91380e+03,1.95262e+01,-1.44890e+01,0.00000e+00,0.00000e+00,0.00000e+00
1.91380e+03,1.92568e+01,-1.60989e+01,0.00000e+00,0.00000e+00,0.00000e+00
1.91380e+03,1.89663e+01,-1.77087e+01,0.00000e+00,0.00000e+00,0.00000e+00
1.91380e+03,1.86544e+01,-1.93186e+01,0.00000e+00,0.00000e+00,0.00000e+00
1.91380e+03,1.83120e+01,-2.09285e+01,0.00000e+00,0.00000e+00,0.00000e+00
1.91380e+03,1.79399e+01,-2.25384e+01,0.00000e+00,0.00000e+00,0.00000e+00
1.91380e+03,1.75325e+01,-2.41483e+01,0.00000e+00,0.00000e+00,0.00000e+00
1.91380e+03,1.70770e+01,-2.57582e+01,0.00000e+00,0.00000e+00,0.00000e+00
1.91380e+03,1.65881e+01,-2.73680e+01,0.00000e+00,0.00000e+00,0.00000e+00
1.91380e+03,1.60241e+01,-2.89779e+01,0.00000e+00,0.00000e+00,0.00000e+00
1.91380e+03,1.54289e+01,-3.05878e+01,0.00000e+00,0.00000e+00,0.00000e+00
1.91380e+03,1.47470e+01,-3.21977e+01,0.00000e+00,0.00000e+00,0.00000e+00
1.91380e+03,1.39955e+01,-3.38076e+01,0.00000e+00,0.00000e+00,0.00000e+00
1.91380e+03,1.31733e+01,-3.54175e+01,0.00000e+00,0.00000e+00,0.00000e+00
1.91380e+03,1.22322e+01,-3.70274e+01,0.00000e+00,0.00000e+00,0.00000e+00
1.91380e+03,1.11536e+01,-3.86372e+01,0.00000e+00,0.00000e+00,0.00000e+00
1.91380e+03,9.91946e+00,-4.02471e+01,0.00000e+00,0.00000e+00,0.00000e+00
1.91380e+03,8.45973e+00,-4.18570e+01,0.00000e+00,0.00000e+00,0.00000e+00
1.91380e+03,6.58606e+00,-4.34669e+01,0.00000e+00,0.00000e+00,0.00000e+00
1.91380e+03,4.05198e+00,-4.50768e+01,0.00000e+00,0.00000e+00,0.00000e+00
1.91380e+03,-1.64183e+00,-4.66867e+01,0.00000e+00,0.00000e+00,0.00000e+00
1.91380e+03,-2.05276e+00,-4.66904e+01,0.00000e+00,0.00000e+00,0.00000e+00
1.91380e+03,-5.79657e+00,-4.50229e+01,0.00000e+00,0.00000e+00,0.00000e+00
1.91380e+03,-6.24986e+00,-4.33554e+01,0.00000e+00,0.00000e+00,0.00000e+00
1.91380e+03,-6.40628e+00,-4.16879e+01,0.00000e+00,0.00000e+00,0.00000e+00
1.91380e+03,-6.43001e+00,-4.00204e+01,0.00000e+00,0.00000e+00,0.00000e+00
1.91380e+03,-6.35378e+00,-3.83528e+01,0.00000e+00,0.00000e+00,0.00000e+00
1.91380e+03,-6.21483e+00,-3.66853e+01,0.00000e+00,0.00000e+00,0.00000e+00
1.91380e+03,-6.01288e+00,-3.50178e+01,0.00000e+00,0.00000e+00,0.00000e+00
1.91380e+03,-5.77251e+00,-3.33503e+01,0.00000e+00,0.00000e+00,0.00000e+00
1.91380e+03,-5.50985e+00,-3.16828e+01,0.00000e+00,0.00000e+00,0.00000e+00
1.91380e+03,-5.21362e+00,-3.00153e+01,0.00000e+00,0.00000e+00,0.00000e+00
1.91380e+03,-4.89640e+00,-2.83477e+01,0.00000e+00,0.00000e+00,0.00000e+00
1.91380e+03,-4.55876e+00,-2.66802e+01,0.00000e+00,0.00000e+00,0.00000e+00
1.91380e+03,-4.20075e+00,-2.50127e+01,0.00000e+00,0.00000e+00,0.00000e+00
1.91380e+03,-3.82998e+00,-2.33452e+01,0.00000e+00,0.00000e+00,0.00000e+00
1.91380e+03,-3.44287e+00,-2.16777e+01,0.00000e+00,0.00000e+00,0.00000e+00
1.91380e+03,-3.04529e+00,-2.00102e+01,0.00000e+00,0.00000e+00,0.00000e+00
1.91380e+03,-2.63832e+00,-1.83427e+01,0.00000e+00,0.00000e+00,0.00000e+00
1.91380e+03,-2.22297e+00,-1.66751e+01,0.00000e+00,0.00000e+00,0.00000e+00
1.91380e+03,-1.80407e+00,-1.50076e+01,0.00000e+00,0.00000e+00,0.00000e+00
1.91380e+03,-1.37967e+00,-1.33401e+01,0.00000e+00,0.00000e+00,0.00000e+00
1.91380e+03,-9.54362e-01,-1.16726e+01,0.00000e+00,0.00000e+00,0.00000e+00
1.91380e+03,-5.25768e-01,-1.00051e+01,0.00000e+00,0.00000e+00,0.00000e+00
1.91380e+03,-9.72161e-02,-8.33757e+00,0.00000e+00,0.00000e+00,0.00000e+00
1.91380e+03,3.29716e-01,-6.67006e+00,0.00000e+00,0.00000e+00,0.00000e+00
1.91380e+03,7.56647e-01,-5.00254e+00,0.00000e+00,0.00000e+00,0.00000e+00
1.91380e+03,1.17347e+00,-3.33503e+00,0.00000e+00,0.00000e+00,0.00000e+00
1.91380e+03,1.58841e+00,-1.66751e+00,0.00000e+00,0.00000e+00,0.00000e+00
1.94970e+03,1.94880e+01,0.00000e+00,0.00000e+00,0.00000e+00,0.00000e+00
1.94970e+03,1.93899e+01,-1.48088e+00,0.00000e+00,0.00000e+00,0.00000e+00
1.94970e+03,1.92593e+01,-2.96177e+00,0.00000e+00,0.00000e+00,0.00000e+00
1.94970e+03,1.91274e+01,-4.44265e+00,0.00000e+00,0.00000e+00,0.00000e+00
1.94970e+03,1.89669e+01,-5.92353e+00,0.00000e+00,0.00000e+00,0.00000e+00
1.94970e+03,1.87998e+01,-7.40441e+00,0.00000e+00,0.00000e+00,0.00000e+00
1.94970e+03,1.86107e+01,-8.88530e+00,0.00000e+00,0.00000e+00,0.00000e+00
1.94970e+03,1.84109e+01,-1.03662e+01,0.00000e+00,0.00000e+00,0.00000e+00
1.94970e+03,1.81935e+01,-1.18471e+01,0.00000e+00,0.00000e+00,0.00000e+00
1.94970e+03,1.79616e+01,-1.33279e+01,0.00000e+00,0.00000e+00,0.00000e+00
1.94970e+03,1.77137e+01,-1.48088e+01,0.00000e+00,0.00000e+00,0.00000e+00
1.94970e+03,1.74465e+01,-1.62897e+01,0.00000e+00,0.00000e+00,0.00000e+00
1.94970e+03,1.71596e+01,-1.77706e+01,0.00000e+00,0.00000e+00,0.00000e+00
1.94970e+03,1.68446e+01,-1.92515e+01,0.00000e+00,0.00000e+00,0.00000e+00
1.94970e+03,1.65024e+01,-2.07324e+01,0.00000e+00,0.00000e+00,0.00000e+00
1.94970e+03,1.61276e+01,-2.22132e+01,0.00000e+00,0.00000e+00,0.00000e+00
1.94970e+03,1.57086e+01,-2.36941e+01,0.00000e+00,0.00000e+00,0.00000e+00
1.94970e+03,1.52589e+01,-2.51750e+01,0.00000e+00,0.00000e+00,0.00000e+00
1.94970e+03,1.47401e+01,-2.66559e+01,0.00000e+00,0.00000e+00,0.00000e+00
1.94970e+03,1.41926e+01,-2.81368e+01,0.00000e+00,0.00000e+00,0.00000e+00
1.94970e+03,1.35653e+01,-2.96177e+01,0.00000e+00,0.00000e+00,0.00000e+00
1.94970e+03,1.28740e+01,-3.10985e+01,0.00000e+00,0.00000e+00,0.00000e+00
1.94970e+03,1.21177e+01,-3.25794e+01,0.00000e+00,0.00000e+00,0.00000e+00
1.94970e+03,1.12521e+01,-3.40603e+01,0.00000e+00,0.00000e+00,0.00000e+00
1.94970e+03,1.02599e+01,-3.55412e+01,0.00000e+00,0.00000e+00,0.00000e+00
1.94970e+03,9.12460e+00,-3.70221e+01,0.00000e+00,0.00000e+00,0.00000e+00
1.94970e+03,7.78184e+00,-3.85029e+01,0.00000e+00,0.00000e+00,0.00000e+00
1.94970e+03,6.05831e+00,-3.99838e+01,0.00000e+00,0.00000e+00,0.00000e+00
1.94970e+03,3.72729e+00,-4.14647e+01,0.00000e+00,0.00000e+00,0.00000e+00
1.94970e+03,-1.51027e+00,-4.29456e+01,0.00000e+00,0.00000e+00,0.00000e+00
1.94970e+03,-1.88827e+00,-4.29490e+01,0.00000e+00,0.00000e+00,0.00000e+00
1.94970e+03,-5.33209e+00,-4.14151e+01,0.00000e+00,0.00000e+00,0.00000e+00
1.94970e+03,-5.74905e+00,-3.98812e+01,0.00000e+00,0.00000e+00,0.00000e+00
1.94970e+03,-5.89293e+00,-3.83473e+01,0.00000e+00,0.00000e+00,0.00000e+00
1.94970e+03,-5.91477e+00,-3.68135e+01,0.00000e+00,0.00000e+00,0.00000e+00
1.94970e+03,-5.84465e+00,-3.52796e+01,0.00000e+00,0.00000e+00,0.00000e+00
1.94970e+03,-5.71682e+00,-3.37457e+01,0.00000e+00,0.00000e+00,0.00000e+00
1.94970e+03,-5.53106e+00,-3.22118e+01,0.00000e+00,0.00000e+00,0.00000e+00
1.94970e+03,-5.30995e+00,-3.06779e+01,0.00000e+00,0.00000e+00,0.00000e+00
1.94970e+03,-5.06834e+00,-2.91440e+01,0.00000e+00,0.00000e+00,0.00000e+00
1.94970e+03,-4.79584e+00,-2.76101e+01,0.00000e+00,0.00000e+00,0.00000e+00
1.94970e+03,-4.50405e+00,-2.60762e+01,0.00000e+00,0.00000e+00,0.00000e+00
1.94970e+03,-4.19345e+00,-2.45423e+01,0.00000e+00,0.00000e+00,0.00000e+00
1.94970e+03,-3.86414e+00,-2.30084e+01,0.00000e+00,0.00000e+00,0.00000e+00
1.94970e+03,-3.52308e+00,-2.14745e+01,0.00000e+00,0.00000e+00,0.00000e+00
1.94970e+03,-3.16699e+00,-1.99406e+01,0.00000e+00,0.00000e+00,0.00000e+00
1.94970e+03,-2.80126e+00,-1.84067e+01,0.00000e+00,0.00000e+00,0.00000e+00
1.94970e+03,-2.42690e+00,-1.68728e+01,0.00000e+00,0.00000e+00,0.00000e+00
1.94970e+03,-2.04484e+00,-1.53389e+01,0.00000e+00,0.00000e+00,0.00000e+00
1.94970e+03,-1.65951e+00,-1.38050e+01,0.00000e+00,0.00000e+00,0.00000e+00
1.94970e+03,-1.26912e+00,-1.22712e+01,0.00000e+00,0.00000e+00,0.00000e+00
1.94970e+03,-8.77888e-01,-1.07373e+01,0.00000e+00,0.00000e+00,0.00000e+00
1.94970e+03,-4.83637e-01,-9.20336e+00,0.00000e+00,0.00000e+00,0.00000e+00
1.94970e+03,-8.94260e-02,-7.66947e+00,0.00000e+00,0.00000e+00,0.00000e+00
1.94970e+03,3.03295e-01,-6.13558e+00,0.00000e+00,0.00000e+00,0.00000e+00
1.94970e+03,6.96016e-01,-4.60168e+00,0.00000e+00,0.00000e+00,0.00000e+00
1.94970e+03,1.07944e+00,-3.06779e+00,0.00000e+00,0.00000e+00,0.00000e+00
1.94970e+03,1.46113e+00,-1.53389e+00,0.00000e+00,0.00000e+00,0.00000e+00
1.98010e+03,1.80504e+01,0.00000e+00,0.00000e+00,0.00000e+00,0.00000e+00
1.98010e+03,1.79595e+01,-1.37164e+00,0.00000e+00,0.00000e+00,0.00000e+00
1.98010e+03,1.78386e+01,-2.74329e+00,0.00000e+00,0.00000e+00,0.00000e+00
1.98010e+03,1.77165e+01,-4.11493e+00,0.00000e+00,0.00000e+00,0.00000e+00
1.98010e+03,1.75678e+01,-5.48657e+00,0.00000e+00,0.00000e+00,0.00000e+00
1.98010e+03,1.74130e+01,-6.85822e+00,0.00000e+00,0.00000e+00,0.00000e+00
1.98010e+03,1.72378e+01,-8.22986e+00,0.00000e+00,0.00000e+00,0.00000e+00
1.98010e+03,1.70528e+01,-9.60150e+00,0.00000e+00,0.00000e+00,0.00000e+00
1.98010e+03,1.68514e+01,-1.09731e+01,0.00000e+00,0.00000e+00,0.00000e+00
1.98010e+03,1.66366e+01,-1.23448e+01,0.00000e+00,0.00000e+00,0.00000e+00
1.98010e+03,1.64070e+01,-1.37164e+01,0.00000e+00,0.00000e+00,0.00000e+00
1.98010e+03,1.61595e+01,-1.50881e+01,0.00000e+00,0.00000e+00,0.00000e+00
1.98010e+03,1.58938e+01,-1.64597e+01,0.00000e+00,0.00000e+00,0.00000e+00
1.98010e+03,1.56020e+01,-1.78314e+01,0.00000e+00,0.00000e+00,0.00000e+00
1.98010e+03,1.52851e+01,-1.92030e+01,0.00000e+00,0.00000e+00,0.00000e+00
1.98010e+03,1.49379e+01,-2.05747e+01,0.00000e+00,0.00000e+00,0.00000e+00
1.98010e+03,1.45498e+01,-2.19463e+01,0.00000e+00,0.00000e+00,0.00000e+00
1.98010e+03,1.41333e+01,-2.33179e+01,0.00000e+00,0.00000e+00,0.00000e+00
1.98010e+03,1.36527e+01,-2.46896e+01,0.00000e+00,0.00000e+00,0.00000e+00
1.98010e+03,1.31457e+01,-2.60612e+01,0.00000e+00,0.00000e+00,0.00000e+00
1.98010e+03,1.25646e+01,-2.74329e+01,0.00000e+00,0.00000e+00,0.00000e+00
1.98010e+03,1.19244e+01,-2.88045e+01,0.00000e+00,0.00000e+00,0.00000e+00
1.98010e+03,1.12238e+01,-3.01762e+01,0.00000e+00,0.00000e+00,0.00000e+00
1.98010e+03,1.04220e+01,-3.15478e+01,0.00000e+00,0.00000e+00,0.00000e+00
1.98010e+03,9.50303e+00,-3.29194e+01,0.00000e+00,0.00000e+00,0.00000e+00
1.98010e+03,8.45151e+00,-3.42911e+01,0.00000e+00,0.00000e+00,0.00000e+00
1.98010e+03,7.20780e+00,-3.56627e+01,0.00000e+00,0.00000e+00,0.00000e+00
1.98010e+03,5.61141e+00,-3.70344e+01,0.00000e+00,0.00000e+00,0.00000e+00
1.98010e+03,3.45234e+00,-3.84060e+01,0.00000e+00,0.00000e+00,0.00000e+00
1.98010e+03,-1.39886e+00,-3.97777e+01,0.00000e+00,0.00000e+00,0.00000e+00
1.98010e+03,-1.74898e+00,-3.97808e+01,0.00000e+00,0.00000e+00,0.00000e+00
1.98010e+03,-4.93876e+00,-3.83601e+01,0.00000e+00,0.00000e+00,0.00000e+00
1.98010e+03,-5.32496e+00,-3.69394e+01,0.00000e+00,0.00000e+00,0.00000e+00
1.98010e+03,-5.45823e+00,-3.55186e+01,0.00000e+00,0.00000e+00,0.00000e+00
1.98010e+03,-5.47846e+00,-3.40979e+01,0.00000e+00,0.00000e+00,0.00000e+00
1.98010e+03,-5.41351e+00,-3.26771e+01,0.00000e+00,0.00000e+00,0.00000e+00
1.98010e+03,-5.29511e+00,-3.12564e+01,0.00000e+00,0.00000e+00,0.00000e+00
1.98010e+03,-5.12305e+00,-2.98356e+01,0.00000e+00,0.00000e+00,0.00000e+00
1.98010e+03,-4.91825e+00,-2.84149e+01,0.00000e+00,0.00000e+00,0.00000e+00
1.98010e+03,-4.69446e+00,-2.69941e+01,0.00000e+00,0.00000e+00,0.00000e+00
1.98010e+03,-4.44207e+00,-2.55734e+01,0.00000e+00,0.00000e+00,0.00000e+00
1.98010e+03,-4.17180e+00,-2.41527e+01,0.00000e+00,0.00000e+00,0.00000e+00
1.98010e+03,-3.88412e+00,-2.27319e+01,0.00000e+00,0.00000e+00,0.00000e+00
1.98010e+03,-3.57909e+00,-2.13112e+01,0.00000e+00,0.00000e+00,0.00000e+00
1.98010e+03,-3.26320e+00,-1.98904e+01,0.00000e+00,0.00000e+00,0.00000e+00
1.98010e+03,-2.93337e+00,-1.84697e+01,0.00000e+00,0.00000e+00,0.00000e+00
1.98010e+03,-2.59462e+00,-1.70489e+01,0.00000e+00,0.00000e+00,0.00000e+00
1.98010e+03,-2.24788e+00,-1.56282e+01,0.00000e+00,0.00000e+00,0.00000e+00
1.98010e+03,-1.89400e+00,-1.42074e+01,0.00000e+00,0.00000e+00,0.00000e+00
1.98010e+03,-1.53709e+00,-1.27867e+01,0.00000e+00,0.00000e+00,0.00000e+00
1.98010e+03,-1.17550e+00,-1.13660e+01,0.00000e+00,0.00000e+00,0.00000e+00
1.98010e+03,-8.13129e-01,-9.94521e+00,0.00000e+00,0.00000e+00,0.00000e+00
1.98010e+03,-4.47961e-01,-8.52447e+00,0.00000e+00,0.00000e+00,0.00000e+00
1.98010e+03,-8.28294e-02,-7.10372e+00,0.00000e+00,0.00000e+00,0.00000e+00
1.98010e+03,2.80922e-01,-5.68298e+00,0.00000e+00,0.00000e+00,0.00000e+00
1.98010e+03,6.44673e-01,-4.26223e+00,0.00000e+00,0.00000e+00,0.00000e+00
1.98010e+03,9.99811e-01,-2.84149e+00,0.00000e+00,0.00000e+00,0.00000e+00
1.98010e+03,1.35334e+00,-1.42074e+00,0.00000e+00,0.00000e+00,0.00000e+00
2.00520e+03,1.68635e+01,0.00000e+00,0.00000e+00,0.00000e+00,0.00000e+00
2.00520e+03,1.67786e+01,-1.28145e+00,0.00000e+00,0.00000e+00,0.00000e+00
2.00520e+03,1.66656e+01,-2.56290e+00,0.00000e+00,0.00000e+00,0.00000e+00
2.00520e+03,1.65515e+01,-3.84435e+00,0.00000e+00,0.00000e+00,0.00000e+00
2.00520e+03,1.64126e+01,-5.12580e+00,0.00000e+00,0.00000e+00,0.00000e+00
2.00520e+03,1.62680e+01,-6.40725e+00,0.00000e+00,0.00000e+00,0.00000e+00
2.00520e+03,1.61044e+01,-7.68870e+00,0.00000e+00,0.00000e+00,0.00000e+00
2.00520e+03,1.59315e+01,-8.97015e+00,0.00000e+00,0.00000e+00,0.00000e+00
2.00520e+03,1.57433e+01,-1.02516e+01,0.00000e+00,0.00000e+00,0.00000e+00
2.00520e+03,1.55427e+01,-1.15330e+01,0.00000e+00,0.00000e+00,0.00000e+00
2.00520e+03,1.53282e+01,-1.28145e+01,0.00000e+00,0.00000e+00,0.00000e+00
2.00520e+03,1.50970e+01,-1.40959e+01,0.00000e+00,0.00000e+00,0.00000e+00
2.00520e+03,1.48486e+01,-1.53774e+01,0.00000e+00,0.00000e+00,0.00000e+00
2.00520e+03,1.45761e+01,-1.66588e+01,0.00000e+00,0.00000e+00,0.00000e+00
2.00520e+03,1.42800e+01,-1.79403e+01,0.00000e+00,0.00000e+00,0.00000e+00
2.00520e+03,1.39556e+01,-1.92217e+01,0.00000e+00,0.00000e+00,0.00000e+00
2.00520e+03,1.35931e+01,-2.05032e+01,0.00000e+00,0.00000e+00,0.00000e+00
2.00520e+03,1.32039e+01,-2.17846e+01,0.00000e+00,0.00000e+00,0.00000e+00
2.00520e+03,1.27550e+01,-2.30661e+01,0.00000e+00,0.00000e+00,0.00000e+00
2.00520e+03,1.22812e+01,-2.43475e+01,0.00000e+00,0.00000e+00,0.00000e+00
2.00520e+03,1.17384e+01,-2.56290e+01,0.00000e+00,0.00000e+00,0.00000e+00
2.00520e+03,1.11403e+01,-2.69104e+01,0.00000e+00,0.00000e+00,0.00000e+00
2.00520e+03,1.04858e+01,-2.81919e+01,0.00000e+00,0.00000e+00,0.00000e+00
2.00520e+03,9.73672e+00,-2.94733e+01,0.00000e+00,0.00000e+00,0.00000e+00
2.00520e+03,8.87814e+00,-3.07548e+01,0.00000e+00,0.00000e+00,0.00000e+00
2.00520e+03,7.89577e+00,-3.20362e+01,0.00000e+00,0.00000e+00,0.00000e+00
2.00520e+03,6.73385e+00,-3.33177e+01,0.00000e+00,0.00000e+00,0.00000e+00
2.00520e+03,5.24243e+00,-3.45991e+01,0.00000e+00,0.00000e+00,0.00000e+00
2.00520e+03,3.22533e+00,-3.58806e+01,0.00000e+00,0.00000e+00,0.00000e+00
2.00520e+03,-1.30688e+00,-3.71620e+01,0.00000e+00,0.00000e+00,0.00000e+00
2.00520e+03,-1.63397e+00,-3.71650e+01,0.00000e+00,0.00000e+00,0.00000e+00
2.00520e+03,-4.61400e+00,-3.58377e+01,0.00000e+00,0.00000e+00,0.00000e+00
2.00520e+03,-4.97481e+00,-3.45104e+01,0.00000e+00,0.00000e+00,0.00000e+00
2.00520e+03,-5.09932e+00,-3.31830e+01,0.00000e+00,0.00000e+00,0.00000e+00
2.00520e+03,-5.11821e+00,-3.18557e+01,0.00000e+00,0.00000e+00,0.00000e+00
2.00520e+03,-5.05754e+00,-3.05284e+01,0.00000e+00,0.00000e+00,0.00000e+00
2.00520e+03,-4.94693e+00,-2.92011e+01,0.00000e+00,0.00000e+00,0.00000e+00
2.00520e+03,-4.78618e+00,-2.78738e+01,0.00000e+00,0.00000e+00,0.00000e+00
2.00520e+03,-4.59485e+00,-2.65464e+01,0.00000e+00,0.00000e+00,0.00000e+00
2.00520e+03,-4.38577e+00,-2.52191e+01,0.00000e+00,0.00000e+00,0.00000e+00
2.00520e+03,-4.14998e+00,-2.38918e+01,0.00000e+00,0.00000e+00,0.00000e+00
2.00520e+03,-3.89748e+00,-2.25645e+01,0.00000e+00,0.00000e+00,0.00000e+00
2.00520e+03,-3.62871e+00,-2.12371e+01,0.00000e+00,0.00000e+00,0.00000e+00
2.00520e+03,-3.34375e+00,-1.99098e+01,0.00000e+00,0.00000e+00,0.00000e+00
2.00520e+03,-3.04862e+00,-1.85825e+01,0.00000e+00,0.00000e+00,0.00000e+00
2.00520e+03,-2.74048e+00,-1.72552e+01,0.00000e+00,0.00000e+00,0.00000e+00
2.00520e+03,-2.42401e+00,-1.59279e+01,0.00000e+00,0.00000e+00,0.00000e+00
2.00520e+03,-2.10007e+00,-1.46005e+01,0.00000e+00,0.00000e+00,0.00000e+00
2.00520e+03,-1.76946e+00,-1.32732e+01,0.00000e+00,0.00000e+00,0.00000e+00
2.00520e+03,-1.43602e+00,-1.19459e+01,0.00000e+00,0.00000e+00,0.00000e+00
2.00520e+03,-1.09820e+00,-1.06186e+01,0.00000e+00,0.00000e+00,0.00000e+00
2.00520e+03,-7.59661e-01,-9.29125e+00,0.00000e+00,0.00000e+00,0.00000e+00
2.00520e+03,-4.18505e-01,-7.96393e+00,0.00000e+00,0.00000e+00,0.00000e+00
2.00520e+03,-7.73829e-02,-6.63661e+00,0.00000e+00,0.00000e+00,0.00000e+00
2.00520e+03,2.62450e-01,-5.30929e+00,0.00000e+00,0.00000e+00,0.00000e+00
2.00520e+03,6.02282e-01,-3.98196e+00,0.00000e+00,0.00000e+00,0.00000e+00
2.00520e+03,9.34067e-01,-2.65464e+00,0.00000e+00,0.00000e+00,0.00000e+00
2.00520e+03,1.26435e+00,-1.32732e+00,0.00000e+00,0.00000e+00,0.00000e+00
2.02480e+03,1.59367e+01,0.00000e+00,0.00000e+00,0.00000e+00,0.00000e+00
2.02480e+03,1.58564e+01,-1.21102e+00,0.00000e+00,0.00000e+00,0.00000e+00
2.02480e+03,1.57496e+01,-2.42204e+00,0.00000e+00,0.00000e+00,0.00000e+00
2.02480e+03,1.56418e+01,-3.63306e+00,0.00000e+00,0.00000e+00,0.00000e+00
2.02480e+03,1.55106e+01,-4.84408e+00,0.00000e+00,0.00000e+00,0.00000e+00
2.02480e+03,1.53739e+01,-6.05509e+00,0.00000e+00,0.00000e+00,0.00000e+00
2.02480e+03,1.52192e+01,-7.26611e+00,0.00000e+00,0.00000e+00,0.00000e+00
2.02480e+03,1.50559e+01,-8.47713e+00,0.00000e+00,0.00000e+00,0.00000e+00
2.02480e+03,1.48781e+01,-9.68815e+00,0.00000e+00,0.00000e+00,0.00000e+00
2.02480e+03,1.46884e+01,-1.08992e+01,0.00000e+00,0.00000e+00,0.00000e+00
2.02480e+03,1.44857e+01,-1.21102e+01,0.00000e+00,0.00000e+00,0.00000e+00
2.02480e+03,1.42672e+01,-1.33212e+01,0.00000e+00,0.00000e+00,0.00000e+00
2.02480e+03,1.40325e+01,-1.45322e+01,0.00000e+00,0.00000e+00,0.00000e+00
2.02480e+03,1.37750e+01,-1.57432e+01,0.00000e+00,0.00000e+00,0.00000e+00
2.02480e+03,1.34951e+01,-1.69543e+01,0.00000e+00,0.00000e+00,0.00000e+00
2.02480e+03,1.31886e+01,-1.81653e+01,0.00000e+00,0.00000e+00,0.00000e+00
2.02480e+03,1.28460e+01,-1.93763e+01,0.00000e+00,0.00000e+00,0.00000e+00
2.02480e+03,1.24782e+01,-2.05873e+01,0.00000e+00,0.00000e+00,0.00000e+00
2.02480e+03,1.20540e+01,-2.17983e+01,0.00000e+00,0.00000e+00,0.00000e+00
2.02480e+03,1.16063e+01,-2.30094e+01,0.00000e+00,0.00000e+00,0.00000e+00
2.02480e+03,1.10933e+01,-2.42204e+01,0.00000e+00,0.00000e+00,0.00000e+00
2.02480e+03,1.05280e+01,-2.54314e+01,0.00000e+00,0.00000e+00,0.00000e+00
2.02480e+03,9.90946e+00,-2.66424e+01,0.00000e+00,0.00000e+00,0.00000e+00
2.02480e+03,9.20158e+00,-2.78534e+01,0.00000e+00,0.00000e+00,0.00000e+00
2.02480e+03,8.39019e+00,-2.90645e+01,0.00000e+00,0.00000e+00,0.00000e+00
2.02480e+03,7.46181e+00,-3.02755e+01,0.00000e+00,0.00000e+00,0.00000e+00
2.02480e+03,6.36374e+00,-3.14865e+01,0.00000e+00,0.00000e+00,0.00000e+00
2.02480e+03,4.95429e+00,-3.26975e+01,0.00000e+00,0.00000e+00,0.00000e+00
2.02480e+03,3.04806e+00,-3.39085e+01,0.00000e+00,0.00000e+00,0.00000e+00
2.02480e+03,-1.23505e+00,-3.51195e+01,0.00000e+00,0.00000e+00,0.00000e+00
2.02480e+03,-1.54416e+00,-3.51224e+01,0.00000e+00,0.00000e+00,0.00000e+00
2.02480e+03,-4.36041e+00,-3.38680e+01,0.00000e+00,0.00000e+00,0.00000e+00
2.02480e+03,-4.70139e+00,-3.26136e+01,0.00000e+00,0.00000e+00,0.00000e+00
2.02480e+03,-4.81905e+00,-3.13592e+01,0.00000e+00,0.00000e+00,0.00000e+00
2.02480e+03,-4.83691e+00,-3.01049e+01,0.00000e+00,0.00000e+00,0.00000e+00
2.02480e+03,-4.77957e+00,-2.88505e+01,0.00000e+00,0.00000e+00,0.00000e+00
2.02480e+03,-4.67504e+00,-2.75961e+01,0.00000e+00,0.00000e+00,0.00000e+00
2.02480e+03,-4.52312e+00,-2.63418e+01,0.00000e+00,0.00000e+00,0.00000e+00
2.02480e+03,-4.34231e+00,-2.50874e+01,0.00000e+00,0.00000e+00,0.00000e+00
2.02480e+03,-4.14473e+00,-2.38330e+01,0.00000e+00,0.00000e+00,0.00000e+00
2.02480e+03,-3.92189e+00,-2.25787e+01,0.00000e+00,0.00000e+00,0.00000e+00
2.02480e+03,-3.68327e+00,-2.13243e+01,0.00000e+00,0.00000e+00,0.00000e+00
2.02480e+03,-3.42927e+00,-2.00699e+01,0.00000e+00,0.00000e+00,0.00000e+00
2.02480e+03,-3.15997e+00,-1.88155e+01,0.00000e+00,0.00000e+00,0.00000e+00
2.02480e+03,-2.88106e+00,-1.75612e+01,0.00000e+00,0.00000e+00,0.00000e+00
2.02480e+03,-2.58986e+00,-1.63068e+01,0.00000e+00,0.00000e+00,0.00000e+00
2.02480e+03,-2.29078e+00,-1.50524e+01,0.00000e+00,0.00000e+00,0.00000e+00
2.02480e+03,-1.98465e+00,-1.37981e+01,0.00000e+00,0.00000e+00,0.00000e+00
2.02480e+03,-1.67220e+00,-1.25437e+01,0.00000e+00,0.00000e+00,0.00000e+00
2.02480e+03,-1.35709e+00,-1.12893e+01,0.00000e+00,0.00000e+00,0.00000e+00
2.02480e+03,-1.03784e+00,-1.00350e+01,0.00000e+00,0.00000e+00,0.00000e+00
2.02480e+03,-7.17909e-01,-8.78059e+00,0.00000e+00,0.00000e+00,0.00000e+00
2.02480e+03,-3.95503e-01,-7.52622e+00,0.00000e+00,0.00000e+00,0.00000e+00
2.02480e+03,-7.31298e-02,-6.27185e+00,0.00000e+00,0.00000e+00,0.00000e+00
2.02480e+03,2.48025e-01,-5.01748e+00,0.00000e+00,0.00000e+00,0.00000e+00
2.02480e+03,5.69180e-01,-3.76311e+00,0.00000e+00,0.00000e+00,0.00000e+00
2.02480e+03,8.82730e-01,-2.50874e+00,0.00000e+00,0.00000e+00,0.00000e+00
2.02480e+03,1.19486e+00,-1.25437e+00,0.00000e+00,0.00000e+00,0.00000e+00
2.03880e+03,1.52746e+01,0.00000e+00,0.00000e+00,0.00000e+00,0.00000e+00
2.03880e+03,1.51977e+01,-1.16071e+00,0.00000e+00,0.00000e+00,0.00000e+00
2.03880e+03,1.50954e+01,-2.32142e+00,0.00000e+00,0.00000e+00,0.00000e+00
2.03880e+03,1.49920e+01,-3.48213e+00,0.00000e+00,0.00000e+00,0.00000e+00
2.03880e+03,1.48662e+01,-4.64285e+00,0.00000e+00,0.00000e+00,0.00000e+00
2.03880e+03,1.47352e+01,-5.80356e+00,0.00000e+00,0.00000e+00,0.00000e+00
2.03880e+03,1.45870e+01,-6.96427e+00,0.00000e+00,0.00000e+00,0.00000e+00
2.03880e+03,1.44304e+01,-8.12498e+00,0.00000e+00,0.00000e+00,0.00000e+00
2.03880e+03,1.42600e+01,-9.28569e+00,0.00000e+00,0.00000e+00,0.00000e+00
2.03880e+03,1.40782e+01,-1.04464e+01,0.00000e+00,0.00000e+00,0.00000e+00
2.03880e+03,1.38839e+01,-1.16071e+01,0.00000e+00,0.00000e+00,0.00000e+00
2.03880e+03,1.36745e+01,-1.27678e+01,0.00000e+00,0.00000e+00,0.00000e+00
2.03880e+03,1.34496e+01,-1.39285e+01,0.00000e+00,0.00000e+00,0.00000e+00
2.03880e+03,1.32028e+01,-1.50892e+01,0.00000e+00,0.00000e+00,0.00000e+00
2.03880e+03,1.29345e+01,-1.62500e+01,0.00000e+00,0.00000e+00,0.00000e+00
2.03880e+03,1.26407e+01,-1.74107e+01,0.00000e+00,0.00000e+00,0.00000e+00
2.03880e+03,1.23123e+01,-1.85714e+01,0.00000e+00,0.00000e+00,0.00000e+00
2.03880e+03,1.19599e+01,-1.97321e+01,0.00000e+00,0.00000e+00,0.00000e+00
2.03880e+03,1.15532e+01,-2.08928e+01,0.00000e+00,0.00000e+00,0.00000e+00
2.03880e+03,1.11241e+01,-2.20535e+01,0.00000e+00,0.00000e+00,0.00000e+00
2.03880e+03,1.06324e+01,-2.32142e+01,0.00000e+00,0.00000e+00,0.00000e+00
2.03880e+03,1.00906e+01,-2.43749e+01,0.00000e+00,0.00000e+00,0.00000e+00
2.03880e+03,9.49781e+00,-2.55357e+01,0.00000e+00,0.00000e+00,0.00000e+00
2.03880e+03,8.81933e+00,-2.66964e+01,0.00000e+00,0.00000e+00,0.00000e+00
2.03880e+03,8.04165e+00,-2.78571e+01,0.00000e+00,0.00000e+00,0.00000e+00
2.03880e+03,7.15183e+00,-2.90178e+01,0.00000e+00,0.00000e+00,0.00000e+00
2.03880e+03,6.09938e+00,-3.01785e+01,0.00000e+00,0.00000e+00,0.00000e+00
2.03880e+03,4.74849e+00,-3.13392e+01,0.00000e+00,0.00000e+00,0.00000e+00
2.03880e+03,2.92144e+00,-3.24999e+01,0.00000e+00,0.00000e+00,0.00000e+00
2.03880e+03,-1.18374e+00,-3.36606e+01,0.00000e+00,0.00000e+00,0.00000e+00
2.03880e+03,-1.48002e+00,-3.36633e+01,0.00000e+00,0.00000e+00,0.00000e+00
2.03880e+03,-4.17927e+00,-3.24611e+01,0.00000e+00,0.00000e+00,0.00000e+00
2.03880e+03,-4.50609e+00,-3.12588e+01,0.00000e+00,0.00000e+00,0.00000e+00
2.03880e+03,-4.61886e+00,-3.00565e+01,0.00000e+00,0.00000e+00,0.00000e+00
2.03880e+03,-4.63598e+00,-2.88543e+01,0.00000e+00,0.00000e+00,0.00000e+00
2.03880e+03,-4.58102e+00,-2.76520e+01,0.00000e+00,0.00000e+00,0.00000e+00
2.03880e+03,-4.48083e+00,-2.64498e+01,0.00000e+00,0.00000e+00,0.00000e+00
2.03880e+03,-4.33523e+00,-2.52475e+01,0.00000e+00,0.00000e+00,0.00000e+00
2.03880e+03,-4.16192e+00,-2.40452e+01,0.00000e+00,0.00000e+00,0.00000e+00
2.03880e+03,-3.97255e+00,-2.28430e+01,0.00000e+00,0.00000e+00,0.00000e+00
2.03880e+03,-3.75897e+00,-2.16407e+01,0.00000e+00,0.00000e+00,0.00000e+00
2.03880e+03,-3.53026e+00,-2.04384e+01,0.00000e+00,0.00000e+00,0.00000e+00
2.03880e+03,-3.28682e+00,-1.92362e+01,0.00000e+00,0.00000e+00,0.00000e+00
2.03880e+03,-3.02870e+00,-1.80339e+01,0.00000e+00,0.00000e+00,0.00000e+00
2.03880e+03,-2.76138e+00,-1.68317e+01,0.00000e+00,0.00000e+00,0.00000e+00
2.03880e+03,-2.48228e+00,-1.56294e+01,0.00000e+00,0.00000e+00,0.00000e+00
2.03880e+03,-2.19562e+00,-1.44271e+01,0.00000e+00,0.00000e+00,0.00000e+00
2.03880e+03,-1.90220e+00,-1.32249e+01,0.00000e+00,0.00000e+00,0.00000e+00
2.03880e+03,-1.60274e+00,-1.20226e+01,0.00000e+00,0.00000e+00,0.00000e+00
2.03880e+03,-1.30072e+00,-1.08204e+01,0.00000e+00,0.00000e+00,0.00000e+00
2.03880e+03,-9.94731e-01,-9.61809e+00,0.00000e+00,0.00000e+00,0.00000e+00
2.03880e+03,-6.88086e-01,-8.41583e+00,0.00000e+00,0.00000e+00,0.00000e+00
2.03880e+03,-3.79073e-01,-7.21357e+00,0.00000e+00,0.00000e+00,0.00000e+00
2.03880e+03,-7.00919e-02,-6.01131e+00,0.00000e+00,0.00000e+00,0.00000e+00
2.03880e+03,2.37722e-01,-4.80905e+00,0.00000e+00,0.00000e+00,0.00000e+00
2.03880e+03,5.45535e-01,-3.60678e+00,0.00000e+00,0.00000e+00,0.00000e+00
2.03880e+03,8.46060e-01,-2.40452e+00,0.00000e+00,0.00000e+00,0.00000e+00
2.03880e+03,1.14523e+00,-1.20226e+00,0.00000e+00,0.00000e+00,0.00000e+00
2.04720e+03,1.48774e+01,0.00000e+00,0.00000e+00,0.00000e+00,0.00000e+00
2.04720e+03,1.48025e+01,-1.13053e+00,0.00000e+00,0.00000e+00,0.00000e+00
2.04720e+03,1.47028e+01,-2.26105e+00,0.00000e+00,0.00000e+00,0.00000e+00
2.04720e+03,1.46021e+01,-3.39158e+00,0.00000e+00,0.00000e+00,0.00000e+00
2.04720e+03,1.44796e+01,-4.52211e+00,0.00000e+00,0.00000e+00,0.00000e+00
2.04720e+03,1.43520e+01,-5.65264e+00,0.00000e+00,0.00000e+00,0.00000e+00
2.04720e+03,1.42077e+01,-6.78316e+00,0.00000e+00,0.00000e+00,0.00000e+00
2.04720e+03,1.40552e+01,-7.91369e+00,0.00000e+00,0.00000e+00,0.00000e+00
2.04720e+03,1.38892e+01,-9.04422e+00,0.00000e+00,0.00000e+00,0.00000e+00
2.04720e+03,1.37121e+01,-1.01747e+01,0.00000e+00,0.00000e+00,0.00000e+00
2.04720e+03,1.35229e+01,-1.13053e+01,0.00000e+00,0.00000e+00,0.00000e+00
2.04720e+03,1.33189e+01,-1.24358e+01,0.00000e+00,0.00000e+00,0.00000e+00
2.04720e+03,1.30998e+01,-1.35663e+01,0.00000e+00,0.00000e+00,0.00000e+00
2.04720e+03,1.28594e+01,-1.46969e+01,0.00000e+00,0.00000e+00,0.00000e+00
2.04720e+03,1.25982e+01,-1.58274e+01,0.00000e+00,0.00000e+00,0.00000e+00
2.04720e+03,1.23120e+01,-1.69579e+01,0.00000e+00,0.00000e+00,0.00000e+00
2.04720e+03,1.19922e+01,-1.80884e+01,0.00000e+00,0.00000e+00,0.00000e+00
2.04720e+03,1.16489e+01,-1.92190e+01,0.00000e+00,0.00000e+00,0.00000e+00
2.04720e+03,1.12528e+01,-2.03495e+01,0.00000e+00,0.00000e+00,0.00000e+00
2.04720e+03,1.08348e+01,-2.14800e+01,0.00000e+00,0.00000e+00,0.00000e+00
2.04720e+03,1.03559e+01,-2.26105e+01,0.00000e+00,0.00000e+00,0.00000e+00
2.04720e+03,9.82823e+00,-2.37411e+01,0.00000e+00,0.00000e+00,0.00000e+00
2.04720e+03,9.25081e+00,-2.48716e+01,0.00000e+00,0.00000e+00,0.00000e+00
2.04720e+03,8.58998e+00,-2.60021e+01,0.00000e+00,0.00000e+00,0.00000e+00
2.04720e+03,7.83252e+00,-2.71326e+01,0.00000e+00,0.00000e+00,0.00000e+00
2.04720e+03,6.96585e+00,-2.82632e+01,0.00000e+00,0.00000e+00,0.00000e+00
2.04720e+03,5.94077e+00,-2.93937e+01,0.00000e+00,0.00000e+00,0.00000e+00
2.04720e+03,4.62500e+00,-3.05242e+01,0.00000e+00,0.00000e+00,0.00000e+00
2.04720e+03,2.84547e+00,-3.16548e+01,0.00000e+00,0.00000e+00,0.00000e+00
2.04720e+03,-1.15296e+00,-3.27853e+01,0.00000e+00,0.00000e+00,0.00000e+00
2.04720e+03,-1.44153e+00,-3.27879e+01,0.00000e+00,0.00000e+00,0.00000e+00
2.04720e+03,-4.07059e+00,-3.16169e+01,0.00000e+00,0.00000e+00,0.00000e+00
2.04720e+03,-4.38891e+00,-3.04459e+01,0.00000e+00,0.00000e+00,0.00000e+00
2.04720e+03,-4.49875e+00,-2.92749e+01,0.00000e+00,0.00000e+00,0.00000e+00
2.04720e+03,-4.51542e+00,-2.81039e+01,0.00000e+00,0.00000e+00,0.00000e+00
2.04720e+03,-4.46189e+00,-2.69329e+01,0.00000e+00,0.00000e+00,0.00000e+00
2.04720e+03,-4.36430e+00,-2.57619e+01,0.00000e+00,0.00000e+00,0.00000e+00
2.04720e+03,-4.22249e+00,-2.45909e+01,0.00000e+00,0.00000e+00,0.00000e+00
2.04720e+03,-4.05369e+00,-2.34199e+01,0.00000e+00,0.00000e+00,0.00000e+00
2.04720e+03,-3.86924e+00,-2.22489e+01,0.00000e+00,0.00000e+00,0.00000e+00
2.04720e+03,-3.66121e+00,-2.10779e+01,0.00000e+00,0.00000e+00,0.00000e+00
2.04720e+03,-3.43845e+00,-1.99069e+01,0.00000e+00,0.00000e+00,0.00000e+00
2.04720e+03,-3.20134e+00,-1.87359e+01,0.00000e+00,0.00000e+00,0.00000e+00
2.04720e+03,-2.94994e+00,-1.75649e+01,0.00000e+00,0.00000e+00,0.00000e+00
2.04720e+03,-2.68957e+00,-1.63940e+01,0.00000e+00,0.00000e+00,0.00000e+00
2.04720e+03,-2.41772e+00,-1.52230e+01,0.00000e+00,0.00000e+00,0.00000e+00
2.04720e+03,-2.13852e+00,-1.40520e+01,0.00000e+00,0.00000e+00,0.00000e+00
2.04720e+03,-1.85273e+00,-1.28810e+01,0.00000e+00,0.00000e+00,0.00000e+00
2.04720e+03,-1.56106e+00,-1.17100e+01,0.00000e+00,0.00000e+00,0.00000e+00
2.04720e+03,-1.26689e+00,-1.05390e+01,0.00000e+00,0.00000e+00,0.00000e+00
2.04720e+03,-9.68863e-01,-9.36797e+00,0.00000e+00,0.00000e+00,0.00000e+00
2.04720e+03,-6.70192e-01,-8.19698e+00,0.00000e+00,0.00000e+00,0.00000e+00
2.04720e+03,-3.69215e-01,-7.02598e+00,0.00000e+00,0.00000e+00,0.00000e+00
2.04720e+03,-6.82691e-02,-5.85498e+00,0.00000e+00,0.00000e+00,0.00000e+00
2.04720e+03,2.31540e-01,-4.68399e+00,0.00000e+00,0.00000e+00,0.00000e+00
2.04720e+03,5.31348e-01,-3.51299e+00,0.00000e+00,0.00000e+00,0.00000e+00
2.04720e+03,8.24058e-01,-2.34199e+00,0.00000e+00,0.00000e+00,0.00000e+00
2.04720e+03,1.11544e+00,-1.17100e+00,0.00000e+00,0.00000e+00,0.00000e+00
2.05000e+03,1.47450e+01,0.00000e+00,0.00000e+00,0.00000e+00,0.00000e+00
2.05000e+03,1.46708e+01,-1.12047e+00,0.00000e+00,0.00000e+00,0.00000e+00
2.05000e+03,1.45720e+01,-2.24093e+00,0.00000e+00,0.00000e+00,0.00000e+00
2.05000e+03,1.44722e+01,-3.36140e+00,0.00000e+00,0.00000e+00,0.00000e+00
2.05000e+03,1.43508e+01,-4.48186e+00,0.00000e+00,0.00000e+00,0.00000e+00
2.05000e+03,1.42243e+01,-5.60233e+00,0.00000e+00,0.00000e+00,0.00000e+00
2.05000e+03,1.40812e+01,-6.72279e+00,0.00000e+00,0.00000e+00,0.00000e+00
2.05000e+03,1.39301e+01,-7.84326e+00,0.00000e+00,0.00000e+00,0.00000e+00
2.05000e+03,1.37656e+01,-8.96372e+00,0.00000e+00,0.00000e+00,0.00000e+00
2.05000e+03,1.35901e+01,-1.00842e+01,0.00000e+00,0.00000e+00,0.00000e+00
2.05000e+03,1.34025e+01,-1.12047e+01,0.00000e+00,0.00000e+00,0.00000e+00
2.05000e+03,1.32004e+01,-1.23251e+01,0.00000e+00,0.00000e+00,0.00000e+00
2.05000e+03,1.29833e+01,-1.34456e+01,0.00000e+00,0.00000e+00,0.00000e+00
2.05000e+03,1.27450e+01,-1.45661e+01,0.00000e+00,0.00000e+00,0.00000e+00
2.05000e+03,1.24860e+01,-1.56865e+01,0.00000e+00,0.00000e+00,0.00000e+00
2.05000e+03,1.22024e+01,-1.68070e+01,0.00000e+00,0.00000e+00,0.00000e+00
2.05000e+03,1.18854e+01,-1.79274e+01,0.00000e+00,0.00000e+00,0.00000e+00
2.05000e+03,1.15452e+01,-1.90479e+01,0.00000e+00,0.00000e+00,0.00000e+00
2.05000e+03,1.11526e+01,-2.01684e+01,0.00000e+00,0.00000e+00,0.00000e+00
2.05000e+03,1.07384e+01,-2.12888e+01,0.00000e+00,0.00000e+00,0.00000e+00
2.05000e+03,1.02638e+01,-2.24093e+01,0.00000e+00,0.00000e+00,0.00000e+00
2.05000e+03,9.74076e+00,-2.35298e+01,0.00000e+00,0.00000e+00,0.00000e+00
2.05000e+03,9.16848e+00,-2.46502e+01,0.00000e+00,0.00000e+00,0.00000e+00
2.05000e+03,8.51353e+00,-2.57707e+01,0.00000e+00,0.00000e+00,0.00000e+00
2.05000e+03,7.76281e+00,-2.68912e+01,0.00000e+00,0.00000e+00,0.00000e+00
2.05000e+03,6.90385e+00,-2.80116e+01,0.00000e+00,0.00000e+00,0.00000e+00
2.05000e+03,5.88790e+00,-2.91321e+01,0.00000e+00,0.00000e+00,0.00000e+00
2.05000e+03,4.58384e+00,-3.02526e+01,0.00000e+00,0.00000e+00,0.00000e+00
2.05000e+03,2.82014e+00,-3.13730e+01,0.00000e+00,0.00000e+00,0.00000e+00
2.05000e+03,-1.14270e+00,-3.24935e+01,0.00000e+00,0.00000e+00,0.00000e+00
2.05000e+03,-1.42870e+00,-3.24961e+01,0.00000e+00,0.00000e+00,0.00000e+00
2.05000e+03,-4.03436e+00,-3.13355e+01,0.00000e+00,0.00000e+00,0.00000e+00
2.05000e+03,-4.34985e+00,-3.01749e+01,0.00000e+00,0.00000e+00,0.00000e+00
2.05000e+03,-4.45871e+00,-2.90144e+01,0.00000e+00,0.00000e+00,0.00000e+00
2.05000e+03,-4.47523e+00,-2.78538e+01,0.00000e+00,0.00000e+00,0.00000e+00
2.05000e+03,-4.42218e+00,-2.66932e+01,0.00000e+00,0.00000e+00,0.00000e+00
2.05000e+03,-4.32546e+00,-2.55327e+01,0.00000e+00,0.00000e+00,0.00000e+00
2.05000e+03,-4.18491e+00,-2.43721e+01,0.00000e+00,0.00000e+00,0.00000e+00
2.05000e+03,-4.01761e+00,-2.32115e+01,0.00000e+00,0.00000e+00,0.00000e+00
2.05000e+03,-3.83480e+00,-2.20509e+01,0.00000e+00,0.00000e+00,0.00000e+00
2.05000e+03,-3.62863e+00,-2.08903e+01,0.00000e+00,0.00000e+00,0.00000e+00
2.05000e+03,-3.40785e+00,-1.97298e+01,0.00000e+00,0.00000e+00,0.00000e+00
2.05000e+03,-3.17285e+00,-1.85692e+01,0.00000e+00,0.00000e+00,0.00000e+00
2.05000e+03,-2.92368e+00,-1.74086e+01,0.00000e+00,0.00000e+00,0.00000e+00
2.05000e+03,-2.66563e+00,-1.62480e+01,0.00000e+00,0.00000e+00,0.00000e+00
2.05000e+03,-2.39621e+00,-1.50875e+01,0.00000e+00,0.00000e+00,0.00000e+00
2.05000e+03,-2.11949e+00,-1.39269e+01,0.00000e+00,0.00000e+00,0.00000e+00
2.05000e+03,-1.83624e+00,-1.27663e+01,0.00000e+00,0.00000e+00,0.00000e+00
2.05000e+03,-1.54717e+00,-1.16057e+01,0.00000e+00,0.00000e+00,0.00000e+00
2.05000e+03,-1.25562e+00,-1.04452e+01,0.00000e+00,0.00000e+00,0.00000e+00
2.05000e+03,-9.60241e-01,-9.28460e+00,0.00000e+00,0.00000e+00,0.00000e+00
2.05000e+03,-6.64227e-01,-8.12402e+00,0.00000e+00,0.00000e+00,0.00000e+00
2.05000e+03,-3.65929e-01,-6.96345e+00,0.00000e+00,0.00000e+00,0.00000e+00
2.05000e+03,-6.76615e-02,-5.80287e+00,0.00000e+00,0.00000e+00,0.00000e+00
2.05000e+03,2.29479e-01,-4.64230e+00,0.00000e+00,0.00000e+00,0.00000e+00
2.05000e+03,5.26620e-01,-3.48173e+00,0.00000e+00,0.00000e+00,0.00000e+00
2.05000e+03,8.16724e-01,-2.32115e+00,0.00000e+00,0.00000e+00,0.00000e+00
2.05000e+03,1.10552e+00,-1.16058e+00,0.00000e+00,0.00000e+00,0.00000e+00
--------------------------------------------------------------------------------------------------------------------------------------------------------------------------------------------------------------------------------------------------------------------------------------------------------------------------------------------------------------------------------

ALMA 
--------------------------------------------------------------------------------------------------------------------------------------------------------------------------------------------------------------------------------------------------------------------------------------------------------------------------------------------------------------------------------
X,Y,Z,Sigma,Tau,Von Mises
0.00000e+00,4.05613e+00,0.00000e+00,9.89633e-02,4.11849e-01,7.20176e-01
0.00000e+00,1.70710e+01,0.00000e+00,3.52944e-02,4.12311e-01,7.15016e-01
0.00000e+00,3.00859e+01,0.00000e+00,-2.83745e-02,4.12311e-01,7.14708e-01
0.00000e+00,4.31008e+01,0.00000e+00,-9.20434e-02,4.11859e-01,7.19274e-01
1.07300e+02,4.01639e+00,0.00000e+00,8.83836e-02,3.88853e-01,6.79288e-01
1.07300e+02,1.69038e+01,0.00000e+00,3.15286e-02,3.89286e-01,6.74999e-01
1.07300e+02,2.97912e+01,0.00000e+00,-2.53264e-02,3.89286e-01,6.74738e-01
1.07300e+02,4.26785e+01,0.00000e+00,-8.21814e-02,3.88862e-01,6.78524e-01
2.14300e+02,3.97676e+00,0.00000e+00,7.83734e-02,3.65737e-01,6.38305e-01
2.14300e+02,1.67370e+01,0.00000e+00,2.79652e-02,3.66141e-01,6.34790e-01
2.14300e+02,2.94972e+01,0.00000e+00,-2.24429e-02,3.66141e-01,6.34571e-01
2.14300e+02,4.22575e+01,0.00000e+00,-7.28511e-02,3.65745e-01,6.37664e-01
3.20700e+02,3.93736e+00,0.00000e+00,6.89724e-02,3.42138e-01,5.96600e-01
3.20700e+02,1.65712e+01,0.00000e+00,2.46184e-02,3.42512e-01,5.93759e-01
3.20700e+02,2.92050e+01,0.00000e+00,-1.97356e-02,3.42512e-01,5.93577e-01
3.20700e+02,4.18388e+01,0.00000e+00,-6.40896e-02,3.42145e-01,5.96069e-01
4.26200e+02,3.89829e+00,0.00000e+00,6.02180e-02,3.18500e-01,5.54934e-01
4.26200e+02,1.64067e+01,0.00000e+00,2.15014e-02,3.18845e-01,5.52674e-01
4.26200e+02,2.89151e+01,0.00000e+00,-1.72152e-02,3.18845e-01,5.52524e-01
4.26200e+02,4.14236e+01,0.00000e+00,-5.59317e-02,3.18507e-01,5.54498e-01
5.30600e+02,3.85963e+00,0.00000e+00,5.21244e-02,2.94928e-01,5.13483e-01
5.30600e+02,1.62440e+01,0.00000e+00,1.86194e-02,2.95245e-01,5.11719e-01
5.30600e+02,2.86284e+01,0.00000e+00,-1.48856e-02,2.95245e-01,5.11597e-01
5.30600e+02,4.10127e+01,0.00000e+00,-4.83906e-02,2.94935e-01,5.13129e-01
6.33500e+02,3.82152e+00,0.00000e+00,4.47118e-02,2.71488e-01,4.72352e-01
6.33500e+02,1.60836e+01,0.00000e+00,1.59794e-02,2.71777e-01,4.71003e-01
6.33500e+02,2.83457e+01,0.00000e+00,-1.27529e-02,2.71777e-01,4.70905e-01
6.33500e+02,4.06078e+01,0.00000e+00,-4.14853e-02,2.71494e-01,4.72068e-01
7.34700e+02,3.78404e+00,0.00000e+00,3.79755e-02,2.48280e-01,4.31707e-01
7.34700e+02,1.59259e+01,0.00000e+00,1.35796e-02,2.48543e-01,4.30703e-01
7.34700e+02,2.80677e+01,0.00000e+00,-1.08164e-02,2.48543e-01,4.30624e-01
7.34700e+02,4.02095e+01,0.00000e+00,-3.52124e-02,2.48285e-01,4.31482e-01
8.33800e+02,3.74734e+00,0.00000e+00,3.19166e-02,2.25455e-01,3.91801e-01
8.33800e+02,1.57714e+01,0.00000e+00,1.14199e-02,2.25692e-01,3.91076e-01
8.33800e+02,2.77955e+01,0.00000e+00,-9.07677e-03,2.25692e-01,3.91015e-01
8.33800e+02,3.98196e+01,0.00000e+00,-2.95734e-02,2.25459e-01,3.91625e-01
9.30700e+02,3.71145e+00,0.00000e+00,2.65112e-02,2.03094e-01,3.52767e-01
9.30700e+02,1.56204e+01,0.00000e+00,9.49199e-03,2.03306e-01,3.52265e-01
9.30700e+02,2.75293e+01,0.00000e+00,-7.52719e-03,2.03306e-01,3.52217e-01
9.30700e+02,3.94382e+01,0.00000e+00,-2.45464e-02,2.03098e-01,3.52632e-01
1.02500e+03,3.67653e+00,0.00000e+00,2.17444e-02,1.81554e-01,3.15211e-01
1.02500e+03,1.54734e+01,0.00000e+00,7.79070e-03,1.81742e-01,3.14883e-01
1.02500e+03,2.72703e+01,0.00000e+00,-6.16299e-03,1.81742e-01,3.14847e-01
1.02500e+03,3.90671e+01,0.00000e+00,-2.01167e-02,1.81557e-01,3.15109e-01
1.11650e+03,3.64264e+00,0.00000e+00,1.75879e-02,1.60508e-01,2.78563e-01
1.11650e+03,1.53308e+01,0.00000e+00,6.30615e-03,1.60674e-01,2.78367e-01
1.11650e+03,2.70189e+01,0.00000e+00,-4.97558e-03,1.60674e-01,2.78340e-01
1.11650e+03,3.87070e+01,0.00000e+00,-1.62573e-02,1.60511e-01,2.78488e-01
1.20500e+03,3.54704e+00,0.00000e+00,2.00852e-02,1.41986e-01,2.46745e-01
1.20500e+03,1.49284e+01,0.00000e+00,7.24486e-03,1.42190e-01,2.46387e-01
1.20500e+03,2.63098e+01,0.00000e+00,-5.59552e-03,1.42190e-01,2.46344e-01
1.20500e+03,3.76912e+01,0.00000e+00,-1.84359e-02,1.41991e-01,2.46626e-01
1.29010e+03,3.41832e+00,0.00000e+00,1.62765e-02,1.27734e-01,2.21839e-01
1.29010e+03,1.43867e+01,0.00000e+00,5.87333e-03,1.27912e-01,2.21628e-01
1.29010e+03,2.53550e+01,0.00000e+00,-4.52981e-03,1.27912e-01,2.21596e-01
1.29010e+03,3.63234e+01,0.00000e+00,-1.49330e-02,1.27738e-01,2.21753e-01
1.37170e+03,3.29489e+00,0.00000e+00,1.29393e-02,1.13601e-01,1.97188e-01
1.37170e+03,1.38672e+01,0.00000e+00,4.67113e-03,1.13754e-01,1.97084e-01
1.37170e+03,2.44395e+01,0.00000e+00,-3.59702e-03,1.13754e-01,1.97061e-01
1.37170e+03,3.50118e+01,0.00000e+00,-1.18652e-02,1.13605e-01,1.97127e-01
1.44960e+03,3.17706e+00,0.00000e+00,1.00611e-02,9.98449e-02,1.73229e-01
1.44960e+03,1.33713e+01,0.00000e+00,3.63370e-03,9.99753e-02,1.73200e-01
1.44960e+03,2.35655e+01,0.00000e+00,-2.79373e-03,9.99753e-02,1.73185e-01
1.44960e+03,3.37597e+01,0.00000e+00,-9.22117e-03,9.98481e-02,1.73188e-01
1.52340e+03,3.06543e+00,0.00000e+00,7.63326e-03,8.62194e-02,1.49531e-01
1.52340e+03,1.29015e+01,0.00000e+00,2.75800e-03,8.63284e-02,1.49551e-01
1.52340e+03,2.27375e+01,0.00000e+00,-2.11726e-03,8.63284e-02,1.49540e-01
1.52340e+03,3.25736e+01,0.00000e+00,-6.99252e-03,8.62219e-02,1.49504e-01
1.59310e+03,2.96000e+00,0.00000e+00,5.63218e-03,7.30017e-02,1.26568e-01
1.59310e+03,1.24578e+01,0.00000e+00,2.03620e-03,7.30911e-02,1.26614e-01
1.59310e+03,2.19555e+01,0.00000e+00,-1.55978e-03,7.30911e-02,1.26607e-01
1.59310e+03,3.14533e+01,0.00000e+00,-5.15576e-03,7.30037e-02,1.26551e-01
1.65850e+03,2.86108e+00,0.00000e+00,4.02636e-03,6.06446e-02,1.05117e-01
1.65850e+03,1.20414e+01,0.00000e+00,1.45693e-03,6.07166e-02,1.05174e-01
1.65850e+03,2.12218e+01,0.00000e+00,-1.11250e-03,6.07166e-02,1.05170e-01
1.65850e+03,3.04021e+01,0.00000e+00,-3.68193e-03,6.06462e-02,1.05107e-01
1.71930e+03,2.76911e+00,0.00000e+00,2.77610e-03,4.90943e-02,8.50791e-02
1.71930e+03,1.16544e+01,0.00000e+00,1.00545e-03,4.91510e-02,8.51379e-02
1.71930e+03,2.05396e+01,0.00000e+00,-7.65209e-04,4.91510e-02,8.51354e-02
1.71930e+03,2.94249e+01,0.00000e+00,-2.53586e-03,4.90955e-02,8.50737e-02
1.77540e+03,2.60964e+00,0.00000e+00,3.31555e-03,6.51384e-02,1.12872e-01
1.77540e+03,1.09832e+01,0.00000e+00,1.21688e-03,6.52149e-02,1.12962e-01
1.77540e+03,1.93567e+01,0.00000e+00,-8.81778e-04,6.52149e-02,1.12959e-01
1.77540e+03,2.77303e+01,0.00000e+00,-2.98044e-03,6.51414e-02,1.12868e-01
1.82660e+03,2.38179e+00,0.00000e+00,2.26135e-03,5.38757e-02,9.33429e-02
1.82660e+03,1.00242e+01,0.00000e+00,8.30460e-04,5.39338e-02,9.34197e-02
1.82660e+03,1.76667e+01,0.00000e+00,-6.00435e-04,5.39338e-02,9.34180e-02
1.82660e+03,2.53092e+01,0.00000e+00,-2.03133e-03,5.38778e-02,9.33411e-02
1.87280e+03,2.17619e+00,0.00000e+00,1.45280e-03,4.32089e-02,7.48541e-02
1.87280e+03,9.15894e+00,0.00000e+00,5.34746e-04,4.32514e-02,7.49156e-02
1.87280e+03,1.61417e+01,0.00000e+00,-3.83305e-04,4.32514e-02,7.49147e-02
1.87280e+03,2.31244e+01,0.00000e+00,-1.30135e-03,4.32103e-02,7.48537e-02
1.91380e+03,1.99374e+00,0.00000e+00,8.65420e-04,3.32439e-02,5.75867e-02
1.91380e+03,8.39104e+00,0.00000e+00,3.19870e-04,3.32738e-02,5.76328e-02
1.91380e+03,1.47883e+01,0.00000e+00,-2.25679e-04,3.32738e-02,5.76324e-02
1.91380e+03,2.11856e+01,0.00000e+00,-7.71229e-04,3.32448e-02,5.75869e-02
1.94970e+03,1.83398e+00,0.00000e+00,4.65095e-04,2.41162e-02,4.17730e-02
1.94970e+03,7.71865e+00,0.00000e+00,1.73036e-04,2.41359e-02,4.18050e-02
1.94970e+03,1.36033e+01,0.00000e+00,-1.19024e-04,2.41359e-02,4.18048e-02
1.94970e+03,1.94880e+01,0.00000e+00,-4.11084e-04,2.41167e-02,4.17734e-02
1.98010e+03,1.69869e+00,0.00000e+00,2.18793e-04,1.62205e-02,2.80955e-02
1.98010e+03,7.14927e+00,0.00000e+00,8.22168e-05,1.62326e-02,2.81158e-02
1.98010e+03,1.25999e+01,0.00000e+00,-5.43592e-05,1.62326e-02,2.81157e-02
1.98010e+03,1.80504e+01,0.00000e+00,-1.90935e-04,1.62208e-02,2.80958e-02
2.00520e+03,1.58699e+00,0.00000e+00,8.44284e-05,9.70193e-03,1.68045e-02
2.00520e+03,6.67917e+00,0.00000e+00,3.22173e-05,9.70857e-03,1.68158e-02
2.00520e+03,1.17713e+01,0.00000e+00,-1.99938e-05,9.70857e-03,1.68157e-02
2.00520e+03,1.68635e+01,0.00000e+00,-7.22049e-05,9.70209e-03,1.68047e-02
2.02480e+03,1.49977e+00,0.00000e+00,2.41805e-05,4.86728e-03,8.43040e-03
2.02480e+03,6.31207e+00,0.00000e+00,9.45781e-06,4.87031e-03,8.43563e-03
2.02480e+03,1.11244e+01,0.00000e+00,-5.26488e-06,4.87031e-03,8.43562e-03
2.02480e+03,1.59367e+01,0.00000e+00,-1.99876e-05,4.86735e-03,8.43051e-03
2.03880e+03,1.43746e+00,0.00000e+00,4.29607e-06,1.79502e-03,3.10906e-03
2.03880e+03,6.04986e+00,0.00000e+00,1.75517e-06,1.79602e-03,3.11079e-03
2.03880e+03,1.06622e+01,0.00000e+00,-7.85730e-07,1.79602e-03,3.11079e-03
2.03880e+03,1.52746e+01,0.00000e+00,-3.32663e-06,1.79504e-03,3.10910e-03
2.04720e+03,1.40008e+00,0.00000e+00,5.44636e-07,3.16119e-04,5.47535e-04
2.04720e+03,5.89253e+00,0.00000e+00,2.38376e-07,3.16264e-04,5.47785e-04
2.04720e+03,1.03850e+01,0.00000e+00,-6.78850e-08,3.16264e-04,5.47785e-04
2.04720e+03,1.48774e+01,0.00000e+00,-3.74146e-07,3.16122e-04,5.47540e-04
2.05000e+03,1.38762e+00,0.00000e+00,0.00000e+00,0.00000e+00,0.00000e+00
2.05000e+03,5.84009e+00,0.00000e+00,0.00000e+00,0.00000e+00,0.00000e+00
2.05000e+03,1.02925e+01,0.00000e+00,0.00000e+00,0.00000e+00,0.00000e+00
2.05000e+03,1.47450e+01,0.00000e+00,0.00000e+00,0.00000e+00,0.00000e+00
MESA INFERIOR 
--------------------------------------------------------------------------------------------------------------------------------------------------------------------------------------------------------------------------------------------------------------------------------------------------------------------------------------------------------------------------------
X,Y,Z,Sigma,Von Mises
0.00000e+00,4.05613e+00,0.00000e+00,0.00000e+00,0.00000e+00
1.07300e+02,4.01639e+00,0.00000e+00,0.00000e+00,0.00000e+00
2.14300e+02,3.97676e+00,0.00000e+00,0.00000e+00,0.00000e+00
3.20700e+02,3.93736e+00,0.00000e+00,0.00000e+00,0.00000e+00
4.26200e+02,3.89829e+00,0.00000e+00,0.00000e+00,0.00000e+00
5.30600e+02,3.85963e+00,0.00000e+00,0.00000e+00,0.00000e+00
6.33500e+02,3.82152e+00,0.00000e+00,0.00000e+00,0.00000e+00
7.34700e+02,3.78404e+00,0.00000e+00,0.00000e+00,0.00000e+00
8.33800e+02,3.74734e+00,0.00000e+00,0.00000e+00,0.00000e+00
9.30700e+02,3.71145e+00,0.00000e+00,0.00000e+00,0.00000e+00
1.02500e+03,3.67653e+00,0.00000e+00,0.00000e+00,0.00000e+00
1.11650e+03,3.64264e+00,0.00000e+00,0.00000e+00,0.00000e+00
1.20500e+03,3.54704e+00,0.00000e+00,0.00000e+00,0.00000e+00
1.29010e+03,3.41832e+00,0.00000e+00,0.00000e+00,0.00000e+00
1.37170e+03,3.29489e+00,0.00000e+00,0.00000e+00,0.00000e+00
1.44960e+03,3.17706e+00,0.00000e+00,0.00000e+00,0.00000e+00
1.52340e+03,3.06543e+00,0.00000e+00,0.00000e+00,0.00000e+00
1.59310e+03,2.96000e+00,0.00000e+00,0.00000e+00,0.00000e+00
1.65850e+03,2.86108e+00,0.00000e+00,0.00000e+00,0.00000e+00
1.71930e+03,2.76911e+00,0.00000e+00,0.00000e+00,0.00000e+00
1.77540e+03,2.60964e+00,0.00000e+00,0.00000e+00,0.00000e+00
1.82660e+03,2.38179e+00,0.00000e+00,0.00000e+00,0.00000e+00
1.87280e+03,2.17619e+00,0.00000e+00,0.00000e+00,0.00000e+00
1.91380e+03,1.99374e+00,0.00000e+00,0.00000e+00,0.00000e+00
1.94970e+03,1.83398e+00,0.00000e+00,0.00000e+00,0.00000e+00
1.98010e+03,1.69869e+00,0.00000e+00,0.00000e+00,0.00000e+00
2.00520e+03,1.58699e+00,0.00000e+00,0.00000e+00,0.00000e+00
2.02480e+03,1.49977e+00,0.00000e+00,0.00000e+00,0.00000e+00
2.03880e+03,1.43746e+00,0.00000e+00,0.00000e+00,0.00000e+00
2.04720e+03,1.40008e+00,0.00000e+00,0.00000e+00,0.00000e+00
2.05000e+03,1.38762e+00,0.00000e+00,0.00000e+00,0.00000e+00
--------------------------------------------------------------------------------------------------------------------------------------------------------------------------------------------------------------------------------------------------------------------------------------------------------------------------------------------------------------------------------

MESA SUPERIOR 
--------------------------------------------------------------------------------------------------------------------------------------------------------------------------------------------------------------------------------------------------------------------------------------------------------------------------------------------------------------------------------
X,Y,Z,Sigma,Von Mises
0.00000e+00,4.31008e+01,0.00000e+00,0.00000e+00,0.00000e+00
1.07300e+02,4.26785e+01,0.00000e+00,0.00000e+00,0.00000e+00
2.14300e+02,4.22575e+01,0.00000e+00,0.00000e+00,0.00000e+00
3.20700e+02,4.18388e+01,0.00000e+00,0.00000e+00,0.00000e+00
4.26200e+02,4.14236e+01,0.00000e+00,0.00000e+00,0.00000e+00
5.30600e+02,4.10127e+01,0.00000e+00,0.00000e+00,0.00000e+00
6.33500e+02,4.06078e+01,0.00000e+00,0.00000e+00,0.00000e+00
7.34700e+02,4.02095e+01,0.00000e+00,0.00000e+00,0.00000e+00
8.33800e+02,3.98196e+01,0.00000e+00,0.00000e+00,0.00000e+00
9.30700e+02,3.94382e+01,0.00000e+00,0.00000e+00,0.00000e+00
1.02500e+03,3.90671e+01,0.00000e+00,0.00000e+00,0.00000e+00
1.11650e+03,3.87070e+01,0.00000e+00,0.00000e+00,0.00000e+00
1.20500e+03,3.76912e+01,0.00000e+00,0.00000e+00,0.00000e+00
1.29010e+03,3.63234e+01,0.00000e+00,0.00000e+00,0.00000e+00
1.37170e+03,3.50118e+01,0.00000e+00,0.00000e+00,0.00000e+00
1.44960e+03,3.37597e+01,0.00000e+00,0.00000e+00,0.00000e+00
1.52340e+03,3.25736e+01,0.00000e+00,0.00000e+00,0.00000e+00
1.59310e+03,3.14533e+01,0.00000e+00,0.00000e+00,0.00000e+00
1.65850e+03,3.04021e+01,0.00000e+00,0.00000e+00,0.00000e+00
1.71930e+03,2.94249e+01,0.00000e+00,0.00000e+00,0.00000e+00
1.77540e+03,2.77303e+01,0.00000e+00,0.00000e+00,0.00000e+00
1.82660e+03,2.53092e+01,0.00000e+00,0.00000e+00,0.00000e+00
1.87280e+03,2.31244e+01,0.00000e+00,0.00000e+00,0.00000e+00
1.91380e+03,2.11856e+01,0.00000e+00,0.00000e+00,0.00000e+00
1.94970e+03,1.94880e+01,0.00000e+00,0.00000e+00,0.00000e+00
1.98010e+03,1.80504e+01,0.00000e+00,0.00000e+00,0.00000e+00
2.00520e+03,1.68635e+01,0.00000e+00,0.00000e+00,0.00000e+00
2.02480e+03,1.59367e+01,0.00000e+00,0.00000e+00,0.00000e+00
2.03880e+03,1.52746e+01,0.00000e+00,0.00000e+00,0.00000e+00
2.04720e+03,1.48774e+01,0.00000e+00,0.00000e+00,0.00000e+00
2.05000e+03,1.47450e+01,0.00000e+00,0.00000e+00,0.00000e+00
--------------------------------------------------------------------------------------------------------------------------------------------------------------------------------------------------------------------------------------------------------------------------------------------------------------------------------------------------------------------------------

