----------------------------------------------
LOG MATLAB Estruturas Copyright Charles 2020
----------------------------------------------

VISÃO GERAL POR SEÇÃO
--------------------------------------------------------------------------------------------------------------------------------------------------------------------------------------------------------------------------------------------------------------------------------------------------------------------------------------------------------------------------------
SEÇÃO,POSIÇÃO .25c,, ESFORÇOS,,,,,INÉRCIAS,,,,CENTROS GEOMÉTRICOS,,,DEFLEXÇOES,,,,,TENSÕES NORMAIS,,,,,,,,TENSÕES CISALHAMENTO,,,TENSÕES DE VON MISES
NUMERO,X,Y,MFz,MFy,MTx,Vz,Vy,EIzz,EIyy,EIzy,GJ,Zcg,Ycg,Zcc,Z,Y,Z´,Y´,Theta,Sigma_Chap+,Sigma_Chap-,Sigma_Lam+,Sigma_Lam-,Sigma_Mesa+,Sigma_Mesa-,Sigma_Alma+,Sigma_Alma-,  Tau_Alma,  Tau_Chap,  Tau_Lam, Von Mises_Alma,  Von Mises_Chap,  Von Mises_Lam
--------------------------------------------------------------------------------------------------------------------------------------------------------------------------------------------------------------------------------------------------------------------------------------------------------------------------------------------------------------------------------
01,0.00000e+00,0.00000e+00,1.40630e+05,5.41106e+04,-1.86132e+04,5.77747e+01,1.52365e+02,2.43720e+09,3.02407e+09,6.88619e+08,4.72952e+07,8.66395e+01,2.17434e+01,7.43235e+01,0.00000e+00,0.00000e+00,0.00000e+00,0.00000e+00,0.00000e+00,2.10961e+00,-3.68288e+00,0.00000e+00,0.00000e+00,1.22847e+02,-9.69608e+01,1.53680e-01,-1.21296e-01,6.23588e-01,9.80165e-01,0.00000e+00,1.08993e+00,3.94908e+00,0.00000e+00
02,1.07300e+02,0.00000e+00,1.24780e+05,4.81009e+04,-1.73038e+04,5.42419e+01,1.43063e+02,2.38487e+09,2.93941e+09,6.69313e+08,4.59269e+07,8.58583e+01,2.15452e+01,7.36225e+01,2.83085e-02,3.08709e-01,5.27652e-04,5.75412e-03,-4.13278e-02,1.89293e+00,-3.32034e+00,0.00000e+00,0.00000e+00,1.10271e+02,-8.70275e+01,1.37947e-01,-1.08870e-01,5.91425e-01,9.28229e-01,0.00000e+00,1.03266e+00,3.58490e+00,0.00000e+00
03,2.14300e+02,0.00000e+00,1.09959e+05,4.24820e+04,-1.60204e+04,5.07849e+01,1.33972e+02,2.33333e+09,2.85653e+09,6.50412e+08,4.45798e+07,8.50782e+01,2.13473e+01,7.29231e+01,1.11033e-01,1.20169e+00,1.01861e-03,1.09372e-02,-8.07109e-02,1.68707e+00,-2.97391e+00,0.00000e+00,0.00000e+00,9.83182e+01,-7.75812e+01,1.22994e-01,-9.70528e-02,5.59156e-01,8.75724e-01,0.00000e+00,9.75355e-01,3.23633e+00,0.00000e+00
04,3.20700e+02,0.00000e+00,9.61901e+04,3.72605e+04,-1.47681e+04,4.73641e+01,1.24832e+02,2.28273e+09,2.77562e+09,6.31961e+08,4.32712e+07,8.43013e+01,2.11503e+01,7.22271e+01,2.43499e-01,2.61135e+00,1.47135e-03,1.55602e-02,-1.17986e-01,1.49274e+00,-2.64493e+00,0.00000e+00,0.00000e+00,8.70302e+01,-6.86567e+01,1.08873e-01,-8.58883e-02,5.26183e-01,8.22604e-01,0.00000e+00,9.17006e-01,2.90467e+00,0.00000e+00
05,4.26200e+02,0.00000e+00,8.34943e+04,3.24405e+04,-1.35495e+04,4.40101e+01,1.15847e+02,2.23318e+09,2.69686e+09,6.14002e+08,4.19950e+07,8.35299e+01,2.09548e+01,7.15366e+01,4.20540e-01,4.46822e+00,1.88487e-03,1.96411e-02,-1.53008e-01,1.31065e+00,-2.33469e+00,0.00000e+00,0.00000e+00,7.64475e+01,-6.02877e+01,9.56345e-02,-7.54189e-02,4.93031e-01,7.69163e-01,0.00000e+00,8.58503e-01,2.59111e+00,0.00000e+00
06,5.30600e+02,0.00000e+00,7.18600e+04,2.80172e+04,-1.23664e+04,4.07270e+01,1.07032e+02,2.18477e+09,2.62035e+09,5.96558e+08,4.07523e+07,8.27655e+01,2.07610e+01,7.08528e+01,6.36852e-01,6.70490e+00,2.25904e-03,2.32071e-02,-1.85691e-01,1.14106e+00,-2.04387e+00,0.00000e+00,0.00000e+00,6.65867e+01,-5.24883e+01,8.32988e-02,-6.56620e-02,4.59771e-01,7.15513e-01,0.00000e+00,7.99960e-01,2.29620e+00,0.00000e+00
07,6.33500e+02,0.00000e+00,6.12900e+04,2.39914e+04,-1.12250e+04,3.75207e+01,9.84103e+01,2.13765e+09,2.54632e+09,5.79679e+08,3.95477e+07,8.20110e+01,2.05698e+01,7.01785e+01,8.86518e-01,9.25120e+00,2.59355e-03,2.62835e-02,-2.15906e-01,9.84474e-01,-1.77354e+00,0.00000e+00,0.00000e+00,5.74772e+01,-4.52826e+01,7.19030e-02,-5.66477e-02,4.26545e-01,6.61973e-01,0.00000e+00,7.41614e-01,2.02100e+00,0.00000e+00
08,7.34700e+02,0.00000e+00,5.17567e+04,2.03524e+04,-1.01254e+04,3.43959e+01,8.99938e+01,2.09189e+09,2.47483e+09,5.63383e+08,3.83814e+07,8.12680e+01,2.03815e+01,6.95148e+01,1.16395e+00,1.20438e+01,2.88936e-03,2.89063e-02,-2.43617e-01,8.40953e-01,-1.52448e+00,0.00000e+00,0.00000e+00,4.91232e+01,-3.86745e+01,6.14523e-02,-4.83811e-02,3.93415e-01,6.08626e-01,0.00000e+00,6.83562e-01,1.76568e+00,0.00000e+00
09,8.33800e+02,0.00000e+00,4.32431e+04,1.70940e+04,-9.07119e+03,3.13634e+01,8.18255e+01,2.04762e+09,2.40610e+09,5.47713e+08,3.72549e+07,8.05393e+01,2.01969e+01,6.88645e+01,1.46307e+00,1.50176e+01,3.14735e-03,3.11094e-02,-2.68754e-01,7.10712e-01,-1.29680e+00,0.00000e+00,0.00000e+00,4.15380e+01,-3.26752e+01,5.19633e-02,-4.08762e-02,3.60565e-01,5.55739e-01,0.00000e+00,6.26112e-01,1.53074e+00,0.00000e+00
10,9.30700e+02,0.00000e+00,3.56976e+04,1.41973e+04,-8.06041e+03,2.84235e+01,7.39106e+01,2.00486e+09,2.34009e+09,5.32666e+08,3.61655e+07,7.98259e+01,2.00162e+01,6.82283e+01,1.77882e+00,1.81206e+01,3.36972e-03,3.29360e-02,-2.91349e-01,5.93436e-01,-1.09024e+00,0.00000e+00,0.00000e+00,3.47039e+01,-2.72712e+01,4.34139e-02,-3.41158e-02,3.28025e-01,5.03311e-01,0.00000e+00,5.69303e-01,1.31564e+00,0.00000e+00
11,1.02500e+03,0.00000e+00,2.90827e+04,1.16501e+04,-7.09570e+03,2.55998e+01,6.63862e+01,1.96375e+09,2.27699e+09,5.18282e+08,3.51055e+07,7.91308e+01,1.98401e+01,6.76088e+01,2.10548e+00,2.12966e+01,3.55835e-03,3.44238e-02,-3.11388e-01,4.88998e-01,-9.04920e-01,0.00000e+00,0.00000e+00,2.86143e+01,-2.24569e+01,3.57960e-02,-2.80933e-02,2.96245e-01,4.51693e-01,0.00000e+00,5.13900e-01,1.12026e+00,0.00000e+00
12,1.11650e+03,0.00000e+00,2.33434e+04,9.43280e+03,-6.17728e+03,2.28669e+01,5.90621e+01,1.92432e+09,2.21681e+09,5.04566e+08,3.40867e+07,7.84554e+01,1.96691e+01,6.70073e+01,2.43829e+00,2.45009e+01,3.71601e-03,3.56149e-02,-3.28926e-01,3.96981e-01,-7.40413e-01,0.00000e+00,0.00000e+00,2.32458e+01,-1.82140e+01,2.90801e-02,-2.27853e-02,2.64774e-01,4.00835e-01,0.00000e+00,4.59115e-01,9.44053e-01,0.00000e+00
13,1.20500e+03,0.00000e+00,1.84234e+04,7.52413e+03,-5.31265e+03,2.02668e+01,5.21242e+01,1.32148e+09,1.95268e+09,4.45208e+08,3.12205e+07,7.39632e+01,1.86188e+01,6.42675e+01,2.77169e+00,2.77025e+01,3.81865e-03,3.67392e-02,-3.44475e-01,4.61283e-01,-7.38975e-01,0.00000e+00,0.00000e+00,2.67091e+01,-2.05995e+01,3.34126e-02,-2.57696e-02,2.37701e-01,3.82381e-01,0.00000e+00,4.12555e-01,9.14256e-01,0.00000e+00
14,1.29010e+03,0.00000e+00,1.42675e+04,5.90394e+03,-4.51619e+03,1.78105e+01,4.55464e+01,1.21619e+09,1.75686e+09,4.00479e+08,2.80089e+07,7.15330e+01,1.79989e+01,6.20379e+01,3.09933e+00,3.08746e+01,3.88132e-03,3.78107e-02,-3.58576e-01,3.73517e-01,-6.08659e-01,0.00000e+00,0.00000e+00,2.16566e+01,-1.66773e+01,2.70920e-02,-2.08630e-02,2.16562e-01,3.47538e-01,0.00000e+00,3.75627e-01,7.82977e-01,0.00000e+00
15,1.37170e+03,0.00000e+00,1.08068e+04,4.54515e+03,-3.79575e+03,1.54931e+01,3.92744e+01,1.12002e+09,1.58132e+09,3.60391e+08,2.51472e+07,6.91884e+01,1.74013e+01,5.98941e+01,3.41849e+00,3.39948e+01,3.94132e-03,3.86635e-02,-3.71314e-01,2.95828e-01,-4.91310e-01,0.00000e+00,0.00000e+00,1.71781e+01,-1.31980e+01,2.14895e-02,-1.65104e-02,1.94797e-01,3.12157e-01,0.00000e+00,3.37693e-01,6.63048e-01,0.00000e+00
16,1.44960e+03,0.00000e+00,7.97641e+03,3.42258e+03,-3.14770e+03,1.33277e+01,3.33934e+01,1.03251e+09,1.42458e+09,3.24609e+08,2.26018e+07,6.69366e+01,1.68278e+01,5.78421e+01,3.72768e+00,3.70323e+01,3.99665e-03,3.93226e-02,-3.82617e-01,2.28301e-01,-3.87092e-01,0.00000e+00,0.00000e+00,1.32797e+01,-1.01692e+01,1.66126e-02,-1.27215e-02,1.72728e-01,2.76499e-01,0.00000e+00,2.99301e-01,5.54711e-01,0.00000e+00
17,1.52340e+03,0.00000e+00,5.71803e+03,2.51467e+03,-2.56111e+03,1.12770e+01,2.78092e+01,9.53418e+08,1.28561e+09,2.92889e+08,2.03556e+07,6.47909e+01,1.62818e+01,5.58929e+01,4.02443e+00,3.99525e+01,4.04557e-03,3.98138e-02,-3.92399e-01,1.71085e-01,-2.96728e-01,0.00000e+00,0.00000e+00,9.97089e+00,-7.60111e+00,1.24734e-02,-9.50885e-03,1.49976e-01,2.40013e-01,0.00000e+00,2.59818e-01,4.57448e-01,0.00000e+00
18,1.59310e+03,0.00000e+00,3.96064e+03,1.79490e+03,-2.04045e+03,9.37634e+00,2.26181e+01,8.82075e+08,1.16263e+09,2.64824e+08,1.83787e+07,6.27531e+01,1.57637e+01,5.40474e+01,4.30786e+00,4.27398e+01,4.08716e-03,4.01666e-02,-4.00653e-01,1.23857e-01,-2.20391e-01,0.00000e+00,0.00000e+00,7.23445e+00,-5.48208e+00,9.05017e-03,-6.85799e-03,1.27176e-01,2.03697e-01,0.00000e+00,2.20307e-01,3.71083e-01,0.00000e+00
19,1.65850e+03,0.00000e+00,2.63659e+03,1.23886e+03,-1.58192e+03,7.62794e+00,1.78726e+01,8.18049e+08,1.05434e+09,2.40117e+08,1.66440e+07,6.08309e+01,1.52752e+01,5.23116e+01,4.57626e+00,4.53746e+01,4.12091e-03,4.04088e-02,-4.07391e-01,8.61539e-02,-1.57816e-01,0.00000e+00,0.00000e+00,5.04505e+00,-3.79347e+00,6.31128e-03,-4.74557e-03,1.04693e-01,1.67931e-01,0.00000e+00,1.81352e-01,3.01060e-01,0.00000e+00
20,1.71930e+03,0.00000e+00,1.67985e+03,8.24090e+02,-1.17897e+03,6.01578e+00,1.35991e+01,7.61023e+08,9.59670e+08,2.18523e+08,1.51252e+07,5.90349e+01,1.48192e+01,5.06943e+01,4.82760e+00,4.78363e+01,4.14685e-03,4.05664e-02,-4.12650e-01,5.73343e-02,-1.08453e-01,0.00000e+00,0.00000e+00,3.36729e+00,-2.50704e+00,4.21242e-03,-3.13626e-03,8.27757e-02,1.32842e-01,0.00000e+00,1.43383e-01,2.35346e-01,0.00000e+00
21,1.77540e+03,0.00000e+00,1.02045e+03,5.27717e+02,-8.33462e+02,4.55011e+00,9.90872e+00,3.98519e+08,7.29057e+08,1.66652e+08,1.11739e+07,5.21005e+01,1.31900e+01,4.07358e+01,5.06066e+00,5.01156e+01,4.16184e-03,4.06952e-02,-4.16929e-01,6.76120e-02,-1.00949e-01,0.00000e+00,0.00000e+00,3.90750e+00,-2.76780e+00,4.88822e-03,-3.46247e-03,1.05931e-01,1.14902e-01,0.00000e+00,1.83490e-01,2.08038e-01,0.00000e+00
22,1.82660e+03,0.00000e+00,5.89081e+02,3.25726e+02,-5.66065e+02,3.34017e+00,6.94170e+00,3.22692e+08,5.63581e+08,1.28741e+08,8.60804e+06,4.80842e+01,1.21552e+01,3.73499e+01,5.27396e+00,5.22020e+01,4.17029e-03,4.08041e-02,-4.20522e-01,4.41825e-02,-6.91646e-02,0.00000e+00,0.00000e+00,2.56337e+00,-1.79012e+00,3.20674e-03,-2.23941e-03,8.37284e-02,9.12950e-02,0.00000e+00,1.45029e-01,1.62606e-01,0.00000e+00
23,1.87280e+03,0.00000e+00,3.20521e+02,1.92652e+02,-3.78596e+02,2.42061e+00,4.68424e+00,2.62353e+08,4.36581e+08,9.96683e+07,6.67183e+06,4.43938e+01,1.12070e+01,3.42731e+01,5.46682e+00,5.40887e+01,4.17849e-03,4.08713e-02,-4.23352e-01,2.72426e-02,-4.51879e-02,0.00000e+00,0.00000e+00,1.58836e+00,-1.08650e+00,1.98701e-03,-1.35919e-03,6.43273e-02,7.11940e-02,0.00000e+00,1.11421e-01,1.25176e-01,0.00000e+00
24,1.91380e+03,0.00000e+00,1.62306e+02,1.07810e+02,-2.47697e+02,1.71802e+00,3.03358e+00,2.14932e+08,3.40501e+08,7.76906e+07,5.22031e+06,4.10625e+01,1.03532e+01,3.15244e+01,5.63828e+00,5.57652e+01,4.18536e-03,4.09093e-02,-4.25488e-01,1.56304e-02,-2.78156e-02,0.00000e+00,0.00000e+00,9.16953e-01,-6.09756e-01,1.14709e-03,-7.62794e-04,4.77354e-02,5.40608e-02,0.00000e+00,8.26816e-02,9.42680e-02,0.00000e+00
25,1.94970e+03,0.00000e+00,7.44920e+01,5.57919e+01,-1.56606e+02,1.17990e+00,1.85857e+00,1.77937e+08,2.68420e+08,6.12136e+07,4.13800e+06,3.80992e+01,9.59536e+00,2.91026e+01,5.78862e+00,5.72342e+01,4.19037e-03,4.09286e-02,-4.27019e-01,8.12927e-03,-1.57411e-02,0.00000e+00,0.00000e+00,4.80613e-01,-3.07505e-01,6.01239e-04,-3.84683e-04,3.37349e-02,3.94099e-02,0.00000e+00,5.84312e-02,6.84808e-02,0.00000e+00
26,1.98010e+03,0.00000e+00,3.01216e+01,2.60771e+01,-9.46628e+01,7.75025e-01,1.06054e+00,1.49784e+08,2.15653e+08,4.91590e+07,3.35030e+06,3.55543e+01,8.94582e+00,2.70403e+01,5.91606e+00,5.84786e+01,4.19346e-03,4.09369e-02,-4.28023e-01,3.72389e-03,-7.97398e-03,0.00000e+00,0.00000e+00,2.22324e-01,-1.34870e-01,2.78124e-04,-1.68720e-04,2.23455e-02,2.71458e-02,0.00000e+00,3.87038e-02,4.70796e-02,0.00000e+00
27,2.00520e+03,0.00000e+00,1.00216e+01,1.04126e+01,-5.30857e+01,4.73143e-01,5.41048e-01,1.28656e+08,1.77484e+08,4.04436e+07,2.78581e+06,3.34272e+01,8.40385e+00,2.53292e+01,6.02133e+00,5.95061e+01,4.19503e-03,4.09399e-02,-4.28617e-01,1.40948e-03,-3.41440e-03,0.00000e+00,0.00000e+00,8.52293e-02,-4.78279e-02,1.06620e-04,-5.98319e-05,1.33902e-02,1.70795e-02,0.00000e+00,2.31925e-02,2.95950e-02,0.00000e+00
28,2.02480e+03,0.00000e+00,2.46089e+00,3.26521e+00,-2.63005e+01,2.56179e-01,2.30458e-01,1.13447e+08,1.50904e+08,3.43767e+07,2.40067e+06,3.17493e+01,7.97693e+00,2.39876e+01,6.10356e+00,6.03086e+01,4.19564e-03,4.09407e-02,-4.28911e-01,3.99598e-04,-1.13035e-03,0.00000e+00,0.00000e+00,2.45892e-02,-1.21790e-02,3.07607e-05,-1.52357e-05,6.85260e-03,9.28972e-03,0.00000e+00,1.18691e-02,1.60917e-02,0.00000e+00
29,2.03880e+03,0.00000e+00,3.60511e-01,6.95641e-01,-1.03575e+01,1.10903e-01,6.95965e-02,1.03260e+08,1.33576e+08,3.04229e+07,2.16524e+06,3.05414e+01,7.66993e+00,2.30264e+01,6.16230e+00,6.08817e+01,4.19580e-03,4.09408e-02,-4.29021e-01,7.12920e-05,-2.48713e-04,0.00000e+00,0.00000e+00,4.50641e-03,-1.75026e-03,5.63745e-06,-2.18954e-06,2.65197e-03,3.90284e-03,0.00000e+00,4.59335e-03,6.75999e-03,0.00000e+00
30,2.04720e+03,0.00000e+00,3.41030e-02,1.14925e-01,-2.27875e+00,2.73631e-02,8.11977e-03,9.74134e+07,1.23821e+08,2.81976e+07,2.06752e+06,2.98129e+01,7.48488e+00,2.24484e+01,6.19755e+00,6.12256e+01,4.19582e-03,4.09408e-02,-4.29046e-01,9.25510e-06,-4.18023e-05,0.00000e+00,0.00000e+00,6.08104e-04,-1.41228e-04,7.60728e-07,-1.76674e-07,5.25685e-04,8.82822e-04,0.00000e+00,9.10514e-04,1.52909e-03,0.00000e+00
31,2.05000e+03,0.00000e+00,0.00000e+00,0.00000e+00,0.00000e+00,0.00000e+00,0.00000e+00,5.74754e+07,1.08343e+08,2.47732e+07,NaN,2.74871e+01,6.96602e+00,2.15905e+01,6.20930e+00,6.13403e+01,4.19582e-03,4.09408e-02,-4.29048e-01,0.00000e+00,0.00000e+00,0.00000e+00,0.00000e+00,0.00000e+00,0.00000e+00,0.00000e+00,0.00000e+00,0.00000e+00,0.00000e+00,0.00000e+00,0.00000e+00,0.00000e+00,0.00000e+00
--------------------------------------------------------------------------------------------------------------------------------------------------------------------------------------------------------------------------------------------------------------------------------------------------------------------------------------------------------------------------------

CHAPEADO 
--------------------------------------------------------------------------------------------------------------------------------------------------------------------------------------------------------------------------------------------------------------------------------------------------------------------------------------------------------------------------------
X,Y,Z,Sigma,Tau,Von Mises
0.00000e+00,4.31008e+01,0.00000e+00,-1.73280e+00,9.80165e-01,2.42586e+00
0.00000e+00,4.28837e+01,-3.27521e+00,-1.87391e+00,9.73589e-01,2.52094e+00
0.00000e+00,4.25950e+01,-6.55041e+00,-2.00779e+00,9.66854e-01,2.61451e+00
0.00000e+00,4.23033e+01,-9.82562e+00,-2.14139e+00,9.59965e-01,2.71112e+00
0.00000e+00,4.19484e+01,-1.31008e+01,-2.26862e+00,9.52937e-01,2.80552e+00
0.00000e+00,4.15787e+01,-1.63760e+01,-2.39438e+00,9.45778e-01,2.90113e+00
0.00000e+00,4.11605e+01,-1.96512e+01,-2.51524e+00,9.38500e-01,2.99479e+00
0.00000e+00,4.07187e+01,-2.29264e+01,-2.63373e+00,9.31112e-01,3.08827e+00
0.00000e+00,4.02378e+01,-2.62017e+01,-2.74829e+00,9.23625e-01,3.17999e+00
0.00000e+00,3.97249e+01,-2.94769e+01,-2.85963e+00,9.16048e-01,3.27030e+00
0.00000e+00,3.91766e+01,-3.27521e+01,-2.96741e+00,9.08391e-01,3.35873e+00
0.00000e+00,3.85857e+01,-3.60273e+01,-3.07090e+00,9.00665e-01,3.44442e+00
0.00000e+00,3.79511e+01,-3.93025e+01,-3.16999e+00,8.92879e-01,3.52712e+00
0.00000e+00,3.72545e+01,-4.25777e+01,-3.26285e+00,8.85047e-01,3.60501e+00
0.00000e+00,3.64976e+01,-4.58529e+01,-3.34964e+00,8.77185e-01,3.67811e+00
0.00000e+00,3.56687e+01,-4.91281e+01,-3.42918e+00,8.69302e-01,3.74518e+00
0.00000e+00,3.47420e+01,-5.24033e+01,-3.49890e+00,8.61429e-01,3.80374e+00
0.00000e+00,3.37474e+01,-5.56785e+01,-3.56177e+00,8.53569e-01,3.85642e+00
0.00000e+00,3.26000e+01,-5.89537e+01,-3.60927e+00,8.45766e-01,3.89523e+00
0.00000e+00,3.13892e+01,-6.22289e+01,-3.65039e+00,8.38037e-01,3.92840e+00
0.00000e+00,3.00018e+01,-6.55041e+01,-3.67376e+00,8.30402e-01,3.94527e+00
0.00000e+00,2.84730e+01,-6.87793e+01,-3.68288e+00,8.22925e-01,3.94908e+00
0.00000e+00,2.68002e+01,-7.20546e+01,-3.67753e+00,8.15618e-01,3.93953e+00
0.00000e+00,2.48857e+01,-7.53298e+01,-3.64786e+00,8.08510e-01,3.90742e+00
0.00000e+00,2.26913e+01,-7.86050e+01,-3.59002e+00,8.01685e-01,3.84920e+00
0.00000e+00,2.01805e+01,-8.18802e+01,-3.50035e+00,7.95226e-01,3.76160e+00
0.00000e+00,1.72108e+01,-8.51554e+01,-3.36451e+00,7.89186e-01,3.63158e+00
0.00000e+00,1.33989e+01,-8.84306e+01,-3.14395e+00,7.83862e-01,3.42458e+00
0.00000e+00,8.24350e+00,-9.17058e+01,-2.78821e+00,7.80609e-01,3.09874e+00
0.00000e+00,-3.34020e+00,-9.49810e+01,-1.78573e+00,7.81899e-01,2.24119e+00
0.00000e+00,-4.17620e+00,-9.49886e+01,-1.70200e+00,7.85903e-01,2.17939e+00
0.00000e+00,-1.17928e+01,-9.15961e+01,-7.66940e-01,7.93496e-01,1.57388e+00
0.00000e+00,-1.27149e+01,-8.82037e+01,-5.05387e-01,7.99105e-01,1.47347e+00
0.00000e+00,-1.30332e+01,-8.48113e+01,-3.04597e-01,8.05008e-01,1.42720e+00
0.00000e+00,-1.30814e+01,-8.14188e+01,-1.30965e-01,8.11184e-01,1.41110e+00
0.00000e+00,-1.29264e+01,-7.80264e+01,2.22065e-02,8.17585e-01,1.41627e+00
0.00000e+00,-1.26437e+01,-7.46339e+01,1.62538e-01,8.24174e-01,1.43673e+00
0.00000e+00,-1.22328e+01,-7.12415e+01,2.89977e-01,8.30912e-01,1.46810e+00
0.00000e+00,-1.17438e+01,-6.78490e+01,4.09551e-01,8.37766e-01,1.50774e+00
0.00000e+00,-1.12094e+01,-6.44565e+01,5.24564e-01,8.44719e-01,1.55429e+00
0.00000e+00,-1.06068e+01,-6.10641e+01,6.32705e-01,8.51752e-01,1.60523e+00
0.00000e+00,-9.96142e+00,-5.76716e+01,7.36551e-01,8.58844e-01,1.65992e+00
0.00000e+00,-9.27449e+00,-5.42792e+01,8.36214e-01,8.65983e-01,1.71728e+00
0.00000e+00,-8.54615e+00,-5.08867e+01,9.31711e-01,8.73153e-01,1.77631e+00
0.00000e+00,-7.79185e+00,-4.74943e+01,1.02460e+00,8.80342e-01,1.83706e+00
0.00000e+00,-7.00429e+00,-4.41018e+01,1.11413e+00,8.87539e-01,1.89855e+00
0.00000e+00,-6.19544e+00,-4.07094e+01,1.20153e+00,8.94734e-01,1.96095e+00
0.00000e+00,-5.36748e+00,-3.73169e+01,1.28701e+00,9.01917e-01,2.02404e+00
0.00000e+00,-4.52248e+00,-3.39245e+01,1.37077e+00,9.09082e-01,2.08765e+00
0.00000e+00,-3.67026e+00,-3.05320e+01,1.45380e+00,9.16224e-01,2.15219e+00
0.00000e+00,-2.80686e+00,-2.71396e+01,1.53571e+00,9.23337e-01,2.21722e+00
0.00000e+00,-1.94159e+00,-2.37472e+01,1.61743e+00,9.30420e-01,2.28322e+00
0.00000e+00,-1.06964e+00,-2.03547e+01,1.69848e+00,9.37469e-01,2.34976e+00
0.00000e+00,-1.97780e-01,-1.69622e+01,1.77953e+00,9.44484e-01,2.41721e+00
0.00000e+00,6.70785e-01,-1.35698e+01,1.86092e+00,9.51463e-01,2.48573e+00
0.00000e+00,1.53935e+00,-1.01774e+01,1.94231e+00,9.58405e-01,2.55503e+00
0.00000e+00,2.38735e+00,-6.78490e+00,2.02577e+00,9.65314e-01,2.62664e+00
0.00000e+00,3.23151e+00,-3.39245e+00,2.10961e+00,9.72193e-01,2.69925e+00
1.07300e+02,4.26785e+01,0.00000e+00,-1.55528e+00,9.28229e-01,2.23690e+00
1.07300e+02,4.24636e+01,-3.24312e+00,-1.68264e+00,9.22045e-01,2.31986e+00
1.07300e+02,4.21777e+01,-6.48624e+00,-1.80351e+00,9.15711e-01,2.40172e+00
1.07300e+02,4.18889e+01,-9.72936e+00,-1.92413e+00,9.09233e-01,2.48644e+00
1.07300e+02,4.15374e+01,-1.29725e+01,-2.03903e+00,9.02623e-01,2.56940e+00
1.07300e+02,4.11714e+01,-1.62156e+01,-2.15260e+00,8.95891e-01,2.65359e+00
1.07300e+02,4.07572e+01,-1.94587e+01,-2.26179e+00,8.89046e-01,2.73622e+00
1.07300e+02,4.03197e+01,-2.27018e+01,-2.36884e+00,8.82098e-01,2.81881e+00
1.07300e+02,3.98436e+01,-2.59450e+01,-2.47237e+00,8.75057e-01,2.89996e+00
1.07300e+02,3.93357e+01,-2.91881e+01,-2.57300e+00,8.67932e-01,2.97998e+00
1.07300e+02,3.87928e+01,-3.24312e+01,-2.67045e+00,8.60731e-01,3.05841e+00
1.07300e+02,3.82077e+01,-3.56743e+01,-2.76404e+00,8.53466e-01,3.13451e+00
1.07300e+02,3.75793e+01,-3.89174e+01,-2.85368e+00,8.46143e-01,3.20802e+00
1.07300e+02,3.68895e+01,-4.21606e+01,-2.93773e+00,8.38778e-01,3.27733e+00
1.07300e+02,3.61401e+01,-4.54037e+01,-3.01634e+00,8.31384e-01,3.34244e+00
1.07300e+02,3.53192e+01,-4.86468e+01,-3.08843e+00,8.23971e-01,3.40223e+00
1.07300e+02,3.44016e+01,-5.18899e+01,-3.15170e+00,8.16567e-01,3.45450e+00
1.07300e+02,3.34168e+01,-5.51330e+01,-3.20884e+00,8.09175e-01,3.50156e+00
1.07300e+02,3.22806e+01,-5.83762e+01,-3.25217e+00,8.01837e-01,3.53630e+00
1.07300e+02,3.10816e+01,-6.16193e+01,-3.28978e+00,7.94569e-01,3.56605e+00
1.07300e+02,2.97079e+01,-6.48624e+01,-3.31145e+00,7.87389e-01,3.58129e+00
1.07300e+02,2.81940e+01,-6.81055e+01,-3.32034e+00,7.80357e-01,3.58490e+00
1.07300e+02,2.65376e+01,-7.13486e+01,-3.31623e+00,7.73486e-01,3.57662e+00
1.07300e+02,2.46419e+01,-7.45918e+01,-3.29030e+00,7.66801e-01,3.54824e+00
1.07300e+02,2.24690e+01,-7.78349e+01,-3.23908e+00,7.60383e-01,3.49660e+00
1.07300e+02,1.99828e+01,-8.10780e+01,-3.15930e+00,7.54309e-01,3.41879e+00
1.07300e+02,1.70422e+01,-8.43211e+01,-3.03807e+00,7.48629e-01,3.30321e+00
1.07300e+02,1.32676e+01,-8.75642e+01,-2.84079e+00,7.43622e-01,3.11913e+00
1.07300e+02,8.16273e+00,-9.08074e+01,-2.52218e+00,7.40564e-01,2.82961e+00
1.07300e+02,-3.30748e+00,-9.40505e+01,-1.62306e+00,7.41777e-01,2.07003e+00
1.07300e+02,-4.13529e+00,-9.40580e+01,-1.54790e+00,7.45542e-01,2.01581e+00
1.07300e+02,-1.16772e+01,-9.06988e+01,-7.07869e-01,7.52683e-01,1.48347e+00
1.07300e+02,-1.25904e+01,-8.73396e+01,-4.72376e-01,7.57958e-01,1.39522e+00
1.07300e+02,-1.29055e+01,-8.39804e+01,-2.91424e-01,7.63509e-01,1.35417e+00
1.07300e+02,-1.29533e+01,-8.06211e+01,-1.34849e-01,7.69317e-01,1.33930e+00
1.07300e+02,-1.27997e+01,-7.72619e+01,3.36012e-03,7.75337e-01,1.34293e+00
1.07300e+02,-1.25198e+01,-7.39027e+01,1.30045e-01,7.81533e-01,1.35989e+00
1.07300e+02,-1.21130e+01,-7.05435e+01,2.45157e-01,7.87870e-01,1.38648e+00
1.07300e+02,-1.16287e+01,-6.71843e+01,3.53210e-01,7.94315e-01,1.42041e+00
1.07300e+02,-1.10996e+01,-6.38251e+01,4.57169e-01,8.00854e-01,1.46052e+00
1.07300e+02,-1.05029e+01,-6.04659e+01,5.54960e-01,8.07467e-01,1.50466e+00
1.07300e+02,-9.86382e+00,-5.71066e+01,6.48895e-01,8.14137e-01,1.55226e+00
1.07300e+02,-9.18363e+00,-5.37474e+01,7.39076e-01,8.20851e-01,1.60238e+00
1.07300e+02,-8.46243e+00,-5.03882e+01,8.25518e-01,8.27594e-01,1.65415e+00
1.07300e+02,-7.71552e+00,-4.70290e+01,9.09615e-01,8.34354e-01,1.70758e+00
1.07300e+02,-6.93567e+00,-4.36698e+01,9.90708e-01,8.41122e-01,1.76181e+00
1.07300e+02,-6.13474e+00,-4.03106e+01,1.06988e+00,8.47888e-01,1.81697e+00
1.07300e+02,-5.31490e+00,-3.69514e+01,1.14732e+00,8.54644e-01,1.87286e+00
1.07300e+02,-4.47818e+00,-3.35921e+01,1.22323e+00,8.61381e-01,1.92931e+00
1.07300e+02,-3.63431e+00,-3.02329e+01,1.29848e+00,8.68097e-01,1.98666e+00
1.07300e+02,-2.77936e+00,-2.68737e+01,1.37273e+00,8.74786e-01,2.04454e+00
1.07300e+02,-1.92257e+00,-2.35145e+01,1.44680e+00,8.81447e-01,2.10335e+00
1.07300e+02,-1.05916e+00,-2.01553e+01,1.52028e+00,8.88076e-01,2.16270e+00
1.07300e+02,-1.95842e-01,-1.67961e+01,1.59376e+00,8.94672e-01,2.22292e+00
1.07300e+02,6.64213e-01,-1.34369e+01,1.66753e+00,9.01236e-01,2.28415e+00
1.07300e+02,1.52427e+00,-1.00776e+01,1.74131e+00,9.07764e-01,2.34612e+00
1.07300e+02,2.36396e+00,-6.71843e+00,1.81695e+00,9.14261e-01,2.41017e+00
1.07300e+02,3.19985e+00,-3.35921e+00,1.89293e+00,9.20729e-01,2.47516e+00
2.14300e+02,4.22575e+01,0.00000e+00,-1.38647e+00,8.75724e-01,2.05499e+00
2.14300e+02,4.20447e+01,-3.21112e+00,-1.50067e+00,8.69924e-01,2.12657e+00
2.14300e+02,4.17615e+01,-6.42224e+00,-1.60909e+00,8.63983e-01,2.19740e+00
2.14300e+02,4.14756e+01,-9.63337e+00,-1.71728e+00,8.57907e-01,2.27092e+00
2.14300e+02,4.11276e+01,-1.28445e+01,-1.82038e+00,8.51707e-01,2.34307e+00
2.14300e+02,4.07652e+01,-1.60556e+01,-1.92229e+00,8.45393e-01,2.41646e+00
2.14300e+02,4.03551e+01,-1.92667e+01,-2.02029e+00,8.38973e-01,2.48862e+00
2.14300e+02,3.99219e+01,-2.24779e+01,-2.11640e+00,8.32457e-01,2.56088e+00
2.14300e+02,3.94505e+01,-2.56890e+01,-2.20935e+00,8.25852e-01,2.63198e+00
2.14300e+02,3.89476e+01,-2.89001e+01,-2.29973e+00,8.19169e-01,2.70220e+00
2.14300e+02,3.84101e+01,-3.21112e+01,-2.38727e+00,8.12416e-01,2.77112e+00
2.14300e+02,3.78307e+01,-3.53223e+01,-2.47136e+00,8.05601e-01,2.83807e+00
2.14300e+02,3.72085e+01,-3.85335e+01,-2.55194e+00,7.98734e-01,2.90282e+00
2.14300e+02,3.65256e+01,-4.17446e+01,-2.62753e+00,7.91826e-01,2.96393e+00
2.14300e+02,3.57835e+01,-4.49557e+01,-2.69827e+00,7.84890e-01,3.02140e+00
2.14300e+02,3.49707e+01,-4.81668e+01,-2.76320e+00,7.77938e-01,3.07422e+00
2.14300e+02,3.40622e+01,-5.13780e+01,-2.82027e+00,7.70993e-01,3.12045e+00
2.14300e+02,3.30871e+01,-5.45891e+01,-2.87187e+00,7.64061e-01,3.16212e+00
2.14300e+02,3.19621e+01,-5.78002e+01,-2.91116e+00,7.57178e-01,3.19293e+00
2.14300e+02,3.07750e+01,-6.10113e+01,-2.94535e+00,7.50361e-01,3.21935e+00
2.14300e+02,2.94148e+01,-6.42224e+01,-2.96533e+00,7.43627e-01,3.23297e+00
2.14300e+02,2.79159e+01,-6.74336e+01,-2.97391e+00,7.37032e-01,3.23633e+00
2.14300e+02,2.62758e+01,-7.06447e+01,-2.97091e+00,7.30588e-01,3.22917e+00
2.14300e+02,2.43988e+01,-7.38558e+01,-2.94845e+00,7.24318e-01,3.20425e+00
2.14300e+02,2.22473e+01,-7.70669e+01,-2.90345e+00,7.18298e-01,3.15877e+00
2.14300e+02,1.97856e+01,-8.02781e+01,-2.83297e+00,7.12602e-01,3.09017e+00
2.14300e+02,1.68740e+01,-8.34892e+01,-2.72555e+00,7.07275e-01,2.98820e+00
2.14300e+02,1.31367e+01,-8.67003e+01,-2.55033e+00,7.02579e-01,2.82578e+00
2.14300e+02,8.08220e+00,-8.99114e+01,-2.26693e+00,6.99710e-01,2.57056e+00
2.14300e+02,-3.27484e+00,-9.31226e+01,-1.46599e+00,7.00848e-01,1.90334e+00
2.14300e+02,-4.09449e+00,-9.31300e+01,-1.39899e+00,7.04380e-01,1.85624e+00
2.14300e+02,-1.15620e+01,-8.98039e+01,-6.49382e-01,7.11077e-01,1.39233e+00
2.14300e+02,-1.24661e+01,-8.64779e+01,-4.38749e-01,7.16025e-01,1.31551e+00
2.14300e+02,-1.27781e+01,-8.31518e+01,-2.76741e-01,7.21231e-01,1.27950e+00
2.14300e+02,-1.28255e+01,-7.98257e+01,-1.36466e-01,7.26679e-01,1.26602e+00
2.14300e+02,-1.26734e+01,-7.64996e+01,-1.25649e-02,7.32325e-01,1.26849e+00
2.14300e+02,-1.23963e+01,-7.31736e+01,1.01062e-01,7.38136e-01,1.28248e+00
2.14300e+02,-1.19935e+01,-6.98475e+01,2.04371e-01,7.44080e-01,1.30489e+00
2.14300e+02,-1.15140e+01,-6.65214e+01,3.01387e-01,7.50125e-01,1.33375e+00
2.14300e+02,-1.09901e+01,-6.31954e+01,3.94752e-01,7.56258e-01,1.36807e+00
2.14300e+02,-1.03992e+01,-5.98693e+01,4.82618e-01,7.62460e-01,1.40604e+00
2.14300e+02,-9.76651e+00,-5.65432e+01,5.67047e-01,7.68716e-01,1.44718e+00
2.14300e+02,-9.09302e+00,-5.32171e+01,6.48129e-01,7.75013e-01,1.49064e+00
2.14300e+02,-8.37893e+00,-4.98911e+01,7.25877e-01,7.81337e-01,1.53570e+00
2.14300e+02,-7.63939e+00,-4.65650e+01,8.01535e-01,7.87678e-01,1.58233e+00
2.14300e+02,-6.86724e+00,-4.32389e+01,8.74515e-01,7.94025e-01,1.62979e+00
2.14300e+02,-6.07421e+00,-3.99129e+01,9.45780e-01,8.00371e-01,1.67818e+00
2.14300e+02,-5.26246e+00,-3.65868e+01,1.01551e+00,8.06707e-01,1.72731e+00
2.14300e+02,-4.43399e+00,-3.32607e+01,1.08386e+00,8.13026e-01,1.77702e+00
2.14300e+02,-3.59845e+00,-2.99346e+01,1.15164e+00,8.19325e-01,1.82761e+00
2.14300e+02,-2.75194e+00,-2.66086e+01,1.21851e+00,8.25599e-01,1.87873e+00
2.14300e+02,-1.90360e+00,-2.32825e+01,1.28523e+00,8.31845e-01,1.93073e+00
2.14300e+02,-1.04871e+00,-1.99564e+01,1.35142e+00,8.38063e-01,1.98328e+00
2.14300e+02,-1.93910e-01,-1.66304e+01,1.41761e+00,8.44249e-01,2.03664e+00
2.14300e+02,6.57660e-01,-1.33043e+01,1.48407e+00,8.50405e-01,2.09094e+00
2.14300e+02,1.50923e+00,-9.97821e+00,1.55053e+00,8.56528e-01,2.14594e+00
2.14300e+02,2.34063e+00,-6.65214e+00,1.61864e+00,8.62621e-01,2.20280e+00
2.14300e+02,3.16828e+00,-3.32607e+00,1.68707e+00,8.68688e-01,2.26054e+00
3.20700e+02,4.18388e+01,0.00000e+00,-1.22698e+00,8.22604e-01,1.88029e+00
3.20700e+02,4.16280e+01,-3.17930e+00,-1.32867e+00,8.17191e-01,1.94133e+00
3.20700e+02,4.13477e+01,-6.35861e+00,-1.42525e+00,8.11647e-01,2.00191e+00
3.20700e+02,4.10646e+01,-9.53791e+00,-1.52162e+00,8.05976e-01,2.06498e+00
3.20700e+02,4.07201e+01,-1.27172e+01,-1.61349e+00,8.00191e-01,2.12703e+00
3.20700e+02,4.03613e+01,-1.58965e+01,-1.70431e+00,7.94298e-01,2.19029e+00
3.20700e+02,3.99553e+01,-1.90758e+01,-1.79166e+00,7.88307e-01,2.25263e+00
3.20700e+02,3.95264e+01,-2.22551e+01,-1.87734e+00,7.82225e-01,2.31517e+00
3.20700e+02,3.90596e+01,-2.54344e+01,-1.96023e+00,7.76062e-01,2.37683e+00
3.20700e+02,3.85617e+01,-2.86137e+01,-2.04083e+00,7.69825e-01,2.43781e+00
3.20700e+02,3.80295e+01,-3.17930e+01,-2.11893e+00,7.63523e-01,2.49775e+00
3.20700e+02,3.74559e+01,-3.49724e+01,-2.19398e+00,7.57163e-01,2.55606e+00
3.20700e+02,3.68398e+01,-3.81517e+01,-2.26591e+00,7.50754e-01,2.61252e+00
3.20700e+02,3.61637e+01,-4.13310e+01,-2.33343e+00,7.44307e-01,2.66587e+00
3.20700e+02,3.54289e+01,-4.45103e+01,-2.39666e+00,7.37835e-01,2.71609e+00
3.20700e+02,3.46242e+01,-4.76896e+01,-2.45474e+00,7.31347e-01,2.76231e+00
3.20700e+02,3.37247e+01,-5.08689e+01,-2.50587e+00,7.24866e-01,2.80280e+00
3.20700e+02,3.27593e+01,-5.40482e+01,-2.55215e+00,7.18397e-01,2.83933e+00
3.20700e+02,3.16454e+01,-5.72275e+01,-2.58755e+00,7.11974e-01,2.86638e+00
3.20700e+02,3.04701e+01,-6.04068e+01,-2.61842e+00,7.05612e-01,2.88960e+00
3.20700e+02,2.91233e+01,-6.35861e+01,-2.63672e+00,6.99327e-01,2.90163e+00
3.20700e+02,2.76393e+01,-6.67654e+01,-2.64493e+00,6.93173e-01,2.90467e+00
3.20700e+02,2.60154e+01,-6.99447e+01,-2.64289e+00,6.87159e-01,2.89852e+00
3.20700e+02,2.41570e+01,-7.31240e+01,-2.62362e+00,6.81308e-01,2.87679e+00
3.20700e+02,2.20269e+01,-7.63033e+01,-2.58441e+00,6.75690e-01,2.83705e+00
3.20700e+02,1.95896e+01,-7.94826e+01,-2.52265e+00,6.70374e-01,2.77704e+00
3.20700e+02,1.67068e+01,-8.26619e+01,-2.42818e+00,6.65403e-01,2.68782e+00
3.20700e+02,1.30066e+01,-8.58412e+01,-2.27371e+00,6.61021e-01,2.54570e+00
3.20700e+02,8.00212e+00,-8.90205e+01,-2.02350e+00,6.58344e-01,2.32267e+00
3.20700e+02,-3.24239e+00,-9.21998e+01,-1.31520e+00,6.59406e-01,1.74190e+00
3.20700e+02,-4.05392e+00,-9.22072e+01,-1.25590e+00,6.62702e-01,1.70142e+00
3.20700e+02,-1.14474e+01,-8.89141e+01,-5.91798e-01,6.68952e-01,1.30104e+00
3.20700e+02,-1.23426e+01,-8.56210e+01,-4.04731e-01,6.73569e-01,1.23487e+00
3.20700e+02,-1.26515e+01,-8.23279e+01,-2.60702e-01,6.78428e-01,1.20364e+00
3.20700e+02,-1.26984e+01,-7.90348e+01,-1.35909e-01,6.83512e-01,1.19165e+00
3.20700e+02,-1.25479e+01,-7.57416e+01,-2.56076e-02,6.88781e-01,1.19328e+00
3.20700e+02,-1.22734e+01,-7.24485e+01,7.55995e-02,6.94205e-01,1.20477e+00
3.20700e+02,-1.18746e+01,-6.91554e+01,1.67675e-01,6.99751e-01,1.22355e+00
3.20700e+02,-1.13999e+01,-6.58623e+01,2.54180e-01,7.05393e-01,1.24794e+00
3.20700e+02,-1.08812e+01,-6.25692e+01,3.37454e-01,7.11116e-01,1.27708e+00
3.20700e+02,-1.02962e+01,-5.92761e+01,4.15861e-01,7.16904e-01,1.30950e+00
3.20700e+02,-9.66973e+00,-5.59829e+01,4.91226e-01,7.22742e-01,1.34476e+00
3.20700e+02,-9.00292e+00,-5.26898e+01,5.63628e-01,7.28618e-01,1.38215e+00
3.20700e+02,-8.29591e+00,-4.93967e+01,6.33080e-01,7.34520e-01,1.42104e+00
3.20700e+02,-7.56370e+00,-4.61036e+01,7.00681e-01,7.40437e-01,1.46140e+00
3.20700e+02,-6.79920e+00,-4.28105e+01,7.65912e-01,7.46361e-01,1.50259e+00
3.20700e+02,-6.01403e+00,-3.95174e+01,8.29626e-01,7.52283e-01,1.54469e+00
3.20700e+02,-5.21032e+00,-3.62243e+01,8.91979e-01,7.58195e-01,1.58752e+00
3.20700e+02,-4.39006e+00,-3.29311e+01,9.53117e-01,7.64093e-01,1.63093e+00
3.20700e+02,-3.56279e+00,-2.96380e+01,1.01374e+00,7.69971e-01,1.67518e+00
3.20700e+02,-2.72467e+00,-2.63449e+01,1.07357e+00,7.75825e-01,1.71996e+00
3.20700e+02,-1.88474e+00,-2.30518e+01,1.13326e+00,7.81655e-01,1.76557e+00
3.20700e+02,-1.03832e+00,-1.97587e+01,1.19248e+00,7.87457e-01,1.81170e+00
3.20700e+02,-1.91989e-01,-1.64656e+01,1.25170e+00,7.93230e-01,1.85860e+00
3.20700e+02,6.51143e-01,-1.31725e+01,1.31116e+00,7.98975e-01,1.90636e+00
3.20700e+02,1.49428e+00,-9.87934e+00,1.37062e+00,8.04688e-01,1.95478e+00
3.20700e+02,2.31744e+00,-6.58623e+00,1.43154e+00,8.10374e-01,2.00485e+00
3.20700e+02,3.13689e+00,-3.29311e+00,1.49274e+00,8.16036e-01,2.05573e+00
4.26200e+02,4.14236e+01,0.00000e+00,-1.07741e+00,7.69163e-01,1.71338e+00
4.26200e+02,4.12150e+01,-3.14776e+00,-1.16729e+00,7.64132e-01,1.76473e+00
4.26200e+02,4.09374e+01,-6.29551e+00,-1.25268e+00,7.58979e-01,1.81587e+00
4.26200e+02,4.06571e+01,-9.44327e+00,-1.33790e+00,7.53709e-01,1.86928e+00
4.26200e+02,4.03160e+01,-1.25910e+01,-1.41915e+00,7.48331e-01,1.92197e+00
4.26200e+02,3.99607e+01,-1.57388e+01,-1.49948e+00,7.42854e-01,1.97584e+00
4.26200e+02,3.95588e+01,-1.88865e+01,-1.57677e+00,7.37285e-01,2.02903e+00
4.26200e+02,3.91341e+01,-2.20343e+01,-1.65258e+00,7.31633e-01,2.08252e+00
4.26200e+02,3.86720e+01,-2.51820e+01,-1.72595e+00,7.25904e-01,2.13535e+00
4.26200e+02,3.81790e+01,-2.83298e+01,-1.79731e+00,7.20108e-01,2.18769e+00
4.26200e+02,3.76521e+01,-3.14776e+01,-1.86647e+00,7.14250e-01,2.23923e+00
4.26200e+02,3.70842e+01,-3.46253e+01,-1.93295e+00,7.08339e-01,2.28944e+00
4.26200e+02,3.64743e+01,-3.77731e+01,-1.99670e+00,7.02382e-01,2.33812e+00
4.26200e+02,3.58048e+01,-4.09208e+01,-2.05657e+00,6.96390e-01,2.38418e+00
4.26200e+02,3.50774e+01,-4.40686e+01,-2.11266e+00,6.90374e-01,2.42759e+00
4.26200e+02,3.42806e+01,-4.72163e+01,-2.16424e+00,6.84344e-01,2.46758e+00
4.26200e+02,3.33901e+01,-5.03641e+01,-2.20971e+00,6.78320e-01,2.50264e+00
4.26200e+02,3.24342e+01,-5.35118e+01,-2.25093e+00,6.72307e-01,2.53430e+00
4.26200e+02,3.13314e+01,-5.66596e+01,-2.28259e+00,6.66337e-01,2.55778e+00
4.26200e+02,3.01677e+01,-5.98074e+01,-2.31027e+00,6.60424e-01,2.57795e+00
4.26200e+02,2.88343e+01,-6.29551e+01,-2.32691e+00,6.54583e-01,2.58842e+00
4.26200e+02,2.73650e+01,-6.61029e+01,-2.33469e+00,6.48863e-01,2.59111e+00
4.26200e+02,2.57573e+01,-6.92506e+01,-2.33346e+00,6.43273e-01,2.58582e+00
4.26200e+02,2.39173e+01,-7.23984e+01,-2.31711e+00,6.37835e-01,2.56700e+00
4.26200e+02,2.18083e+01,-7.55461e+01,-2.28324e+00,6.32614e-01,2.53254e+00
4.26200e+02,1.93952e+01,-7.86939e+01,-2.22956e+00,6.27673e-01,2.48050e+00
4.26200e+02,1.65410e+01,-8.18417e+01,-2.14717e+00,6.23053e-01,2.40310e+00
4.26200e+02,1.28775e+01,-8.49894e+01,-2.01207e+00,6.18980e-01,2.27987e+00
4.26200e+02,7.92271e+00,-8.81372e+01,-1.79288e+00,6.16492e-01,2.08677e+00
4.26200e+02,-3.21022e+00,-9.12849e+01,-1.17138e+00,6.17479e-01,1.58618e+00
4.26200e+02,-4.01369e+00,-9.12922e+01,-1.11929e+00,6.20543e-01,1.55179e+00
4.26200e+02,-1.13339e+01,-8.80318e+01,-5.35442e-01,6.26352e-01,1.20981e+00
4.26200e+02,-1.22201e+01,-8.47713e+01,-3.70558e-01,6.30644e-01,1.15345e+00
4.26200e+02,-1.25260e+01,-8.15109e+01,-2.43473e-01,6.35160e-01,1.12675e+00
4.26200e+02,-1.25724e+01,-7.82505e+01,-1.33283e-01,6.39885e-01,1.11630e+00
4.26200e+02,-1.24233e+01,-7.49900e+01,-3.58199e-02,6.44782e-01,1.11737e+00
4.26200e+02,-1.21516e+01,-7.17296e+01,5.36558e-02,6.49823e-01,1.12680e+00
4.26200e+02,-1.17568e+01,-6.84692e+01,1.35111e-01,6.54978e-01,1.14247e+00
4.26200e+02,-1.12868e+01,-6.52087e+01,2.11675e-01,6.60222e-01,1.16296e+00
4.26200e+02,-1.07732e+01,-6.19483e+01,2.85400e-01,6.65541e-01,1.18756e+00
4.26200e+02,-1.01940e+01,-5.86879e+01,3.54851e-01,6.70921e-01,1.21504e+00
4.26200e+02,-9.57378e+00,-5.54274e+01,4.21630e-01,6.76347e-01,1.24503e+00
4.26200e+02,-8.91358e+00,-5.21670e+01,4.85808e-01,6.81809e-01,1.27695e+00
4.26200e+02,-8.21359e+00,-4.89065e+01,5.47393e-01,6.87294e-01,1.31025e+00
4.26200e+02,-7.48864e+00,-4.56461e+01,6.07354e-01,6.92793e-01,1.34490e+00
4.26200e+02,-6.73173e+00,-4.23857e+01,6.65233e-01,6.98299e-01,1.38036e+00
4.26200e+02,-5.95435e+00,-3.91252e+01,7.21779e-01,7.03803e-01,1.41668e+00
4.26200e+02,-5.15861e+00,-3.58648e+01,7.77130e-01,7.09298e-01,1.45370e+00
4.26200e+02,-4.34650e+00,-3.26044e+01,8.31414e-01,7.14780e-01,1.49130e+00
4.26200e+02,-3.52744e+00,-2.93439e+01,8.85247e-01,7.20243e-01,1.52968e+00
4.26200e+02,-2.69763e+00,-2.60835e+01,9.38379e-01,7.25684e-01,1.56857e+00
4.26200e+02,-1.86603e+00,-2.28231e+01,9.91394e-01,7.31102e-01,1.60823e+00
4.26200e+02,-1.02802e+00,-1.95626e+01,1.04399e+00,7.36495e-01,1.64839e+00
4.26200e+02,-1.90083e-01,-1.63022e+01,1.09660e+00,7.41861e-01,1.68926e+00
4.26200e+02,6.44682e-01,-1.30417e+01,1.14940e+00,7.47200e-01,1.73091e+00
4.26200e+02,1.47945e+00,-9.78131e+00,1.20221e+00,7.52510e-01,1.77317e+00
4.26200e+02,2.29445e+00,-6.52087e+00,1.25631e+00,7.57795e-01,1.81689e+00
4.26200e+02,3.10576e+00,-3.26044e+00,1.31065e+00,7.63057e-01,1.86133e+00
5.30600e+02,4.10127e+01,0.00000e+00,-9.38028e-01,7.15513e-01,1.55428e+00
5.30600e+02,4.08062e+01,-3.11654e+00,-1.01682e+00,7.10858e-01,1.59683e+00
5.30600e+02,4.05314e+01,-6.23307e+00,-1.09170e+00,7.06089e-01,1.63936e+00
5.30600e+02,4.02539e+01,-9.34961e+00,-1.16643e+00,7.01212e-01,1.68394e+00
5.30600e+02,3.99161e+01,-1.24661e+01,-1.23771e+00,6.96236e-01,1.72805e+00
5.30600e+02,3.95644e+01,-1.55827e+01,-1.30819e+00,6.91168e-01,1.77327e+00
5.30600e+02,3.91664e+01,-1.86992e+01,-1.37602e+00,6.86015e-01,1.81804e+00
5.30600e+02,3.87460e+01,-2.18158e+01,-1.44256e+00,6.80785e-01,1.86316e+00
5.30600e+02,3.82884e+01,-2.49323e+01,-1.50697e+00,6.75484e-01,1.90783e+00
5.30600e+02,3.78003e+01,-2.80488e+01,-1.56964e+00,6.70120e-01,1.95217e+00
5.30600e+02,3.72787e+01,-3.11654e+01,-1.63038e+00,6.64699e-01,1.99590e+00
5.30600e+02,3.67164e+01,-3.42819e+01,-1.68880e+00,6.59230e-01,2.03858e+00
5.30600e+02,3.61125e+01,-3.73984e+01,-1.74483e+00,6.53718e-01,2.08002e+00
5.30600e+02,3.54497e+01,-4.05150e+01,-1.79749e+00,6.48173e-01,2.11928e+00
5.30600e+02,3.47295e+01,-4.36315e+01,-1.84686e+00,6.42607e-01,2.15633e+00
5.30600e+02,3.39406e+01,-4.67480e+01,-1.89231e+00,6.37027e-01,2.19049e+00
5.30600e+02,3.30589e+01,-4.98646e+01,-1.93243e+00,6.31453e-01,2.22047e+00
5.30600e+02,3.21125e+01,-5.29811e+01,-1.96884e+00,6.25889e-01,2.24757e+00
5.30600e+02,3.10206e+01,-5.60976e+01,-1.99693e+00,6.20365e-01,2.26766e+00
5.30600e+02,2.98685e+01,-5.92142e+01,-2.02156e+00,6.14894e-01,2.28495e+00
5.30600e+02,2.85484e+01,-6.23307e+01,-2.03657e+00,6.09489e-01,2.29391e+00
5.30600e+02,2.70936e+01,-6.54473e+01,-2.04387e+00,6.04196e-01,2.29620e+00
5.30600e+02,2.55018e+01,-6.85638e+01,-2.04332e+00,5.99024e-01,2.29165e+00
5.30600e+02,2.36801e+01,-7.16803e+01,-2.02960e+00,5.93992e-01,2.27547e+00
5.30600e+02,2.15920e+01,-7.47969e+01,-2.00062e+00,5.89160e-01,2.24584e+00
5.30600e+02,1.92028e+01,-7.79134e+01,-1.95440e+00,5.84588e-01,2.20112e+00
5.30600e+02,1.63770e+01,-8.10299e+01,-1.88317e+00,5.80313e-01,2.13462e+00
5.30600e+02,1.27498e+01,-8.41465e+01,-1.76604e+00,5.76544e-01,2.02882e+00
5.30600e+02,7.84413e+00,-8.72630e+01,-1.57568e+00,5.74243e-01,1.86334e+00
5.30600e+02,-3.17838e+00,-9.03795e+01,-1.03497e+00,5.75156e-01,1.43652e+00
5.30600e+02,-3.97388e+00,-9.03868e+01,-9.89616e-01,5.77991e-01,1.40768e+00
5.30600e+02,-1.12214e+01,-8.71587e+01,-4.80632e-01,5.83367e-01,1.11891e+00
5.30600e+02,-1.20989e+01,-8.39306e+01,-3.36504e-01,5.87338e-01,1.07151e+00
5.30600e+02,-1.24018e+01,-8.07025e+01,-2.25293e-01,5.91517e-01,1.04902e+00
5.30600e+02,-1.24477e+01,-7.74744e+01,-1.28795e-01,5.95889e-01,1.04012e+00
5.30600e+02,-1.23001e+01,-7.42463e+01,-4.33799e-02,6.00421e-01,1.04086e+00
5.30600e+02,-1.20311e+01,-7.10182e+01,3.50792e-02,6.05085e-01,1.04862e+00
5.30600e+02,-1.16402e+01,-6.77901e+01,1.06554e-01,6.09855e-01,1.06166e+00
5.30600e+02,-1.11748e+01,-6.45620e+01,1.73769e-01,6.14707e-01,1.07879e+00
5.30600e+02,-1.06664e+01,-6.13339e+01,2.38512e-01,6.19629e-01,1.09941e+00
5.30600e+02,-1.00929e+01,-5.81058e+01,2.99533e-01,6.24607e-01,1.12255e+00
5.30600e+02,-9.47882e+00,-5.48777e+01,3.58227e-01,6.29628e-01,1.14788e+00
5.30600e+02,-8.82518e+00,-5.16496e+01,4.14655e-01,6.34682e-01,1.17491e+00
5.30600e+02,-8.13212e+00,-4.84215e+01,4.68826e-01,6.39757e-01,1.20319e+00
5.30600e+02,-7.41437e+00,-4.51934e+01,5.21583e-01,6.44846e-01,1.23269e+00
5.30600e+02,-6.66496e+00,-4.19653e+01,5.72526e-01,6.49941e-01,1.26296e+00
5.30600e+02,-5.89529e+00,-3.87372e+01,6.22309e-01,6.55033e-01,1.29401e+00
5.30600e+02,-5.10745e+00,-3.55091e+01,6.71051e-01,6.60118e-01,1.32574e+00
5.30600e+02,-4.30339e+00,-3.22810e+01,7.18864e-01,6.65190e-01,1.35801e+00
5.30600e+02,-3.49245e+00,-2.90529e+01,7.66283e-01,6.70245e-01,1.39100e+00
5.30600e+02,-2.67088e+00,-2.58248e+01,8.13093e-01,6.75280e-01,1.42448e+00
5.30600e+02,-1.84753e+00,-2.25967e+01,8.59801e-01,6.80294e-01,1.45865e+00
5.30600e+02,-1.01782e+00,-1.93686e+01,9.06145e-01,6.85284e-01,1.49330e+00
5.30600e+02,-1.88198e-01,-1.61405e+01,9.52494e-01,6.90248e-01,1.52859e+00
5.30600e+02,6.38288e-01,-1.29124e+01,9.99023e-01,6.95188e-01,1.56458e+00
5.30600e+02,1.46477e+00,-9.68430e+00,1.04555e+00,7.00102e-01,1.60113e+00
5.30600e+02,2.27169e+00,-6.45620e+00,1.09320e+00,7.04992e-01,1.63894e+00
5.30600e+02,3.07496e+00,-3.22810e+00,1.14106e+00,7.09861e-01,1.67742e+00
6.33500e+02,4.06078e+01,0.00000e+00,-8.09253e-01,6.61973e-01,1.40339e+00
6.33500e+02,4.04033e+01,-3.08576e+00,-8.77724e-01,6.57686e-01,1.43807e+00
6.33500e+02,4.01312e+01,-6.17153e+00,-9.42822e-01,6.53295e-01,1.47285e+00
6.33500e+02,3.98564e+01,-9.25729e+00,-1.00779e+00,6.48804e-01,1.50946e+00
6.33500e+02,3.95220e+01,-1.23431e+01,-1.06977e+00,6.44222e-01,1.54579e+00
6.33500e+02,3.91738e+01,-1.54288e+01,-1.13107e+00,6.39554e-01,1.58316e+00
6.33500e+02,3.87797e+01,-1.85146e+01,-1.19007e+00,6.34809e-01,1.62026e+00
6.33500e+02,3.83634e+01,-2.16004e+01,-1.24797e+00,6.29993e-01,1.65774e+00
6.33500e+02,3.79104e+01,-2.46861e+01,-1.30404e+00,6.25112e-01,1.69494e+00
6.33500e+02,3.74271e+01,-2.77719e+01,-1.35859e+00,6.20173e-01,1.73194e+00
6.33500e+02,3.69106e+01,-3.08576e+01,-1.41149e+00,6.15181e-01,1.76851e+00
6.33500e+02,3.63539e+01,-3.39434e+01,-1.46237e+00,6.10145e-01,1.80426e+00
6.33500e+02,3.57559e+01,-3.70292e+01,-1.51121e+00,6.05069e-01,1.83904e+00
6.33500e+02,3.50997e+01,-4.01149e+01,-1.55712e+00,5.99963e-01,1.87203e+00
6.33500e+02,3.43866e+01,-4.32007e+01,-1.60020e+00,5.94838e-01,1.90320e+00
6.33500e+02,3.36055e+01,-4.62865e+01,-1.63989e+00,5.89700e-01,1.93197e+00
6.33500e+02,3.27325e+01,-4.93722e+01,-1.67499e+00,5.84567e-01,1.95723e+00
6.33500e+02,3.17954e+01,-5.24580e+01,-1.70689e+00,5.79443e-01,1.98009e+00
6.33500e+02,3.07144e+01,-5.55438e+01,-1.73160e+00,5.74357e-01,1.99703e+00
6.33500e+02,2.95736e+01,-5.86295e+01,-1.75333e+00,5.69319e-01,2.01160e+00
6.33500e+02,2.82665e+01,-6.17153e+01,-1.76676e+00,5.64342e-01,2.01913e+00
6.33500e+02,2.68261e+01,-6.48011e+01,-1.77353e+00,5.59468e-01,2.02100e+00
6.33500e+02,2.52500e+01,-6.78868e+01,-1.77354e+00,5.54705e-01,2.01706e+00
6.33500e+02,2.34463e+01,-7.09726e+01,-1.76217e+00,5.50072e-01,2.00324e+00
6.33500e+02,2.13788e+01,-7.40584e+01,-1.73764e+00,5.45623e-01,1.97800e+00
6.33500e+02,1.90132e+01,-7.71441e+01,-1.69823e+00,5.41413e-01,1.93994e+00
6.33500e+02,1.62153e+01,-8.02299e+01,-1.63723e+00,5.37476e-01,1.88339e+00
6.33500e+02,1.26239e+01,-8.33156e+01,-1.53662e+00,5.34006e-01,1.79351e+00
6.33500e+02,7.76668e+00,-8.64014e+01,-1.37282e+00,5.31887e-01,1.65328e+00
6.33500e+02,-3.14700e+00,-8.94872e+01,-9.06668e-01,5.32728e-01,1.29362e+00
6.33500e+02,-3.93464e+00,-8.94943e+01,-8.67530e-01,5.35339e-01,1.26979e+00
6.33500e+02,-1.11106e+01,-8.62981e+01,-4.27794e-01,5.40289e-01,1.02895e+00
6.33500e+02,-1.19795e+01,-8.31019e+01,-3.02922e-01,5.43946e-01,9.89642e-01
6.33500e+02,-1.22793e+01,-7.99057e+01,-2.06458e-01,5.47794e-01,9.71009e-01
6.33500e+02,-1.23248e+01,-7.67094e+01,-1.22690e-01,5.51820e-01,9.63622e-01
6.33500e+02,-1.21787e+01,-7.35132e+01,-4.84869e-02,5.55993e-01,9.64227e-01
6.33500e+02,-1.19123e+01,-7.03170e+01,1.97134e-02,5.60288e-01,9.70647e-01
6.33500e+02,-1.15252e+01,-6.71208e+01,8.18864e-02,5.64680e-01,9.81476e-01
6.33500e+02,-1.10645e+01,-6.39245e+01,1.40383e-01,5.69148e-01,9.95739e-01
6.33500e+02,-1.05611e+01,-6.07283e+01,1.96747e-01,5.73680e-01,1.01293e+00
6.33500e+02,-9.99326e+00,-5.75321e+01,2.49898e-01,5.78264e-01,1.03229e+00
6.33500e+02,-9.38524e+00,-5.43358e+01,3.01041e-01,5.82887e-01,1.05352e+00
6.33500e+02,-8.73804e+00,-5.11396e+01,3.50229e-01,5.87541e-01,1.07623e+00
6.33500e+02,-8.05183e+00,-4.79434e+01,3.97469e-01,5.92215e-01,1.10006e+00
6.33500e+02,-7.34116e+00,-4.47472e+01,4.43489e-01,5.96901e-01,1.12497e+00
6.33500e+02,-6.59916e+00,-4.15509e+01,4.87943e-01,6.01592e-01,1.15058e+00
6.33500e+02,-5.83709e+00,-3.83547e+01,5.31396e-01,6.06281e-01,1.17691e+00
6.33500e+02,-5.05702e+00,-3.51585e+01,5.73951e-01,6.10963e-01,1.20385e+00
6.33500e+02,-4.26090e+00,-3.19623e+01,6.15704e-01,6.15634e-01,1.23130e+00
6.33500e+02,-3.45797e+00,-2.87660e+01,6.57118e-01,6.20288e-01,1.25940e+00
6.33500e+02,-2.64450e+00,-2.55698e+01,6.98005e-01,6.24925e-01,1.28795e+00
6.33500e+02,-1.82928e+00,-2.23736e+01,7.38805e-01,6.29541e-01,1.31712e+00
6.33500e+02,-1.00777e+00,-1.91774e+01,7.79290e-01,6.34136e-01,1.34673e+00
6.33500e+02,-1.86340e-01,-1.59811e+01,8.19780e-01,6.38707e-01,1.37691e+00
6.33500e+02,6.31986e-01,-1.27849e+01,8.60425e-01,6.43256e-01,1.40772e+00
6.33500e+02,1.45031e+00,-9.58868e+00,9.01070e-01,6.47781e-01,1.43902e+00
6.33500e+02,2.24926e+00,-6.39245e+00,9.42682e-01,6.52283e-01,1.47142e+00
6.33500e+02,3.04460e+00,-3.19623e+00,9.84474e-01,6.56766e-01,1.50440e+00
7.34700e+02,4.02095e+01,0.00000e+00,-6.91159e-01,6.08626e-01,1.26055e+00
7.34700e+02,4.00070e+01,-3.05550e+00,-7.50090e-01,6.04700e-01,1.28826e+00
7.34700e+02,3.97376e+01,-6.11100e+00,-8.06139e-01,6.00678e-01,1.31617e+00
7.34700e+02,3.94656e+01,-9.16651e+00,-8.62072e-01,5.96565e-01,1.34567e+00
7.34700e+02,3.91344e+01,-1.22220e+01,-9.15462e-01,5.92368e-01,1.37505e+00
7.34700e+02,3.87896e+01,-1.52775e+01,-9.68261e-01,5.88094e-01,1.40538e+00
7.34700e+02,3.83994e+01,-1.83330e+01,-1.01911e+00,5.83748e-01,1.43557e+00
7.34700e+02,3.79872e+01,-2.13885e+01,-1.06901e+00,5.79337e-01,1.46617e+00
7.34700e+02,3.75386e+01,-2.44440e+01,-1.11733e+00,5.74867e-01,1.49661e+00
7.34700e+02,3.70601e+01,-2.74995e+01,-1.16438e+00,5.70343e-01,1.52697e+00
7.34700e+02,3.65486e+01,-3.05550e+01,-1.21000e+00,5.65772e-01,1.55704e+00
7.34700e+02,3.59973e+01,-3.36105e+01,-1.25390e+00,5.61159e-01,1.58650e+00
7.34700e+02,3.54053e+01,-3.66660e+01,-1.29605e+00,5.56511e-01,1.61520e+00
7.34700e+02,3.47554e+01,-3.97215e+01,-1.33572e+00,5.51835e-01,1.64247e+00
7.34700e+02,3.40493e+01,-4.27770e+01,-1.37295e+00,5.47141e-01,1.66826e+00
7.34700e+02,3.32760e+01,-4.58325e+01,-1.40729e+00,5.42435e-01,1.69209e+00
7.34700e+02,3.24115e+01,-4.88880e+01,-1.43771e+00,5.37734e-01,1.71303e+00
7.34700e+02,3.14836e+01,-5.19435e+01,-1.46539e+00,5.33042e-01,1.73199e+00
7.34700e+02,3.04131e+01,-5.49990e+01,-1.48694e+00,5.28383e-01,1.74601e+00
7.34700e+02,2.92835e+01,-5.80545e+01,-1.50593e+00,5.23769e-01,1.75808e+00
7.34700e+02,2.79893e+01,-6.11100e+01,-1.51783e+00,5.19211e-01,1.76424e+00
7.34700e+02,2.65630e+01,-6.41655e+01,-1.52405e+00,5.14748e-01,1.76568e+00
7.34700e+02,2.50024e+01,-6.72210e+01,-1.52448e+00,5.10386e-01,1.76225e+00
7.34700e+02,2.32164e+01,-7.02765e+01,-1.51520e+00,5.06142e-01,1.75053e+00
7.34700e+02,2.11691e+01,-7.33320e+01,-1.49467e+00,5.02068e-01,1.72923e+00
7.34700e+02,1.88268e+01,-7.63875e+01,-1.46142e+00,4.98212e-01,1.69717e+00
7.34700e+02,1.60563e+01,-7.94430e+01,-1.40973e+00,4.94607e-01,1.64962e+00
7.34700e+02,1.25001e+01,-8.24985e+01,-1.32420e+00,4.91429e-01,1.57417e+00
7.34700e+02,7.69051e+00,-8.55540e+01,-1.18468e+00,4.89489e-01,1.45680e+00
7.34700e+02,-3.11614e+00,-8.86096e+01,-7.86832e-01,4.90259e-01,1.15766e+00
7.34700e+02,-3.89606e+00,-8.86166e+01,-7.53393e-01,4.92650e-01,1.13829e+00
7.34700e+02,-1.10017e+01,-8.54518e+01,-3.77239e-01,4.97184e-01,9.40151e-01
7.34700e+02,-1.18620e+01,-8.22869e+01,-2.70105e-01,5.00533e-01,9.08050e-01
7.34700e+02,-1.21589e+01,-7.91220e+01,-1.87241e-01,5.04057e-01,8.92905e-01
7.34700e+02,-1.22039e+01,-7.59571e+01,-1.15226e-01,5.07744e-01,8.86955e-01
7.34700e+02,-1.20592e+01,-7.27922e+01,-5.13825e-02,5.11566e-01,8.87546e-01
7.34700e+02,-1.17955e+01,-6.96274e+01,7.33208e-03,5.15499e-01,8.92901e-01
7.34700e+02,-1.14122e+01,-6.64625e+01,6.08969e-02,5.19522e-01,9.01897e-01
7.34700e+02,-1.09560e+01,-6.32976e+01,1.11321e-01,5.23614e-01,9.13732e-01
7.34700e+02,-1.04575e+01,-6.01327e+01,1.59922e-01,5.27765e-01,9.27999e-01
7.34700e+02,-9.89525e+00,-5.69678e+01,2.05779e-01,5.31963e-01,9.44086e-01
7.34700e+02,-9.29319e+00,-5.38030e+01,2.49920e-01,5.36197e-01,9.61759e-01
7.34700e+02,-8.65235e+00,-5.06381e+01,2.92390e-01,5.40459e-01,9.80703e-01
7.34700e+02,-7.97287e+00,-4.74732e+01,3.33197e-01,5.44739e-01,1.00062e+00
7.34700e+02,-7.26917e+00,-4.43083e+01,3.72960e-01,5.49030e-01,1.02147e+00
7.34700e+02,-6.53444e+00,-4.11434e+01,4.11386e-01,5.53327e-01,1.04295e+00
7.34700e+02,-5.77984e+00,-3.79786e+01,4.48957e-01,5.57621e-01,1.06508e+00
7.34700e+02,-5.00742e+00,-3.48137e+01,4.85760e-01,5.61909e-01,1.08774e+00
7.34700e+02,-4.21911e+00,-3.16488e+01,5.21878e-01,5.66186e-01,1.11088e+00
7.34700e+02,-3.42406e+00,-2.84839e+01,5.57706e-01,5.70449e-01,1.13458e+00
7.34700e+02,-2.61857e+00,-2.53190e+01,5.93084e-01,5.74695e-01,1.15869e+00
7.34700e+02,-1.81134e+00,-2.21542e+01,6.28388e-01,5.78923e-01,1.18335e+00
7.34700e+02,-9.97887e-01,-1.89893e+01,6.63423e-01,5.83131e-01,1.20841e+00
7.34700e+02,-1.84513e-01,-1.58244e+01,6.98462e-01,5.87317e-01,1.23397e+00
7.34700e+02,6.25788e-01,-1.26595e+01,7.33633e-01,5.91483e-01,1.26007e+00
7.34700e+02,1.43609e+00,-9.49464e+00,7.68804e-01,5.95627e-01,1.28661e+00
7.34700e+02,2.22720e+00,-6.32976e+00,8.04802e-01,5.99750e-01,1.31408e+00
7.34700e+02,3.01474e+00,-3.16488e+00,8.40953e-01,6.03856e-01,1.34206e+00
8.33800e+02,3.98196e+01,0.00000e+00,-5.83945e-01,5.55739e-01,1.12585e+00
8.33800e+02,3.96190e+01,-3.02587e+00,-6.34143e-01,5.52164e-01,1.14752e+00
8.33800e+02,3.93522e+01,-6.05173e+00,-6.81904e-01,5.48502e-01,1.16943e+00
8.33800e+02,3.90828e+01,-9.07760e+00,-7.29568e-01,5.44757e-01,1.19271e+00
8.33800e+02,3.87549e+01,-1.21035e+01,-7.75082e-01,5.40935e-01,1.21597e+00
8.33800e+02,3.84134e+01,-1.51293e+01,-8.20097e-01,5.37043e-01,1.24008e+00
8.33800e+02,3.80270e+01,-1.81552e+01,-8.63461e-01,5.33086e-01,1.26416e+00
8.33800e+02,3.76188e+01,-2.11811e+01,-9.06024e-01,5.29070e-01,1.28865e+00
8.33800e+02,3.71745e+01,-2.42069e+01,-9.47260e-01,5.24999e-01,1.31308e+00
8.33800e+02,3.67006e+01,-2.72328e+01,-9.87407e-01,5.20880e-01,1.33751e+00
8.33800e+02,3.61941e+01,-3.02587e+01,-1.02636e+00,5.16718e-01,1.36176e+00
8.33800e+02,3.56482e+01,-3.32845e+01,-1.06385e+00,5.12518e-01,1.38557e+00
8.33800e+02,3.50619e+01,-3.63104e+01,-1.09987e+00,5.08285e-01,1.40882e+00
8.33800e+02,3.44183e+01,-3.93363e+01,-1.13378e+00,5.04027e-01,1.43094e+00
8.33800e+02,3.37191e+01,-4.23621e+01,-1.16564e+00,4.99753e-01,1.45189e+00
8.33800e+02,3.29532e+01,-4.53880e+01,-1.19505e+00,4.95468e-01,1.47126e+00
8.33800e+02,3.20971e+01,-4.84139e+01,-1.22114e+00,4.91188e-01,1.48828e+00
8.33800e+02,3.11783e+01,-5.14397e+01,-1.24493e+00,4.86915e-01,1.50370e+00
8.33800e+02,3.01182e+01,-5.44656e+01,-1.26353e+00,4.82673e-01,1.51506e+00
8.33800e+02,2.89995e+01,-5.74915e+01,-1.27997e+00,4.78472e-01,1.52483e+00
8.33800e+02,2.77178e+01,-6.05173e+01,-1.29041e+00,4.74322e-01,1.52974e+00
8.33800e+02,2.63054e+01,-6.35432e+01,-1.29605e+00,4.70257e-01,1.53074e+00
8.33800e+02,2.47599e+01,-6.65691e+01,-1.29680e+00,4.66286e-01,1.52773e+00
8.33800e+02,2.29912e+01,-6.95949e+01,-1.28934e+00,4.62422e-01,1.51786e+00
8.33800e+02,2.09638e+01,-7.26208e+01,-1.27237e+00,4.58712e-01,1.50006e+00
8.33800e+02,1.86442e+01,-7.56467e+01,-1.24465e+00,4.55201e-01,1.47336e+00
8.33800e+02,1.59005e+01,-7.86725e+01,-1.20135e+00,4.51919e-01,1.43385e+00
8.33800e+02,1.23789e+01,-8.16984e+01,-1.12944e+00,4.49025e-01,1.37131e+00
8.33800e+02,7.61592e+00,-8.47243e+01,-1.01189e+00,4.47258e-01,1.27438e+00
8.33800e+02,-3.08591e+00,-8.77501e+01,-6.75979e-01,4.47960e-01,1.02905e+00
8.33800e+02,-3.85827e+00,-8.77572e+01,-6.47715e-01,4.50137e-01,1.01361e+00
8.33800e+02,-1.08950e+01,-8.46230e+01,-3.29363e-01,4.54265e-01,8.52965e-01
8.33800e+02,-1.17470e+01,-8.14888e+01,-2.38406e-01,4.57314e-01,8.27192e-01
8.33800e+02,-1.20409e+01,-7.83546e+01,-1.67965e-01,4.60523e-01,8.15143e-01
8.33800e+02,-1.20856e+01,-7.52204e+01,-1.06693e-01,4.63881e-01,8.10518e-01
8.33800e+02,-1.19423e+01,-7.20862e+01,-5.23296e-02,4.67361e-01,8.11182e-01
8.33800e+02,-1.16811e+01,-6.89521e+01,-2.30084e-03,4.70942e-01,8.15699e-01
8.33800e+02,-1.13015e+01,-6.58179e+01,4.33749e-02,4.74605e-01,8.23184e-01
8.33800e+02,-1.08497e+01,-6.26837e+01,8.63955e-02,4.78331e-01,8.32986e-01
8.33800e+02,-1.03561e+01,-5.95495e+01,1.27876e-01,4.82111e-01,8.44775e-01
8.33800e+02,-9.79928e+00,-5.64153e+01,1.67036e-01,4.85933e-01,8.58076e-01
8.33800e+02,-9.20306e+00,-5.32811e+01,2.04746e-01,4.89789e-01,8.72697e-01
8.33800e+02,-8.56843e+00,-5.01469e+01,2.41044e-01,4.93669e-01,8.88386e-01
8.33800e+02,-7.89554e+00,-4.70128e+01,2.75936e-01,4.97566e-01,9.04907e-01
8.33800e+02,-7.19866e+00,-4.38786e+01,3.09945e-01,5.01474e-01,9.22223e-01
8.33800e+02,-6.47106e+00,-4.07444e+01,3.42825e-01,5.05386e-01,9.40093e-01
8.33800e+02,-5.72378e+00,-3.76102e+01,3.74981e-01,5.09296e-01,9.58519e-01
8.33800e+02,-4.95886e+00,-3.44760e+01,4.06488e-01,5.13201e-01,9.77425e-01
8.33800e+02,-4.17819e+00,-3.13418e+01,4.37417e-01,5.17095e-01,9.96743e-01
8.33800e+02,-3.39085e+00,-2.82077e+01,4.68100e-01,5.20977e-01,1.01655e+00
8.33800e+02,-2.59317e+00,-2.50735e+01,4.98404e-01,5.24843e-01,1.03672e+00
8.33800e+02,-1.79378e+00,-2.19393e+01,5.28644e-01,5.28692e-01,1.05736e+00
8.33800e+02,-9.88209e-01,-1.88051e+01,5.58657e-01,5.32524e-01,1.07835e+00
8.33800e+02,-1.82723e-01,-1.56709e+01,5.88673e-01,5.36336e-01,1.09977e+00
8.33800e+02,6.19718e-01,-1.25367e+01,6.18801e-01,5.40129e-01,1.12167e+00
8.33800e+02,1.42216e+00,-9.40255e+00,6.48929e-01,5.43902e-01,1.14394e+00
8.33800e+02,2.20560e+00,-6.26837e+00,6.79756e-01,5.47656e-01,1.16698e+00
8.33800e+02,2.98550e+00,-3.13418e+00,7.10712e-01,5.51395e-01,1.19047e+00
9.30700e+02,3.94382e+01,0.00000e+00,-4.87368e-01,5.03311e-01,9.98745e-01
9.30700e+02,3.92396e+01,-2.99689e+00,-5.29632e-01,5.00077e-01,1.01525e+00
9.30700e+02,3.89754e+01,-5.99378e+00,-5.69862e-01,4.96764e-01,1.03202e+00
9.30700e+02,3.87085e+01,-8.99067e+00,-6.10010e-01,4.93376e-01,1.04994e+00
9.30700e+02,3.83837e+01,-1.19876e+01,-6.48362e-01,4.89920e-01,1.06791e+00
9.30700e+02,3.80455e+01,-1.49844e+01,-6.86298e-01,4.86399e-01,1.08663e+00
9.30700e+02,3.76628e+01,-1.79813e+01,-7.22855e-01,4.82819e-01,1.10538e+00
9.30700e+02,3.72585e+01,-2.09782e+01,-7.58743e-01,4.79186e-01,1.12452e+00
9.30700e+02,3.68185e+01,-2.39751e+01,-7.93524e-01,4.75504e-01,1.14368e+00
9.30700e+02,3.63492e+01,-2.69720e+01,-8.27395e-01,4.71778e-01,1.16289e+00
9.30700e+02,3.58475e+01,-2.99689e+01,-8.60265e-01,4.68013e-01,1.18202e+00
9.30700e+02,3.53068e+01,-3.29658e+01,-8.91924e-01,4.64214e-01,1.20084e+00
9.30700e+02,3.47261e+01,-3.59627e+01,-9.22342e-01,4.60385e-01,1.21925e+00
9.30700e+02,3.40887e+01,-3.89596e+01,-9.51004e-01,4.56534e-01,1.23680e+00
9.30700e+02,3.33962e+01,-4.19565e+01,-9.77955e-01,4.52667e-01,1.25344e+00
9.30700e+02,3.26376e+01,-4.49533e+01,-1.00286e+00,4.48791e-01,1.26885e+00
9.30700e+02,3.17897e+01,-4.79502e+01,-1.02500e+00,4.44919e-01,1.28237e+00
9.30700e+02,3.08797e+01,-5.09471e+01,-1.04520e+00,4.41055e-01,1.29462e+00
9.30700e+02,2.98297e+01,-5.39440e+01,-1.06108e+00,4.37218e-01,1.30360e+00
9.30700e+02,2.87218e+01,-5.69409e+01,-1.07515e+00,4.33417e-01,1.31130e+00
9.30700e+02,2.74524e+01,-5.99378e+01,-1.08422e+00,4.29663e-01,1.31505e+00
9.30700e+02,2.60534e+01,-6.29347e+01,-1.08927e+00,4.25987e-01,1.31564e+00
9.30700e+02,2.45228e+01,-6.59316e+01,-1.09024e+00,4.22394e-01,1.31296e+00
9.30700e+02,2.27710e+01,-6.89285e+01,-1.08435e+00,4.18899e-01,1.30470e+00
9.30700e+02,2.07631e+01,-7.19254e+01,-1.07053e+00,4.15544e-01,1.28998e+00
9.30700e+02,1.84656e+01,-7.49222e+01,-1.04773e+00,4.12368e-01,1.26802e+00
9.30700e+02,1.57483e+01,-7.79191e+01,-1.01191e+00,4.09399e-01,1.23563e+00
9.30700e+02,1.22603e+01,-8.09160e+01,-9.52197e-01,4.06781e-01,1.18452e+00
9.30700e+02,7.54299e+00,-8.39129e+01,-8.54376e-01,4.05183e-01,1.10566e+00
9.30700e+02,-3.05636e+00,-8.69098e+01,-5.74207e-01,4.05818e-01,9.07622e-01
9.30700e+02,-3.82132e+00,-8.69168e+01,-5.50604e-01,4.07787e-01,8.95565e-01
9.30700e+02,-1.07906e+01,-8.38126e+01,-2.84394e-01,4.11521e-01,7.67417e-01
9.30700e+02,-1.16345e+01,-8.07084e+01,-2.08080e-01,4.14280e-01,7.47115e-01
9.30700e+02,-1.19256e+01,-7.76042e+01,-1.48898e-01,4.17182e-01,7.37763e-01
9.30700e+02,-1.19698e+01,-7.45001e+01,-9.73740e-02,4.20220e-01,7.34326e-01
9.30700e+02,-1.18279e+01,-7.13959e+01,-5.16187e-02,4.23367e-01,7.35108e-01
9.30700e+02,-1.15692e+01,-6.82917e+01,-9.48353e-03,4.26607e-01,7.38966e-01
9.30700e+02,-1.11933e+01,-6.51876e+01,2.90166e-02,4.29920e-01,7.45209e-01
9.30700e+02,-1.07458e+01,-6.20834e+01,6.52993e-02,4.33291e-01,7.53317e-01
9.30700e+02,-1.02569e+01,-5.89792e+01,1.00296e-01,4.36709e-01,7.63023e-01
9.30700e+02,-9.70544e+00,-5.58751e+01,1.33355e-01,4.40167e-01,7.73967e-01
9.30700e+02,-9.11493e+00,-5.27709e+01,1.65203e-01,4.43655e-01,7.85990e-01
9.30700e+02,-8.48637e+00,-4.96667e+01,1.95872e-01,4.47165e-01,7.98896e-01
9.30700e+02,-7.81993e+00,-4.65625e+01,2.25366e-01,4.50690e-01,8.12499e-01
9.30700e+02,-7.12973e+00,-4.34584e+01,2.54123e-01,4.54225e-01,8.26764e-01
9.30700e+02,-6.40909e+00,-4.03542e+01,2.81937e-01,4.57763e-01,8.41505e-01
9.30700e+02,-5.66897e+00,-3.72500e+01,3.09147e-01,4.61300e-01,8.56718e-01
9.30700e+02,-4.91137e+00,-3.41459e+01,3.35816e-01,4.64832e-01,8.72341e-01
9.30700e+02,-4.13818e+00,-3.10417e+01,3.62000e-01,4.68355e-01,8.88320e-01
9.30700e+02,-3.35837e+00,-2.79375e+01,3.87980e-01,4.71866e-01,9.04710e-01
9.30700e+02,-2.56834e+00,-2.48334e+01,4.13643e-01,4.75363e-01,9.21417e-01
9.30700e+02,-1.77660e+00,-2.17292e+01,4.39253e-01,4.78845e-01,9.38520e-01
9.30700e+02,-9.78745e-01,-1.86250e+01,4.64673e-01,4.82310e-01,9.55924e-01
9.30700e+02,-1.80973e-01,-1.55208e+01,4.90096e-01,4.85759e-01,9.73693e-01
9.30700e+02,6.13784e-01,-1.24167e+01,5.15612e-01,4.89190e-01,9.91854e-01
9.30700e+02,1.40854e+00,-9.31251e+00,5.41128e-01,4.92602e-01,1.01034e+00
9.30700e+02,2.18448e+00,-6.20834e+00,5.67228e-01,4.95998e-01,1.02946e+00
9.30700e+02,2.95691e+00,-3.10417e+00,5.93436e-01,4.99380e-01,1.04896e+00
1.02500e+03,3.90671e+01,0.00000e+00,-4.01332e-01,4.51693e-01,8.79288e-01
1.02500e+03,3.88704e+01,-2.96869e+00,-4.36469e-01,4.48785e-01,8.91475e-01
1.02500e+03,3.86086e+01,-5.93738e+00,-4.69929e-01,4.45805e-01,9.03913e-01
1.02500e+03,3.83443e+01,-8.90607e+00,-5.03322e-01,4.42758e-01,9.17298e-01
1.02500e+03,3.80226e+01,-1.18748e+01,-5.35235e-01,4.39649e-01,9.30779e-01
1.02500e+03,3.76875e+01,-1.48435e+01,-5.66805e-01,4.36482e-01,9.44890e-01
1.02500e+03,3.73084e+01,-1.78121e+01,-5.97238e-01,4.33262e-01,9.59084e-01
1.02500e+03,3.69079e+01,-2.07808e+01,-6.27121e-01,4.29994e-01,9.73636e-01
1.02500e+03,3.64721e+01,-2.37495e+01,-6.56090e-01,4.26683e-01,9.88245e-01
1.02500e+03,3.60071e+01,-2.67182e+01,-6.84310e-01,4.23331e-01,1.00295e+00
1.02500e+03,3.55102e+01,-2.96869e+01,-7.11706e-01,4.19945e-01,1.01764e+00
1.02500e+03,3.49746e+01,-3.26556e+01,-7.38103e-01,4.16527e-01,1.03212e+00
1.02500e+03,3.43994e+01,-3.56243e+01,-7.63478e-01,4.13084e-01,1.04633e+00
1.02500e+03,3.37680e+01,-3.85930e+01,-7.87406e-01,4.09619e-01,1.05989e+00
1.02500e+03,3.30819e+01,-4.15617e+01,-8.09923e-01,4.06142e-01,1.07277e+00
1.02500e+03,3.23305e+01,-4.45304e+01,-8.30756e-01,4.02656e-01,1.08469e+00
1.02500e+03,3.14906e+01,-4.74990e+01,-8.49305e-01,3.99173e-01,1.09514e+00
1.02500e+03,3.05891e+01,-5.04677e+01,-8.66266e-01,3.95697e-01,1.10460e+00
1.02500e+03,2.95491e+01,-5.34364e+01,-8.79654e-01,3.92246e-01,1.11147e+00
1.02500e+03,2.84516e+01,-5.64051e+01,-8.91561e-01,3.88828e-01,1.11734e+00
1.02500e+03,2.71940e+01,-5.93738e+01,-8.99340e-01,3.85451e-01,1.12006e+00
1.02500e+03,2.58083e+01,-6.23425e+01,-9.03813e-01,3.82145e-01,1.12026e+00
1.02500e+03,2.42920e+01,-6.53112e+01,-9.04920e-01,3.78913e-01,1.11786e+00
1.02500e+03,2.25567e+01,-6.82799e+01,-9.00378e-01,3.75770e-01,1.11099e+00
1.02500e+03,2.05677e+01,-7.12486e+01,-8.89292e-01,3.72751e-01,1.09894e+00
1.02500e+03,1.82919e+01,-7.42173e+01,-8.70810e-01,3.69895e-01,1.08110e+00
1.02500e+03,1.56001e+01,-7.71859e+01,-8.41601e-01,3.67225e-01,1.05492e+00
1.02500e+03,1.21450e+01,-8.01546e+01,-7.92706e-01,3.64870e-01,1.01379e+00
1.02500e+03,7.47201e+00,-8.31233e+01,-7.12404e-01,3.63433e-01,9.50668e-01
1.02500e+03,-3.02760e+00,-8.60920e+01,-4.81835e-01,3.64004e-01,7.93512e-01
1.02500e+03,-3.78536e+00,-8.60989e+01,-4.62386e-01,3.65775e-01,7.84331e-01
1.02500e+03,-1.06891e+01,-8.30239e+01,-2.42692e-01,3.69134e-01,6.83871e-01
1.02500e+03,-1.15250e+01,-7.99490e+01,-1.79486e-01,3.71615e-01,6.68213e-01
1.02500e+03,-1.18134e+01,-7.68740e+01,-1.30397e-01,3.74226e-01,6.61165e-01
1.02500e+03,-1.18572e+01,-7.37991e+01,-8.76183e-02,3.76958e-01,6.58763e-01
1.02500e+03,-1.17166e+01,-7.07241e+01,-4.95937e-02,3.79789e-01,6.59681e-01
1.02500e+03,-1.14604e+01,-6.76491e+01,-1.45522e-02,3.82703e-01,6.63021e-01
1.02500e+03,-1.10880e+01,-6.45742e+01,1.74936e-02,3.85683e-01,6.68252e-01
1.02500e+03,-1.06447e+01,-6.14992e+01,4.77122e-02,3.88714e-01,6.74962e-01
1.02500e+03,-1.01604e+01,-5.84243e+01,7.68709e-02,3.91789e-01,6.82939e-01
1.02500e+03,-9.61411e+00,-5.53493e+01,1.04433e-01,3.94900e-01,6.91913e-01
1.02500e+03,-9.02916e+00,-5.22743e+01,1.30997e-01,3.98036e-01,7.01754e-01
1.02500e+03,-8.40652e+00,-4.91994e+01,1.56590e-01,4.01193e-01,7.12312e-01
1.02500e+03,-7.74634e+00,-4.61244e+01,1.81214e-01,4.04364e-01,7.23443e-01
1.02500e+03,-7.06264e+00,-4.30495e+01,2.05231e-01,4.07543e-01,7.35115e-01
1.02500e+03,-6.34878e+00,-3.99745e+01,2.28471e-01,4.10726e-01,7.47186e-01
1.02500e+03,-5.61563e+00,-3.68995e+01,2.51213e-01,4.13907e-01,7.59649e-01
1.02500e+03,-4.86516e+00,-3.38246e+01,2.73509e-01,4.17084e-01,7.72453e-01
1.02500e+03,-4.09924e+00,-3.07496e+01,2.95406e-01,4.20252e-01,7.85558e-01
1.02500e+03,-3.32677e+00,-2.76746e+01,3.17135e-01,4.23410e-01,7.99001e-01
1.02500e+03,-2.54417e+00,-2.45997e+01,3.38602e-01,4.26555e-01,8.12711e-01
1.02500e+03,-1.75988e+00,-2.15247e+01,3.60025e-01,4.29687e-01,8.26747e-01
1.02500e+03,-9.69535e-01,-1.84498e+01,3.81292e-01,4.32804e-01,8.41037e-01
1.02500e+03,-1.79270e-01,-1.53748e+01,4.02562e-01,4.35906e-01,8.55627e-01
1.02500e+03,6.08008e-01,-1.22998e+01,4.23908e-01,4.38992e-01,8.70540e-01
1.02500e+03,1.39529e+00,-9.22488e+00,4.45254e-01,4.42061e-01,8.85723e-01
1.02500e+03,2.16392e+00,-6.14992e+00,4.67082e-01,4.45116e-01,9.01415e-01
1.02500e+03,2.92908e+00,-3.07496e+00,4.88998e-01,4.48157e-01,9.17417e-01
1.11650e+03,3.87070e+01,0.00000e+00,-3.25505e-01,4.00835e-01,7.66785e-01
1.11650e+03,3.85121e+01,-2.94133e+00,-3.54306e-01,3.98244e-01,7.75453e-01
1.11650e+03,3.82528e+01,-5.88266e+00,-3.81746e-01,3.95589e-01,7.84348e-01
1.11650e+03,3.79909e+01,-8.82398e+00,-4.09131e-01,3.92874e-01,7.94002e-01
1.11650e+03,3.76721e+01,-1.17653e+01,-4.35315e-01,3.90105e-01,8.03769e-01
1.11650e+03,3.73401e+01,-1.47066e+01,-4.61221e-01,3.87283e-01,8.14058e-01
1.11650e+03,3.69645e+01,-1.76480e+01,-4.86204e-01,3.84415e-01,8.24451e-01
1.11650e+03,3.65678e+01,-2.05893e+01,-5.10740e-01,3.81504e-01,8.35159e-01
1.11650e+03,3.61359e+01,-2.35306e+01,-5.34534e-01,3.78553e-01,8.45952e-01
1.11650e+03,3.56753e+01,-2.64720e+01,-5.57721e-01,3.75568e-01,8.56858e-01
1.11650e+03,3.51829e+01,-2.94133e+01,-5.80237e-01,3.72551e-01,8.67789e-01
1.11650e+03,3.46522e+01,-3.23546e+01,-6.01943e-01,3.69506e-01,8.78601e-01
1.11650e+03,3.40823e+01,-3.52959e+01,-6.22820e-01,3.66438e-01,8.89233e-01
1.11650e+03,3.34567e+01,-3.82373e+01,-6.42522e-01,3.63352e-01,8.99393e-01
1.11650e+03,3.27770e+01,-4.11786e+01,-6.61079e-01,3.60254e-01,9.09051e-01
1.11650e+03,3.20325e+01,-4.41199e+01,-6.78267e-01,3.57148e-01,9.17993e-01
1.11650e+03,3.12004e+01,-4.70612e+01,-6.93603e-01,3.54046e-01,9.25813e-01
1.11650e+03,3.03072e+01,-5.00026e+01,-7.07649e-01,3.50949e-01,9.32879e-01
1.11650e+03,2.92767e+01,-5.29439e+01,-7.18794e-01,3.47875e-01,9.37931e-01
1.11650e+03,2.81893e+01,-5.58852e+01,-7.28737e-01,3.44829e-01,9.42220e-01
1.11650e+03,2.69434e+01,-5.88266e+01,-7.35330e-01,3.41821e-01,9.44053e-01
1.11650e+03,2.55704e+01,-6.17679e+01,-7.39238e-01,3.38876e-01,9.43918e-01
1.11650e+03,2.40681e+01,-6.47092e+01,-7.40413e-01,3.35997e-01,9.41750e-01
1.11650e+03,2.23488e+01,-6.76505e+01,-7.37003e-01,3.33196e-01,9.36073e-01
1.11650e+03,2.03781e+01,-7.05919e+01,-7.28281e-01,3.30508e-01,9.26336e-01
1.11650e+03,1.81233e+01,-7.35332e+01,-7.13554e-01,3.27963e-01,9.12052e-01
1.11650e+03,1.54563e+01,-7.64745e+01,-6.90119e-01,3.25584e-01,8.91223e-01
1.11650e+03,1.20330e+01,-7.94159e+01,-6.50702e-01,3.23487e-01,8.58688e-01
1.11650e+03,7.40314e+00,-8.23572e+01,-5.85790e-01,3.22206e-01,8.09074e-01
1.11650e+03,-2.99970e+00,-8.52985e+01,-3.98891e-01,3.22715e-01,6.86694e-01
1.11650e+03,-3.75047e+00,-8.53053e+01,-3.83103e-01,3.24293e-01,6.79901e-01
1.11650e+03,-1.05906e+01,-8.22587e+01,-2.04468e-01,3.27285e-01,6.02623e-01
1.11650e+03,-1.14188e+01,-7.92121e+01,-1.52870e-01,3.29496e-01,5.90823e-01
1.11650e+03,-1.17045e+01,-7.61655e+01,-1.12732e-01,3.31822e-01,5.85684e-01
1.11650e+03,-1.17479e+01,-7.31189e+01,-7.77177e-02,3.34255e-01,5.84140e-01
1.11650e+03,-1.16086e+01,-7.00722e+01,-4.65622e-02,3.36778e-01,5.85171e-01
1.11650e+03,-1.13547e+01,-6.70256e+01,-1.78286e-02,3.39374e-01,5.88083e-01
1.11650e+03,-1.09858e+01,-6.39790e+01,8.47325e-03,3.42028e-01,5.92471e-01
1.11650e+03,-1.05466e+01,-6.09324e+01,3.32917e-02,3.44729e-01,5.98016e-01
1.11650e+03,-1.00667e+01,-5.78858e+01,5.72498e-02,3.47468e-01,6.04550e-01
1.11650e+03,-9.52550e+00,-5.48391e+01,7.99117e-02,3.50239e-01,6.11873e-01
1.11650e+03,-8.94594e+00,-5.17925e+01,1.01764e-01,3.53033e-01,6.19882e-01
1.11650e+03,-8.32904e+00,-4.87459e+01,1.22826e-01,3.55846e-01,6.28463e-01
1.11650e+03,-7.67495e+00,-4.56993e+01,1.43103e-01,3.58671e-01,6.37505e-01
1.11650e+03,-6.99754e+00,-4.26527e+01,1.62888e-01,3.61503e-01,6.46982e-01
1.11650e+03,-6.29027e+00,-3.96060e+01,1.82041e-01,3.64338e-01,6.56785e-01
1.11650e+03,-5.56387e+00,-3.65594e+01,2.00790e-01,3.67173e-01,6.66906e-01
1.11650e+03,-4.82031e+00,-3.35128e+01,2.19177e-01,3.70002e-01,6.77306e-01
1.11650e+03,-4.06146e+00,-3.04662e+01,2.37240e-01,3.72825e-01,6.87952e-01
1.11650e+03,-3.29611e+00,-2.74196e+01,2.55166e-01,3.75638e-01,6.98872e-01
1.11650e+03,-2.52072e+00,-2.43730e+01,2.72880e-01,3.78440e-01,7.10010e-01
1.11650e+03,-1.74366e+00,-2.13263e+01,2.90558e-01,3.81230e-01,7.21411e-01
1.11650e+03,-9.60599e-01,-1.82797e+01,3.08110e-01,3.84007e-01,7.33018e-01
1.11650e+03,-1.77618e-01,-1.52331e+01,3.25663e-01,3.86770e-01,7.44869e-01
1.11650e+03,6.02404e-01,-1.21865e+01,3.43279e-01,3.89519e-01,7.56978e-01
1.11650e+03,1.38243e+00,-9.13986e+00,3.60895e-01,3.92253e-01,7.69307e-01
1.11650e+03,2.14398e+00,-6.09324e+00,3.78902e-01,3.94974e-01,7.82036e-01
1.11650e+03,2.90209e+00,-3.04662e+00,3.96981e-01,3.97684e-01,7.95016e-01
1.20500e+03,3.76912e+01,0.00000e+00,-3.68137e-01,3.82381e-01,7.57740e-01
1.20500e+03,3.75014e+01,-2.86413e+00,-3.96161e-01,3.79168e-01,7.66974e-01
1.20500e+03,3.72488e+01,-5.72827e+00,-4.22631e-01,3.75877e-01,7.76189e-01
1.20500e+03,3.69938e+01,-8.59240e+00,-4.49040e-01,3.72512e-01,7.86086e-01
1.20500e+03,3.66834e+01,-1.14565e+01,-4.74078e-01,3.69077e-01,7.95867e-01
1.20500e+03,3.63602e+01,-1.43207e+01,-4.98798e-01,3.65579e-01,8.06066e-01
1.20500e+03,3.59944e+01,-1.71848e+01,-5.22466e-01,3.62022e-01,8.16180e-01
1.20500e+03,3.56080e+01,-2.00489e+01,-5.45622e-01,3.58411e-01,8.26487e-01
1.20500e+03,3.51875e+01,-2.29131e+01,-5.67934e-01,3.54752e-01,8.36717e-01
1.20500e+03,3.47390e+01,-2.57772e+01,-5.89551e-01,3.51049e-01,8.46921e-01
1.20500e+03,3.42596e+01,-2.86413e+01,-6.10404e-01,3.47306e-01,8.57005e-01
1.20500e+03,3.37428e+01,-3.15055e+01,-6.30332e-01,3.43530e-01,8.66808e-01
1.20500e+03,3.31878e+01,-3.43696e+01,-6.49314e-01,3.39724e-01,8.76267e-01
1.20500e+03,3.25787e+01,-3.72337e+01,-6.66954e-01,3.35895e-01,8.85045e-01
1.20500e+03,3.19168e+01,-4.00979e+01,-6.83289e-01,3.32051e-01,8.93117e-01
1.20500e+03,3.11919e+01,-4.29620e+01,-6.98063e-01,3.28197e-01,9.00240e-01
1.20500e+03,3.03815e+01,-4.58261e+01,-7.10721e-01,3.24348e-01,9.05941e-01
1.20500e+03,2.95118e+01,-4.86903e+01,-7.21909e-01,3.20505e-01,9.10672e-01
1.20500e+03,2.85084e+01,-5.15544e+01,-7.29787e-01,3.16690e-01,9.12943e-01
1.20500e+03,2.74495e+01,-5.44186e+01,-7.36292e-01,3.12911e-01,9.14256e-01
1.20500e+03,2.62363e+01,-5.72827e+01,-7.38975e-01,3.09177e-01,9.12609e-01
1.20500e+03,2.48993e+01,-6.01468e+01,-7.38594e-01,3.05521e-01,9.08598e-01
1.20500e+03,2.34365e+01,-6.30110e+01,-7.35095e-01,3.01948e-01,9.02154e-01
1.20500e+03,2.17623e+01,-6.58751e+01,-7.26364e-01,2.98471e-01,8.91549e-01
1.20500e+03,1.98433e+01,-6.87392e+01,-7.11571e-01,2.95133e-01,8.76153e-01
1.20500e+03,1.76476e+01,-7.16034e+01,-6.89927e-01,2.91974e-01,8.55421e-01
1.20500e+03,1.50506e+01,-7.44675e+01,-6.58345e-01,2.89019e-01,8.27052e-01
1.20500e+03,1.17172e+01,-7.73316e+01,-6.08529e-01,2.86414e-01,7.85116e-01
1.20500e+03,7.20885e+00,-8.01958e+01,-5.29619e-01,2.84821e-01,7.23785e-01
1.20500e+03,-2.92097e+00,-8.30599e+01,-3.11514e-01,2.85449e-01,5.84367e-01
1.20500e+03,-3.65204e+00,-8.30665e+01,-2.93487e-01,2.87406e-01,5.77876e-01
1.20500e+03,-1.03126e+01,-8.00999e+01,-9.46656e-02,2.91117e-01,5.13039e-01
1.20500e+03,-1.11191e+01,-7.71332e+01,-4.08017e-02,2.93859e-01,5.10612e-01
1.20500e+03,-1.13974e+01,-7.41666e+01,-1.56086e-05,2.96745e-01,5.13977e-01
1.20500e+03,-1.14396e+01,-7.11999e+01,3.49253e-02,2.99765e-01,5.20381e-01
1.20500e+03,-1.13040e+01,-6.82332e+01,6.54625e-02,3.02895e-01,5.28697e-01
1.20500e+03,-1.10567e+01,-6.52666e+01,9.32363e-02,3.06116e-01,5.38344e-01
1.20500e+03,-1.06975e+01,-6.22999e+01,1.18235e-01,3.09411e-01,5.48804e-01
1.20500e+03,-1.02698e+01,-5.93332e+01,1.41542e-01,3.12763e-01,5.59907e-01
1.20500e+03,-9.80253e+00,-5.63666e+01,1.63866e-01,3.16164e-01,5.71603e-01
1.20500e+03,-9.27551e+00,-5.33999e+01,1.84712e-01,3.19603e-01,5.83572e-01
1.20500e+03,-8.71115e+00,-5.04333e+01,2.04633e-01,3.23072e-01,5.95819e-01
1.20500e+03,-8.11045e+00,-4.74666e+01,2.23654e-01,3.26564e-01,6.08237e-01
1.20500e+03,-7.47352e+00,-4.44999e+01,2.41778e-01,3.30071e-01,6.20723e-01
1.20500e+03,-6.81389e+00,-4.15333e+01,2.59340e-01,3.33588e-01,6.33324e-01
1.20500e+03,-6.12518e+00,-3.85666e+01,2.76182e-01,3.37108e-01,6.45912e-01
1.20500e+03,-5.41785e+00,-3.55999e+01,2.92562e-01,3.40628e-01,6.58540e-01
1.20500e+03,-4.69381e+00,-3.26333e+01,3.08529e-01,3.44142e-01,6.71187e-01
1.20500e+03,-3.95486e+00,-2.96666e+01,3.24127e-01,3.47648e-01,6.83839e-01
1.20500e+03,-3.20961e+00,-2.67000e+01,3.39569e-01,3.51142e-01,6.96570e-01
1.20500e+03,-2.45457e+00,-2.37333e+01,3.54769e-01,3.54623e-01,7.09318e-01
1.20500e+03,-1.69790e+00,-2.07666e+01,3.69928e-01,3.58088e-01,7.22169e-01
1.20500e+03,-9.35389e-01,-1.78000e+01,3.84942e-01,3.61538e-01,7.35058e-01
1.20500e+03,-1.72956e-01,-1.48333e+01,3.99959e-01,3.64971e-01,7.48050e-01
1.20500e+03,5.86594e-01,-1.18666e+01,4.15046e-01,3.68387e-01,7.61177e-01
1.20500e+03,1.34615e+00,-8.89999e+00,4.30134e-01,3.71784e-01,7.74394e-01
1.20500e+03,2.08771e+00,-5.93332e+00,4.45667e-01,3.75166e-01,7.87952e-01
1.20500e+03,2.82592e+00,-2.96666e+00,4.61283e-01,3.78533e-01,8.01651e-01
1.29010e+03,3.63234e+01,0.00000e+00,-2.98043e-01,3.47538e-01,6.71697e-01
1.29010e+03,3.61405e+01,-2.76019e+00,-3.21248e-01,3.44710e-01,6.77993e-01
1.29010e+03,3.58971e+01,-5.52039e+00,-3.43194e-01,3.41813e-01,6.84318e-01
1.29010e+03,3.56513e+01,-8.28058e+00,-3.65090e-01,3.38851e-01,6.91194e-01
1.29010e+03,3.53522e+01,-1.10408e+01,-3.85875e-01,3.35827e-01,6.98025e-01
1.29010e+03,3.50407e+01,-1.38010e+01,-4.06402e-01,3.32748e-01,7.05214e-01
1.29010e+03,3.46882e+01,-1.65612e+01,-4.26077e-01,3.29617e-01,7.12379e-01
1.29010e+03,3.43158e+01,-1.93214e+01,-4.45338e-01,3.26439e-01,7.19732e-01
1.29010e+03,3.39106e+01,-2.20816e+01,-4.63913e-01,3.23218e-01,7.27067e-01
1.29010e+03,3.34783e+01,-2.48418e+01,-4.81926e-01,3.19959e-01,7.34421e-01
1.29010e+03,3.30163e+01,-2.76019e+01,-4.99320e-01,3.16665e-01,7.41721e-01
1.29010e+03,3.25183e+01,-3.03621e+01,-5.15965e-01,3.13341e-01,7.48844e-01
1.29010e+03,3.19834e+01,-3.31223e+01,-5.31843e-01,3.09991e-01,7.55738e-01
1.29010e+03,3.13964e+01,-3.58825e+01,-5.46634e-01,3.06621e-01,7.62140e-01
1.29010e+03,3.07585e+01,-3.86427e+01,-5.60367e-01,3.03238e-01,7.68030e-01
1.29010e+03,3.00599e+01,-4.14029e+01,-5.72835e-01,2.99846e-01,7.73215e-01
1.29010e+03,2.92790e+01,-4.41631e+01,-5.83589e-01,2.96458e-01,7.77327e-01
1.29010e+03,2.84408e+01,-4.69233e+01,-5.93151e-01,2.93075e-01,7.80710e-01
1.29010e+03,2.74738e+01,-4.96835e+01,-6.00031e-01,2.89717e-01,7.82206e-01
1.29010e+03,2.64534e+01,-5.24437e+01,-6.05800e-01,2.86391e-01,7.82977e-01
1.29010e+03,2.52842e+01,-5.52039e+01,-6.08470e-01,2.83105e-01,7.81461e-01
1.29010e+03,2.39957e+01,-5.79641e+01,-6.08659e-01,2.79887e-01,7.78123e-01
1.29010e+03,2.25860e+01,-6.07243e+01,-6.06321e-01,2.76743e-01,7.72906e-01
1.29010e+03,2.09725e+01,-6.34845e+01,-5.99743e-01,2.73683e-01,7.64460e-01
1.29010e+03,1.91232e+01,-6.62447e+01,-5.88253e-01,2.70745e-01,7.52297e-01
1.29010e+03,1.70072e+01,-6.90049e+01,-5.71212e-01,2.67965e-01,7.36001e-01
1.29010e+03,1.45045e+01,-7.17651e+01,-5.46119e-01,2.65365e-01,7.13793e-01
1.29010e+03,1.12920e+01,-7.45253e+01,-5.06249e-01,2.63072e-01,6.81109e-01
1.29010e+03,6.94724e+00,-7.72855e+01,-4.42806e-01,2.61670e-01,6.33633e-01
1.29010e+03,-2.81497e+00,-8.00457e+01,-2.66573e-01,2.62224e-01,5.26635e-01
1.29010e+03,-3.51951e+00,-8.00521e+01,-2.51968e-01,2.63946e-01,5.22006e-01
1.29010e+03,-9.93839e+00,-7.71931e+01,-9.03487e-02,2.67212e-01,4.71562e-01
1.29010e+03,-1.07156e+01,-7.43341e+01,-4.61882e-02,2.69626e-01,4.69285e-01
1.29010e+03,-1.09838e+01,-7.14751e+01,-1.26248e-02,2.72166e-01,4.71574e-01
1.29010e+03,-1.10244e+01,-6.86160e+01,1.62025e-02,2.74824e-01,4.76285e-01
1.29010e+03,-1.08937e+01,-6.57570e+01,4.14614e-02,2.77579e-01,4.82565e-01
1.29010e+03,-1.06555e+01,-6.28980e+01,6.44811e-02,2.80414e-01,4.89953e-01
1.29010e+03,-1.03093e+01,-6.00390e+01,8.52524e-02,2.83314e-01,4.98065e-01
1.29010e+03,-9.89713e+00,-5.71800e+01,1.04652e-01,2.86264e-01,5.06749e-01
1.29010e+03,-9.44680e+00,-5.43210e+01,1.23256e-01,2.89257e-01,5.15947e-01
1.29010e+03,-8.93890e+00,-5.14620e+01,1.40662e-01,2.92284e-01,5.25429e-01
1.29010e+03,-8.39503e+00,-4.86030e+01,1.57319e-01,2.95337e-01,5.35184e-01
1.29010e+03,-7.81612e+00,-4.57440e+01,1.73246e-01,2.98411e-01,5.45125e-01
1.29010e+03,-7.20231e+00,-4.28850e+01,1.88447e-01,3.01497e-01,5.55170e-01
1.29010e+03,-6.56662e+00,-4.00260e+01,2.03192e-01,3.04592e-01,5.65346e-01
1.29010e+03,-5.90290e+00,-3.71670e+01,2.17354e-01,3.07691e-01,5.75555e-01
1.29010e+03,-5.22123e+00,-3.43080e+01,2.31141e-01,3.10788e-01,5.85828e-01
1.29010e+03,-4.52347e+00,-3.14490e+01,2.44594e-01,3.13881e-01,5.96147e-01
1.29010e+03,-3.81134e+00,-2.85900e+01,2.57748e-01,3.16966e-01,6.06496e-01
1.29010e+03,-3.09313e+00,-2.57310e+01,2.70775e-01,3.20041e-01,6.16927e-01
1.29010e+03,-2.36549e+00,-2.28720e+01,2.83606e-01,3.23105e-01,6.27393e-01
1.29010e+03,-1.63628e+00,-2.00130e+01,2.96404e-01,3.26155e-01,6.37954e-01
1.29010e+03,-9.01444e-01,-1.71540e+01,3.09085e-01,3.29191e-01,6.48562e-01
1.29010e+03,-1.66680e-01,-1.42950e+01,3.21767e-01,3.32211e-01,6.59263e-01
1.29010e+03,5.65307e-01,-1.14360e+01,3.34508e-01,3.35217e-01,6.70080e-01
1.29010e+03,1.29729e+00,-8.57701e+00,3.47248e-01,3.38207e-01,6.80980e-01
1.29010e+03,2.01195e+00,-5.71800e+00,3.60349e-01,3.41183e-01,6.92148e-01
1.29010e+03,2.72337e+00,-2.85900e+00,3.73517e-01,3.44146e-01,7.03438e-01
1.37170e+03,3.50118e+01,0.00000e+00,-2.35863e-01,3.12157e-01,5.89879e-01
1.37170e+03,3.48355e+01,-2.66053e+00,-2.54694e-01,3.09701e-01,5.93813e-01
1.37170e+03,3.46009e+01,-5.32106e+00,-2.72528e-01,3.07186e-01,5.97796e-01
1.37170e+03,3.43640e+01,-7.98159e+00,-2.90322e-01,3.04613e-01,6.02207e-01
1.37170e+03,3.40757e+01,-1.06421e+01,-3.07235e-01,3.01987e-01,6.06616e-01
1.37170e+03,3.37754e+01,-1.33027e+01,-3.23945e-01,2.99313e-01,6.11315e-01
1.37170e+03,3.34357e+01,-1.59632e+01,-3.39979e-01,2.96595e-01,6.16028e-01
1.37170e+03,3.30768e+01,-1.86237e+01,-3.55685e-01,2.93835e-01,6.20909e-01
1.37170e+03,3.26861e+01,-2.12842e+01,-3.70848e-01,2.91038e-01,6.25809e-01
1.37170e+03,3.22695e+01,-2.39448e+01,-3.85565e-01,2.88207e-01,6.30754e-01
1.37170e+03,3.18241e+01,-2.66053e+01,-3.99791e-01,2.85347e-01,6.35690e-01
1.37170e+03,3.13441e+01,-2.92658e+01,-4.13424e-01,2.82460e-01,6.40524e-01
1.37170e+03,3.08286e+01,-3.19264e+01,-4.26449e-01,2.79551e-01,6.45218e-01
1.37170e+03,3.02627e+01,-3.45869e+01,-4.38614e-01,2.76625e-01,6.49574e-01
1.37170e+03,2.96479e+01,-3.72474e+01,-4.49939e-01,2.73687e-01,6.53574e-01
1.37170e+03,2.89745e+01,-3.99080e+01,-4.60262e-01,2.70742e-01,6.57073e-01
1.37170e+03,2.82218e+01,-4.25685e+01,-4.69227e-01,2.67800e-01,6.59792e-01
1.37170e+03,2.74139e+01,-4.52290e+01,-4.77248e-01,2.64863e-01,6.61984e-01
1.37170e+03,2.64818e+01,-4.78895e+01,-4.83144e-01,2.61947e-01,6.62780e-01
1.37170e+03,2.54982e+01,-5.05501e+01,-4.88158e-01,2.59059e-01,6.63048e-01
1.37170e+03,2.43712e+01,-5.32106e+01,-4.90718e-01,2.56206e-01,6.61610e-01
1.37170e+03,2.31293e+01,-5.58711e+01,-4.91310e-01,2.53412e-01,6.58816e-01
1.37170e+03,2.17704e+01,-5.85317e+01,-4.89901e-01,2.50681e-01,6.54619e-01
1.37170e+03,2.02153e+01,-6.11922e+01,-4.85132e-01,2.48024e-01,6.47998e-01
1.37170e+03,1.84327e+01,-6.38527e+01,-4.76471e-01,2.45474e-01,6.38590e-01
1.37170e+03,1.63931e+01,-6.65133e+01,-4.63411e-01,2.43059e-01,6.26086e-01
1.37170e+03,1.39807e+01,-6.91738e+01,-4.43970e-01,2.40802e-01,6.09152e-01
1.37170e+03,1.08843e+01,-7.18343e+01,-4.12821e-01,2.38811e-01,5.84392e-01
1.37170e+03,6.69639e+00,-7.44949e+01,-3.62991e-01,2.37595e-01,5.48741e-01
1.37170e+03,-2.71333e+00,-7.71554e+01,-2.23787e-01,2.38075e-01,4.69170e-01
1.37170e+03,-3.39243e+00,-7.71616e+01,-2.12214e-01,2.39571e-01,4.66066e-01
1.37170e+03,-9.57954e+00,-7.44058e+01,-8.36866e-02,2.42408e-01,4.28122e-01
1.37170e+03,-1.03287e+01,-7.16500e+01,-4.82342e-02,2.44504e-01,4.26231e-01
1.37170e+03,-1.05872e+01,-6.88942e+01,-2.11788e-02,2.46709e-01,4.27838e-01
1.37170e+03,-1.06264e+01,-6.61385e+01,2.12343e-03,2.49017e-01,4.31316e-01
1.37170e+03,-1.05004e+01,-6.33827e+01,2.25981e-02,2.51410e-01,4.36040e-01
1.37170e+03,-1.02708e+01,-6.06269e+01,4.12985e-02,2.53872e-01,4.41654e-01
1.37170e+03,-9.93701e+00,-5.78712e+01,5.82172e-02,2.56390e-01,4.47880e-01
1.37170e+03,-9.53977e+00,-5.51154e+01,7.40490e-02,2.58952e-01,4.54589e-01
1.37170e+03,-9.10569e+00,-5.23596e+01,8.92505e-02,2.61550e-01,4.61726e-01
1.37170e+03,-8.61613e+00,-4.96039e+01,1.03502e-01,2.64179e-01,4.69131e-01
1.37170e+03,-8.09190e+00,-4.68481e+01,1.17161e-01,2.66830e-01,4.76782e-01
1.37170e+03,-7.53389e+00,-4.40923e+01,1.30241e-01,2.69498e-01,4.84614e-01
1.37170e+03,-6.94225e+00,-4.13365e+01,1.42745e-01,2.72178e-01,4.92564e-01
1.37170e+03,-6.32951e+00,-3.85808e+01,1.54889e-01,2.74866e-01,5.00643e-01
1.37170e+03,-5.68976e+00,-3.58250e+01,1.66570e-01,2.77556e-01,5.08780e-01
1.37170e+03,-5.03271e+00,-3.30692e+01,1.77955e-01,2.80245e-01,5.16992e-01
1.37170e+03,-4.36014e+00,-3.03135e+01,1.89074e-01,2.82931e-01,5.25261e-01
1.37170e+03,-3.67372e+00,-2.75577e+01,1.99957e-01,2.85610e-01,5.33574e-01
1.37170e+03,-2.98144e+00,-2.48019e+01,2.10739e-01,2.88280e-01,5.41965e-01
1.37170e+03,-2.28008e+00,-2.20462e+01,2.21366e-01,2.90939e-01,5.50399e-01
1.37170e+03,-1.57720e+00,-1.92904e+01,2.31966e-01,2.93587e-01,5.58917e-01
1.37170e+03,-8.68894e-01,-1.65346e+01,2.42474e-01,2.96223e-01,5.67484e-01
1.37170e+03,-1.60661e-01,-1.37788e+01,2.52983e-01,2.98846e-01,5.76131e-01
1.37170e+03,5.44895e-01,-1.10231e+01,2.63538e-01,3.01456e-01,5.84875e-01
1.37170e+03,1.25045e+00,-8.26731e+00,2.74093e-01,3.04052e-01,5.93691e-01
1.37170e+03,1.93930e+00,-5.51154e+00,2.84934e-01,3.06635e-01,6.02713e-01
1.37170e+03,2.62503e+00,-2.75577e+00,2.95828e-01,3.09208e-01,6.11835e-01
1.44960e+03,3.37597e+01,0.00000e+00,-1.81736e-01,2.76499e-01,5.12233e-01
1.44960e+03,3.35897e+01,-2.56538e+00,-1.96661e-01,2.74396e-01,5.14350e-01
1.44960e+03,3.33635e+01,-5.13077e+00,-2.10817e-01,2.72243e-01,5.16520e-01
1.44960e+03,3.31351e+01,-7.69615e+00,-2.24942e-01,2.70040e-01,5.19003e-01
1.44960e+03,3.28571e+01,-1.02615e+01,-2.38387e-01,2.67793e-01,5.21505e-01
1.44960e+03,3.25675e+01,-1.28269e+01,-2.51675e-01,2.65504e-01,5.24230e-01
1.44960e+03,3.22399e+01,-1.53923e+01,-2.64441e-01,2.63176e-01,5.26986e-01
1.44960e+03,3.18939e+01,-1.79577e+01,-2.76954e-01,2.60814e-01,5.29882e-01
1.44960e+03,3.15172e+01,-2.05231e+01,-2.89048e-01,2.58420e-01,5.32814e-01
1.44960e+03,3.11155e+01,-2.30885e+01,-3.00797e-01,2.55997e-01,5.35800e-01
1.44960e+03,3.06860e+01,-2.56538e+01,-3.12168e-01,2.53548e-01,5.38803e-01
1.44960e+03,3.02232e+01,-2.82192e+01,-3.23081e-01,2.51077e-01,5.41757e-01
1.44960e+03,2.97261e+01,-3.07846e+01,-3.33524e-01,2.48587e-01,5.44633e-01
1.44960e+03,2.91805e+01,-3.33500e+01,-3.43303e-01,2.46082e-01,5.47290e-01
1.44960e+03,2.85877e+01,-3.59154e+01,-3.52435e-01,2.43567e-01,5.49714e-01
1.44960e+03,2.79383e+01,-3.84808e+01,-3.60792e-01,2.41046e-01,5.51798e-01
1.44960e+03,2.72125e+01,-4.10462e+01,-3.68101e-01,2.38528e-01,5.53340e-01
1.44960e+03,2.64335e+01,-4.36115e+01,-3.74682e-01,2.36014e-01,5.54522e-01
1.44960e+03,2.55347e+01,-4.61769e+01,-3.79621e-01,2.33518e-01,5.54711e-01
1.44960e+03,2.45863e+01,-4.87423e+01,-3.83881e-01,2.31046e-01,5.54537e-01
1.44960e+03,2.34997e+01,-5.13077e+01,-3.86246e-01,2.28604e-01,5.53141e-01
1.44960e+03,2.23022e+01,-5.38731e+01,-3.87092e-01,2.26212e-01,5.50777e-01
1.44960e+03,2.09919e+01,-5.64385e+01,-3.86393e-01,2.23875e-01,5.47411e-01
1.44960e+03,1.94923e+01,-5.90039e+01,-3.83100e-01,2.21601e-01,5.42297e-01
1.44960e+03,1.77735e+01,-6.15692e+01,-3.76803e-01,2.19418e-01,5.35175e-01
1.44960e+03,1.58069e+01,-6.41346e+01,-3.67110e-01,2.17351e-01,5.25827e-01
1.44960e+03,1.34808e+01,-6.67000e+01,-3.52491e-01,2.15419e-01,5.13289e-01
1.44960e+03,1.04950e+01,-6.92654e+01,-3.28834e-01,2.13715e-01,4.95131e-01
1.44960e+03,6.45692e+00,-7.18308e+01,-2.90757e-01,2.12674e-01,4.69287e-01
1.44960e+03,-2.61629e+00,-7.43962e+01,-1.83686e-01,2.13086e-01,4.12259e-01
1.44960e+03,-3.27111e+00,-7.44021e+01,-1.74753e-01,2.14366e-01,4.10363e-01
1.44960e+03,-9.23696e+00,-7.17449e+01,-7.51336e-02,2.16795e-01,3.82943e-01
1.44960e+03,-9.95928e+00,-6.90877e+01,-4.73634e-02,2.18589e-01,3.81558e-01
1.44960e+03,-1.02085e+01,-6.64305e+01,-2.60754e-02,2.20477e-01,3.82767e-01
1.44960e+03,-1.02464e+01,-6.37732e+01,-7.68451e-03,2.22453e-01,3.85376e-01
1.44960e+03,-1.01249e+01,-6.11160e+01,8.52359e-03,2.24500e-01,3.88939e-01
1.44960e+03,-9.90345e+00,-5.84588e+01,2.33620e-02,2.26608e-01,3.93191e-01
1.44960e+03,-9.58164e+00,-5.58016e+01,3.68250e-02,2.28763e-01,3.97938e-01
1.44960e+03,-9.19861e+00,-5.31444e+01,4.94490e-02,2.30956e-01,4.03073e-01
1.44960e+03,-8.78006e+00,-5.04872e+01,6.15864e-02,2.33181e-01,4.08549e-01
1.44960e+03,-8.30801e+00,-4.78299e+01,7.29907e-02,2.35430e-01,4.14258e-01
1.44960e+03,-7.80252e+00,-4.51727e+01,8.39369e-02,2.37700e-01,4.20177e-01
1.44960e+03,-7.26447e+00,-4.25155e+01,9.44368e-02,2.39984e-01,4.26257e-01
1.44960e+03,-6.69398e+00,-3.98583e+01,1.04492e-01,2.42278e-01,4.32451e-01
1.44960e+03,-6.10316e+00,-3.72011e+01,1.14269e-01,2.44578e-01,4.38762e-01
1.44960e+03,-5.48628e+00,-3.45438e+01,1.23689e-01,2.46881e-01,4.45139e-01
1.44960e+03,-4.85273e+00,-3.18866e+01,1.32880e-01,2.49183e-01,4.51589e-01
1.44960e+03,-4.20421e+00,-2.92294e+01,1.41867e-01,2.51481e-01,4.58099e-01
1.44960e+03,-3.54234e+00,-2.65722e+01,1.50670e-01,2.53774e-01,4.64656e-01
1.44960e+03,-2.87482e+00,-2.39150e+01,1.59396e-01,2.56059e-01,4.71281e-01
1.44960e+03,-2.19854e+00,-2.12577e+01,1.68002e-01,2.58335e-01,4.77950e-01
1.44960e+03,-1.52080e+00,-1.86005e+01,1.76587e-01,2.60602e-01,4.84689e-01
1.44960e+03,-8.37821e-01,-1.59433e+01,1.85102e-01,2.62858e-01,4.91473e-01
1.44960e+03,-1.54916e-01,-1.32861e+01,1.93617e-01,2.65103e-01,4.98323e-01
1.44960e+03,5.25408e-01,-1.06289e+01,2.02167e-01,2.67336e-01,5.05250e-01
1.44960e+03,1.20573e+00,-7.97166e+00,2.10718e-01,2.69558e-01,5.12237e-01
1.44960e+03,1.86995e+00,-5.31444e+00,2.19489e-01,2.71769e-01,5.19375e-01
1.44960e+03,2.53116e+00,-2.65722e+00,2.28301e-01,2.73971e-01,5.26594e-01
1.52340e+03,3.25736e+01,0.00000e+00,-1.35841e-01,2.40013e-01,4.37347e-01
1.52340e+03,3.24095e+01,-2.47525e+00,-1.47359e-01,2.38251e-01,4.38185e-01
1.52340e+03,3.21913e+01,-4.95049e+00,-1.58300e-01,2.36446e-01,4.39066e-01
1.52340e+03,3.19709e+01,-7.42574e+00,-1.69218e-01,2.34600e-01,4.40166e-01
1.52340e+03,3.17026e+01,-9.90099e+00,-1.79627e-01,2.32716e-01,4.41290e-01
1.52340e+03,3.14232e+01,-1.23762e+01,-1.89917e-01,2.30798e-01,4.42573e-01
1.52340e+03,3.11072e+01,-1.48515e+01,-1.99817e-01,2.28847e-01,4.43891e-01
1.52340e+03,3.07733e+01,-1.73267e+01,-2.09527e-01,2.26867e-01,4.45317e-01
1.52340e+03,3.04098e+01,-1.98020e+01,-2.18923e-01,2.24860e-01,4.46781e-01
1.52340e+03,3.00222e+01,-2.22772e+01,-2.28062e-01,2.22829e-01,4.48297e-01
1.52340e+03,2.96079e+01,-2.47525e+01,-2.36916e-01,2.20777e-01,4.49840e-01
1.52340e+03,2.91613e+01,-2.72277e+01,-2.45427e-01,2.18706e-01,4.51366e-01
1.52340e+03,2.86816e+01,-2.97030e+01,-2.53586e-01,2.16619e-01,4.52854e-01
1.52340e+03,2.81552e+01,-3.21782e+01,-2.61247e-01,2.14519e-01,4.54209e-01
1.52340e+03,2.75832e+01,-3.46535e+01,-2.68424e-01,2.12412e-01,4.55420e-01
1.52340e+03,2.69567e+01,-3.71287e+01,-2.75020e-01,2.10299e-01,4.56413e-01
1.52340e+03,2.62564e+01,-3.96040e+01,-2.80831e-01,2.08188e-01,4.57048e-01
1.52340e+03,2.55047e+01,-4.20792e+01,-2.86095e-01,2.06081e-01,4.57448e-01
1.52340e+03,2.46375e+01,-4.45544e+01,-2.90130e-01,2.03989e-01,4.57176e-01
1.52340e+03,2.37225e+01,-4.70297e+01,-2.93655e-01,2.01917e-01,4.56667e-01
1.52340e+03,2.26740e+01,-4.95049e+01,-2.95761e-01,1.99870e-01,4.55323e-01
1.52340e+03,2.15185e+01,-5.19802e+01,-2.96728e-01,1.97866e-01,4.53321e-01
1.52340e+03,2.02543e+01,-5.44554e+01,-2.96537e-01,1.95907e-01,4.50636e-01
1.52340e+03,1.88075e+01,-5.69307e+01,-2.94403e-01,1.94001e-01,4.46747e-01
1.52340e+03,1.71490e+01,-5.94059e+01,-2.90017e-01,1.92171e-01,4.41474e-01
1.52340e+03,1.52515e+01,-6.18812e+01,-2.83087e-01,1.90440e-01,4.34672e-01
1.52340e+03,1.30071e+01,-6.43564e+01,-2.72465e-01,1.88820e-01,4.25672e-01
1.52340e+03,1.01263e+01,-6.68317e+01,-2.55071e-01,1.87393e-01,4.12807e-01
1.52340e+03,6.23005e+00,-6.93069e+01,-2.26870e-01,1.86520e-01,3.94765e-01
1.52340e+03,-2.52437e+00,-7.17822e+01,-1.46967e-01,1.86866e-01,3.55466e-01
1.52340e+03,-3.15618e+00,-7.17879e+01,-1.40274e-01,1.87939e-01,3.54458e-01
1.52340e+03,-8.91241e+00,-6.92241e+01,-6.52764e-02,1.89975e-01,3.35458e-01
1.52340e+03,-9.60935e+00,-6.66602e+01,-4.41209e-02,1.91478e-01,3.34572e-01
1.52340e+03,-9.84985e+00,-6.40963e+01,-2.78230e-02,1.93061e-01,3.35547e-01
1.52340e+03,-9.88634e+00,-6.15325e+01,-1.36961e-02,1.94717e-01,3.37537e-01
1.52340e+03,-9.76914e+00,-5.89686e+01,-1.20496e-03,1.96433e-01,3.40234e-01
1.52340e+03,-9.55548e+00,-5.64048e+01,1.02598e-02,1.98199e-01,3.43445e-01
1.52340e+03,-9.24498e+00,-5.38409e+01,2.06938e-02,2.00006e-01,3.47038e-01
1.52340e+03,-8.87540e+00,-5.12771e+01,3.04992e-02,2.01844e-01,3.50931e-01
1.52340e+03,-8.47156e+00,-4.87132e+01,3.99398e-02,2.03708e-01,3.55086e-01
1.52340e+03,-8.01609e+00,-4.61494e+01,4.88312e-02,2.05593e-01,3.59431e-01
1.52340e+03,-7.52837e+00,-4.35855e+01,5.73791e-02,2.07495e-01,3.63944e-01
1.52340e+03,-7.00922e+00,-4.10217e+01,6.55927e-02,2.09410e-01,3.68591e-01
1.52340e+03,-6.45878e+00,-3.84578e+01,7.34733e-02,2.11332e-01,3.73339e-01
1.52340e+03,-5.88872e+00,-3.58940e+01,8.11450e-02,2.13260e-01,3.78185e-01
1.52340e+03,-5.29352e+00,-3.33301e+01,8.85492e-02,2.15190e-01,3.83094e-01
1.52340e+03,-4.68222e+00,-3.07662e+01,9.57821e-02,2.17119e-01,3.88067e-01
1.52340e+03,-4.05649e+00,-2.82024e+01,1.02861e-01,2.19045e-01,3.93094e-01
1.52340e+03,-3.41788e+00,-2.56385e+01,1.09804e-01,2.20967e-01,3.98165e-01
1.52340e+03,-2.77381e+00,-2.30747e+01,1.16688e-01,2.22882e-01,4.03293e-01
1.52340e+03,-2.12129e+00,-2.05108e+01,1.23482e-01,2.24789e-01,4.08459e-01
1.52340e+03,-1.46736e+00,-1.79470e+01,1.30261e-01,2.26689e-01,4.13680e-01
1.52340e+03,-8.08383e-01,-1.53831e+01,1.36987e-01,2.28579e-01,4.18940e-01
1.52340e+03,-1.49473e-01,-1.28193e+01,1.43713e-01,2.30461e-01,4.24252e-01
1.52340e+03,5.06948e-01,-1.02554e+01,1.50466e-01,2.32332e-01,4.29622e-01
1.52340e+03,1.16337e+00,-7.69156e+00,1.57218e-01,2.34194e-01,4.35039e-01
1.52340e+03,1.80424e+00,-5.12771e+00,1.64136e-01,2.36047e-01,4.40563e-01
1.52340e+03,2.44222e+00,-2.56385e+00,1.71085e-01,2.37892e-01,4.46148e-01
1.59310e+03,3.14533e+01,0.00000e+00,-9.79712e-02,2.03697e-01,3.66163e-01
1.59310e+03,3.12949e+01,-2.39012e+00,-1.06585e-01,2.02255e-01,3.66171e-01
1.59310e+03,3.10841e+01,-4.78023e+00,-1.14781e-01,2.00777e-01,3.66210e-01
1.59310e+03,3.08713e+01,-7.17035e+00,-1.22961e-01,1.99267e-01,3.66389e-01
1.59310e+03,3.06123e+01,-9.56047e+00,-1.30772e-01,1.97725e-01,3.66588e-01
1.59310e+03,3.03425e+01,-1.19506e+01,-1.38498e-01,1.96155e-01,3.66895e-01
1.59310e+03,3.00373e+01,-1.43407e+01,-1.45941e-01,1.94558e-01,3.67230e-01
1.59310e+03,2.97149e+01,-1.67308e+01,-1.53246e-01,1.92938e-01,3.67641e-01
1.59310e+03,2.93640e+01,-1.91209e+01,-1.60324e-01,1.91296e-01,3.68084e-01
1.59310e+03,2.89896e+01,-2.15111e+01,-1.67216e-01,1.89634e-01,3.68570e-01
1.59310e+03,2.85896e+01,-2.39012e+01,-1.73902e-01,1.87954e-01,3.69083e-01
1.59310e+03,2.81583e+01,-2.62913e+01,-1.80340e-01,1.86260e-01,3.69595e-01
1.59310e+03,2.76952e+01,-2.86814e+01,-1.86523e-01,1.84552e-01,3.70093e-01
1.59310e+03,2.71869e+01,-3.10715e+01,-1.92346e-01,1.82834e-01,3.70515e-01
1.59310e+03,2.66345e+01,-3.34616e+01,-1.97818e-01,1.81109e-01,3.70855e-01
1.59310e+03,2.60296e+01,-3.58518e+01,-2.02870e-01,1.79380e-01,3.71063e-01
1.59310e+03,2.53533e+01,-3.82419e+01,-2.07353e-01,1.77653e-01,3.71049e-01
1.59310e+03,2.46276e+01,-4.06320e+01,-2.11441e-01,1.75929e-01,3.70891e-01
1.59310e+03,2.37902e+01,-4.30221e+01,-2.14640e-01,1.74217e-01,3.70304e-01
1.59310e+03,2.29066e+01,-4.54122e+01,-2.17469e-01,1.72522e-01,3.69573e-01
1.59310e+03,2.18941e+01,-4.78023e+01,-2.19272e-01,1.70847e-01,3.68301e-01
1.59310e+03,2.07785e+01,-5.01925e+01,-2.20250e-01,1.69207e-01,3.66610e-01
1.59310e+03,1.95577e+01,-5.25826e+01,-2.20391e-01,1.67604e-01,3.64479e-01
1.59310e+03,1.81606e+01,-5.49727e+01,-2.19125e-01,1.66044e-01,3.61563e-01
1.59310e+03,1.65592e+01,-5.73628e+01,-2.16229e-01,1.64547e-01,3.57746e-01
1.59310e+03,1.47269e+01,-5.97529e+01,-2.11492e-01,1.63130e-01,3.52935e-01
1.59310e+03,1.25597e+01,-6.21430e+01,-2.04084e-01,1.61805e-01,3.46689e-01
1.59310e+03,9.77800e+00,-6.45332e+01,-1.91774e-01,1.60637e-01,3.37920e-01
1.59310e+03,6.01578e+00,-6.69233e+01,-1.71644e-01,1.59924e-01,3.25866e-01
1.59310e+03,-2.43755e+00,-6.93134e+01,-1.14099e-01,1.60206e-01,3.00028e-01
1.59310e+03,-3.04763e+00,-6.93189e+01,-1.09256e-01,1.61085e-01,2.99636e-01
1.59310e+03,-8.60589e+00,-6.68433e+01,-5.46928e-02,1.62750e-01,2.87149e-01
1.59310e+03,-9.27886e+00,-6.43676e+01,-3.90946e-02,1.63981e-01,2.86701e-01
1.59310e+03,-9.51109e+00,-6.18919e+01,-2.70116e-02,1.65276e-01,2.87538e-01
1.59310e+03,-9.54632e+00,-5.94162e+01,-1.64999e-02,1.66631e-01,2.89085e-01
1.59310e+03,-9.43315e+00,-5.69406e+01,-7.17181e-03,1.68035e-01,2.91134e-01
1.59310e+03,-9.22684e+00,-5.44649e+01,1.41343e-03,1.69481e-01,2.93553e-01
1.59310e+03,-8.92702e+00,-5.19892e+01,9.25280e-03,1.70959e-01,2.96254e-01
1.59310e+03,-8.57016e+00,-4.95135e+01,1.66372e-02,1.72463e-01,2.99178e-01
1.59310e+03,-8.18020e+00,-4.70379e+01,2.37577e-02,1.73988e-01,3.02292e-01
1.59310e+03,-7.74040e+00,-4.45622e+01,3.04806e-02,1.75531e-01,3.05553e-01
1.59310e+03,-7.26945e+00,-4.20865e+01,3.69550e-02,1.77087e-01,3.08943e-01
1.59310e+03,-6.76816e+00,-3.96108e+01,4.31875e-02,1.78654e-01,3.12437e-01
1.59310e+03,-6.23665e+00,-3.71351e+01,4.91789e-02,1.80227e-01,3.16012e-01
1.59310e+03,-5.68619e+00,-3.46595e+01,5.50193e-02,1.81804e-01,3.19665e-01
1.59310e+03,-5.11146e+00,-3.21838e+01,6.06660e-02,1.83384e-01,3.23371e-01
1.59310e+03,-4.52119e+00,-2.97081e+01,6.61888e-02,1.84962e-01,3.27130e-01
1.59310e+03,-3.91698e+00,-2.72324e+01,7.16004e-02,1.86538e-01,3.30932e-01
1.59310e+03,-3.30033e+00,-2.47568e+01,7.69128e-02,1.88110e-01,3.34772e-01
1.59310e+03,-2.67841e+00,-2.22811e+01,8.21831e-02,1.89677e-01,3.38654e-01
1.59310e+03,-2.04833e+00,-1.98054e+01,8.73884e-02,1.91238e-01,3.42568e-01
1.59310e+03,-1.41689e+00,-1.73297e+01,9.25828e-02,1.92792e-01,3.46523e-01
1.59310e+03,-7.80581e-01,-1.48541e+01,9.77384e-02,1.94339e-01,3.50508e-01
1.59310e+03,-1.44332e-01,-1.23784e+01,1.02894e-01,1.95878e-01,3.54531e-01
1.59310e+03,4.89512e-01,-9.90271e+00,1.08070e-01,1.97410e-01,3.58596e-01
1.59310e+03,1.12336e+00,-7.42703e+00,1.13245e-01,1.98933e-01,3.62695e-01
1.59310e+03,1.74219e+00,-4.95135e+00,1.18540e-01,2.00449e-01,3.66867e-01
1.59310e+03,2.35823e+00,-2.47568e+00,1.23857e-01,2.01959e-01,3.71083e-01
1.65850e+03,3.04021e+01,0.00000e+00,-6.77938e-02,1.67931e-01,2.98660e-01
1.65850e+03,3.02490e+01,-2.31024e+00,-7.40051e-02,1.66784e-01,2.98208e-01
1.65850e+03,3.00453e+01,-4.62048e+00,-7.99262e-02,1.65610e-01,2.97772e-01
1.65850e+03,2.98396e+01,-6.93072e+00,-8.58358e-02,1.64409e-01,2.97421e-01
1.65850e+03,2.95892e+01,-9.24096e+00,-9.14892e-02,1.63184e-01,2.97082e-01
1.65850e+03,2.93285e+01,-1.15512e+01,-9.70832e-02,1.61936e-01,2.96808e-01
1.65850e+03,2.90335e+01,-1.38614e+01,-1.02481e-01,1.60667e-01,2.96554e-01
1.65850e+03,2.87218e+01,-1.61717e+01,-1.07783e-01,1.59380e-01,2.96349e-01
1.65850e+03,2.83826e+01,-1.84819e+01,-1.12927e-01,1.58074e-01,2.96167e-01
1.65850e+03,2.80208e+01,-2.07921e+01,-1.17941e-01,1.56754e-01,2.96015e-01
1.65850e+03,2.76341e+01,-2.31024e+01,-1.22812e-01,1.55419e-01,2.95885e-01
1.65850e+03,2.72173e+01,-2.54126e+01,-1.27511e-01,1.54072e-01,2.95759e-01
1.65850e+03,2.67696e+01,-2.77229e+01,-1.32033e-01,1.52715e-01,2.95632e-01
1.65850e+03,2.62783e+01,-3.00331e+01,-1.36305e-01,1.51349e-01,2.95464e-01
1.65850e+03,2.57444e+01,-3.23433e+01,-1.40332e-01,1.49978e-01,2.95252e-01
1.65850e+03,2.51597e+01,-3.46536e+01,-1.44068e-01,1.48604e-01,2.94967e-01
1.65850e+03,2.45060e+01,-3.69638e+01,-1.47408e-01,1.47232e-01,2.94552e-01
1.65850e+03,2.38045e+01,-3.92741e+01,-1.50474e-01,1.45861e-01,2.94057e-01
1.65850e+03,2.29951e+01,-4.15843e+01,-1.52922e-01,1.44501e-01,2.93303e-01
1.65850e+03,2.21410e+01,-4.38945e+01,-1.55113e-01,1.43154e-01,2.92470e-01
1.65850e+03,2.11624e+01,-4.62048e+01,-1.56590e-01,1.41823e-01,2.91310e-01
1.65850e+03,2.00840e+01,-4.85150e+01,-1.57494e-01,1.40519e-01,2.89899e-01
1.65850e+03,1.89041e+01,-5.08253e+01,-1.57816e-01,1.39245e-01,2.88225e-01
1.65850e+03,1.75537e+01,-5.31355e+01,-1.57161e-01,1.38006e-01,2.86071e-01
1.65850e+03,1.60058e+01,-5.54457e+01,-1.55373e-01,1.36816e-01,2.83367e-01
1.65850e+03,1.42348e+01,-5.77560e+01,-1.52304e-01,1.35690e-01,2.80057e-01
1.65850e+03,1.21400e+01,-6.00662e+01,-1.47380e-01,1.34637e-01,2.75867e-01
1.65850e+03,9.45122e+00,-6.23764e+01,-1.39048e-01,1.33709e-01,2.70127e-01
1.65850e+03,5.81473e+00,-6.46867e+01,-1.25282e-01,1.33142e-01,2.62442e-01
1.65850e+03,-2.35608e+00,-6.69969e+01,-8.55092e-02,1.33367e-01,2.46317e-01
1.65850e+03,-2.94577e+00,-6.70023e+01,-8.21436e-02,1.34065e-01,2.46309e-01
1.65850e+03,-8.31828e+00,-6.46093e+01,-4.39878e-02,1.35389e-01,2.38591e-01
1.65850e+03,-8.96876e+00,-6.22164e+01,-3.29139e-02,1.36367e-01,2.38477e-01
1.65850e+03,-9.19322e+00,-5.98235e+01,-2.42834e-02,1.37396e-01,2.39213e-01
1.65850e+03,-9.22728e+00,-5.74305e+01,-1.67449e-02,1.38473e-01,2.40426e-01
1.65850e+03,-9.11789e+00,-5.50376e+01,-1.00291e-02,1.39589e-01,2.41984e-01
1.65850e+03,-8.91848e+00,-5.26447e+01,-3.82963e-03,1.40738e-01,2.43796e-01
1.65850e+03,-8.62868e+00,-5.02517e+01,1.85144e-03,1.41913e-01,2.45808e-01
1.65850e+03,-8.28374e+00,-4.78588e+01,7.21628e-03,1.43108e-01,2.47976e-01
1.65850e+03,-7.90682e+00,-4.54658e+01,1.23977e-02,1.44320e-01,2.50278e-01
1.65850e+03,-7.48171e+00,-4.30729e+01,1.73028e-02,1.45547e-01,2.52687e-01
1.65850e+03,-7.02650e+00,-4.06800e+01,2.20352e-02,1.46783e-01,2.55189e-01
1.65850e+03,-6.54196e+00,-3.82870e+01,2.65994e-02,1.48028e-01,2.57768e-01
1.65850e+03,-6.02822e+00,-3.58941e+01,3.09961e-02,1.49278e-01,2.60409e-01
1.65850e+03,-5.49615e+00,-3.35011e+01,3.52877e-02,1.50532e-01,2.63106e-01
1.65850e+03,-4.94063e+00,-3.11082e+01,3.94448e-02,1.51787e-01,2.65845e-01
1.65850e+03,-4.37009e+00,-2.87153e+01,4.35158e-02,1.53041e-01,2.68623e-01
1.65850e+03,-3.78607e+00,-2.63223e+01,4.75094e-02,1.54294e-01,2.71435e-01
1.65850e+03,-3.19003e+00,-2.39294e+01,5.14342e-02,1.55543e-01,2.74275e-01
1.65850e+03,-2.58890e+00,-2.15364e+01,5.53297e-02,1.56789e-01,2.77145e-01
1.65850e+03,-1.97988e+00,-1.91435e+01,5.91799e-02,1.58029e-01,2.80039e-01
1.65850e+03,-1.36954e+00,-1.67506e+01,6.30227e-02,1.59264e-01,2.82961e-01
1.65850e+03,-7.54494e-01,-1.43576e+01,6.68384e-02,1.60493e-01,2.85905e-01
1.65850e+03,-1.39508e-01,-1.19647e+01,7.06544e-02,1.61716e-01,2.88875e-01
1.65850e+03,4.73153e-01,-9.57176e+00,7.44838e-02,1.62933e-01,2.91873e-01
1.65850e+03,1.08581e+00,-7.17882e+00,7.83132e-02,1.64144e-01,2.94894e-01
1.65850e+03,1.68397e+00,-4.78588e+00,8.22258e-02,1.65349e-01,2.97962e-01
1.65850e+03,2.27942e+00,-2.39294e+00,8.61539e-02,1.66548e-01,3.01060e-01
1.71930e+03,2.94249e+01,0.00000e+00,-4.48038e-02,1.32842e-01,2.34411e-01
1.71930e+03,2.92767e+01,-2.23598e+00,-4.91055e-02,1.31965e-01,2.33786e-01
1.71930e+03,2.90795e+01,-4.47196e+00,-5.32144e-02,1.31067e-01,2.33168e-01
1.71930e+03,2.88804e+01,-6.70794e+00,-5.73156e-02,1.30148e-01,2.32596e-01
1.71930e+03,2.86381e+01,-8.94392e+00,-6.12466e-02,1.29211e-01,2.32029e-01
1.71930e+03,2.83857e+01,-1.11799e+01,-6.51381e-02,1.28256e-01,2.31499e-01
1.71930e+03,2.81002e+01,-1.34159e+01,-6.88989e-02,1.27285e-01,2.30980e-01
1.71930e+03,2.77986e+01,-1.56519e+01,-7.25963e-02,1.26300e-01,2.30490e-01
1.71930e+03,2.74703e+01,-1.78878e+01,-7.61887e-02,1.25302e-01,2.30014e-01
1.71930e+03,2.71201e+01,-2.01238e+01,-7.96949e-02,1.24291e-01,2.29557e-01
1.71930e+03,2.67458e+01,-2.23598e+01,-8.31062e-02,1.23270e-01,2.29114e-01
1.71930e+03,2.63424e+01,-2.45958e+01,-8.64028e-02,1.22240e-01,2.28677e-01
1.71930e+03,2.59091e+01,-2.68317e+01,-8.95817e-02,1.21201e-01,2.28242e-01
1.71930e+03,2.54336e+01,-2.90677e+01,-9.25942e-02,1.20157e-01,2.27787e-01
1.71930e+03,2.49169e+01,-3.13037e+01,-9.54445e-02,1.19108e-01,2.27310e-01
1.71930e+03,2.43509e+01,-3.35397e+01,-9.81009e-02,1.18057e-01,2.26796e-01
1.71930e+03,2.37183e+01,-3.57757e+01,-1.00495e-01,1.17007e-01,2.26210e-01
1.71930e+03,2.30393e+01,-3.80116e+01,-1.02706e-01,1.15959e-01,2.25583e-01
1.71930e+03,2.22560e+01,-4.02476e+01,-1.04506e-01,1.14918e-01,2.24811e-01
1.71930e+03,2.14293e+01,-4.24836e+01,-1.06136e-01,1.13887e-01,2.24000e-01
1.71930e+03,2.04822e+01,-4.47196e+01,-1.07291e-01,1.12869e-01,2.23002e-01
1.71930e+03,1.94385e+01,-4.69556e+01,-1.08066e-01,1.11872e-01,2.21866e-01
1.71930e+03,1.82964e+01,-4.91915e+01,-1.08453e-01,1.10898e-01,2.20583e-01
1.71930e+03,1.69894e+01,-5.14275e+01,-1.08191e-01,1.09950e-01,2.19026e-01
1.71930e+03,1.54913e+01,-5.36635e+01,-1.07176e-01,1.09040e-01,2.17154e-01
1.71930e+03,1.37772e+01,-5.58995e+01,-1.05311e-01,1.08178e-01,2.14937e-01
1.71930e+03,1.17498e+01,-5.81355e+01,-1.02211e-01,1.07373e-01,2.12212e-01
1.71930e+03,9.14742e+00,-6.03714e+01,-9.68475e-02,1.06663e-01,2.08591e-01
1.71930e+03,5.62782e+00,-6.26074e+01,-8.78712e-02,1.06229e-01,2.03900e-01
1.71930e+03,-2.28035e+00,-6.48434e+01,-6.16110e-02,1.06401e-01,1.94319e-01
1.71930e+03,-2.85109e+00,-6.48486e+01,-5.93745e-02,1.06936e-01,1.94502e-01
1.71930e+03,-8.05090e+00,-6.25326e+01,-3.38353e-02,1.07948e-01,1.90009e-01
1.71930e+03,-8.68047e+00,-6.02165e+01,-2.62956e-02,1.08697e-01,1.90096e-01
1.71930e+03,-8.89772e+00,-5.79005e+01,-2.03797e-02,1.09484e-01,1.90724e-01
1.71930e+03,-8.93068e+00,-5.55845e+01,-1.51897e-02,1.10308e-01,1.91662e-01
1.71930e+03,-8.82481e+00,-5.32685e+01,-1.05464e-02,1.11162e-01,1.92826e-01
1.71930e+03,-8.63181e+00,-5.09525e+01,-6.24631e-03,1.12040e-01,1.94160e-01
1.71930e+03,-8.35132e+00,-4.86364e+01,-2.29075e-03,1.12939e-01,1.95630e-01
1.71930e+03,-8.01747e+00,-4.63204e+01,1.45464e-03,1.13853e-01,1.97205e-01
1.71930e+03,-7.65266e+00,-4.40044e+01,5.07812e-03,1.14781e-01,1.98871e-01
1.71930e+03,-7.24122e+00,-4.16884e+01,8.51794e-03,1.15719e-01,2.00612e-01
1.71930e+03,-6.80064e+00,-3.93724e+01,1.18430e-02,1.16665e-01,2.02416e-01
1.71930e+03,-6.33168e+00,-3.70563e+01,1.50563e-02,1.17617e-01,2.04274e-01
1.71930e+03,-5.83445e+00,-3.47403e+01,1.81582e-02,1.18573e-01,2.06176e-01
1.71930e+03,-5.31949e+00,-3.24243e+01,2.11903e-02,1.19532e-01,2.08118e-01
1.71930e+03,-4.78182e+00,-3.01083e+01,2.41330e-02,1.20492e-01,2.10090e-01
1.71930e+03,-4.22962e+00,-2.77922e+01,2.70184e-02,1.21452e-01,2.12089e-01
1.71930e+03,-3.66437e+00,-2.54762e+01,2.98525e-02,1.22410e-01,2.14112e-01
1.71930e+03,-3.08749e+00,-2.31602e+01,3.26407e-02,1.23366e-01,2.16154e-01
1.71930e+03,-2.50568e+00,-2.08442e+01,3.54096e-02,1.24318e-01,2.18218e-01
1.71930e+03,-1.91624e+00,-1.85282e+01,3.81483e-02,1.25267e-01,2.20297e-01
1.71930e+03,-1.32552e+00,-1.62121e+01,4.08821e-02,1.26212e-01,2.22395e-01
1.71930e+03,-7.30242e-01,-1.38961e+01,4.35979e-02,1.27152e-01,2.24508e-01
1.71930e+03,-1.35024e-01,-1.15801e+01,4.63139e-02,1.28088e-01,2.26637e-01
1.71930e+03,4.57944e-01,-9.26408e+00,4.90388e-02,1.29019e-01,2.28784e-01
1.71930e+03,1.05091e+00,-6.94806e+00,5.17637e-02,1.29944e-01,2.30946e-01
1.71930e+03,1.62984e+00,-4.63204e+00,5.45438e-02,1.30866e-01,2.33137e-01
1.71930e+03,2.20615e+00,-2.31602e+00,5.73343e-02,1.31783e-01,2.35346e-01
1.77540e+03,2.77303e+01,0.00000e+00,-4.94639e-02,1.14902e-01,2.05071e-01
1.77540e+03,2.75906e+01,-2.10721e+00,-5.33761e-02,1.13785e-01,2.04182e-01
1.77540e+03,2.74048e+01,-4.21442e+00,-5.70691e-02,1.12641e-01,2.03275e-01
1.77540e+03,2.72172e+01,-6.32163e+00,-6.07534e-02,1.11471e-01,2.02406e-01
1.77540e+03,2.69888e+01,-8.42884e+00,-6.42443e-02,1.10276e-01,2.01519e-01
1.77540e+03,2.67510e+01,-1.05361e+01,-6.76902e-02,1.09059e-01,2.00658e-01
1.77540e+03,2.64819e+01,-1.26433e+01,-7.09877e-02,1.07822e-01,1.99790e-01
1.77540e+03,2.61977e+01,-1.47505e+01,-7.42131e-02,1.06566e-01,1.98938e-01
1.77540e+03,2.58883e+01,-1.68577e+01,-7.73193e-02,1.05293e-01,1.98086e-01
1.77540e+03,2.55583e+01,-1.89649e+01,-8.03274e-02,1.04004e-01,1.97239e-01
1.77540e+03,2.52056e+01,-2.10721e+01,-8.32278e-02,1.02702e-01,1.96392e-01
1.77540e+03,2.48254e+01,-2.31793e+01,-8.59977e-02,1.01387e-01,1.95535e-01
1.77540e+03,2.44171e+01,-2.52865e+01,-8.86340e-02,1.00063e-01,1.94663e-01
1.77540e+03,2.39689e+01,-2.73937e+01,-9.10811e-02,9.87300e-02,1.93749e-01
1.77540e+03,2.34819e+01,-2.95009e+01,-9.33439e-02,9.73919e-02,1.92792e-01
1.77540e+03,2.29486e+01,-3.16082e+01,-9.53864e-02,9.60503e-02,1.91770e-01
1.77540e+03,2.23524e+01,-3.37154e+01,-9.71305e-02,9.47100e-02,1.90642e-01
1.77540e+03,2.17125e+01,-3.58226e+01,-9.86671e-02,9.33720e-02,1.89447e-01
1.77540e+03,2.09743e+01,-3.79298e+01,-9.97366e-02,9.20433e-02,1.88051e-01
1.77540e+03,2.01952e+01,-4.00370e+01,-1.00612e-01,9.07272e-02,1.86594e-01
1.77540e+03,1.93026e+01,-4.21442e+01,-1.00949e-01,8.94269e-02,1.84884e-01
1.77540e+03,1.83190e+01,-4.42514e+01,-1.00853e-01,8.81534e-02,1.82987e-01
1.77540e+03,1.72428e+01,-4.63586e+01,-1.00318e-01,8.69087e-02,1.80895e-01
1.77540e+03,1.60110e+01,-4.84658e+01,-9.90435e-02,8.56974e-02,1.78443e-01
1.77540e+03,1.45992e+01,-5.05731e+01,-9.69142e-02,8.45343e-02,1.75586e-01
1.77540e+03,1.29838e+01,-5.26803e+01,-9.38181e-02,8.34333e-02,1.72294e-01
1.77540e+03,1.10731e+01,-5.47875e+01,-8.93199e-02,8.24034e-02,1.68372e-01
1.77540e+03,8.62063e+00,-5.68947e+01,-8.22486e-02,8.14947e-02,1.63368e-01
1.77540e+03,5.30372e+00,-5.90019e+01,-7.10723e-02,8.09374e-02,1.57175e-01
1.77540e+03,-2.14903e+00,-6.11091e+01,-4.02553e-02,8.11545e-02,1.46214e-01
1.77540e+03,-2.68689e+00,-6.11140e+01,-3.77117e-02,8.18346e-02,1.46673e-01
1.77540e+03,-7.58725e+00,-5.89314e+01,-9.70120e-03,8.31257e-02,1.44304e-01
1.77540e+03,-8.18057e+00,-5.67487e+01,-2.14445e-03,8.40800e-02,1.45647e-01
1.77540e+03,-8.38530e+00,-5.45661e+01,3.56698e-03,8.50844e-02,1.47414e-01
1.77540e+03,-8.41637e+00,-5.23834e+01,8.45366e-03,8.61356e-02,1.49431e-01
1.77540e+03,-8.31659e+00,-5.02008e+01,1.27190e-02,8.72254e-02,1.51613e-01
1.77540e+03,-8.13471e+00,-4.80181e+01,1.65944e-02,8.83472e-02,1.53919e-01
1.77540e+03,-7.87037e+00,-4.58355e+01,2.00782e-02,8.94946e-02,1.56304e-01
1.77540e+03,-7.55575e+00,-4.36529e+01,2.33232e-02,9.06620e-02,1.58754e-01
1.77540e+03,-7.21195e+00,-4.14702e+01,2.64297e-02,9.18464e-02,1.61263e-01
1.77540e+03,-6.82421e+00,-3.92876e+01,2.93275e-02,9.30444e-02,1.63804e-01
1.77540e+03,-6.40900e+00,-3.71049e+01,3.20949e-02,9.42529e-02,1.66376e-01
1.77540e+03,-5.96704e+00,-3.49223e+01,3.47352e-02,9.54696e-02,1.68967e-01
1.77540e+03,-5.49844e+00,-3.27396e+01,3.72490e-02,9.66916e-02,1.71567e-01
1.77540e+03,-5.01314e+00,-3.05570e+01,3.96835e-02,9.79171e-02,1.74178e-01
1.77540e+03,-4.50644e+00,-2.83744e+01,4.20164e-02,9.91441e-02,1.76788e-01
1.77540e+03,-3.98604e+00,-2.61917e+01,4.42842e-02,1.00371e-01,1.79399e-01
1.77540e+03,-3.45334e+00,-2.40091e+01,4.64936e-02,1.01596e-01,1.82008e-01
1.77540e+03,-2.90969e+00,-2.18264e+01,4.86510e-02,1.02818e-01,1.84612e-01
1.77540e+03,-2.36138e+00,-1.96438e+01,5.07863e-02,1.04036e-01,1.87216e-01
1.77540e+03,-1.80588e+00,-1.74611e+01,5.28874e-02,1.05250e-01,1.89815e-01
1.77540e+03,-1.24918e+00,-1.52785e+01,5.49828e-02,1.06458e-01,1.92414e-01
1.77540e+03,-6.88187e-01,-1.30959e+01,5.70579e-02,1.07662e-01,1.95009e-01
1.77540e+03,-1.27248e-01,-1.09132e+01,5.91332e-02,1.08859e-01,1.97604e-01
1.77540e+03,4.31571e-01,-8.73057e+00,6.12185e-02,1.10050e-01,2.00202e-01
1.77540e+03,9.90390e-01,-6.54793e+00,6.33039e-02,1.11236e-01,2.02799e-01
1.77540e+03,1.53598e+00,-4.36529e+00,6.54521e-02,1.12416e-01,2.05416e-01
1.77540e+03,2.07910e+00,-2.18264e+00,6.76120e-02,1.13591e-01,2.08038e-01
1.82660e+03,2.53092e+01,0.00000e+00,-3.19915e-02,9.12950e-02,1.61331e-01
1.82660e+03,2.51817e+01,-1.92323e+00,-3.47171e-02,9.04937e-02,1.60539e-01
1.82660e+03,2.50121e+01,-3.84646e+00,-3.72998e-02,8.96728e-02,1.59734e-01
1.82660e+03,2.48409e+01,-5.76969e+00,-3.98769e-02,8.88330e-02,1.58947e-01
1.82660e+03,2.46324e+01,-7.69292e+00,-4.23277e-02,8.79761e-02,1.58149e-01
1.82660e+03,2.44154e+01,-9.61614e+00,-4.47493e-02,8.71031e-02,1.57364e-01
1.82660e+03,2.41698e+01,-1.15394e+01,-4.70740e-02,8.62155e-02,1.56574e-01
1.82660e+03,2.39103e+01,-1.34626e+01,-4.93518e-02,8.53144e-02,1.55792e-01
1.82660e+03,2.36280e+01,-1.53858e+01,-5.15517e-02,8.44010e-02,1.55010e-01
1.82660e+03,2.33268e+01,-1.73091e+01,-5.36878e-02,8.34766e-02,1.54232e-01
1.82660e+03,2.30049e+01,-1.92323e+01,-5.57535e-02,8.25424e-02,1.53454e-01
1.82660e+03,2.26579e+01,-2.11555e+01,-5.77342e-02,8.15996e-02,1.52672e-01
1.82660e+03,2.22852e+01,-2.30787e+01,-5.96277e-02,8.06494e-02,1.51883e-01
1.82660e+03,2.18762e+01,-2.50020e+01,-6.13978e-02,7.96934e-02,1.51072e-01
1.82660e+03,2.14317e+01,-2.69252e+01,-6.30478e-02,7.87336e-02,1.50240e-01
1.82660e+03,2.09449e+01,-2.88484e+01,-6.45541e-02,7.77714e-02,1.49373e-01
1.82660e+03,2.04008e+01,-3.07717e+01,-6.58657e-02,7.68101e-02,1.48451e-01
1.82660e+03,1.98168e+01,-3.26949e+01,-6.70421e-02,7.58504e-02,1.47494e-01
1.82660e+03,1.91430e+01,-3.46181e+01,-6.79138e-02,7.48975e-02,1.46428e-01
1.82660e+03,1.84320e+01,-3.65413e+01,-6.86592e-02,7.39536e-02,1.45332e-01
1.82660e+03,1.76173e+01,-3.84646e+01,-6.90528e-02,7.30210e-02,1.44099e-01
1.82660e+03,1.67196e+01,-4.03878e+01,-6.91646e-02,7.21077e-02,1.42767e-01
1.82660e+03,1.57373e+01,-4.23110e+01,-6.89894e-02,7.12151e-02,1.41330e-01
1.82660e+03,1.46131e+01,-4.42343e+01,-6.83327e-02,7.03465e-02,1.39697e-01
1.82660e+03,1.33245e+01,-4.61575e+01,-6.71182e-02,6.95124e-02,1.37843e-01
1.82660e+03,1.18502e+01,-4.80807e+01,-6.52732e-02,6.87229e-02,1.35754e-01
1.82660e+03,1.01063e+01,-5.00040e+01,-6.25137e-02,6.79844e-02,1.33318e-01
1.82660e+03,7.86795e+00,-5.19272e+01,-5.80762e-02,6.73330e-02,1.30284e-01
1.82660e+03,4.84065e+00,-5.38504e+01,-5.09614e-02,6.69337e-02,1.26639e-01
1.82660e+03,-1.96139e+00,-5.57736e+01,-3.10374e-02,6.70897e-02,1.20276e-01
1.82660e+03,-2.45230e+00,-5.57781e+01,-2.93789e-02,6.75777e-02,1.20679e-01
1.82660e+03,-6.92480e+00,-5.37860e+01,-1.09306e-02,6.85039e-02,1.19155e-01
1.82660e+03,-7.46632e+00,-5.17940e+01,-5.82185e-03,6.91884e-02,1.19979e-01
1.82660e+03,-7.65318e+00,-4.98019e+01,-1.91655e-03,6.99089e-02,1.21101e-01
1.82660e+03,-7.68153e+00,-4.78098e+01,1.45086e-03,7.06629e-02,1.22400e-01
1.82660e+03,-7.59047e+00,-4.58177e+01,4.41303e-03,7.14445e-02,1.23824e-01
1.82660e+03,-7.42446e+00,-4.38257e+01,7.12091e-03,7.22491e-02,1.25342e-01
1.82660e+03,-7.18321e+00,-4.18336e+01,9.57343e-03,7.30720e-02,1.26926e-01
1.82660e+03,-6.89605e+00,-3.98415e+01,1.18702e-02,7.39092e-02,1.28564e-01
1.82660e+03,-6.58227e+00,-3.78494e+01,1.40766e-02,7.47586e-02,1.30249e-01
1.82660e+03,-6.22838e+00,-3.58574e+01,1.61469e-02,7.56178e-02,1.31965e-01
1.82660e+03,-5.84943e+00,-3.38653e+01,1.81321e-02,7.64844e-02,1.33710e-01
1.82660e+03,-5.44606e+00,-3.18732e+01,2.00345e-02,7.73569e-02,1.35476e-01
1.82660e+03,-5.01837e+00,-2.98811e+01,2.18544e-02,7.82332e-02,1.37255e-01
1.82660e+03,-4.57544e+00,-2.78891e+01,2.36226e-02,7.91119e-02,1.39047e-01
1.82660e+03,-4.11298e+00,-2.58970e+01,2.53244e-02,7.99917e-02,1.40845e-01
1.82660e+03,-3.63801e+00,-2.39049e+01,2.69839e-02,8.08713e-02,1.42649e-01
1.82660e+03,-3.15183e+00,-2.19128e+01,2.86053e-02,8.17497e-02,1.44455e-01
1.82660e+03,-2.65564e+00,-1.99208e+01,3.01927e-02,8.26260e-02,1.46263e-01
1.82660e+03,-2.15521e+00,-1.79287e+01,3.17657e-02,8.34994e-02,1.48073e-01
1.82660e+03,-1.64821e+00,-1.59366e+01,3.33164e-02,8.43695e-02,1.49882e-01
1.82660e+03,-1.14012e+00,-1.39445e+01,3.48635e-02,8.52360e-02,1.51694e-01
1.82660e+03,-6.28101e-01,-1.19525e+01,3.63972e-02,8.60986e-02,1.53505e-01
1.82660e+03,-1.16138e-01,-9.96038e+00,3.79311e-02,8.69569e-02,1.55317e-01
1.82660e+03,3.93890e-01,-7.96830e+00,3.94715e-02,8.78111e-02,1.57132e-01
1.82660e+03,9.03919e-01,-5.97623e+00,4.10120e-02,8.86608e-02,1.58947e-01
1.82660e+03,1.40187e+00,-3.98415e+00,4.25934e-02,8.95066e-02,1.60775e-01
1.82660e+03,1.89757e+00,-1.99208e+00,4.41825e-02,9.03488e-02,1.62606e-01
1.87280e+03,2.31244e+01,0.00000e+00,-1.94170e-02,7.11940e-02,1.24831e-01
1.87280e+03,2.30080e+01,-1.75721e+00,-2.12298e-02,7.06412e-02,1.24182e-01
1.87280e+03,2.28531e+01,-3.51443e+00,-2.29548e-02,7.00749e-02,1.23525e-01
1.87280e+03,2.26966e+01,-5.27164e+00,-2.46763e-02,6.94956e-02,1.22873e-01
1.87280e+03,2.25061e+01,-7.02886e+00,-2.63202e-02,6.89045e-02,1.22214e-01
1.87280e+03,2.23078e+01,-8.78607e+00,-2.79462e-02,6.83023e-02,1.21559e-01
1.87280e+03,2.20834e+01,-1.05433e+01,-2.95127e-02,6.76901e-02,1.20900e-01
1.87280e+03,2.18464e+01,-1.23005e+01,-3.10503e-02,6.70686e-02,1.20244e-01
1.87280e+03,2.15884e+01,-1.40577e+01,-3.25401e-02,6.64386e-02,1.19587e-01
1.87280e+03,2.13132e+01,-1.58149e+01,-3.39907e-02,6.58011e-02,1.18932e-01
1.87280e+03,2.10191e+01,-1.75721e+01,-3.53980e-02,6.51567e-02,1.18276e-01
1.87280e+03,2.07020e+01,-1.93294e+01,-3.67531e-02,6.45065e-02,1.17618e-01
1.87280e+03,2.03615e+01,-2.10866e+01,-3.80546e-02,6.38512e-02,1.16958e-01
1.87280e+03,1.99878e+01,-2.28438e+01,-3.92804e-02,6.31919e-02,1.16287e-01
1.87280e+03,1.95817e+01,-2.46010e+01,-4.04323e-02,6.25300e-02,1.15606e-01
1.87280e+03,1.91369e+01,-2.63582e+01,-4.14959e-02,6.18664e-02,1.14910e-01
1.87280e+03,1.86398e+01,-2.81154e+01,-4.24399e-02,6.12035e-02,1.14187e-01
1.87280e+03,1.81062e+01,-2.98726e+01,-4.33008e-02,6.05417e-02,1.13450e-01
1.87280e+03,1.74905e+01,-3.16299e+01,-4.39745e-02,5.98846e-02,1.12660e-01
1.87280e+03,1.68409e+01,-3.33871e+01,-4.45706e-02,5.92337e-02,1.11859e-01
1.87280e+03,1.60966e+01,-3.51443e+01,-4.49506e-02,5.85907e-02,1.10992e-01
1.87280e+03,1.52763e+01,-3.69015e+01,-4.51574e-02,5.79609e-02,1.10080e-01
1.87280e+03,1.43788e+01,-3.86587e+01,-4.51879e-02,5.73454e-02,1.09121e-01
1.87280e+03,1.33517e+01,-4.04159e+01,-4.49225e-02,5.67465e-02,1.08067e-01
1.87280e+03,1.21743e+01,-4.21731e+01,-4.43144e-02,5.61714e-02,1.06909e-01
1.87280e+03,1.08272e+01,-4.39304e+01,-4.33190e-02,5.56271e-02,1.05639e-01
1.87280e+03,9.23393e+00,-4.56876e+01,-4.17616e-02,5.51180e-02,1.04202e-01
1.87280e+03,7.18879e+00,-4.74448e+01,-3.91733e-02,5.46690e-02,1.02473e-01
1.87280e+03,4.42280e+00,-4.92020e+01,-3.49400e-02,5.43939e-02,1.00483e-01
1.87280e+03,-1.79208e+00,-5.09592e+01,-2.28364e-02,5.45017e-02,9.71227e-02
1.87280e+03,-2.24062e+00,-5.09633e+01,-2.18177e-02,5.48384e-02,9.74564e-02
1.87280e+03,-6.32705e+00,-4.91432e+01,-1.03397e-02,5.54772e-02,9.66440e-02
1.87280e+03,-6.82182e+00,-4.73231e+01,-7.05774e-03,5.59493e-02,9.71637e-02
1.87280e+03,-6.99255e+00,-4.55029e+01,-4.51519e-03,5.64462e-02,9.78718e-02
1.87280e+03,-7.01846e+00,-4.36828e+01,-2.30312e-03,5.69661e-02,9.86951e-02
1.87280e+03,-6.93525e+00,-4.18627e+01,-3.40040e-04,5.75051e-02,9.96024e-02
1.87280e+03,-6.78358e+00,-4.00426e+01,1.46679e-03,5.80599e-02,1.00573e-01
1.87280e+03,-6.56315e+00,-3.82225e+01,3.11673e-03,5.86274e-02,1.01593e-01
1.87280e+03,-6.30078e+00,-3.64024e+01,4.67097e-03,5.92047e-02,1.02652e-01
1.87280e+03,-6.01408e+00,-3.45822e+01,6.16970e-03,5.97904e-02,1.03744e-01
1.87280e+03,-5.69074e+00,-3.27621e+01,7.58480e-03,6.03828e-02,1.04861e-01
1.87280e+03,-5.34450e+00,-3.09420e+01,8.94764e-03,6.09804e-02,1.05999e-01
1.87280e+03,-4.97595e+00,-2.91219e+01,1.02596e-02,6.15819e-02,1.07155e-01
1.87280e+03,-4.58518e+00,-2.73018e+01,1.15208e-02,6.21861e-02,1.08324e-01
1.87280e+03,-4.18049e+00,-2.54816e+01,1.27503e-02,6.27919e-02,1.09504e-01
1.87280e+03,-3.75794e+00,-2.36615e+01,1.39390e-02,6.33985e-02,1.10691e-01
1.87280e+03,-3.32398e+00,-2.18414e+01,1.51017e-02,6.40049e-02,1.11884e-01
1.87280e+03,-2.87976e+00,-2.00213e+01,1.62409e-02,6.46105e-02,1.13081e-01
1.87280e+03,-2.42640e+00,-1.82012e+01,1.73593e-02,6.52146e-02,1.14281e-01
1.87280e+03,-1.96917e+00,-1.63811e+01,1.84689e-02,6.58167e-02,1.15484e-01
1.87280e+03,-1.50594e+00,-1.45609e+01,1.95648e-02,6.64165e-02,1.16689e-01
1.87280e+03,-1.04170e+00,-1.27408e+01,2.06584e-02,6.70138e-02,1.17895e-01
1.87280e+03,-5.73883e-01,-1.09207e+01,2.17438e-02,6.76084e-02,1.19103e-01
1.87280e+03,-1.06113e-01,-9.10059e+00,2.28293e-02,6.82000e-02,1.20312e-01
1.87280e+03,3.59890e-01,-7.28047e+00,2.39188e-02,6.87888e-02,1.21523e-01
1.87280e+03,8.25892e-01,-5.46035e+00,2.50084e-02,6.93745e-02,1.22735e-01
1.87280e+03,1.28086e+00,-3.64024e+00,2.61231e-02,6.99574e-02,1.23954e-01
1.87280e+03,1.73377e+00,-1.82012e+00,2.72426e-02,7.05379e-02,1.25176e-01
1.91380e+03,2.11856e+01,0.00000e+00,-1.08971e-02,5.40608e-02,9.42680e-02
1.91380e+03,2.10789e+01,-1.60989e+00,-1.20322e-02,5.36956e-02,9.37786e-02
1.91380e+03,2.09370e+01,-3.21977e+00,-1.31171e-02,5.33214e-02,9.32823e-02
1.91380e+03,2.07936e+01,-4.82966e+00,-1.42001e-02,5.29387e-02,9.27856e-02
1.91380e+03,2.06192e+01,-6.43954e+00,-1.52389e-02,5.25482e-02,9.22831e-02
1.91380e+03,2.04375e+01,-8.04943e+00,-1.62674e-02,5.21504e-02,9.17804e-02
1.91380e+03,2.02319e+01,-9.65931e+00,-1.72619e-02,5.17460e-02,9.12738e-02
1.91380e+03,2.00147e+01,-1.12692e+01,-1.82399e-02,5.13354e-02,9.07671e-02
1.91380e+03,1.97784e+01,-1.28791e+01,-1.91907e-02,5.09193e-02,9.02585e-02
1.91380e+03,1.95262e+01,-1.44890e+01,-2.01190e-02,5.04982e-02,8.97495e-02
1.91380e+03,1.92568e+01,-1.60989e+01,-2.10227e-02,5.00725e-02,8.92397e-02
1.91380e+03,1.89663e+01,-1.77087e+01,-2.18966e-02,4.96430e-02,8.87285e-02
1.91380e+03,1.86544e+01,-1.93186e+01,-2.27399e-02,4.92102e-02,8.82158e-02
1.91380e+03,1.83120e+01,-2.09285e+01,-2.35399e-02,4.87747e-02,8.76986e-02
1.91380e+03,1.79399e+01,-2.25384e+01,-2.42978e-02,4.83376e-02,8.71776e-02
1.91380e+03,1.75325e+01,-2.41483e+01,-2.50053e-02,4.78993e-02,8.66503e-02
1.91380e+03,1.70770e+01,-2.57582e+01,-2.56445e-02,4.74614e-02,8.61127e-02
1.91380e+03,1.65881e+01,-2.73680e+01,-2.62363e-02,4.70243e-02,8.55699e-02
1.91380e+03,1.60241e+01,-2.89779e+01,-2.67213e-02,4.65903e-02,8.50059e-02
1.91380e+03,1.54289e+01,-3.05878e+01,-2.71619e-02,4.61605e-02,8.44401e-02
1.91380e+03,1.47470e+01,-3.21977e+01,-2.74793e-02,4.57358e-02,8.38475e-02
1.91380e+03,1.39955e+01,-3.38076e+01,-2.76977e-02,4.53199e-02,8.32396e-02
1.91380e+03,1.31733e+01,-3.54175e+01,-2.78156e-02,4.49134e-02,8.26157e-02
1.91380e+03,1.22322e+01,-3.70274e+01,-2.77645e-02,4.45179e-02,8.19537e-02
1.91380e+03,1.11536e+01,-3.86372e+01,-2.75179e-02,4.41382e-02,8.12512e-02
1.91380e+03,9.91946e+00,-4.02471e+01,-2.70501e-02,4.37787e-02,8.05074e-02
1.91380e+03,8.45973e+00,-4.18570e+01,-2.62617e-02,4.34426e-02,7.96959e-02
1.91380e+03,6.58606e+00,-4.34669e+01,-2.48848e-02,4.31461e-02,7.87655e-02
1.91380e+03,4.05198e+00,-4.50768e+01,-2.25690e-02,4.29646e-02,7.77639e-02
1.91380e+03,-1.64183e+00,-4.66867e+01,-1.57612e-02,4.30359e-02,7.61885e-02
1.91380e+03,-2.05276e+00,-4.66904e+01,-1.51800e-02,4.32583e-02,7.64479e-02
1.91380e+03,-5.79657e+00,-4.50229e+01,-8.52475e-03,4.36803e-02,7.61353e-02
1.91380e+03,-6.24986e+00,-4.33554e+01,-6.54749e-03,4.39922e-02,7.64775e-02
1.91380e+03,-6.40628e+00,-4.16879e+01,-4.99227e-03,4.43204e-02,7.69273e-02
1.91380e+03,-6.43001e+00,-4.00204e+01,-3.62568e-03,4.46638e-02,7.74449e-02
1.91380e+03,-6.35378e+00,-3.83528e+01,-2.40121e-03,4.50198e-02,7.80135e-02
1.91380e+03,-6.21483e+00,-3.66853e+01,-1.26591e-03,4.53862e-02,7.86214e-02
1.91380e+03,-6.01288e+00,-3.50178e+01,-2.20165e-04,4.57610e-02,7.92607e-02
1.91380e+03,-5.77251e+00,-3.33503e+01,7.70959e-04,4.61423e-02,7.99245e-02
1.91380e+03,-5.50985e+00,-3.16828e+01,1.73040e-03,4.65291e-02,8.06093e-02
1.91380e+03,-5.21362e+00,-3.00153e+01,2.64211e-03,4.69203e-02,8.13113e-02
1.91380e+03,-4.89640e+00,-2.83477e+01,3.52399e-03,4.73149e-02,8.20276e-02
1.91380e+03,-4.55876e+00,-2.66802e+01,4.37682e-03,4.77122e-02,8.27557e-02
1.91380e+03,-4.20075e+00,-2.50127e+01,5.20071e-03,4.81111e-02,8.34931e-02
1.91380e+03,-3.82998e+00,-2.33452e+01,6.00646e-03,4.85112e-02,8.42383e-02
1.91380e+03,-3.44287e+00,-2.16777e+01,6.78896e-03,4.89118e-02,8.49892e-02
1.91380e+03,-3.04529e+00,-2.00102e+01,7.55659e-03,4.93122e-02,8.57448e-02
1.91380e+03,-2.63832e+00,-1.83427e+01,8.31087e-03,4.97120e-02,8.65040e-02
1.91380e+03,-2.22297e+00,-1.66751e+01,9.05323e-03,5.01109e-02,8.72655e-02
1.91380e+03,-1.80407e+00,-1.50076e+01,9.79056e-03,5.05085e-02,8.80294e-02
1.91380e+03,-1.37967e+00,-1.33401e+01,1.05201e-02,5.09045e-02,8.87946e-02
1.91380e+03,-9.54362e-01,-1.16726e+01,1.12483e-02,5.12989e-02,8.95614e-02
1.91380e+03,-5.25768e-01,-1.00051e+01,1.19718e-02,5.16914e-02,9.03291e-02
1.91380e+03,-9.72161e-02,-8.33757e+00,1.26954e-02,5.20821e-02,9.10977e-02
1.91380e+03,3.29716e-01,-6.67006e+00,1.34213e-02,5.24708e-02,9.18677e-02
1.91380e+03,7.56647e-01,-5.00254e+00,1.41472e-02,5.28574e-02,9.26384e-02
1.91380e+03,1.17347e+00,-3.33503e+00,1.48875e-02,5.32423e-02,9.34123e-02
1.91380e+03,1.58841e+00,-1.66751e+00,1.56304e-02,5.36255e-02,9.41880e-02
1.94970e+03,1.94880e+01,0.00000e+00,-5.49548e-03,3.94099e-02,6.84808e-02
1.94970e+03,1.93899e+01,-1.48088e+00,-6.14832e-03,3.91821e-02,6.81434e-02
1.94970e+03,1.92593e+01,-2.96177e+00,-6.77530e-03,3.89488e-02,6.78006e-02
1.94970e+03,1.91274e+01,-4.44265e+00,-7.40124e-03,3.87101e-02,6.74551e-02
1.94970e+03,1.89669e+01,-5.92353e+00,-8.00434e-03,3.84666e-02,6.71052e-02
1.94970e+03,1.87998e+01,-7.40441e+00,-8.60215e-03,3.82185e-02,6.67530e-02
1.94970e+03,1.86107e+01,-8.88530e+00,-9.18242e-03,3.79663e-02,6.63975e-02
1.94970e+03,1.84109e+01,-1.03662e+01,-9.75418e-03,3.77103e-02,6.60404e-02
1.94970e+03,1.81935e+01,-1.18471e+01,-1.03119e-02,3.74508e-02,6.56811e-02
1.94970e+03,1.79616e+01,-1.33279e+01,-1.08580e-02,3.71882e-02,6.53205e-02
1.94970e+03,1.77137e+01,-1.48088e+01,-1.13914e-02,3.69228e-02,6.49587e-02
1.94970e+03,1.74465e+01,-1.62897e+01,-1.19093e-02,3.66549e-02,6.45956e-02
1.94970e+03,1.71596e+01,-1.77706e+01,-1.24116e-02,3.63850e-02,6.42313e-02
1.94970e+03,1.68446e+01,-1.92515e+01,-1.28914e-02,3.61135e-02,6.38651e-02
1.94970e+03,1.65024e+01,-2.07324e+01,-1.33495e-02,3.58409e-02,6.34974e-02
1.94970e+03,1.61276e+01,-2.22132e+01,-1.37817e-02,3.55676e-02,6.31277e-02
1.94970e+03,1.57086e+01,-2.36941e+01,-1.41785e-02,3.52946e-02,6.27548e-02
1.94970e+03,1.52589e+01,-2.51750e+01,-1.45509e-02,3.50221e-02,6.23809e-02
1.94970e+03,1.47401e+01,-2.66559e+01,-1.48681e-02,3.47515e-02,6.20006e-02
1.94970e+03,1.41926e+01,-2.81368e+01,-1.51625e-02,3.44835e-02,6.16218e-02
1.94970e+03,1.35653e+01,-2.96177e+01,-1.53932e-02,3.42188e-02,6.12349e-02
1.94970e+03,1.28740e+01,-3.10985e+01,-1.55728e-02,3.39594e-02,6.08461e-02
1.94970e+03,1.21177e+01,-3.25794e+01,-1.57005e-02,3.37060e-02,6.04549e-02
1.94970e+03,1.12521e+01,-3.40603e+01,-1.57411e-02,3.34595e-02,6.00532e-02
1.94970e+03,1.02599e+01,-3.55412e+01,-1.56806e-02,3.32227e-02,5.96417e-02
1.94970e+03,9.12460e+00,-3.70221e+01,-1.55061e-02,3.29987e-02,5.92214e-02
1.94970e+03,7.78184e+00,-3.85029e+01,-1.51659e-02,3.27891e-02,5.87825e-02
1.94970e+03,6.05831e+00,-3.99838e+01,-1.45220e-02,3.26043e-02,5.83097e-02
1.94970e+03,3.72729e+00,-4.14647e+01,-1.33935e-02,3.24913e-02,5.78484e-02
1.94970e+03,-1.51027e+00,-4.29456e+01,-9.94600e-03,3.25358e-02,5.72246e-02
1.94970e+03,-1.88827e+00,-4.29490e+01,-9.64613e-03,3.26745e-02,5.74101e-02
1.94970e+03,-5.33209e+00,-4.14151e+01,-6.14129e-03,3.29377e-02,5.73793e-02
1.94970e+03,-5.74905e+00,-3.98812e+01,-5.05131e-03,3.31321e-02,5.76084e-02
1.94970e+03,-5.89293e+00,-3.83473e+01,-4.17920e-03,3.33368e-02,5.78920e-02
1.94970e+03,-5.91477e+00,-3.68135e+01,-3.40446e-03,3.35509e-02,5.82115e-02
1.94970e+03,-5.84465e+00,-3.52796e+01,-2.70309e-03,3.37729e-02,5.85588e-02
1.94970e+03,-5.71682e+00,-3.37457e+01,-2.04775e-03,3.40014e-02,5.89277e-02
1.94970e+03,-5.53106e+00,-3.22118e+01,-1.43864e-03,3.42350e-02,5.93142e-02
1.94970e+03,-5.30995e+00,-3.06779e+01,-8.57726e-04,3.44727e-02,5.97147e-02
1.94970e+03,-5.06834e+00,-2.91440e+01,-2.93167e-04,3.47139e-02,6.01269e-02
1.94970e+03,-4.79584e+00,-2.76101e+01,2.46752e-04,3.49578e-02,6.05492e-02
1.94970e+03,-4.50405e+00,-2.60762e+01,7.71273e-04,3.52038e-02,6.09797e-02
1.94970e+03,-4.19345e+00,-2.45423e+01,1.28080e-03,3.54515e-02,6.14171e-02
1.94970e+03,-3.86414e+00,-2.30084e+01,1.77538e-03,3.57002e-02,6.18600e-02
1.94970e+03,-3.52308e+00,-2.14745e+01,2.26060e-03,3.59496e-02,6.23075e-02
1.94970e+03,-3.16699e+00,-1.99406e+01,2.73382e-03,3.61993e-02,6.27586e-02
1.94970e+03,-2.80126e+00,-1.84067e+01,3.19936e-03,3.64489e-02,6.32124e-02
1.94970e+03,-2.42690e+00,-1.68728e+01,3.65801e-03,3.66982e-02,6.36683e-02
1.94970e+03,-2.04484e+00,-1.53389e+01,4.11051e-03,3.69468e-02,6.41256e-02
1.94970e+03,-1.65951e+00,-1.38050e+01,4.56041e-03,3.71946e-02,6.45842e-02
1.94970e+03,-1.26912e+00,-1.22712e+01,5.00627e-03,3.74415e-02,6.50435e-02
1.94970e+03,-8.77888e-01,-1.07373e+01,5.45146e-03,3.76873e-02,6.55035e-02
1.94970e+03,-4.83637e-01,-9.20336e+00,5.89424e-03,3.79320e-02,6.59640e-02
1.94970e+03,-8.94260e-02,-7.66947e+00,6.33705e-03,3.81754e-02,6.64248e-02
1.94970e+03,3.03295e-01,-6.13558e+00,6.78105e-03,3.84177e-02,6.68861e-02
1.94970e+03,6.96016e-01,-4.60168e+00,7.22505e-03,3.86587e-02,6.73475e-02
1.94970e+03,1.07944e+00,-3.06779e+00,7.67647e-03,3.88985e-02,6.78102e-02
1.94970e+03,1.46113e+00,-1.53389e+00,8.12927e-03,3.91374e-02,6.82736e-02
1.98010e+03,1.80504e+01,0.00000e+00,-2.41028e-03,2.71458e-02,4.70796e-02
1.98010e+03,1.79595e+01,-1.37164e+00,-2.74565e-03,2.70138e-02,4.68698e-02
1.98010e+03,1.78386e+01,-2.74329e+00,-3.06929e-03,2.68786e-02,4.66561e-02
1.98010e+03,1.77165e+01,-4.11493e+00,-3.39246e-03,2.67403e-02,4.64396e-02
1.98010e+03,1.75678e+01,-5.48657e+00,-3.70528e-03,2.65992e-02,4.62199e-02
1.98010e+03,1.74130e+01,-6.85822e+00,-4.01571e-03,2.64555e-02,4.59978e-02
1.98010e+03,1.72378e+01,-8.22986e+00,-4.31818e-03,2.63093e-02,4.57732e-02
1.98010e+03,1.70528e+01,-9.60150e+00,-4.61680e-03,2.61610e-02,4.55468e-02
1.98010e+03,1.68514e+01,-1.09731e+01,-4.90903e-03,2.60106e-02,4.53184e-02
1.98010e+03,1.66366e+01,-1.23448e+01,-5.19603e-03,2.58585e-02,4.50886e-02
1.98010e+03,1.64070e+01,-1.37164e+01,-5.47725e-03,2.57047e-02,4.48576e-02
1.98010e+03,1.61595e+01,-1.50881e+01,-5.75149e-03,2.55496e-02,4.46254e-02
1.98010e+03,1.58938e+01,-1.64597e+01,-6.01859e-03,2.53932e-02,4.43922e-02
1.98010e+03,1.56020e+01,-1.78314e+01,-6.27556e-03,2.52359e-02,4.41581e-02
1.98010e+03,1.52851e+01,-1.92030e+01,-6.52267e-03,2.50780e-02,4.39234e-02
1.98010e+03,1.49379e+01,-2.05747e+01,-6.75799e-03,2.49197e-02,4.36880e-02
1.98010e+03,1.45498e+01,-2.19463e+01,-6.97734e-03,2.47616e-02,4.34521e-02
1.98010e+03,1.41333e+01,-2.33179e+01,-7.18559e-03,2.46037e-02,4.32164e-02
1.98010e+03,1.36527e+01,-2.46896e+01,-7.36885e-03,2.44469e-02,4.29797e-02
1.98010e+03,1.31457e+01,-2.60612e+01,-7.54174e-03,2.42917e-02,4.27450e-02
1.98010e+03,1.25646e+01,-2.74329e+01,-7.68578e-03,2.41383e-02,4.25094e-02
1.98010e+03,1.19244e+01,-2.88045e+01,-7.80668e-03,2.39881e-02,4.22757e-02
1.98010e+03,1.12238e+01,-3.01762e+01,-7.90404e-03,2.38413e-02,4.20440e-02
1.98010e+03,1.04220e+01,-3.15478e+01,-7.96189e-03,2.36985e-02,4.18121e-02
1.98010e+03,9.50303e+00,-3.29194e+01,-7.97398e-03,2.35614e-02,4.15813e-02
1.98010e+03,8.45151e+00,-3.42911e+01,-7.93434e-03,2.34316e-02,4.13530e-02
1.98010e+03,7.20780e+00,-3.56627e+01,-7.81966e-03,2.33102e-02,4.11248e-02
1.98010e+03,5.61141e+00,-3.70344e+01,-7.56731e-03,2.32032e-02,4.08954e-02
1.98010e+03,3.45234e+00,-3.84060e+01,-7.09529e-03,2.31378e-02,4.06991e-02
1.98010e+03,-1.39886e+00,-3.97777e+01,-5.57231e-03,2.31636e-02,4.05057e-02
1.98010e+03,-1.74898e+00,-3.97808e+01,-5.43649e-03,2.32440e-02,4.06252e-02
1.98010e+03,-4.93876e+00,-3.83601e+01,-3.80712e-03,2.33965e-02,4.07023e-02
1.98010e+03,-5.32496e+00,-3.69394e+01,-3.27222e-03,2.35091e-02,4.08503e-02
1.98010e+03,-5.45823e+00,-3.55186e+01,-2.83606e-03,2.36277e-02,4.10225e-02
1.98010e+03,-5.47846e+00,-3.40979e+01,-2.44404e-03,2.37517e-02,4.12117e-02
1.98010e+03,-5.41351e+00,-3.26771e+01,-2.08527e-03,2.38803e-02,4.14144e-02
1.98010e+03,-5.29511e+00,-3.12564e+01,-1.74736e-03,2.40127e-02,4.16278e-02
1.98010e+03,-5.12305e+00,-2.98356e+01,-1.43040e-03,2.41480e-02,4.18501e-02
1.98010e+03,-4.91825e+00,-2.84149e+01,-1.12622e-03,2.42857e-02,4.20792e-02
1.98010e+03,-4.69446e+00,-2.69941e+01,-8.29455e-04,2.44254e-02,4.23142e-02
1.98010e+03,-4.44207e+00,-2.55734e+01,-5.43856e-04,2.45667e-02,4.25542e-02
1.98010e+03,-4.17180e+00,-2.41527e+01,-2.65237e-04,2.47092e-02,4.27984e-02
1.98010e+03,-3.88412e+00,-2.27319e+01,6.58519e-06,2.48526e-02,4.30460e-02
1.98010e+03,-3.57909e+00,-2.13112e+01,2.71637e-04,2.49967e-02,4.32964e-02
1.98010e+03,-3.26320e+00,-1.98904e+01,5.32444e-04,2.51412e-02,4.35490e-02
1.98010e+03,-2.93337e+00,-1.84697e+01,7.87813e-04,2.52858e-02,4.38034e-02
1.98010e+03,-2.59462e+00,-1.70489e+01,1.03970e-03,2.54304e-02,4.40590e-02
1.98010e+03,-2.24788e+00,-1.56282e+01,1.28847e-03,2.55747e-02,4.43155e-02
1.98010e+03,-1.89400e+00,-1.42074e+01,1.53444e-03,2.57187e-02,4.45726e-02
1.98010e+03,-1.53709e+00,-1.27867e+01,1.77924e-03,2.58623e-02,4.48301e-02
1.98010e+03,-1.17550e+00,-1.13660e+01,2.02221e-03,2.60052e-02,4.50878e-02
1.98010e+03,-8.13129e-01,-9.94521e+00,2.26488e-03,2.61476e-02,4.53456e-02
1.98010e+03,-4.47961e-01,-8.52447e+00,2.50645e-03,2.62893e-02,4.56034e-02
1.98010e+03,-8.28294e-02,-7.10372e+00,2.74804e-03,2.64303e-02,4.58611e-02
1.98010e+03,2.80922e-01,-5.68298e+00,2.99016e-03,2.65706e-02,4.61187e-02
1.98010e+03,6.44673e-01,-4.26223e+00,3.23229e-03,2.67102e-02,4.63762e-02
1.98010e+03,9.99811e-01,-2.84149e+00,3.47777e-03,2.68491e-02,4.66338e-02
1.98010e+03,1.35334e+00,-1.42074e+00,3.72389e-03,2.69874e-02,4.68916e-02
2.00520e+03,1.68635e+01,0.00000e+00,-8.54742e-04,1.70795e-02,2.95950e-02
2.00520e+03,1.67786e+01,-1.28145e+00,-9.99744e-04,1.70113e-02,2.94815e-02
2.00520e+03,1.66656e+01,-2.56290e+00,-1.14038e-03,1.69415e-02,2.93656e-02
2.00520e+03,1.65515e+01,-3.84435e+00,-1.28084e-03,1.68700e-02,2.92478e-02
2.00520e+03,1.64126e+01,-5.12580e+00,-1.41744e-03,1.67971e-02,2.91279e-02
2.00520e+03,1.62680e+01,-6.40725e+00,-1.55315e-03,1.67228e-02,2.90064e-02
2.00520e+03,1.61044e+01,-7.68870e+00,-1.68590e-03,1.66473e-02,2.88833e-02
2.00520e+03,1.59315e+01,-8.97015e+00,-1.81722e-03,1.65707e-02,2.87587e-02
2.00520e+03,1.57433e+01,-1.02516e+01,-1.94615e-03,1.64930e-02,2.86329e-02
2.00520e+03,1.55427e+01,-1.15330e+01,-2.07314e-03,1.64144e-02,2.85060e-02
2.00520e+03,1.53282e+01,-1.28145e+01,-2.19797e-03,1.63349e-02,2.83782e-02
2.00520e+03,1.50970e+01,-1.40959e+01,-2.32020e-03,1.62548e-02,2.82495e-02
2.00520e+03,1.48486e+01,-1.53774e+01,-2.43977e-03,1.61740e-02,2.81202e-02
2.00520e+03,1.45761e+01,-1.66588e+01,-2.55557e-03,1.60927e-02,2.79903e-02
2.00520e+03,1.42800e+01,-1.79403e+01,-2.66770e-03,1.60111e-02,2.78601e-02
2.00520e+03,1.39556e+01,-1.92217e+01,-2.77544e-03,1.59293e-02,2.77297e-02
2.00520e+03,1.35931e+01,-2.05032e+01,-2.87722e-03,1.58476e-02,2.75993e-02
2.00520e+03,1.32039e+01,-2.17846e+01,-2.97487e-03,1.57661e-02,2.74692e-02
2.00520e+03,1.27550e+01,-2.30661e+01,-3.06321e-03,1.56851e-02,2.73395e-02
2.00520e+03,1.22812e+01,-2.43475e+01,-3.14769e-03,1.56049e-02,2.72111e-02
2.00520e+03,1.17384e+01,-2.56290e+01,-3.22142e-03,1.55256e-02,2.70835e-02
2.00520e+03,1.11403e+01,-2.69104e+01,-3.28654e-03,1.54480e-02,2.69579e-02
2.00520e+03,1.04858e+01,-2.81919e+01,-3.34288e-03,1.53722e-02,2.68345e-02
2.00520e+03,9.73672e+00,-2.94733e+01,-3.38451e-03,1.52984e-02,2.67129e-02
2.00520e+03,8.87814e+00,-3.07548e+01,-3.40909e-03,1.52276e-02,2.65944e-02
2.00520e+03,7.89577e+00,-3.20362e+01,-3.41440e-03,1.51606e-02,2.64799e-02
2.00520e+03,6.73385e+00,-3.33177e+01,-3.39176e-03,1.50979e-02,2.63693e-02
2.00520e+03,5.24243e+00,-3.45991e+01,-3.31783e-03,1.50426e-02,2.62649e-02
2.00520e+03,3.22533e+00,-3.58806e+01,-3.16208e-03,1.50088e-02,2.61876e-02
2.00520e+03,-1.30688e+00,-3.71620e+01,-2.61483e-03,1.50222e-02,2.61502e-02
2.00520e+03,-1.63397e+00,-3.71650e+01,-2.56428e-03,1.50637e-02,2.62168e-02
2.00520e+03,-4.61400e+00,-3.58377e+01,-1.93654e-03,1.51425e-02,2.62989e-02
2.00520e+03,-4.97481e+00,-3.45104e+01,-1.71649e-03,1.52007e-02,2.63843e-02
2.00520e+03,-5.09932e+00,-3.31830e+01,-1.53322e-03,1.52619e-02,2.64789e-02
2.00520e+03,-5.11821e+00,-3.18557e+01,-1.36640e-03,1.53260e-02,2.65806e-02
2.00520e+03,-5.05754e+00,-3.05284e+01,-1.21195e-03,1.53925e-02,2.66881e-02
2.00520e+03,-4.94693e+00,-2.92011e+01,-1.06529e-03,1.54609e-02,2.68002e-02
2.00520e+03,-4.78618e+00,-2.78738e+01,-9.26422e-04,1.55308e-02,2.69161e-02
2.00520e+03,-4.59485e+00,-2.65464e+01,-7.92319e-04,1.56019e-02,2.70349e-02
2.00520e+03,-4.38577e+00,-2.52191e+01,-6.60977e-04,1.56741e-02,2.71564e-02
2.00520e+03,-4.14998e+00,-2.38918e+01,-5.33795e-04,1.57471e-02,2.72800e-02
2.00520e+03,-3.89748e+00,-2.25645e+01,-4.09212e-04,1.58207e-02,2.74053e-02
2.00520e+03,-3.62871e+00,-2.12371e+01,-2.87161e-04,1.58948e-02,2.75321e-02
2.00520e+03,-3.34375e+00,-1.99098e+01,-1.67633e-04,1.59692e-02,2.76600e-02
2.00520e+03,-3.04862e+00,-1.85825e+01,-4.96857e-05,1.60439e-02,2.77888e-02
2.00520e+03,-2.74048e+00,-1.72552e+01,6.62361e-05,1.61186e-02,2.79183e-02
2.00520e+03,-2.42401e+00,-1.59279e+01,1.80861e-04,1.61933e-02,2.80481e-02
2.00520e+03,-2.10007e+00,-1.46005e+01,2.94322e-04,1.62678e-02,2.81782e-02
2.00520e+03,-1.76946e+00,-1.32732e+01,4.06746e-04,1.63422e-02,2.83085e-02
2.00520e+03,-1.43602e+00,-1.19459e+01,5.18730e-04,1.64164e-02,2.84387e-02
2.00520e+03,-1.09820e+00,-1.06186e+01,6.30032e-04,1.64902e-02,2.85688e-02
2.00520e+03,-7.59661e-01,-9.29125e+00,7.41221e-04,1.65637e-02,2.86988e-02
2.00520e+03,-4.18505e-01,-7.96393e+00,8.52004e-04,1.66369e-02,2.88286e-02
2.00520e+03,-7.73829e-02,-6.63661e+00,9.62792e-04,1.67098e-02,2.89582e-02
2.00520e+03,2.62450e-01,-5.30929e+00,1.07378e-03,1.67822e-02,2.90875e-02
2.00520e+03,6.02282e-01,-3.98196e+00,1.18477e-03,1.68543e-02,2.92166e-02
2.00520e+03,9.34067e-01,-2.65464e+00,1.29701e-03,1.69261e-02,2.93455e-02
2.00520e+03,1.26435e+00,-1.32732e+00,1.40948e-03,1.69975e-02,2.94742e-02
2.02480e+03,1.59367e+01,0.00000e+00,-2.17654e-04,9.28972e-03,1.60917e-02
2.02480e+03,1.58564e+01,-1.21102e+00,-2.65862e-04,9.26038e-03,1.60416e-02
2.02480e+03,1.57496e+01,-2.42204e+00,-3.12865e-04,9.23031e-03,1.59904e-02
2.02480e+03,1.56418e+01,-3.63306e+00,-3.59818e-04,9.19956e-03,1.59382e-02
2.02480e+03,1.55106e+01,-4.84408e+00,-4.05707e-04,9.16819e-03,1.58850e-02
2.02480e+03,1.53739e+01,-6.05509e+00,-4.51348e-04,9.13624e-03,1.58309e-02
2.02480e+03,1.52192e+01,-7.26611e+00,-4.96171e-04,9.10375e-03,1.57760e-02
2.02480e+03,1.50559e+01,-8.47713e+00,-5.40598e-04,9.07077e-03,1.57203e-02
2.02480e+03,1.48781e+01,-9.68815e+00,-5.84367e-04,9.03735e-03,1.56640e-02
2.02480e+03,1.46884e+01,-1.08992e+01,-6.27597e-04,9.00353e-03,1.56072e-02
2.02480e+03,1.44857e+01,-1.21102e+01,-6.70232e-04,8.96935e-03,1.55498e-02
2.02480e+03,1.42672e+01,-1.33212e+01,-7.12150e-04,8.93486e-03,1.54920e-02
2.02480e+03,1.40325e+01,-1.45322e+01,-7.53331e-04,8.90010e-03,1.54338e-02
2.02480e+03,1.37750e+01,-1.57432e+01,-7.93470e-04,8.86513e-03,1.53753e-02
2.02480e+03,1.34951e+01,-1.69543e+01,-8.32595e-04,8.83003e-03,1.53167e-02
2.02480e+03,1.31886e+01,-1.81653e+01,-8.70505e-04,8.79484e-03,1.52580e-02
2.02480e+03,1.28460e+01,-1.93763e+01,-9.06773e-04,8.75969e-03,1.51993e-02
2.02480e+03,1.24782e+01,-2.05873e+01,-9.41897e-04,8.72460e-03,1.51408e-02
2.02480e+03,1.20540e+01,-2.17983e+01,-9.74448e-04,8.68976e-03,1.50826e-02
2.02480e+03,1.16063e+01,-2.30094e+01,-1.00593e-03,8.65526e-03,1.50251e-02
2.02480e+03,1.10933e+01,-2.42204e+01,-1.03445e-03,8.62117e-03,1.49681e-02
2.02480e+03,1.05280e+01,-2.54314e+01,-1.06058e-03,8.58779e-03,1.49122e-02
2.02480e+03,9.90946e+00,-2.66424e+01,-1.08429e-03,8.55516e-03,1.48576e-02
2.02480e+03,9.20158e+00,-2.78534e+01,-1.10393e-03,8.52343e-03,1.48042e-02
2.02480e+03,8.39019e+00,-2.90645e+01,-1.11886e-03,8.49295e-03,1.47527e-02
2.02480e+03,7.46181e+00,-3.02755e+01,-1.12847e-03,8.46411e-03,1.47036e-02
2.02480e+03,6.36374e+00,-3.14865e+01,-1.13035e-03,8.43715e-03,1.46572e-02
2.02480e+03,4.95429e+00,-3.26975e+01,-1.11807e-03,8.41337e-03,1.46152e-02
2.02480e+03,3.04806e+00,-3.39085e+01,-1.08317e-03,8.39884e-03,1.45875e-02
2.02480e+03,-1.23505e+00,-3.51195e+01,-9.40084e-04,8.40460e-03,1.45875e-02
2.02480e+03,-1.54416e+00,-3.51224e+01,-9.26135e-04,8.42247e-03,1.46175e-02
2.02480e+03,-4.36041e+00,-3.38680e+01,-7.44236e-04,8.45637e-03,1.46658e-02
2.02480e+03,-4.70139e+00,-3.26136e+01,-6.74997e-04,8.48141e-03,1.47057e-02
2.02480e+03,-4.81905e+00,-3.13592e+01,-6.15924e-04,8.50777e-03,1.47487e-02
2.02480e+03,-4.83691e+00,-3.01049e+01,-5.61392e-04,8.53534e-03,1.47943e-02
2.02480e+03,-4.77957e+00,-2.88505e+01,-5.10284e-04,8.56392e-03,1.48419e-02
2.02480e+03,-4.67504e+00,-2.75961e+01,-4.61323e-04,8.59334e-03,1.48912e-02
2.02480e+03,-4.52312e+00,-2.63418e+01,-4.14519e-04,8.62343e-03,1.49420e-02
2.02480e+03,-4.34231e+00,-2.50874e+01,-3.69030e-04,8.65403e-03,1.49938e-02
2.02480e+03,-4.14473e+00,-2.38330e+01,-3.24305e-04,8.68508e-03,1.50465e-02
2.02480e+03,-3.92189e+00,-2.25787e+01,-2.80729e-04,8.71648e-03,1.51000e-02
2.02480e+03,-3.68327e+00,-2.13243e+01,-2.37871e-04,8.74815e-03,1.51541e-02
2.02480e+03,-3.42927e+00,-2.00699e+01,-1.95713e-04,8.78003e-03,1.52087e-02
2.02480e+03,-3.15997e+00,-1.88155e+01,-1.54252e-04,8.81204e-03,1.52637e-02
2.02480e+03,-2.88106e+00,-1.75612e+01,-1.13228e-04,8.84415e-03,1.53189e-02
2.02480e+03,-2.58986e+00,-1.63068e+01,-7.27632e-05,8.87629e-03,1.53744e-02
2.02480e+03,-2.29078e+00,-1.50524e+01,-3.26572e-05,8.90841e-03,1.54299e-02
2.02480e+03,-1.98465e+00,-1.37981e+01,7.12742e-06,8.94049e-03,1.54854e-02
2.02480e+03,-1.67220e+00,-1.25437e+01,4.66252e-05,8.97249e-03,1.55409e-02
2.02480e+03,-1.35709e+00,-1.12893e+01,8.60014e-05,9.00438e-03,1.55963e-02
2.02480e+03,-1.03784e+00,-1.00350e+01,1.25189e-04,9.03615e-03,1.56516e-02
2.02480e+03,-7.17909e-01,-8.78059e+00,1.64346e-04,9.06778e-03,1.57067e-02
2.02480e+03,-3.95503e-01,-7.52622e+00,2.03390e-04,9.09927e-03,1.57617e-02
2.02480e+03,-7.31298e-02,-6.27185e+00,2.42436e-04,9.13059e-03,1.58165e-02
2.02480e+03,2.48025e-01,-5.01748e+00,2.81537e-04,9.16176e-03,1.58711e-02
2.02480e+03,5.69180e-01,-3.76311e+00,3.20638e-04,9.19277e-03,1.59256e-02
2.02480e+03,8.82730e-01,-2.50874e+00,3.60086e-04,9.22363e-03,1.59798e-02
2.02480e+03,1.19486e+00,-1.25437e+00,3.99598e-04,9.25435e-03,1.60340e-02
2.03880e+03,1.52746e+01,0.00000e+00,-3.12792e-05,3.90284e-03,6.75999e-03
2.03880e+03,1.51977e+01,-1.16071e+00,-4.18610e-05,3.89391e-03,6.74458e-03
2.03880e+03,1.50954e+01,-2.32142e+00,-5.22374e-05,3.88477e-03,6.72881e-03
2.03880e+03,1.49920e+01,-3.48213e+00,-6.26057e-05,3.87541e-03,6.71270e-03
2.03880e+03,1.48662e+01,-4.64285e+00,-7.27926e-05,3.86587e-03,6.69628e-03
2.03880e+03,1.47352e+01,-5.80356e+00,-8.29375e-05,3.85615e-03,6.67956e-03
2.03880e+03,1.45870e+01,-6.96427e+00,-9.29432e-05,3.84627e-03,6.66258e-03
2.03880e+03,1.44304e+01,-8.12498e+00,-1.02881e-04,3.83623e-03,6.64535e-03
2.03880e+03,1.42600e+01,-9.28569e+00,-1.12708e-04,3.82607e-03,6.62790e-03
2.03880e+03,1.40782e+01,-1.04464e+01,-1.22442e-04,3.81578e-03,6.61026e-03
2.03880e+03,1.38839e+01,-1.16071e+01,-1.32076e-04,3.80538e-03,6.59244e-03
2.03880e+03,1.36745e+01,-1.27678e+01,-1.41587e-04,3.79489e-03,6.57447e-03
2.03880e+03,1.34496e+01,-1.39285e+01,-1.50973e-04,3.78432e-03,6.55637e-03
2.03880e+03,1.32028e+01,-1.50892e+01,-1.60181e-04,3.77368e-03,6.53817e-03
2.03880e+03,1.29345e+01,-1.62500e+01,-1.69217e-04,3.76301e-03,6.51991e-03
2.03880e+03,1.26407e+01,-1.74107e+01,-1.78047e-04,3.75230e-03,6.50162e-03
2.03880e+03,1.23123e+01,-1.85714e+01,-1.86596e-04,3.74161e-03,6.48334e-03
2.03880e+03,1.19599e+01,-1.97321e+01,-1.94952e-04,3.73094e-03,6.46511e-03
2.03880e+03,1.15532e+01,-2.08928e+01,-2.02869e-04,3.72034e-03,6.44701e-03
2.03880e+03,1.11241e+01,-2.20535e+01,-2.10605e-04,3.70985e-03,6.42909e-03
2.03880e+03,1.06324e+01,-2.32142e+01,-2.17835e-04,3.69948e-03,6.41138e-03
2.03880e+03,1.00906e+01,-2.43749e+01,-2.24661e-04,3.68932e-03,6.39404e-03
2.03880e+03,9.49781e+00,-2.55357e+01,-2.31074e-04,3.67940e-03,6.37710e-03
2.03880e+03,8.81933e+00,-2.66964e+01,-2.36794e-04,3.66975e-03,6.36060e-03
2.03880e+03,8.04165e+00,-2.78571e+01,-2.41714e-04,3.66048e-03,6.34474e-03
2.03880e+03,7.15183e+00,-2.90178e+01,-2.45727e-04,3.65171e-03,6.32972e-03
2.03880e+03,6.09938e+00,-3.01785e+01,-2.48426e-04,3.64351e-03,6.31563e-03
2.03880e+03,4.74849e+00,-3.13392e+01,-2.48713e-04,3.63628e-03,6.30312e-03
2.03880e+03,2.92144e+00,-3.24999e+01,-2.45152e-04,3.63186e-03,6.29534e-03
2.03880e+03,-1.18374e+00,-3.36606e+01,-2.23183e-04,3.63361e-03,6.29755e-03
2.03880e+03,-1.48002e+00,-3.36633e+01,-2.20815e-04,3.63905e-03,6.30688e-03
2.03880e+03,-4.17927e+00,-3.24611e+01,-1.87399e-04,3.64936e-03,6.32365e-03
2.03880e+03,-4.50609e+00,-3.12588e+01,-1.73153e-04,3.65698e-03,6.33644e-03
2.03880e+03,-4.61886e+00,-3.00565e+01,-1.60637e-04,3.66499e-03,6.34999e-03
2.03880e+03,-4.63598e+00,-2.88543e+01,-1.48895e-04,3.67338e-03,6.36422e-03
2.03880e+03,-4.58102e+00,-2.76520e+01,-1.37734e-04,3.68207e-03,6.37903e-03
2.03880e+03,-4.48083e+00,-2.64498e+01,-1.26939e-04,3.69102e-03,6.39430e-03
2.03880e+03,-4.33523e+00,-2.52475e+01,-1.16512e-04,3.70017e-03,6.40995e-03
2.03880e+03,-4.16192e+00,-2.40452e+01,-1.06308e-04,3.70948e-03,6.42589e-03
2.03880e+03,-3.97255e+00,-2.28430e+01,-9.62333e-05,3.71893e-03,6.44209e-03
2.03880e+03,-3.75897e+00,-2.16407e+01,-8.63547e-05,3.72848e-03,6.45849e-03
2.03880e+03,-3.53026e+00,-2.04384e+01,-7.65984e-05,3.73811e-03,6.47505e-03
2.03880e+03,-3.28682e+00,-1.92362e+01,-6.69611e-05,3.74781e-03,6.49174e-03
2.03880e+03,-3.02870e+00,-1.80339e+01,-5.74424e-05,3.75754e-03,6.50851e-03
2.03880e+03,-2.76138e+00,-1.68317e+01,-4.79980e-05,3.76731e-03,6.52535e-03
2.03880e+03,-2.48228e+00,-1.56294e+01,-3.86489e-05,3.77708e-03,6.54221e-03
2.03880e+03,-2.19562e+00,-1.44271e+01,-2.93608e-05,3.78685e-03,6.55909e-03
2.03880e+03,-1.90220e+00,-1.32249e+01,-2.01274e-05,3.79661e-03,6.57595e-03
2.03880e+03,-1.60274e+00,-1.20226e+01,-1.09428e-05,3.80634e-03,6.59279e-03
2.03880e+03,-1.30072e+00,-1.08204e+01,-1.77887e-06,3.81604e-03,6.60958e-03
2.03880e+03,-9.94731e-01,-9.61809e+00,7.35302e-06,3.82570e-03,6.62632e-03
2.03880e+03,-6.88086e-01,-8.41583e+00,1.64796e-05,3.83532e-03,6.64300e-03
2.03880e+03,-3.79073e-01,-7.21357e+00,2.55870e-05,3.84490e-03,6.65961e-03
2.03880e+03,-7.00919e-02,-6.01131e+00,3.46947e-05,3.85443e-03,6.67615e-03
2.03880e+03,2.37722e-01,-4.80905e+00,4.38118e-05,3.86391e-03,6.69263e-03
2.03880e+03,5.45535e-01,-3.60678e+00,5.29289e-05,3.87334e-03,6.70902e-03
2.03880e+03,8.46060e-01,-2.40452e+00,6.21050e-05,3.88272e-03,6.72536e-03
2.03880e+03,1.14523e+00,-1.20226e+00,7.12920e-05,3.89206e-03,6.74163e-03
2.04720e+03,1.48774e+01,0.00000e+00,-2.52392e-06,8.82822e-04,1.52909e-03
2.04720e+03,1.48025e+01,-1.13053e+00,-4.27924e-06,8.81776e-04,1.52729e-03
2.04720e+03,1.47028e+01,-2.26105e+00,-6.00997e-06,8.80704e-04,1.52544e-03
2.04720e+03,1.46021e+01,-3.39158e+00,-7.73972e-06,8.79608e-04,1.52355e-03
2.04720e+03,1.44796e+01,-4.52211e+00,-9.44775e-06,8.78490e-04,1.52162e-03
2.04720e+03,1.43520e+01,-5.65264e+00,-1.11507e-05,8.77350e-04,1.51966e-03
2.04720e+03,1.42077e+01,-6.78316e+00,-1.28371e-05,8.76192e-04,1.51766e-03
2.04720e+03,1.40552e+01,-7.91369e+00,-1.45153e-05,8.75017e-04,1.51564e-03
2.04720e+03,1.38892e+01,-9.04422e+00,-1.61802e-05,8.73826e-04,1.51360e-03
2.04720e+03,1.37121e+01,-1.01747e+01,-1.78340e-05,8.72620e-04,1.51153e-03
2.04720e+03,1.35229e+01,-1.13053e+01,-1.94758e-05,8.71402e-04,1.50944e-03
2.04720e+03,1.33189e+01,-1.24358e+01,-2.11029e-05,8.70172e-04,1.50733e-03
2.04720e+03,1.30998e+01,-1.35663e+01,-2.27150e-05,8.68933e-04,1.50521e-03
2.04720e+03,1.28594e+01,-1.46969e+01,-2.43058e-05,8.67687e-04,1.50307e-03
2.04720e+03,1.25982e+01,-1.58274e+01,-2.58760e-05,8.66436e-04,1.50093e-03
2.04720e+03,1.23120e+01,-1.69579e+01,-2.74215e-05,8.65182e-04,1.49879e-03
2.04720e+03,1.19922e+01,-1.80884e+01,-2.89334e-05,8.63929e-04,1.49665e-03
2.04720e+03,1.16489e+01,-1.92190e+01,-3.04221e-05,8.62678e-04,1.49451e-03
2.04720e+03,1.12528e+01,-2.03495e+01,-3.18583e-05,8.61437e-04,1.49239e-03
2.04720e+03,1.08348e+01,-2.14800e+01,-3.32728e-05,8.60207e-04,1.49029e-03
2.04720e+03,1.03559e+01,-2.26105e+01,-3.46267e-05,8.58992e-04,1.48822e-03
2.04720e+03,9.82823e+00,-2.37411e+01,-3.59321e-05,8.57802e-04,1.48619e-03
2.04720e+03,9.25081e+00,-2.48716e+01,-3.71882e-05,8.56640e-04,1.48421e-03
2.04720e+03,8.58998e+00,-2.60021e+01,-3.83613e-05,8.55509e-04,1.48228e-03
2.04720e+03,7.83252e+00,-2.71326e+01,-3.94385e-05,8.54423e-04,1.48043e-03
2.04720e+03,6.96585e+00,-2.82632e+01,-4.04071e-05,8.53395e-04,1.47868e-03
2.04720e+03,5.94077e+00,-2.93937e+01,-4.12183e-05,8.52434e-04,1.47703e-03
2.04720e+03,4.62500e+00,-3.05242e+01,-4.17407e-05,8.51587e-04,1.47558e-03
2.04720e+03,2.84547e+00,-3.16548e+01,-4.18023e-05,8.51069e-04,1.47469e-03
2.04720e+03,-1.15296e+00,-3.27853e+01,-3.96591e-05,8.51275e-04,1.47498e-03
2.04720e+03,-1.44153e+00,-3.27879e+01,-3.93766e-05,8.51912e-04,1.47608e-03
2.04720e+03,-4.07059e+00,-3.16169e+01,-3.48690e-05,8.53120e-04,1.47806e-03
2.04720e+03,-4.38891e+00,-3.04459e+01,-3.26575e-05,8.54013e-04,1.47955e-03
2.04720e+03,-4.49875e+00,-2.92749e+01,-3.06531e-05,8.54952e-04,1.48114e-03
2.04720e+03,-4.51542e+00,-2.81039e+01,-2.87412e-05,8.55935e-04,1.48280e-03
2.04720e+03,-4.46189e+00,-2.69329e+01,-2.68991e-05,8.56954e-04,1.48453e-03
2.04720e+03,-4.36430e+00,-2.57619e+01,-2.51008e-05,8.58002e-04,1.48632e-03
2.04720e+03,-4.22249e+00,-2.45909e+01,-2.33465e-05,8.59074e-04,1.48814e-03
2.04720e+03,-4.05369e+00,-2.34199e+01,-2.16189e-05,8.60165e-04,1.49001e-03
2.04720e+03,-3.86924e+00,-2.22489e+01,-1.99069e-05,8.61272e-04,1.49190e-03
2.04720e+03,-3.66121e+00,-2.10779e+01,-1.82183e-05,8.62391e-04,1.49382e-03
2.04720e+03,-3.43845e+00,-1.99069e+01,-1.65444e-05,8.63520e-04,1.49575e-03
2.04720e+03,-3.20134e+00,-1.87359e+01,-1.48847e-05,8.64656e-04,1.49770e-03
2.04720e+03,-2.94994e+00,-1.75649e+01,-1.32393e-05,8.65797e-04,1.49966e-03
2.04720e+03,-2.68957e+00,-1.63940e+01,-1.16027e-05,8.66941e-04,1.50163e-03
2.04720e+03,-2.41772e+00,-1.52230e+01,-9.97754e-06,8.68086e-04,1.50360e-03
2.04720e+03,-2.13852e+00,-1.40520e+01,-8.35969e-06,8.69231e-04,1.50558e-03
2.04720e+03,-1.85273e+00,-1.28810e+01,-6.74838e-06,8.70374e-04,1.50755e-03
2.04720e+03,-1.56106e+00,-1.17100e+01,-5.14292e-06,8.71515e-04,1.50952e-03
2.04720e+03,-1.26689e+00,-1.05390e+01,-3.53994e-06,8.72651e-04,1.51148e-03
2.04720e+03,-9.68863e-01,-9.36797e+00,-1.94080e-06,8.73783e-04,1.51344e-03
2.04720e+03,-6.70192e-01,-8.19698e+00,-3.42292e-07,8.74910e-04,1.51539e-03
2.04720e+03,-3.69215e-01,-7.02598e+00,1.25392e-06,8.76032e-04,1.51733e-03
2.04720e+03,-6.82691e-02,-5.85498e+00,2.85017e-06,8.77149e-04,1.51927e-03
2.04720e+03,2.31540e-01,-4.68399e+00,4.44755e-06,8.78259e-04,1.52120e-03
2.04720e+03,5.31348e-01,-3.51299e+00,6.04492e-06,8.79364e-04,1.52312e-03
2.04720e+03,8.24058e-01,-2.34199e+00,7.64935e-06,8.80464e-04,1.52503e-03
2.04720e+03,1.11544e+00,-1.17100e+00,9.25510e-06,8.81558e-04,1.52693e-03
2.05000e+03,1.47450e+01,0.00000e+00,0.00000e+00,0.00000e+00,0.00000e+00
2.05000e+03,1.46708e+01,-1.12047e+00,0.00000e+00,0.00000e+00,0.00000e+00
2.05000e+03,1.45720e+01,-2.24093e+00,0.00000e+00,0.00000e+00,0.00000e+00
2.05000e+03,1.44722e+01,-3.36140e+00,0.00000e+00,0.00000e+00,0.00000e+00
2.05000e+03,1.43508e+01,-4.48186e+00,0.00000e+00,0.00000e+00,0.00000e+00
2.05000e+03,1.42243e+01,-5.60233e+00,0.00000e+00,0.00000e+00,0.00000e+00
2.05000e+03,1.40812e+01,-6.72279e+00,0.00000e+00,0.00000e+00,0.00000e+00
2.05000e+03,1.39301e+01,-7.84326e+00,0.00000e+00,0.00000e+00,0.00000e+00
2.05000e+03,1.37656e+01,-8.96372e+00,0.00000e+00,0.00000e+00,0.00000e+00
2.05000e+03,1.35901e+01,-1.00842e+01,0.00000e+00,0.00000e+00,0.00000e+00
2.05000e+03,1.34025e+01,-1.12047e+01,0.00000e+00,0.00000e+00,0.00000e+00
2.05000e+03,1.32004e+01,-1.23251e+01,0.00000e+00,0.00000e+00,0.00000e+00
2.05000e+03,1.29833e+01,-1.34456e+01,0.00000e+00,0.00000e+00,0.00000e+00
2.05000e+03,1.27450e+01,-1.45661e+01,0.00000e+00,0.00000e+00,0.00000e+00
2.05000e+03,1.24860e+01,-1.56865e+01,0.00000e+00,0.00000e+00,0.00000e+00
2.05000e+03,1.22024e+01,-1.68070e+01,0.00000e+00,0.00000e+00,0.00000e+00
2.05000e+03,1.18854e+01,-1.79274e+01,0.00000e+00,0.00000e+00,0.00000e+00
2.05000e+03,1.15452e+01,-1.90479e+01,0.00000e+00,0.00000e+00,0.00000e+00
2.05000e+03,1.11526e+01,-2.01684e+01,0.00000e+00,0.00000e+00,0.00000e+00
2.05000e+03,1.07384e+01,-2.12888e+01,0.00000e+00,0.00000e+00,0.00000e+00
2.05000e+03,1.02638e+01,-2.24093e+01,0.00000e+00,0.00000e+00,0.00000e+00
2.05000e+03,9.74076e+00,-2.35298e+01,0.00000e+00,0.00000e+00,0.00000e+00
2.05000e+03,9.16848e+00,-2.46502e+01,0.00000e+00,0.00000e+00,0.00000e+00
2.05000e+03,8.51353e+00,-2.57707e+01,0.00000e+00,0.00000e+00,0.00000e+00
2.05000e+03,7.76281e+00,-2.68912e+01,0.00000e+00,0.00000e+00,0.00000e+00
2.05000e+03,6.90385e+00,-2.80116e+01,0.00000e+00,0.00000e+00,0.00000e+00
2.05000e+03,5.88790e+00,-2.91321e+01,0.00000e+00,0.00000e+00,0.00000e+00
2.05000e+03,4.58384e+00,-3.02526e+01,0.00000e+00,0.00000e+00,0.00000e+00
2.05000e+03,2.82014e+00,-3.13730e+01,0.00000e+00,0.00000e+00,0.00000e+00
2.05000e+03,-1.14270e+00,-3.24935e+01,0.00000e+00,0.00000e+00,0.00000e+00
2.05000e+03,-1.42870e+00,-3.24961e+01,0.00000e+00,0.00000e+00,0.00000e+00
2.05000e+03,-4.03436e+00,-3.13355e+01,0.00000e+00,0.00000e+00,0.00000e+00
2.05000e+03,-4.34985e+00,-3.01749e+01,0.00000e+00,0.00000e+00,0.00000e+00
2.05000e+03,-4.45871e+00,-2.90144e+01,0.00000e+00,0.00000e+00,0.00000e+00
2.05000e+03,-4.47523e+00,-2.78538e+01,0.00000e+00,0.00000e+00,0.00000e+00
2.05000e+03,-4.42218e+00,-2.66932e+01,0.00000e+00,0.00000e+00,0.00000e+00
2.05000e+03,-4.32546e+00,-2.55327e+01,0.00000e+00,0.00000e+00,0.00000e+00
2.05000e+03,-4.18491e+00,-2.43721e+01,0.00000e+00,0.00000e+00,0.00000e+00
2.05000e+03,-4.01761e+00,-2.32115e+01,0.00000e+00,0.00000e+00,0.00000e+00
2.05000e+03,-3.83480e+00,-2.20509e+01,0.00000e+00,0.00000e+00,0.00000e+00
2.05000e+03,-3.62863e+00,-2.08903e+01,0.00000e+00,0.00000e+00,0.00000e+00
2.05000e+03,-3.40785e+00,-1.97298e+01,0.00000e+00,0.00000e+00,0.00000e+00
2.05000e+03,-3.17285e+00,-1.85692e+01,0.00000e+00,0.00000e+00,0.00000e+00
2.05000e+03,-2.92368e+00,-1.74086e+01,0.00000e+00,0.00000e+00,0.00000e+00
2.05000e+03,-2.66563e+00,-1.62480e+01,0.00000e+00,0.00000e+00,0.00000e+00
2.05000e+03,-2.39621e+00,-1.50875e+01,0.00000e+00,0.00000e+00,0.00000e+00
2.05000e+03,-2.11949e+00,-1.39269e+01,0.00000e+00,0.00000e+00,0.00000e+00
2.05000e+03,-1.83624e+00,-1.27663e+01,0.00000e+00,0.00000e+00,0.00000e+00
2.05000e+03,-1.54717e+00,-1.16057e+01,0.00000e+00,0.00000e+00,0.00000e+00
2.05000e+03,-1.25562e+00,-1.04452e+01,0.00000e+00,0.00000e+00,0.00000e+00
2.05000e+03,-9.60241e-01,-9.28460e+00,0.00000e+00,0.00000e+00,0.00000e+00
2.05000e+03,-6.64227e-01,-8.12402e+00,0.00000e+00,0.00000e+00,0.00000e+00
2.05000e+03,-3.65929e-01,-6.96345e+00,0.00000e+00,0.00000e+00,0.00000e+00
2.05000e+03,-6.76615e-02,-5.80287e+00,0.00000e+00,0.00000e+00,0.00000e+00
2.05000e+03,2.29479e-01,-4.64230e+00,0.00000e+00,0.00000e+00,0.00000e+00
2.05000e+03,5.26620e-01,-3.48173e+00,0.00000e+00,0.00000e+00,0.00000e+00
2.05000e+03,8.16724e-01,-2.32115e+00,0.00000e+00,0.00000e+00,0.00000e+00
2.05000e+03,1.10552e+00,-1.16058e+00,0.00000e+00,0.00000e+00,0.00000e+00
--------------------------------------------------------------------------------------------------------------------------------------------------------------------------------------------------------------------------------------------------------------------------------------------------------------------------------------------------------------------------------

LAMINADO 
--------------------------------------------------------------------------------------------------------------------------------------------------------------------------------------------------------------------------------------------------------------------------------------------------------------------------------------------------------------------------------
X,Y,Z,Sigma,Tau,Von Mises
0.00000e+00,4.31008e+01,0.00000e+00,0.00000e+00,0.00000e+00,0.00000e+00
0.00000e+00,4.28837e+01,-3.27521e+00,0.00000e+00,0.00000e+00,0.00000e+00
0.00000e+00,4.25950e+01,-6.55041e+00,0.00000e+00,0.00000e+00,0.00000e+00
0.00000e+00,4.23033e+01,-9.82562e+00,0.00000e+00,0.00000e+00,0.00000e+00
0.00000e+00,4.19484e+01,-1.31008e+01,0.00000e+00,0.00000e+00,0.00000e+00
0.00000e+00,4.15787e+01,-1.63760e+01,0.00000e+00,0.00000e+00,0.00000e+00
0.00000e+00,4.11605e+01,-1.96512e+01,0.00000e+00,0.00000e+00,0.00000e+00
0.00000e+00,4.07187e+01,-2.29264e+01,0.00000e+00,0.00000e+00,0.00000e+00
0.00000e+00,4.02378e+01,-2.62017e+01,0.00000e+00,0.00000e+00,0.00000e+00
0.00000e+00,3.97249e+01,-2.94769e+01,0.00000e+00,0.00000e+00,0.00000e+00
0.00000e+00,3.91766e+01,-3.27521e+01,0.00000e+00,0.00000e+00,0.00000e+00
0.00000e+00,3.85857e+01,-3.60273e+01,0.00000e+00,0.00000e+00,0.00000e+00
0.00000e+00,3.79511e+01,-3.93025e+01,0.00000e+00,0.00000e+00,0.00000e+00
0.00000e+00,3.72545e+01,-4.25777e+01,0.00000e+00,0.00000e+00,0.00000e+00
0.00000e+00,3.64976e+01,-4.58529e+01,0.00000e+00,0.00000e+00,0.00000e+00
0.00000e+00,3.56687e+01,-4.91281e+01,0.00000e+00,0.00000e+00,0.00000e+00
0.00000e+00,3.47420e+01,-5.24033e+01,0.00000e+00,0.00000e+00,0.00000e+00
0.00000e+00,3.37474e+01,-5.56785e+01,0.00000e+00,0.00000e+00,0.00000e+00
0.00000e+00,3.26000e+01,-5.89537e+01,0.00000e+00,0.00000e+00,0.00000e+00
0.00000e+00,3.13892e+01,-6.22289e+01,0.00000e+00,0.00000e+00,0.00000e+00
0.00000e+00,3.00018e+01,-6.55041e+01,0.00000e+00,0.00000e+00,0.00000e+00
0.00000e+00,2.84730e+01,-6.87793e+01,0.00000e+00,0.00000e+00,0.00000e+00
0.00000e+00,2.68002e+01,-7.20546e+01,0.00000e+00,0.00000e+00,0.00000e+00
0.00000e+00,2.48857e+01,-7.53298e+01,0.00000e+00,0.00000e+00,0.00000e+00
0.00000e+00,2.26913e+01,-7.86050e+01,0.00000e+00,0.00000e+00,0.00000e+00
0.00000e+00,2.01805e+01,-8.18802e+01,0.00000e+00,0.00000e+00,0.00000e+00
0.00000e+00,1.72108e+01,-8.51554e+01,0.00000e+00,0.00000e+00,0.00000e+00
0.00000e+00,1.33989e+01,-8.84306e+01,0.00000e+00,0.00000e+00,0.00000e+00
0.00000e+00,8.24350e+00,-9.17058e+01,0.00000e+00,0.00000e+00,0.00000e+00
0.00000e+00,-3.34020e+00,-9.49810e+01,0.00000e+00,0.00000e+00,0.00000e+00
0.00000e+00,-4.17620e+00,-9.49886e+01,0.00000e+00,0.00000e+00,0.00000e+00
0.00000e+00,-1.17928e+01,-9.15961e+01,0.00000e+00,0.00000e+00,0.00000e+00
0.00000e+00,-1.27149e+01,-8.82037e+01,0.00000e+00,0.00000e+00,0.00000e+00
0.00000e+00,-1.30332e+01,-8.48113e+01,0.00000e+00,0.00000e+00,0.00000e+00
0.00000e+00,-1.30814e+01,-8.14188e+01,0.00000e+00,0.00000e+00,0.00000e+00
0.00000e+00,-1.29264e+01,-7.80264e+01,0.00000e+00,0.00000e+00,0.00000e+00
0.00000e+00,-1.26437e+01,-7.46339e+01,0.00000e+00,0.00000e+00,0.00000e+00
0.00000e+00,-1.22328e+01,-7.12415e+01,0.00000e+00,0.00000e+00,0.00000e+00
0.00000e+00,-1.17438e+01,-6.78490e+01,0.00000e+00,0.00000e+00,0.00000e+00
0.00000e+00,-1.12094e+01,-6.44565e+01,0.00000e+00,0.00000e+00,0.00000e+00
0.00000e+00,-1.06068e+01,-6.10641e+01,0.00000e+00,0.00000e+00,0.00000e+00
0.00000e+00,-9.96142e+00,-5.76716e+01,0.00000e+00,0.00000e+00,0.00000e+00
0.00000e+00,-9.27449e+00,-5.42792e+01,0.00000e+00,0.00000e+00,0.00000e+00
0.00000e+00,-8.54615e+00,-5.08867e+01,0.00000e+00,0.00000e+00,0.00000e+00
0.00000e+00,-7.79185e+00,-4.74943e+01,0.00000e+00,0.00000e+00,0.00000e+00
0.00000e+00,-7.00429e+00,-4.41018e+01,0.00000e+00,0.00000e+00,0.00000e+00
0.00000e+00,-6.19544e+00,-4.07094e+01,0.00000e+00,0.00000e+00,0.00000e+00
0.00000e+00,-5.36748e+00,-3.73169e+01,0.00000e+00,0.00000e+00,0.00000e+00
0.00000e+00,-4.52248e+00,-3.39245e+01,0.00000e+00,0.00000e+00,0.00000e+00
0.00000e+00,-3.67026e+00,-3.05320e+01,0.00000e+00,0.00000e+00,0.00000e+00
0.00000e+00,-2.80686e+00,-2.71396e+01,0.00000e+00,0.00000e+00,0.00000e+00
0.00000e+00,-1.94159e+00,-2.37472e+01,0.00000e+00,0.00000e+00,0.00000e+00
0.00000e+00,-1.06964e+00,-2.03547e+01,0.00000e+00,0.00000e+00,0.00000e+00
0.00000e+00,-1.97780e-01,-1.69622e+01,0.00000e+00,0.00000e+00,0.00000e+00
0.00000e+00,6.70785e-01,-1.35698e+01,0.00000e+00,0.00000e+00,0.00000e+00
0.00000e+00,1.53935e+00,-1.01774e+01,0.00000e+00,0.00000e+00,0.00000e+00
0.00000e+00,2.38735e+00,-6.78490e+00,0.00000e+00,0.00000e+00,0.00000e+00
0.00000e+00,3.23151e+00,-3.39245e+00,0.00000e+00,0.00000e+00,0.00000e+00
1.07300e+02,4.26785e+01,0.00000e+00,0.00000e+00,0.00000e+00,0.00000e+00
1.07300e+02,4.24636e+01,-3.24312e+00,0.00000e+00,0.00000e+00,0.00000e+00
1.07300e+02,4.21777e+01,-6.48624e+00,0.00000e+00,0.00000e+00,0.00000e+00
1.07300e+02,4.18889e+01,-9.72936e+00,0.00000e+00,0.00000e+00,0.00000e+00
1.07300e+02,4.15374e+01,-1.29725e+01,0.00000e+00,0.00000e+00,0.00000e+00
1.07300e+02,4.11714e+01,-1.62156e+01,0.00000e+00,0.00000e+00,0.00000e+00
1.07300e+02,4.07572e+01,-1.94587e+01,0.00000e+00,0.00000e+00,0.00000e+00
1.07300e+02,4.03197e+01,-2.27018e+01,0.00000e+00,0.00000e+00,0.00000e+00
1.07300e+02,3.98436e+01,-2.59450e+01,0.00000e+00,0.00000e+00,0.00000e+00
1.07300e+02,3.93357e+01,-2.91881e+01,0.00000e+00,0.00000e+00,0.00000e+00
1.07300e+02,3.87928e+01,-3.24312e+01,0.00000e+00,0.00000e+00,0.00000e+00
1.07300e+02,3.82077e+01,-3.56743e+01,0.00000e+00,0.00000e+00,0.00000e+00
1.07300e+02,3.75793e+01,-3.89174e+01,0.00000e+00,0.00000e+00,0.00000e+00
1.07300e+02,3.68895e+01,-4.21606e+01,0.00000e+00,0.00000e+00,0.00000e+00
1.07300e+02,3.61401e+01,-4.54037e+01,0.00000e+00,0.00000e+00,0.00000e+00
1.07300e+02,3.53192e+01,-4.86468e+01,0.00000e+00,0.00000e+00,0.00000e+00
1.07300e+02,3.44016e+01,-5.18899e+01,0.00000e+00,0.00000e+00,0.00000e+00
1.07300e+02,3.34168e+01,-5.51330e+01,0.00000e+00,0.00000e+00,0.00000e+00
1.07300e+02,3.22806e+01,-5.83762e+01,0.00000e+00,0.00000e+00,0.00000e+00
1.07300e+02,3.10816e+01,-6.16193e+01,0.00000e+00,0.00000e+00,0.00000e+00
1.07300e+02,2.97079e+01,-6.48624e+01,0.00000e+00,0.00000e+00,0.00000e+00
1.07300e+02,2.81940e+01,-6.81055e+01,0.00000e+00,0.00000e+00,0.00000e+00
1.07300e+02,2.65376e+01,-7.13486e+01,0.00000e+00,0.00000e+00,0.00000e+00
1.07300e+02,2.46419e+01,-7.45918e+01,0.00000e+00,0.00000e+00,0.00000e+00
1.07300e+02,2.24690e+01,-7.78349e+01,0.00000e+00,0.00000e+00,0.00000e+00
1.07300e+02,1.99828e+01,-8.10780e+01,0.00000e+00,0.00000e+00,0.00000e+00
1.07300e+02,1.70422e+01,-8.43211e+01,0.00000e+00,0.00000e+00,0.00000e+00
1.07300e+02,1.32676e+01,-8.75642e+01,0.00000e+00,0.00000e+00,0.00000e+00
1.07300e+02,8.16273e+00,-9.08074e+01,0.00000e+00,0.00000e+00,0.00000e+00
1.07300e+02,-3.30748e+00,-9.40505e+01,0.00000e+00,0.00000e+00,0.00000e+00
1.07300e+02,-4.13529e+00,-9.40580e+01,0.00000e+00,0.00000e+00,0.00000e+00
1.07300e+02,-1.16772e+01,-9.06988e+01,0.00000e+00,0.00000e+00,0.00000e+00
1.07300e+02,-1.25904e+01,-8.73396e+01,0.00000e+00,0.00000e+00,0.00000e+00
1.07300e+02,-1.29055e+01,-8.39804e+01,0.00000e+00,0.00000e+00,0.00000e+00
1.07300e+02,-1.29533e+01,-8.06211e+01,0.00000e+00,0.00000e+00,0.00000e+00
1.07300e+02,-1.27997e+01,-7.72619e+01,0.00000e+00,0.00000e+00,0.00000e+00
1.07300e+02,-1.25198e+01,-7.39027e+01,0.00000e+00,0.00000e+00,0.00000e+00
1.07300e+02,-1.21130e+01,-7.05435e+01,0.00000e+00,0.00000e+00,0.00000e+00
1.07300e+02,-1.16287e+01,-6.71843e+01,0.00000e+00,0.00000e+00,0.00000e+00
1.07300e+02,-1.10996e+01,-6.38251e+01,0.00000e+00,0.00000e+00,0.00000e+00
1.07300e+02,-1.05029e+01,-6.04659e+01,0.00000e+00,0.00000e+00,0.00000e+00
1.07300e+02,-9.86382e+00,-5.71066e+01,0.00000e+00,0.00000e+00,0.00000e+00
1.07300e+02,-9.18363e+00,-5.37474e+01,0.00000e+00,0.00000e+00,0.00000e+00
1.07300e+02,-8.46243e+00,-5.03882e+01,0.00000e+00,0.00000e+00,0.00000e+00
1.07300e+02,-7.71552e+00,-4.70290e+01,0.00000e+00,0.00000e+00,0.00000e+00
1.07300e+02,-6.93567e+00,-4.36698e+01,0.00000e+00,0.00000e+00,0.00000e+00
1.07300e+02,-6.13474e+00,-4.03106e+01,0.00000e+00,0.00000e+00,0.00000e+00
1.07300e+02,-5.31490e+00,-3.69514e+01,0.00000e+00,0.00000e+00,0.00000e+00
1.07300e+02,-4.47818e+00,-3.35921e+01,0.00000e+00,0.00000e+00,0.00000e+00
1.07300e+02,-3.63431e+00,-3.02329e+01,0.00000e+00,0.00000e+00,0.00000e+00
1.07300e+02,-2.77936e+00,-2.68737e+01,0.00000e+00,0.00000e+00,0.00000e+00
1.07300e+02,-1.92257e+00,-2.35145e+01,0.00000e+00,0.00000e+00,0.00000e+00
1.07300e+02,-1.05916e+00,-2.01553e+01,0.00000e+00,0.00000e+00,0.00000e+00
1.07300e+02,-1.95842e-01,-1.67961e+01,0.00000e+00,0.00000e+00,0.00000e+00
1.07300e+02,6.64213e-01,-1.34369e+01,0.00000e+00,0.00000e+00,0.00000e+00
1.07300e+02,1.52427e+00,-1.00776e+01,0.00000e+00,0.00000e+00,0.00000e+00
1.07300e+02,2.36396e+00,-6.71843e+00,0.00000e+00,0.00000e+00,0.00000e+00
1.07300e+02,3.19985e+00,-3.35921e+00,0.00000e+00,0.00000e+00,0.00000e+00
2.14300e+02,4.22575e+01,0.00000e+00,0.00000e+00,0.00000e+00,0.00000e+00
2.14300e+02,4.20447e+01,-3.21112e+00,0.00000e+00,0.00000e+00,0.00000e+00
2.14300e+02,4.17615e+01,-6.42224e+00,0.00000e+00,0.00000e+00,0.00000e+00
2.14300e+02,4.14756e+01,-9.63337e+00,0.00000e+00,0.00000e+00,0.00000e+00
2.14300e+02,4.11276e+01,-1.28445e+01,0.00000e+00,0.00000e+00,0.00000e+00
2.14300e+02,4.07652e+01,-1.60556e+01,0.00000e+00,0.00000e+00,0.00000e+00
2.14300e+02,4.03551e+01,-1.92667e+01,0.00000e+00,0.00000e+00,0.00000e+00
2.14300e+02,3.99219e+01,-2.24779e+01,0.00000e+00,0.00000e+00,0.00000e+00
2.14300e+02,3.94505e+01,-2.56890e+01,0.00000e+00,0.00000e+00,0.00000e+00
2.14300e+02,3.89476e+01,-2.89001e+01,0.00000e+00,0.00000e+00,0.00000e+00
2.14300e+02,3.84101e+01,-3.21112e+01,0.00000e+00,0.00000e+00,0.00000e+00
2.14300e+02,3.78307e+01,-3.53223e+01,0.00000e+00,0.00000e+00,0.00000e+00
2.14300e+02,3.72085e+01,-3.85335e+01,0.00000e+00,0.00000e+00,0.00000e+00
2.14300e+02,3.65256e+01,-4.17446e+01,0.00000e+00,0.00000e+00,0.00000e+00
2.14300e+02,3.57835e+01,-4.49557e+01,0.00000e+00,0.00000e+00,0.00000e+00
2.14300e+02,3.49707e+01,-4.81668e+01,0.00000e+00,0.00000e+00,0.00000e+00
2.14300e+02,3.40622e+01,-5.13780e+01,0.00000e+00,0.00000e+00,0.00000e+00
2.14300e+02,3.30871e+01,-5.45891e+01,0.00000e+00,0.00000e+00,0.00000e+00
2.14300e+02,3.19621e+01,-5.78002e+01,0.00000e+00,0.00000e+00,0.00000e+00
2.14300e+02,3.07750e+01,-6.10113e+01,0.00000e+00,0.00000e+00,0.00000e+00
2.14300e+02,2.94148e+01,-6.42224e+01,0.00000e+00,0.00000e+00,0.00000e+00
2.14300e+02,2.79159e+01,-6.74336e+01,0.00000e+00,0.00000e+00,0.00000e+00
2.14300e+02,2.62758e+01,-7.06447e+01,0.00000e+00,0.00000e+00,0.00000e+00
2.14300e+02,2.43988e+01,-7.38558e+01,0.00000e+00,0.00000e+00,0.00000e+00
2.14300e+02,2.22473e+01,-7.70669e+01,0.00000e+00,0.00000e+00,0.00000e+00
2.14300e+02,1.97856e+01,-8.02781e+01,0.00000e+00,0.00000e+00,0.00000e+00
2.14300e+02,1.68740e+01,-8.34892e+01,0.00000e+00,0.00000e+00,0.00000e+00
2.14300e+02,1.31367e+01,-8.67003e+01,0.00000e+00,0.00000e+00,0.00000e+00
2.14300e+02,8.08220e+00,-8.99114e+01,0.00000e+00,0.00000e+00,0.00000e+00
2.14300e+02,-3.27484e+00,-9.31226e+01,0.00000e+00,0.00000e+00,0.00000e+00
2.14300e+02,-4.09449e+00,-9.31300e+01,0.00000e+00,0.00000e+00,0.00000e+00
2.14300e+02,-1.15620e+01,-8.98039e+01,0.00000e+00,0.00000e+00,0.00000e+00
2.14300e+02,-1.24661e+01,-8.64779e+01,0.00000e+00,0.00000e+00,0.00000e+00
2.14300e+02,-1.27781e+01,-8.31518e+01,0.00000e+00,0.00000e+00,0.00000e+00
2.14300e+02,-1.28255e+01,-7.98257e+01,0.00000e+00,0.00000e+00,0.00000e+00
2.14300e+02,-1.26734e+01,-7.64996e+01,0.00000e+00,0.00000e+00,0.00000e+00
2.14300e+02,-1.23963e+01,-7.31736e+01,0.00000e+00,0.00000e+00,0.00000e+00
2.14300e+02,-1.19935e+01,-6.98475e+01,0.00000e+00,0.00000e+00,0.00000e+00
2.14300e+02,-1.15140e+01,-6.65214e+01,0.00000e+00,0.00000e+00,0.00000e+00
2.14300e+02,-1.09901e+01,-6.31954e+01,0.00000e+00,0.00000e+00,0.00000e+00
2.14300e+02,-1.03992e+01,-5.98693e+01,0.00000e+00,0.00000e+00,0.00000e+00
2.14300e+02,-9.76651e+00,-5.65432e+01,0.00000e+00,0.00000e+00,0.00000e+00
2.14300e+02,-9.09302e+00,-5.32171e+01,0.00000e+00,0.00000e+00,0.00000e+00
2.14300e+02,-8.37893e+00,-4.98911e+01,0.00000e+00,0.00000e+00,0.00000e+00
2.14300e+02,-7.63939e+00,-4.65650e+01,0.00000e+00,0.00000e+00,0.00000e+00
2.14300e+02,-6.86724e+00,-4.32389e+01,0.00000e+00,0.00000e+00,0.00000e+00
2.14300e+02,-6.07421e+00,-3.99129e+01,0.00000e+00,0.00000e+00,0.00000e+00
2.14300e+02,-5.26246e+00,-3.65868e+01,0.00000e+00,0.00000e+00,0.00000e+00
2.14300e+02,-4.43399e+00,-3.32607e+01,0.00000e+00,0.00000e+00,0.00000e+00
2.14300e+02,-3.59845e+00,-2.99346e+01,0.00000e+00,0.00000e+00,0.00000e+00
2.14300e+02,-2.75194e+00,-2.66086e+01,0.00000e+00,0.00000e+00,0.00000e+00
2.14300e+02,-1.90360e+00,-2.32825e+01,0.00000e+00,0.00000e+00,0.00000e+00
2.14300e+02,-1.04871e+00,-1.99564e+01,0.00000e+00,0.00000e+00,0.00000e+00
2.14300e+02,-1.93910e-01,-1.66304e+01,0.00000e+00,0.00000e+00,0.00000e+00
2.14300e+02,6.57660e-01,-1.33043e+01,0.00000e+00,0.00000e+00,0.00000e+00
2.14300e+02,1.50923e+00,-9.97821e+00,0.00000e+00,0.00000e+00,0.00000e+00
2.14300e+02,2.34063e+00,-6.65214e+00,0.00000e+00,0.00000e+00,0.00000e+00
2.14300e+02,3.16828e+00,-3.32607e+00,0.00000e+00,0.00000e+00,0.00000e+00
3.20700e+02,4.18388e+01,0.00000e+00,0.00000e+00,0.00000e+00,0.00000e+00
3.20700e+02,4.16280e+01,-3.17930e+00,0.00000e+00,0.00000e+00,0.00000e+00
3.20700e+02,4.13477e+01,-6.35861e+00,0.00000e+00,0.00000e+00,0.00000e+00
3.20700e+02,4.10646e+01,-9.53791e+00,0.00000e+00,0.00000e+00,0.00000e+00
3.20700e+02,4.07201e+01,-1.27172e+01,0.00000e+00,0.00000e+00,0.00000e+00
3.20700e+02,4.03613e+01,-1.58965e+01,0.00000e+00,0.00000e+00,0.00000e+00
3.20700e+02,3.99553e+01,-1.90758e+01,0.00000e+00,0.00000e+00,0.00000e+00
3.20700e+02,3.95264e+01,-2.22551e+01,0.00000e+00,0.00000e+00,0.00000e+00
3.20700e+02,3.90596e+01,-2.54344e+01,0.00000e+00,0.00000e+00,0.00000e+00
3.20700e+02,3.85617e+01,-2.86137e+01,0.00000e+00,0.00000e+00,0.00000e+00
3.20700e+02,3.80295e+01,-3.17930e+01,0.00000e+00,0.00000e+00,0.00000e+00
3.20700e+02,3.74559e+01,-3.49724e+01,0.00000e+00,0.00000e+00,0.00000e+00
3.20700e+02,3.68398e+01,-3.81517e+01,0.00000e+00,0.00000e+00,0.00000e+00
3.20700e+02,3.61637e+01,-4.13310e+01,0.00000e+00,0.00000e+00,0.00000e+00
3.20700e+02,3.54289e+01,-4.45103e+01,0.00000e+00,0.00000e+00,0.00000e+00
3.20700e+02,3.46242e+01,-4.76896e+01,0.00000e+00,0.00000e+00,0.00000e+00
3.20700e+02,3.37247e+01,-5.08689e+01,0.00000e+00,0.00000e+00,0.00000e+00
3.20700e+02,3.27593e+01,-5.40482e+01,0.00000e+00,0.00000e+00,0.00000e+00
3.20700e+02,3.16454e+01,-5.72275e+01,0.00000e+00,0.00000e+00,0.00000e+00
3.20700e+02,3.04701e+01,-6.04068e+01,0.00000e+00,0.00000e+00,0.00000e+00
3.20700e+02,2.91233e+01,-6.35861e+01,0.00000e+00,0.00000e+00,0.00000e+00
3.20700e+02,2.76393e+01,-6.67654e+01,0.00000e+00,0.00000e+00,0.00000e+00
3.20700e+02,2.60154e+01,-6.99447e+01,0.00000e+00,0.00000e+00,0.00000e+00
3.20700e+02,2.41570e+01,-7.31240e+01,0.00000e+00,0.00000e+00,0.00000e+00
3.20700e+02,2.20269e+01,-7.63033e+01,0.00000e+00,0.00000e+00,0.00000e+00
3.20700e+02,1.95896e+01,-7.94826e+01,0.00000e+00,0.00000e+00,0.00000e+00
3.20700e+02,1.67068e+01,-8.26619e+01,0.00000e+00,0.00000e+00,0.00000e+00
3.20700e+02,1.30066e+01,-8.58412e+01,0.00000e+00,0.00000e+00,0.00000e+00
3.20700e+02,8.00212e+00,-8.90205e+01,0.00000e+00,0.00000e+00,0.00000e+00
3.20700e+02,-3.24239e+00,-9.21998e+01,0.00000e+00,0.00000e+00,0.00000e+00
3.20700e+02,-4.05392e+00,-9.22072e+01,0.00000e+00,0.00000e+00,0.00000e+00
3.20700e+02,-1.14474e+01,-8.89141e+01,0.00000e+00,0.00000e+00,0.00000e+00
3.20700e+02,-1.23426e+01,-8.56210e+01,0.00000e+00,0.00000e+00,0.00000e+00
3.20700e+02,-1.26515e+01,-8.23279e+01,0.00000e+00,0.00000e+00,0.00000e+00
3.20700e+02,-1.26984e+01,-7.90348e+01,0.00000e+00,0.00000e+00,0.00000e+00
3.20700e+02,-1.25479e+01,-7.57416e+01,0.00000e+00,0.00000e+00,0.00000e+00
3.20700e+02,-1.22734e+01,-7.24485e+01,0.00000e+00,0.00000e+00,0.00000e+00
3.20700e+02,-1.18746e+01,-6.91554e+01,0.00000e+00,0.00000e+00,0.00000e+00
3.20700e+02,-1.13999e+01,-6.58623e+01,0.00000e+00,0.00000e+00,0.00000e+00
3.20700e+02,-1.08812e+01,-6.25692e+01,0.00000e+00,0.00000e+00,0.00000e+00
3.20700e+02,-1.02962e+01,-5.92761e+01,0.00000e+00,0.00000e+00,0.00000e+00
3.20700e+02,-9.66973e+00,-5.59829e+01,0.00000e+00,0.00000e+00,0.00000e+00
3.20700e+02,-9.00292e+00,-5.26898e+01,0.00000e+00,0.00000e+00,0.00000e+00
3.20700e+02,-8.29591e+00,-4.93967e+01,0.00000e+00,0.00000e+00,0.00000e+00
3.20700e+02,-7.56370e+00,-4.61036e+01,0.00000e+00,0.00000e+00,0.00000e+00
3.20700e+02,-6.79920e+00,-4.28105e+01,0.00000e+00,0.00000e+00,0.00000e+00
3.20700e+02,-6.01403e+00,-3.95174e+01,0.00000e+00,0.00000e+00,0.00000e+00
3.20700e+02,-5.21032e+00,-3.62243e+01,0.00000e+00,0.00000e+00,0.00000e+00
3.20700e+02,-4.39006e+00,-3.29311e+01,0.00000e+00,0.00000e+00,0.00000e+00
3.20700e+02,-3.56279e+00,-2.96380e+01,0.00000e+00,0.00000e+00,0.00000e+00
3.20700e+02,-2.72467e+00,-2.63449e+01,0.00000e+00,0.00000e+00,0.00000e+00
3.20700e+02,-1.88474e+00,-2.30518e+01,0.00000e+00,0.00000e+00,0.00000e+00
3.20700e+02,-1.03832e+00,-1.97587e+01,0.00000e+00,0.00000e+00,0.00000e+00
3.20700e+02,-1.91989e-01,-1.64656e+01,0.00000e+00,0.00000e+00,0.00000e+00
3.20700e+02,6.51143e-01,-1.31725e+01,0.00000e+00,0.00000e+00,0.00000e+00
3.20700e+02,1.49428e+00,-9.87934e+00,0.00000e+00,0.00000e+00,0.00000e+00
3.20700e+02,2.31744e+00,-6.58623e+00,0.00000e+00,0.00000e+00,0.00000e+00
3.20700e+02,3.13689e+00,-3.29311e+00,0.00000e+00,0.00000e+00,0.00000e+00
4.26200e+02,4.14236e+01,0.00000e+00,0.00000e+00,0.00000e+00,0.00000e+00
4.26200e+02,4.12150e+01,-3.14776e+00,0.00000e+00,0.00000e+00,0.00000e+00
4.26200e+02,4.09374e+01,-6.29551e+00,0.00000e+00,0.00000e+00,0.00000e+00
4.26200e+02,4.06571e+01,-9.44327e+00,0.00000e+00,0.00000e+00,0.00000e+00
4.26200e+02,4.03160e+01,-1.25910e+01,0.00000e+00,0.00000e+00,0.00000e+00
4.26200e+02,3.99607e+01,-1.57388e+01,0.00000e+00,0.00000e+00,0.00000e+00
4.26200e+02,3.95588e+01,-1.88865e+01,0.00000e+00,0.00000e+00,0.00000e+00
4.26200e+02,3.91341e+01,-2.20343e+01,0.00000e+00,0.00000e+00,0.00000e+00
4.26200e+02,3.86720e+01,-2.51820e+01,0.00000e+00,0.00000e+00,0.00000e+00
4.26200e+02,3.81790e+01,-2.83298e+01,0.00000e+00,0.00000e+00,0.00000e+00
4.26200e+02,3.76521e+01,-3.14776e+01,0.00000e+00,0.00000e+00,0.00000e+00
4.26200e+02,3.70842e+01,-3.46253e+01,0.00000e+00,0.00000e+00,0.00000e+00
4.26200e+02,3.64743e+01,-3.77731e+01,0.00000e+00,0.00000e+00,0.00000e+00
4.26200e+02,3.58048e+01,-4.09208e+01,0.00000e+00,0.00000e+00,0.00000e+00
4.26200e+02,3.50774e+01,-4.40686e+01,0.00000e+00,0.00000e+00,0.00000e+00
4.26200e+02,3.42806e+01,-4.72163e+01,0.00000e+00,0.00000e+00,0.00000e+00
4.26200e+02,3.33901e+01,-5.03641e+01,0.00000e+00,0.00000e+00,0.00000e+00
4.26200e+02,3.24342e+01,-5.35118e+01,0.00000e+00,0.00000e+00,0.00000e+00
4.26200e+02,3.13314e+01,-5.66596e+01,0.00000e+00,0.00000e+00,0.00000e+00
4.26200e+02,3.01677e+01,-5.98074e+01,0.00000e+00,0.00000e+00,0.00000e+00
4.26200e+02,2.88343e+01,-6.29551e+01,0.00000e+00,0.00000e+00,0.00000e+00
4.26200e+02,2.73650e+01,-6.61029e+01,0.00000e+00,0.00000e+00,0.00000e+00
4.26200e+02,2.57573e+01,-6.92506e+01,0.00000e+00,0.00000e+00,0.00000e+00
4.26200e+02,2.39173e+01,-7.23984e+01,0.00000e+00,0.00000e+00,0.00000e+00
4.26200e+02,2.18083e+01,-7.55461e+01,0.00000e+00,0.00000e+00,0.00000e+00
4.26200e+02,1.93952e+01,-7.86939e+01,0.00000e+00,0.00000e+00,0.00000e+00
4.26200e+02,1.65410e+01,-8.18417e+01,0.00000e+00,0.00000e+00,0.00000e+00
4.26200e+02,1.28775e+01,-8.49894e+01,0.00000e+00,0.00000e+00,0.00000e+00
4.26200e+02,7.92271e+00,-8.81372e+01,0.00000e+00,0.00000e+00,0.00000e+00
4.26200e+02,-3.21022e+00,-9.12849e+01,0.00000e+00,0.00000e+00,0.00000e+00
4.26200e+02,-4.01369e+00,-9.12922e+01,0.00000e+00,0.00000e+00,0.00000e+00
4.26200e+02,-1.13339e+01,-8.80318e+01,0.00000e+00,0.00000e+00,0.00000e+00
4.26200e+02,-1.22201e+01,-8.47713e+01,0.00000e+00,0.00000e+00,0.00000e+00
4.26200e+02,-1.25260e+01,-8.15109e+01,0.00000e+00,0.00000e+00,0.00000e+00
4.26200e+02,-1.25724e+01,-7.82505e+01,0.00000e+00,0.00000e+00,0.00000e+00
4.26200e+02,-1.24233e+01,-7.49900e+01,0.00000e+00,0.00000e+00,0.00000e+00
4.26200e+02,-1.21516e+01,-7.17296e+01,0.00000e+00,0.00000e+00,0.00000e+00
4.26200e+02,-1.17568e+01,-6.84692e+01,0.00000e+00,0.00000e+00,0.00000e+00
4.26200e+02,-1.12868e+01,-6.52087e+01,0.00000e+00,0.00000e+00,0.00000e+00
4.26200e+02,-1.07732e+01,-6.19483e+01,0.00000e+00,0.00000e+00,0.00000e+00
4.26200e+02,-1.01940e+01,-5.86879e+01,0.00000e+00,0.00000e+00,0.00000e+00
4.26200e+02,-9.57378e+00,-5.54274e+01,0.00000e+00,0.00000e+00,0.00000e+00
4.26200e+02,-8.91358e+00,-5.21670e+01,0.00000e+00,0.00000e+00,0.00000e+00
4.26200e+02,-8.21359e+00,-4.89065e+01,0.00000e+00,0.00000e+00,0.00000e+00
4.26200e+02,-7.48864e+00,-4.56461e+01,0.00000e+00,0.00000e+00,0.00000e+00
4.26200e+02,-6.73173e+00,-4.23857e+01,0.00000e+00,0.00000e+00,0.00000e+00
4.26200e+02,-5.95435e+00,-3.91252e+01,0.00000e+00,0.00000e+00,0.00000e+00
4.26200e+02,-5.15861e+00,-3.58648e+01,0.00000e+00,0.00000e+00,0.00000e+00
4.26200e+02,-4.34650e+00,-3.26044e+01,0.00000e+00,0.00000e+00,0.00000e+00
4.26200e+02,-3.52744e+00,-2.93439e+01,0.00000e+00,0.00000e+00,0.00000e+00
4.26200e+02,-2.69763e+00,-2.60835e+01,0.00000e+00,0.00000e+00,0.00000e+00
4.26200e+02,-1.86603e+00,-2.28231e+01,0.00000e+00,0.00000e+00,0.00000e+00
4.26200e+02,-1.02802e+00,-1.95626e+01,0.00000e+00,0.00000e+00,0.00000e+00
4.26200e+02,-1.90083e-01,-1.63022e+01,0.00000e+00,0.00000e+00,0.00000e+00
4.26200e+02,6.44682e-01,-1.30417e+01,0.00000e+00,0.00000e+00,0.00000e+00
4.26200e+02,1.47945e+00,-9.78131e+00,0.00000e+00,0.00000e+00,0.00000e+00
4.26200e+02,2.29445e+00,-6.52087e+00,0.00000e+00,0.00000e+00,0.00000e+00
4.26200e+02,3.10576e+00,-3.26044e+00,0.00000e+00,0.00000e+00,0.00000e+00
5.30600e+02,4.10127e+01,0.00000e+00,0.00000e+00,0.00000e+00,0.00000e+00
5.30600e+02,4.08062e+01,-3.11654e+00,0.00000e+00,0.00000e+00,0.00000e+00
5.30600e+02,4.05314e+01,-6.23307e+00,0.00000e+00,0.00000e+00,0.00000e+00
5.30600e+02,4.02539e+01,-9.34961e+00,0.00000e+00,0.00000e+00,0.00000e+00
5.30600e+02,3.99161e+01,-1.24661e+01,0.00000e+00,0.00000e+00,0.00000e+00
5.30600e+02,3.95644e+01,-1.55827e+01,0.00000e+00,0.00000e+00,0.00000e+00
5.30600e+02,3.91664e+01,-1.86992e+01,0.00000e+00,0.00000e+00,0.00000e+00
5.30600e+02,3.87460e+01,-2.18158e+01,0.00000e+00,0.00000e+00,0.00000e+00
5.30600e+02,3.82884e+01,-2.49323e+01,0.00000e+00,0.00000e+00,0.00000e+00
5.30600e+02,3.78003e+01,-2.80488e+01,0.00000e+00,0.00000e+00,0.00000e+00
5.30600e+02,3.72787e+01,-3.11654e+01,0.00000e+00,0.00000e+00,0.00000e+00
5.30600e+02,3.67164e+01,-3.42819e+01,0.00000e+00,0.00000e+00,0.00000e+00
5.30600e+02,3.61125e+01,-3.73984e+01,0.00000e+00,0.00000e+00,0.00000e+00
5.30600e+02,3.54497e+01,-4.05150e+01,0.00000e+00,0.00000e+00,0.00000e+00
5.30600e+02,3.47295e+01,-4.36315e+01,0.00000e+00,0.00000e+00,0.00000e+00
5.30600e+02,3.39406e+01,-4.67480e+01,0.00000e+00,0.00000e+00,0.00000e+00
5.30600e+02,3.30589e+01,-4.98646e+01,0.00000e+00,0.00000e+00,0.00000e+00
5.30600e+02,3.21125e+01,-5.29811e+01,0.00000e+00,0.00000e+00,0.00000e+00
5.30600e+02,3.10206e+01,-5.60976e+01,0.00000e+00,0.00000e+00,0.00000e+00
5.30600e+02,2.98685e+01,-5.92142e+01,0.00000e+00,0.00000e+00,0.00000e+00
5.30600e+02,2.85484e+01,-6.23307e+01,0.00000e+00,0.00000e+00,0.00000e+00
5.30600e+02,2.70936e+01,-6.54473e+01,0.00000e+00,0.00000e+00,0.00000e+00
5.30600e+02,2.55018e+01,-6.85638e+01,0.00000e+00,0.00000e+00,0.00000e+00
5.30600e+02,2.36801e+01,-7.16803e+01,0.00000e+00,0.00000e+00,0.00000e+00
5.30600e+02,2.15920e+01,-7.47969e+01,0.00000e+00,0.00000e+00,0.00000e+00
5.30600e+02,1.92028e+01,-7.79134e+01,0.00000e+00,0.00000e+00,0.00000e+00
5.30600e+02,1.63770e+01,-8.10299e+01,0.00000e+00,0.00000e+00,0.00000e+00
5.30600e+02,1.27498e+01,-8.41465e+01,0.00000e+00,0.00000e+00,0.00000e+00
5.30600e+02,7.84413e+00,-8.72630e+01,0.00000e+00,0.00000e+00,0.00000e+00
5.30600e+02,-3.17838e+00,-9.03795e+01,0.00000e+00,0.00000e+00,0.00000e+00
5.30600e+02,-3.97388e+00,-9.03868e+01,0.00000e+00,0.00000e+00,0.00000e+00
5.30600e+02,-1.12214e+01,-8.71587e+01,0.00000e+00,0.00000e+00,0.00000e+00
5.30600e+02,-1.20989e+01,-8.39306e+01,0.00000e+00,0.00000e+00,0.00000e+00
5.30600e+02,-1.24018e+01,-8.07025e+01,0.00000e+00,0.00000e+00,0.00000e+00
5.30600e+02,-1.24477e+01,-7.74744e+01,0.00000e+00,0.00000e+00,0.00000e+00
5.30600e+02,-1.23001e+01,-7.42463e+01,0.00000e+00,0.00000e+00,0.00000e+00
5.30600e+02,-1.20311e+01,-7.10182e+01,0.00000e+00,0.00000e+00,0.00000e+00
5.30600e+02,-1.16402e+01,-6.77901e+01,0.00000e+00,0.00000e+00,0.00000e+00
5.30600e+02,-1.11748e+01,-6.45620e+01,0.00000e+00,0.00000e+00,0.00000e+00
5.30600e+02,-1.06664e+01,-6.13339e+01,0.00000e+00,0.00000e+00,0.00000e+00
5.30600e+02,-1.00929e+01,-5.81058e+01,0.00000e+00,0.00000e+00,0.00000e+00
5.30600e+02,-9.47882e+00,-5.48777e+01,0.00000e+00,0.00000e+00,0.00000e+00
5.30600e+02,-8.82518e+00,-5.16496e+01,0.00000e+00,0.00000e+00,0.00000e+00
5.30600e+02,-8.13212e+00,-4.84215e+01,0.00000e+00,0.00000e+00,0.00000e+00
5.30600e+02,-7.41437e+00,-4.51934e+01,0.00000e+00,0.00000e+00,0.00000e+00
5.30600e+02,-6.66496e+00,-4.19653e+01,0.00000e+00,0.00000e+00,0.00000e+00
5.30600e+02,-5.89529e+00,-3.87372e+01,0.00000e+00,0.00000e+00,0.00000e+00
5.30600e+02,-5.10745e+00,-3.55091e+01,0.00000e+00,0.00000e+00,0.00000e+00
5.30600e+02,-4.30339e+00,-3.22810e+01,0.00000e+00,0.00000e+00,0.00000e+00
5.30600e+02,-3.49245e+00,-2.90529e+01,0.00000e+00,0.00000e+00,0.00000e+00
5.30600e+02,-2.67088e+00,-2.58248e+01,0.00000e+00,0.00000e+00,0.00000e+00
5.30600e+02,-1.84753e+00,-2.25967e+01,0.00000e+00,0.00000e+00,0.00000e+00
5.30600e+02,-1.01782e+00,-1.93686e+01,0.00000e+00,0.00000e+00,0.00000e+00
5.30600e+02,-1.88198e-01,-1.61405e+01,0.00000e+00,0.00000e+00,0.00000e+00
5.30600e+02,6.38288e-01,-1.29124e+01,0.00000e+00,0.00000e+00,0.00000e+00
5.30600e+02,1.46477e+00,-9.68430e+00,0.00000e+00,0.00000e+00,0.00000e+00
5.30600e+02,2.27169e+00,-6.45620e+00,0.00000e+00,0.00000e+00,0.00000e+00
5.30600e+02,3.07496e+00,-3.22810e+00,0.00000e+00,0.00000e+00,0.00000e+00
6.33500e+02,4.06078e+01,0.00000e+00,0.00000e+00,0.00000e+00,0.00000e+00
6.33500e+02,4.04033e+01,-3.08576e+00,0.00000e+00,0.00000e+00,0.00000e+00
6.33500e+02,4.01312e+01,-6.17153e+00,0.00000e+00,0.00000e+00,0.00000e+00
6.33500e+02,3.98564e+01,-9.25729e+00,0.00000e+00,0.00000e+00,0.00000e+00
6.33500e+02,3.95220e+01,-1.23431e+01,0.00000e+00,0.00000e+00,0.00000e+00
6.33500e+02,3.91738e+01,-1.54288e+01,0.00000e+00,0.00000e+00,0.00000e+00
6.33500e+02,3.87797e+01,-1.85146e+01,0.00000e+00,0.00000e+00,0.00000e+00
6.33500e+02,3.83634e+01,-2.16004e+01,0.00000e+00,0.00000e+00,0.00000e+00
6.33500e+02,3.79104e+01,-2.46861e+01,0.00000e+00,0.00000e+00,0.00000e+00
6.33500e+02,3.74271e+01,-2.77719e+01,0.00000e+00,0.00000e+00,0.00000e+00
6.33500e+02,3.69106e+01,-3.08576e+01,0.00000e+00,0.00000e+00,0.00000e+00
6.33500e+02,3.63539e+01,-3.39434e+01,0.00000e+00,0.00000e+00,0.00000e+00
6.33500e+02,3.57559e+01,-3.70292e+01,0.00000e+00,0.00000e+00,0.00000e+00
6.33500e+02,3.50997e+01,-4.01149e+01,0.00000e+00,0.00000e+00,0.00000e+00
6.33500e+02,3.43866e+01,-4.32007e+01,0.00000e+00,0.00000e+00,0.00000e+00
6.33500e+02,3.36055e+01,-4.62865e+01,0.00000e+00,0.00000e+00,0.00000e+00
6.33500e+02,3.27325e+01,-4.93722e+01,0.00000e+00,0.00000e+00,0.00000e+00
6.33500e+02,3.17954e+01,-5.24580e+01,0.00000e+00,0.00000e+00,0.00000e+00
6.33500e+02,3.07144e+01,-5.55438e+01,0.00000e+00,0.00000e+00,0.00000e+00
6.33500e+02,2.95736e+01,-5.86295e+01,0.00000e+00,0.00000e+00,0.00000e+00
6.33500e+02,2.82665e+01,-6.17153e+01,0.00000e+00,0.00000e+00,0.00000e+00
6.33500e+02,2.68261e+01,-6.48011e+01,0.00000e+00,0.00000e+00,0.00000e+00
6.33500e+02,2.52500e+01,-6.78868e+01,0.00000e+00,0.00000e+00,0.00000e+00
6.33500e+02,2.34463e+01,-7.09726e+01,0.00000e+00,0.00000e+00,0.00000e+00
6.33500e+02,2.13788e+01,-7.40584e+01,0.00000e+00,0.00000e+00,0.00000e+00
6.33500e+02,1.90132e+01,-7.71441e+01,0.00000e+00,0.00000e+00,0.00000e+00
6.33500e+02,1.62153e+01,-8.02299e+01,0.00000e+00,0.00000e+00,0.00000e+00
6.33500e+02,1.26239e+01,-8.33156e+01,0.00000e+00,0.00000e+00,0.00000e+00
6.33500e+02,7.76668e+00,-8.64014e+01,0.00000e+00,0.00000e+00,0.00000e+00
6.33500e+02,-3.14700e+00,-8.94872e+01,0.00000e+00,0.00000e+00,0.00000e+00
6.33500e+02,-3.93464e+00,-8.94943e+01,0.00000e+00,0.00000e+00,0.00000e+00
6.33500e+02,-1.11106e+01,-8.62981e+01,0.00000e+00,0.00000e+00,0.00000e+00
6.33500e+02,-1.19795e+01,-8.31019e+01,0.00000e+00,0.00000e+00,0.00000e+00
6.33500e+02,-1.22793e+01,-7.99057e+01,0.00000e+00,0.00000e+00,0.00000e+00
6.33500e+02,-1.23248e+01,-7.67094e+01,0.00000e+00,0.00000e+00,0.00000e+00
6.33500e+02,-1.21787e+01,-7.35132e+01,0.00000e+00,0.00000e+00,0.00000e+00
6.33500e+02,-1.19123e+01,-7.03170e+01,0.00000e+00,0.00000e+00,0.00000e+00
6.33500e+02,-1.15252e+01,-6.71208e+01,0.00000e+00,0.00000e+00,0.00000e+00
6.33500e+02,-1.10645e+01,-6.39245e+01,0.00000e+00,0.00000e+00,0.00000e+00
6.33500e+02,-1.05611e+01,-6.07283e+01,0.00000e+00,0.00000e+00,0.00000e+00
6.33500e+02,-9.99326e+00,-5.75321e+01,0.00000e+00,0.00000e+00,0.00000e+00
6.33500e+02,-9.38524e+00,-5.43358e+01,0.00000e+00,0.00000e+00,0.00000e+00
6.33500e+02,-8.73804e+00,-5.11396e+01,0.00000e+00,0.00000e+00,0.00000e+00
6.33500e+02,-8.05183e+00,-4.79434e+01,0.00000e+00,0.00000e+00,0.00000e+00
6.33500e+02,-7.34116e+00,-4.47472e+01,0.00000e+00,0.00000e+00,0.00000e+00
6.33500e+02,-6.59916e+00,-4.15509e+01,0.00000e+00,0.00000e+00,0.00000e+00
6.33500e+02,-5.83709e+00,-3.83547e+01,0.00000e+00,0.00000e+00,0.00000e+00
6.33500e+02,-5.05702e+00,-3.51585e+01,0.00000e+00,0.00000e+00,0.00000e+00
6.33500e+02,-4.26090e+00,-3.19623e+01,0.00000e+00,0.00000e+00,0.00000e+00
6.33500e+02,-3.45797e+00,-2.87660e+01,0.00000e+00,0.00000e+00,0.00000e+00
6.33500e+02,-2.64450e+00,-2.55698e+01,0.00000e+00,0.00000e+00,0.00000e+00
6.33500e+02,-1.82928e+00,-2.23736e+01,0.00000e+00,0.00000e+00,0.00000e+00
6.33500e+02,-1.00777e+00,-1.91774e+01,0.00000e+00,0.00000e+00,0.00000e+00
6.33500e+02,-1.86340e-01,-1.59811e+01,0.00000e+00,0.00000e+00,0.00000e+00
6.33500e+02,6.31986e-01,-1.27849e+01,0.00000e+00,0.00000e+00,0.00000e+00
6.33500e+02,1.45031e+00,-9.58868e+00,0.00000e+00,0.00000e+00,0.00000e+00
6.33500e+02,2.24926e+00,-6.39245e+00,0.00000e+00,0.00000e+00,0.00000e+00
6.33500e+02,3.04460e+00,-3.19623e+00,0.00000e+00,0.00000e+00,0.00000e+00
7.34700e+02,4.02095e+01,0.00000e+00,0.00000e+00,0.00000e+00,0.00000e+00
7.34700e+02,4.00070e+01,-3.05550e+00,0.00000e+00,0.00000e+00,0.00000e+00
7.34700e+02,3.97376e+01,-6.11100e+00,0.00000e+00,0.00000e+00,0.00000e+00
7.34700e+02,3.94656e+01,-9.16651e+00,0.00000e+00,0.00000e+00,0.00000e+00
7.34700e+02,3.91344e+01,-1.22220e+01,0.00000e+00,0.00000e+00,0.00000e+00
7.34700e+02,3.87896e+01,-1.52775e+01,0.00000e+00,0.00000e+00,0.00000e+00
7.34700e+02,3.83994e+01,-1.83330e+01,0.00000e+00,0.00000e+00,0.00000e+00
7.34700e+02,3.79872e+01,-2.13885e+01,0.00000e+00,0.00000e+00,0.00000e+00
7.34700e+02,3.75386e+01,-2.44440e+01,0.00000e+00,0.00000e+00,0.00000e+00
7.34700e+02,3.70601e+01,-2.74995e+01,0.00000e+00,0.00000e+00,0.00000e+00
7.34700e+02,3.65486e+01,-3.05550e+01,0.00000e+00,0.00000e+00,0.00000e+00
7.34700e+02,3.59973e+01,-3.36105e+01,0.00000e+00,0.00000e+00,0.00000e+00
7.34700e+02,3.54053e+01,-3.66660e+01,0.00000e+00,0.00000e+00,0.00000e+00
7.34700e+02,3.47554e+01,-3.97215e+01,0.00000e+00,0.00000e+00,0.00000e+00
7.34700e+02,3.40493e+01,-4.27770e+01,0.00000e+00,0.00000e+00,0.00000e+00
7.34700e+02,3.32760e+01,-4.58325e+01,0.00000e+00,0.00000e+00,0.00000e+00
7.34700e+02,3.24115e+01,-4.88880e+01,0.00000e+00,0.00000e+00,0.00000e+00
7.34700e+02,3.14836e+01,-5.19435e+01,0.00000e+00,0.00000e+00,0.00000e+00
7.34700e+02,3.04131e+01,-5.49990e+01,0.00000e+00,0.00000e+00,0.00000e+00
7.34700e+02,2.92835e+01,-5.80545e+01,0.00000e+00,0.00000e+00,0.00000e+00
7.34700e+02,2.79893e+01,-6.11100e+01,0.00000e+00,0.00000e+00,0.00000e+00
7.34700e+02,2.65630e+01,-6.41655e+01,0.00000e+00,0.00000e+00,0.00000e+00
7.34700e+02,2.50024e+01,-6.72210e+01,0.00000e+00,0.00000e+00,0.00000e+00
7.34700e+02,2.32164e+01,-7.02765e+01,0.00000e+00,0.00000e+00,0.00000e+00
7.34700e+02,2.11691e+01,-7.33320e+01,0.00000e+00,0.00000e+00,0.00000e+00
7.34700e+02,1.88268e+01,-7.63875e+01,0.00000e+00,0.00000e+00,0.00000e+00
7.34700e+02,1.60563e+01,-7.94430e+01,0.00000e+00,0.00000e+00,0.00000e+00
7.34700e+02,1.25001e+01,-8.24985e+01,0.00000e+00,0.00000e+00,0.00000e+00
7.34700e+02,7.69051e+00,-8.55540e+01,0.00000e+00,0.00000e+00,0.00000e+00
7.34700e+02,-3.11614e+00,-8.86096e+01,0.00000e+00,0.00000e+00,0.00000e+00
7.34700e+02,-3.89606e+00,-8.86166e+01,0.00000e+00,0.00000e+00,0.00000e+00
7.34700e+02,-1.10017e+01,-8.54518e+01,0.00000e+00,0.00000e+00,0.00000e+00
7.34700e+02,-1.18620e+01,-8.22869e+01,0.00000e+00,0.00000e+00,0.00000e+00
7.34700e+02,-1.21589e+01,-7.91220e+01,0.00000e+00,0.00000e+00,0.00000e+00
7.34700e+02,-1.22039e+01,-7.59571e+01,0.00000e+00,0.00000e+00,0.00000e+00
7.34700e+02,-1.20592e+01,-7.27922e+01,0.00000e+00,0.00000e+00,0.00000e+00
7.34700e+02,-1.17955e+01,-6.96274e+01,0.00000e+00,0.00000e+00,0.00000e+00
7.34700e+02,-1.14122e+01,-6.64625e+01,0.00000e+00,0.00000e+00,0.00000e+00
7.34700e+02,-1.09560e+01,-6.32976e+01,0.00000e+00,0.00000e+00,0.00000e+00
7.34700e+02,-1.04575e+01,-6.01327e+01,0.00000e+00,0.00000e+00,0.00000e+00
7.34700e+02,-9.89525e+00,-5.69678e+01,0.00000e+00,0.00000e+00,0.00000e+00
7.34700e+02,-9.29319e+00,-5.38030e+01,0.00000e+00,0.00000e+00,0.00000e+00
7.34700e+02,-8.65235e+00,-5.06381e+01,0.00000e+00,0.00000e+00,0.00000e+00
7.34700e+02,-7.97287e+00,-4.74732e+01,0.00000e+00,0.00000e+00,0.00000e+00
7.34700e+02,-7.26917e+00,-4.43083e+01,0.00000e+00,0.00000e+00,0.00000e+00
7.34700e+02,-6.53444e+00,-4.11434e+01,0.00000e+00,0.00000e+00,0.00000e+00
7.34700e+02,-5.77984e+00,-3.79786e+01,0.00000e+00,0.00000e+00,0.00000e+00
7.34700e+02,-5.00742e+00,-3.48137e+01,0.00000e+00,0.00000e+00,0.00000e+00
7.34700e+02,-4.21911e+00,-3.16488e+01,0.00000e+00,0.00000e+00,0.00000e+00
7.34700e+02,-3.42406e+00,-2.84839e+01,0.00000e+00,0.00000e+00,0.00000e+00
7.34700e+02,-2.61857e+00,-2.53190e+01,0.00000e+00,0.00000e+00,0.00000e+00
7.34700e+02,-1.81134e+00,-2.21542e+01,0.00000e+00,0.00000e+00,0.00000e+00
7.34700e+02,-9.97887e-01,-1.89893e+01,0.00000e+00,0.00000e+00,0.00000e+00
7.34700e+02,-1.84513e-01,-1.58244e+01,0.00000e+00,0.00000e+00,0.00000e+00
7.34700e+02,6.25788e-01,-1.26595e+01,0.00000e+00,0.00000e+00,0.00000e+00
7.34700e+02,1.43609e+00,-9.49464e+00,0.00000e+00,0.00000e+00,0.00000e+00
7.34700e+02,2.22720e+00,-6.32976e+00,0.00000e+00,0.00000e+00,0.00000e+00
7.34700e+02,3.01474e+00,-3.16488e+00,0.00000e+00,0.00000e+00,0.00000e+00
8.33800e+02,3.98196e+01,0.00000e+00,0.00000e+00,0.00000e+00,0.00000e+00
8.33800e+02,3.96190e+01,-3.02587e+00,0.00000e+00,0.00000e+00,0.00000e+00
8.33800e+02,3.93522e+01,-6.05173e+00,0.00000e+00,0.00000e+00,0.00000e+00
8.33800e+02,3.90828e+01,-9.07760e+00,0.00000e+00,0.00000e+00,0.00000e+00
8.33800e+02,3.87549e+01,-1.21035e+01,0.00000e+00,0.00000e+00,0.00000e+00
8.33800e+02,3.84134e+01,-1.51293e+01,0.00000e+00,0.00000e+00,0.00000e+00
8.33800e+02,3.80270e+01,-1.81552e+01,0.00000e+00,0.00000e+00,0.00000e+00
8.33800e+02,3.76188e+01,-2.11811e+01,0.00000e+00,0.00000e+00,0.00000e+00
8.33800e+02,3.71745e+01,-2.42069e+01,0.00000e+00,0.00000e+00,0.00000e+00
8.33800e+02,3.67006e+01,-2.72328e+01,0.00000e+00,0.00000e+00,0.00000e+00
8.33800e+02,3.61941e+01,-3.02587e+01,0.00000e+00,0.00000e+00,0.00000e+00
8.33800e+02,3.56482e+01,-3.32845e+01,0.00000e+00,0.00000e+00,0.00000e+00
8.33800e+02,3.50619e+01,-3.63104e+01,0.00000e+00,0.00000e+00,0.00000e+00
8.33800e+02,3.44183e+01,-3.93363e+01,0.00000e+00,0.00000e+00,0.00000e+00
8.33800e+02,3.37191e+01,-4.23621e+01,0.00000e+00,0.00000e+00,0.00000e+00
8.33800e+02,3.29532e+01,-4.53880e+01,0.00000e+00,0.00000e+00,0.00000e+00
8.33800e+02,3.20971e+01,-4.84139e+01,0.00000e+00,0.00000e+00,0.00000e+00
8.33800e+02,3.11783e+01,-5.14397e+01,0.00000e+00,0.00000e+00,0.00000e+00
8.33800e+02,3.01182e+01,-5.44656e+01,0.00000e+00,0.00000e+00,0.00000e+00
8.33800e+02,2.89995e+01,-5.74915e+01,0.00000e+00,0.00000e+00,0.00000e+00
8.33800e+02,2.77178e+01,-6.05173e+01,0.00000e+00,0.00000e+00,0.00000e+00
8.33800e+02,2.63054e+01,-6.35432e+01,0.00000e+00,0.00000e+00,0.00000e+00
8.33800e+02,2.47599e+01,-6.65691e+01,0.00000e+00,0.00000e+00,0.00000e+00
8.33800e+02,2.29912e+01,-6.95949e+01,0.00000e+00,0.00000e+00,0.00000e+00
8.33800e+02,2.09638e+01,-7.26208e+01,0.00000e+00,0.00000e+00,0.00000e+00
8.33800e+02,1.86442e+01,-7.56467e+01,0.00000e+00,0.00000e+00,0.00000e+00
8.33800e+02,1.59005e+01,-7.86725e+01,0.00000e+00,0.00000e+00,0.00000e+00
8.33800e+02,1.23789e+01,-8.16984e+01,0.00000e+00,0.00000e+00,0.00000e+00
8.33800e+02,7.61592e+00,-8.47243e+01,0.00000e+00,0.00000e+00,0.00000e+00
8.33800e+02,-3.08591e+00,-8.77501e+01,0.00000e+00,0.00000e+00,0.00000e+00
8.33800e+02,-3.85827e+00,-8.77572e+01,0.00000e+00,0.00000e+00,0.00000e+00
8.33800e+02,-1.08950e+01,-8.46230e+01,0.00000e+00,0.00000e+00,0.00000e+00
8.33800e+02,-1.17470e+01,-8.14888e+01,0.00000e+00,0.00000e+00,0.00000e+00
8.33800e+02,-1.20409e+01,-7.83546e+01,0.00000e+00,0.00000e+00,0.00000e+00
8.33800e+02,-1.20856e+01,-7.52204e+01,0.00000e+00,0.00000e+00,0.00000e+00
8.33800e+02,-1.19423e+01,-7.20862e+01,0.00000e+00,0.00000e+00,0.00000e+00
8.33800e+02,-1.16811e+01,-6.89521e+01,0.00000e+00,0.00000e+00,0.00000e+00
8.33800e+02,-1.13015e+01,-6.58179e+01,0.00000e+00,0.00000e+00,0.00000e+00
8.33800e+02,-1.08497e+01,-6.26837e+01,0.00000e+00,0.00000e+00,0.00000e+00
8.33800e+02,-1.03561e+01,-5.95495e+01,0.00000e+00,0.00000e+00,0.00000e+00
8.33800e+02,-9.79928e+00,-5.64153e+01,0.00000e+00,0.00000e+00,0.00000e+00
8.33800e+02,-9.20306e+00,-5.32811e+01,0.00000e+00,0.00000e+00,0.00000e+00
8.33800e+02,-8.56843e+00,-5.01469e+01,0.00000e+00,0.00000e+00,0.00000e+00
8.33800e+02,-7.89554e+00,-4.70128e+01,0.00000e+00,0.00000e+00,0.00000e+00
8.33800e+02,-7.19866e+00,-4.38786e+01,0.00000e+00,0.00000e+00,0.00000e+00
8.33800e+02,-6.47106e+00,-4.07444e+01,0.00000e+00,0.00000e+00,0.00000e+00
8.33800e+02,-5.72378e+00,-3.76102e+01,0.00000e+00,0.00000e+00,0.00000e+00
8.33800e+02,-4.95886e+00,-3.44760e+01,0.00000e+00,0.00000e+00,0.00000e+00
8.33800e+02,-4.17819e+00,-3.13418e+01,0.00000e+00,0.00000e+00,0.00000e+00
8.33800e+02,-3.39085e+00,-2.82077e+01,0.00000e+00,0.00000e+00,0.00000e+00
8.33800e+02,-2.59317e+00,-2.50735e+01,0.00000e+00,0.00000e+00,0.00000e+00
8.33800e+02,-1.79378e+00,-2.19393e+01,0.00000e+00,0.00000e+00,0.00000e+00
8.33800e+02,-9.88209e-01,-1.88051e+01,0.00000e+00,0.00000e+00,0.00000e+00
8.33800e+02,-1.82723e-01,-1.56709e+01,0.00000e+00,0.00000e+00,0.00000e+00
8.33800e+02,6.19718e-01,-1.25367e+01,0.00000e+00,0.00000e+00,0.00000e+00
8.33800e+02,1.42216e+00,-9.40255e+00,0.00000e+00,0.00000e+00,0.00000e+00
8.33800e+02,2.20560e+00,-6.26837e+00,0.00000e+00,0.00000e+00,0.00000e+00
8.33800e+02,2.98550e+00,-3.13418e+00,0.00000e+00,0.00000e+00,0.00000e+00
9.30700e+02,3.94382e+01,0.00000e+00,0.00000e+00,0.00000e+00,0.00000e+00
9.30700e+02,3.92396e+01,-2.99689e+00,0.00000e+00,0.00000e+00,0.00000e+00
9.30700e+02,3.89754e+01,-5.99378e+00,0.00000e+00,0.00000e+00,0.00000e+00
9.30700e+02,3.87085e+01,-8.99067e+00,0.00000e+00,0.00000e+00,0.00000e+00
9.30700e+02,3.83837e+01,-1.19876e+01,0.00000e+00,0.00000e+00,0.00000e+00
9.30700e+02,3.80455e+01,-1.49844e+01,0.00000e+00,0.00000e+00,0.00000e+00
9.30700e+02,3.76628e+01,-1.79813e+01,0.00000e+00,0.00000e+00,0.00000e+00
9.30700e+02,3.72585e+01,-2.09782e+01,0.00000e+00,0.00000e+00,0.00000e+00
9.30700e+02,3.68185e+01,-2.39751e+01,0.00000e+00,0.00000e+00,0.00000e+00
9.30700e+02,3.63492e+01,-2.69720e+01,0.00000e+00,0.00000e+00,0.00000e+00
9.30700e+02,3.58475e+01,-2.99689e+01,0.00000e+00,0.00000e+00,0.00000e+00
9.30700e+02,3.53068e+01,-3.29658e+01,0.00000e+00,0.00000e+00,0.00000e+00
9.30700e+02,3.47261e+01,-3.59627e+01,0.00000e+00,0.00000e+00,0.00000e+00
9.30700e+02,3.40887e+01,-3.89596e+01,0.00000e+00,0.00000e+00,0.00000e+00
9.30700e+02,3.33962e+01,-4.19565e+01,0.00000e+00,0.00000e+00,0.00000e+00
9.30700e+02,3.26376e+01,-4.49533e+01,0.00000e+00,0.00000e+00,0.00000e+00
9.30700e+02,3.17897e+01,-4.79502e+01,0.00000e+00,0.00000e+00,0.00000e+00
9.30700e+02,3.08797e+01,-5.09471e+01,0.00000e+00,0.00000e+00,0.00000e+00
9.30700e+02,2.98297e+01,-5.39440e+01,0.00000e+00,0.00000e+00,0.00000e+00
9.30700e+02,2.87218e+01,-5.69409e+01,0.00000e+00,0.00000e+00,0.00000e+00
9.30700e+02,2.74524e+01,-5.99378e+01,0.00000e+00,0.00000e+00,0.00000e+00
9.30700e+02,2.60534e+01,-6.29347e+01,0.00000e+00,0.00000e+00,0.00000e+00
9.30700e+02,2.45228e+01,-6.59316e+01,0.00000e+00,0.00000e+00,0.00000e+00
9.30700e+02,2.27710e+01,-6.89285e+01,0.00000e+00,0.00000e+00,0.00000e+00
9.30700e+02,2.07631e+01,-7.19254e+01,0.00000e+00,0.00000e+00,0.00000e+00
9.30700e+02,1.84656e+01,-7.49222e+01,0.00000e+00,0.00000e+00,0.00000e+00
9.30700e+02,1.57483e+01,-7.79191e+01,0.00000e+00,0.00000e+00,0.00000e+00
9.30700e+02,1.22603e+01,-8.09160e+01,0.00000e+00,0.00000e+00,0.00000e+00
9.30700e+02,7.54299e+00,-8.39129e+01,0.00000e+00,0.00000e+00,0.00000e+00
9.30700e+02,-3.05636e+00,-8.69098e+01,0.00000e+00,0.00000e+00,0.00000e+00
9.30700e+02,-3.82132e+00,-8.69168e+01,0.00000e+00,0.00000e+00,0.00000e+00
9.30700e+02,-1.07906e+01,-8.38126e+01,0.00000e+00,0.00000e+00,0.00000e+00
9.30700e+02,-1.16345e+01,-8.07084e+01,0.00000e+00,0.00000e+00,0.00000e+00
9.30700e+02,-1.19256e+01,-7.76042e+01,0.00000e+00,0.00000e+00,0.00000e+00
9.30700e+02,-1.19698e+01,-7.45001e+01,0.00000e+00,0.00000e+00,0.00000e+00
9.30700e+02,-1.18279e+01,-7.13959e+01,0.00000e+00,0.00000e+00,0.00000e+00
9.30700e+02,-1.15692e+01,-6.82917e+01,0.00000e+00,0.00000e+00,0.00000e+00
9.30700e+02,-1.11933e+01,-6.51876e+01,0.00000e+00,0.00000e+00,0.00000e+00
9.30700e+02,-1.07458e+01,-6.20834e+01,0.00000e+00,0.00000e+00,0.00000e+00
9.30700e+02,-1.02569e+01,-5.89792e+01,0.00000e+00,0.00000e+00,0.00000e+00
9.30700e+02,-9.70544e+00,-5.58751e+01,0.00000e+00,0.00000e+00,0.00000e+00
9.30700e+02,-9.11493e+00,-5.27709e+01,0.00000e+00,0.00000e+00,0.00000e+00
9.30700e+02,-8.48637e+00,-4.96667e+01,0.00000e+00,0.00000e+00,0.00000e+00
9.30700e+02,-7.81993e+00,-4.65625e+01,0.00000e+00,0.00000e+00,0.00000e+00
9.30700e+02,-7.12973e+00,-4.34584e+01,0.00000e+00,0.00000e+00,0.00000e+00
9.30700e+02,-6.40909e+00,-4.03542e+01,0.00000e+00,0.00000e+00,0.00000e+00
9.30700e+02,-5.66897e+00,-3.72500e+01,0.00000e+00,0.00000e+00,0.00000e+00
9.30700e+02,-4.91137e+00,-3.41459e+01,0.00000e+00,0.00000e+00,0.00000e+00
9.30700e+02,-4.13818e+00,-3.10417e+01,0.00000e+00,0.00000e+00,0.00000e+00
9.30700e+02,-3.35837e+00,-2.79375e+01,0.00000e+00,0.00000e+00,0.00000e+00
9.30700e+02,-2.56834e+00,-2.48334e+01,0.00000e+00,0.00000e+00,0.00000e+00
9.30700e+02,-1.77660e+00,-2.17292e+01,0.00000e+00,0.00000e+00,0.00000e+00
9.30700e+02,-9.78745e-01,-1.86250e+01,0.00000e+00,0.00000e+00,0.00000e+00
9.30700e+02,-1.80973e-01,-1.55208e+01,0.00000e+00,0.00000e+00,0.00000e+00
9.30700e+02,6.13784e-01,-1.24167e+01,0.00000e+00,0.00000e+00,0.00000e+00
9.30700e+02,1.40854e+00,-9.31251e+00,0.00000e+00,0.00000e+00,0.00000e+00
9.30700e+02,2.18448e+00,-6.20834e+00,0.00000e+00,0.00000e+00,0.00000e+00
9.30700e+02,2.95691e+00,-3.10417e+00,0.00000e+00,0.00000e+00,0.00000e+00
1.02500e+03,3.90671e+01,0.00000e+00,0.00000e+00,0.00000e+00,0.00000e+00
1.02500e+03,3.88704e+01,-2.96869e+00,0.00000e+00,0.00000e+00,0.00000e+00
1.02500e+03,3.86086e+01,-5.93738e+00,0.00000e+00,0.00000e+00,0.00000e+00
1.02500e+03,3.83443e+01,-8.90607e+00,0.00000e+00,0.00000e+00,0.00000e+00
1.02500e+03,3.80226e+01,-1.18748e+01,0.00000e+00,0.00000e+00,0.00000e+00
1.02500e+03,3.76875e+01,-1.48435e+01,0.00000e+00,0.00000e+00,0.00000e+00
1.02500e+03,3.73084e+01,-1.78121e+01,0.00000e+00,0.00000e+00,0.00000e+00
1.02500e+03,3.69079e+01,-2.07808e+01,0.00000e+00,0.00000e+00,0.00000e+00
1.02500e+03,3.64721e+01,-2.37495e+01,0.00000e+00,0.00000e+00,0.00000e+00
1.02500e+03,3.60071e+01,-2.67182e+01,0.00000e+00,0.00000e+00,0.00000e+00
1.02500e+03,3.55102e+01,-2.96869e+01,0.00000e+00,0.00000e+00,0.00000e+00
1.02500e+03,3.49746e+01,-3.26556e+01,0.00000e+00,0.00000e+00,0.00000e+00
1.02500e+03,3.43994e+01,-3.56243e+01,0.00000e+00,0.00000e+00,0.00000e+00
1.02500e+03,3.37680e+01,-3.85930e+01,0.00000e+00,0.00000e+00,0.00000e+00
1.02500e+03,3.30819e+01,-4.15617e+01,0.00000e+00,0.00000e+00,0.00000e+00
1.02500e+03,3.23305e+01,-4.45304e+01,0.00000e+00,0.00000e+00,0.00000e+00
1.02500e+03,3.14906e+01,-4.74990e+01,0.00000e+00,0.00000e+00,0.00000e+00
1.02500e+03,3.05891e+01,-5.04677e+01,0.00000e+00,0.00000e+00,0.00000e+00
1.02500e+03,2.95491e+01,-5.34364e+01,0.00000e+00,0.00000e+00,0.00000e+00
1.02500e+03,2.84516e+01,-5.64051e+01,0.00000e+00,0.00000e+00,0.00000e+00
1.02500e+03,2.71940e+01,-5.93738e+01,0.00000e+00,0.00000e+00,0.00000e+00
1.02500e+03,2.58083e+01,-6.23425e+01,0.00000e+00,0.00000e+00,0.00000e+00
1.02500e+03,2.42920e+01,-6.53112e+01,0.00000e+00,0.00000e+00,0.00000e+00
1.02500e+03,2.25567e+01,-6.82799e+01,0.00000e+00,0.00000e+00,0.00000e+00
1.02500e+03,2.05677e+01,-7.12486e+01,0.00000e+00,0.00000e+00,0.00000e+00
1.02500e+03,1.82919e+01,-7.42173e+01,0.00000e+00,0.00000e+00,0.00000e+00
1.02500e+03,1.56001e+01,-7.71859e+01,0.00000e+00,0.00000e+00,0.00000e+00
1.02500e+03,1.21450e+01,-8.01546e+01,0.00000e+00,0.00000e+00,0.00000e+00
1.02500e+03,7.47201e+00,-8.31233e+01,0.00000e+00,0.00000e+00,0.00000e+00
1.02500e+03,-3.02760e+00,-8.60920e+01,0.00000e+00,0.00000e+00,0.00000e+00
1.02500e+03,-3.78536e+00,-8.60989e+01,0.00000e+00,0.00000e+00,0.00000e+00
1.02500e+03,-1.06891e+01,-8.30239e+01,0.00000e+00,0.00000e+00,0.00000e+00
1.02500e+03,-1.15250e+01,-7.99490e+01,0.00000e+00,0.00000e+00,0.00000e+00
1.02500e+03,-1.18134e+01,-7.68740e+01,0.00000e+00,0.00000e+00,0.00000e+00
1.02500e+03,-1.18572e+01,-7.37991e+01,0.00000e+00,0.00000e+00,0.00000e+00
1.02500e+03,-1.17166e+01,-7.07241e+01,0.00000e+00,0.00000e+00,0.00000e+00
1.02500e+03,-1.14604e+01,-6.76491e+01,0.00000e+00,0.00000e+00,0.00000e+00
1.02500e+03,-1.10880e+01,-6.45742e+01,0.00000e+00,0.00000e+00,0.00000e+00
1.02500e+03,-1.06447e+01,-6.14992e+01,0.00000e+00,0.00000e+00,0.00000e+00
1.02500e+03,-1.01604e+01,-5.84243e+01,0.00000e+00,0.00000e+00,0.00000e+00
1.02500e+03,-9.61411e+00,-5.53493e+01,0.00000e+00,0.00000e+00,0.00000e+00
1.02500e+03,-9.02916e+00,-5.22743e+01,0.00000e+00,0.00000e+00,0.00000e+00
1.02500e+03,-8.40652e+00,-4.91994e+01,0.00000e+00,0.00000e+00,0.00000e+00
1.02500e+03,-7.74634e+00,-4.61244e+01,0.00000e+00,0.00000e+00,0.00000e+00
1.02500e+03,-7.06264e+00,-4.30495e+01,0.00000e+00,0.00000e+00,0.00000e+00
1.02500e+03,-6.34878e+00,-3.99745e+01,0.00000e+00,0.00000e+00,0.00000e+00
1.02500e+03,-5.61563e+00,-3.68995e+01,0.00000e+00,0.00000e+00,0.00000e+00
1.02500e+03,-4.86516e+00,-3.38246e+01,0.00000e+00,0.00000e+00,0.00000e+00
1.02500e+03,-4.09924e+00,-3.07496e+01,0.00000e+00,0.00000e+00,0.00000e+00
1.02500e+03,-3.32677e+00,-2.76746e+01,0.00000e+00,0.00000e+00,0.00000e+00
1.02500e+03,-2.54417e+00,-2.45997e+01,0.00000e+00,0.00000e+00,0.00000e+00
1.02500e+03,-1.75988e+00,-2.15247e+01,0.00000e+00,0.00000e+00,0.00000e+00
1.02500e+03,-9.69535e-01,-1.84498e+01,0.00000e+00,0.00000e+00,0.00000e+00
1.02500e+03,-1.79270e-01,-1.53748e+01,0.00000e+00,0.00000e+00,0.00000e+00
1.02500e+03,6.08008e-01,-1.22998e+01,0.00000e+00,0.00000e+00,0.00000e+00
1.02500e+03,1.39529e+00,-9.22488e+00,0.00000e+00,0.00000e+00,0.00000e+00
1.02500e+03,2.16392e+00,-6.14992e+00,0.00000e+00,0.00000e+00,0.00000e+00
1.02500e+03,2.92908e+00,-3.07496e+00,0.00000e+00,0.00000e+00,0.00000e+00
1.11650e+03,3.87070e+01,0.00000e+00,0.00000e+00,0.00000e+00,0.00000e+00
1.11650e+03,3.85121e+01,-2.94133e+00,0.00000e+00,0.00000e+00,0.00000e+00
1.11650e+03,3.82528e+01,-5.88266e+00,0.00000e+00,0.00000e+00,0.00000e+00
1.11650e+03,3.79909e+01,-8.82398e+00,0.00000e+00,0.00000e+00,0.00000e+00
1.11650e+03,3.76721e+01,-1.17653e+01,0.00000e+00,0.00000e+00,0.00000e+00
1.11650e+03,3.73401e+01,-1.47066e+01,0.00000e+00,0.00000e+00,0.00000e+00
1.11650e+03,3.69645e+01,-1.76480e+01,0.00000e+00,0.00000e+00,0.00000e+00
1.11650e+03,3.65678e+01,-2.05893e+01,0.00000e+00,0.00000e+00,0.00000e+00
1.11650e+03,3.61359e+01,-2.35306e+01,0.00000e+00,0.00000e+00,0.00000e+00
1.11650e+03,3.56753e+01,-2.64720e+01,0.00000e+00,0.00000e+00,0.00000e+00
1.11650e+03,3.51829e+01,-2.94133e+01,0.00000e+00,0.00000e+00,0.00000e+00
1.11650e+03,3.46522e+01,-3.23546e+01,0.00000e+00,0.00000e+00,0.00000e+00
1.11650e+03,3.40823e+01,-3.52959e+01,0.00000e+00,0.00000e+00,0.00000e+00
1.11650e+03,3.34567e+01,-3.82373e+01,0.00000e+00,0.00000e+00,0.00000e+00
1.11650e+03,3.27770e+01,-4.11786e+01,0.00000e+00,0.00000e+00,0.00000e+00
1.11650e+03,3.20325e+01,-4.41199e+01,0.00000e+00,0.00000e+00,0.00000e+00
1.11650e+03,3.12004e+01,-4.70612e+01,0.00000e+00,0.00000e+00,0.00000e+00
1.11650e+03,3.03072e+01,-5.00026e+01,0.00000e+00,0.00000e+00,0.00000e+00
1.11650e+03,2.92767e+01,-5.29439e+01,0.00000e+00,0.00000e+00,0.00000e+00
1.11650e+03,2.81893e+01,-5.58852e+01,0.00000e+00,0.00000e+00,0.00000e+00
1.11650e+03,2.69434e+01,-5.88266e+01,0.00000e+00,0.00000e+00,0.00000e+00
1.11650e+03,2.55704e+01,-6.17679e+01,0.00000e+00,0.00000e+00,0.00000e+00
1.11650e+03,2.40681e+01,-6.47092e+01,0.00000e+00,0.00000e+00,0.00000e+00
1.11650e+03,2.23488e+01,-6.76505e+01,0.00000e+00,0.00000e+00,0.00000e+00
1.11650e+03,2.03781e+01,-7.05919e+01,0.00000e+00,0.00000e+00,0.00000e+00
1.11650e+03,1.81233e+01,-7.35332e+01,0.00000e+00,0.00000e+00,0.00000e+00
1.11650e+03,1.54563e+01,-7.64745e+01,0.00000e+00,0.00000e+00,0.00000e+00
1.11650e+03,1.20330e+01,-7.94159e+01,0.00000e+00,0.00000e+00,0.00000e+00
1.11650e+03,7.40314e+00,-8.23572e+01,0.00000e+00,0.00000e+00,0.00000e+00
1.11650e+03,-2.99970e+00,-8.52985e+01,0.00000e+00,0.00000e+00,0.00000e+00
1.11650e+03,-3.75047e+00,-8.53053e+01,0.00000e+00,0.00000e+00,0.00000e+00
1.11650e+03,-1.05906e+01,-8.22587e+01,0.00000e+00,0.00000e+00,0.00000e+00
1.11650e+03,-1.14188e+01,-7.92121e+01,0.00000e+00,0.00000e+00,0.00000e+00
1.11650e+03,-1.17045e+01,-7.61655e+01,0.00000e+00,0.00000e+00,0.00000e+00
1.11650e+03,-1.17479e+01,-7.31189e+01,0.00000e+00,0.00000e+00,0.00000e+00
1.11650e+03,-1.16086e+01,-7.00722e+01,0.00000e+00,0.00000e+00,0.00000e+00
1.11650e+03,-1.13547e+01,-6.70256e+01,0.00000e+00,0.00000e+00,0.00000e+00
1.11650e+03,-1.09858e+01,-6.39790e+01,0.00000e+00,0.00000e+00,0.00000e+00
1.11650e+03,-1.05466e+01,-6.09324e+01,0.00000e+00,0.00000e+00,0.00000e+00
1.11650e+03,-1.00667e+01,-5.78858e+01,0.00000e+00,0.00000e+00,0.00000e+00
1.11650e+03,-9.52550e+00,-5.48391e+01,0.00000e+00,0.00000e+00,0.00000e+00
1.11650e+03,-8.94594e+00,-5.17925e+01,0.00000e+00,0.00000e+00,0.00000e+00
1.11650e+03,-8.32904e+00,-4.87459e+01,0.00000e+00,0.00000e+00,0.00000e+00
1.11650e+03,-7.67495e+00,-4.56993e+01,0.00000e+00,0.00000e+00,0.00000e+00
1.11650e+03,-6.99754e+00,-4.26527e+01,0.00000e+00,0.00000e+00,0.00000e+00
1.11650e+03,-6.29027e+00,-3.96060e+01,0.00000e+00,0.00000e+00,0.00000e+00
1.11650e+03,-5.56387e+00,-3.65594e+01,0.00000e+00,0.00000e+00,0.00000e+00
1.11650e+03,-4.82031e+00,-3.35128e+01,0.00000e+00,0.00000e+00,0.00000e+00
1.11650e+03,-4.06146e+00,-3.04662e+01,0.00000e+00,0.00000e+00,0.00000e+00
1.11650e+03,-3.29611e+00,-2.74196e+01,0.00000e+00,0.00000e+00,0.00000e+00
1.11650e+03,-2.52072e+00,-2.43730e+01,0.00000e+00,0.00000e+00,0.00000e+00
1.11650e+03,-1.74366e+00,-2.13263e+01,0.00000e+00,0.00000e+00,0.00000e+00
1.11650e+03,-9.60599e-01,-1.82797e+01,0.00000e+00,0.00000e+00,0.00000e+00
1.11650e+03,-1.77618e-01,-1.52331e+01,0.00000e+00,0.00000e+00,0.00000e+00
1.11650e+03,6.02404e-01,-1.21865e+01,0.00000e+00,0.00000e+00,0.00000e+00
1.11650e+03,1.38243e+00,-9.13986e+00,0.00000e+00,0.00000e+00,0.00000e+00
1.11650e+03,2.14398e+00,-6.09324e+00,0.00000e+00,0.00000e+00,0.00000e+00
1.11650e+03,2.90209e+00,-3.04662e+00,0.00000e+00,0.00000e+00,0.00000e+00
1.20500e+03,3.76912e+01,0.00000e+00,0.00000e+00,0.00000e+00,0.00000e+00
1.20500e+03,3.75014e+01,-2.86413e+00,0.00000e+00,0.00000e+00,0.00000e+00
1.20500e+03,3.72488e+01,-5.72827e+00,0.00000e+00,0.00000e+00,0.00000e+00
1.20500e+03,3.69938e+01,-8.59240e+00,0.00000e+00,0.00000e+00,0.00000e+00
1.20500e+03,3.66834e+01,-1.14565e+01,0.00000e+00,0.00000e+00,0.00000e+00
1.20500e+03,3.63602e+01,-1.43207e+01,0.00000e+00,0.00000e+00,0.00000e+00
1.20500e+03,3.59944e+01,-1.71848e+01,0.00000e+00,0.00000e+00,0.00000e+00
1.20500e+03,3.56080e+01,-2.00489e+01,0.00000e+00,0.00000e+00,0.00000e+00
1.20500e+03,3.51875e+01,-2.29131e+01,0.00000e+00,0.00000e+00,0.00000e+00
1.20500e+03,3.47390e+01,-2.57772e+01,0.00000e+00,0.00000e+00,0.00000e+00
1.20500e+03,3.42596e+01,-2.86413e+01,0.00000e+00,0.00000e+00,0.00000e+00
1.20500e+03,3.37428e+01,-3.15055e+01,0.00000e+00,0.00000e+00,0.00000e+00
1.20500e+03,3.31878e+01,-3.43696e+01,0.00000e+00,0.00000e+00,0.00000e+00
1.20500e+03,3.25787e+01,-3.72337e+01,0.00000e+00,0.00000e+00,0.00000e+00
1.20500e+03,3.19168e+01,-4.00979e+01,0.00000e+00,0.00000e+00,0.00000e+00
1.20500e+03,3.11919e+01,-4.29620e+01,0.00000e+00,0.00000e+00,0.00000e+00
1.20500e+03,3.03815e+01,-4.58261e+01,0.00000e+00,0.00000e+00,0.00000e+00
1.20500e+03,2.95118e+01,-4.86903e+01,0.00000e+00,0.00000e+00,0.00000e+00
1.20500e+03,2.85084e+01,-5.15544e+01,0.00000e+00,0.00000e+00,0.00000e+00
1.20500e+03,2.74495e+01,-5.44186e+01,0.00000e+00,0.00000e+00,0.00000e+00
1.20500e+03,2.62363e+01,-5.72827e+01,0.00000e+00,0.00000e+00,0.00000e+00
1.20500e+03,2.48993e+01,-6.01468e+01,0.00000e+00,0.00000e+00,0.00000e+00
1.20500e+03,2.34365e+01,-6.30110e+01,0.00000e+00,0.00000e+00,0.00000e+00
1.20500e+03,2.17623e+01,-6.58751e+01,0.00000e+00,0.00000e+00,0.00000e+00
1.20500e+03,1.98433e+01,-6.87392e+01,0.00000e+00,0.00000e+00,0.00000e+00
1.20500e+03,1.76476e+01,-7.16034e+01,0.00000e+00,0.00000e+00,0.00000e+00
1.20500e+03,1.50506e+01,-7.44675e+01,0.00000e+00,0.00000e+00,0.00000e+00
1.20500e+03,1.17172e+01,-7.73316e+01,0.00000e+00,0.00000e+00,0.00000e+00
1.20500e+03,7.20885e+00,-8.01958e+01,0.00000e+00,0.00000e+00,0.00000e+00
1.20500e+03,-2.92097e+00,-8.30599e+01,0.00000e+00,0.00000e+00,0.00000e+00
1.20500e+03,-3.65204e+00,-8.30665e+01,0.00000e+00,0.00000e+00,0.00000e+00
1.20500e+03,-1.03126e+01,-8.00999e+01,0.00000e+00,0.00000e+00,0.00000e+00
1.20500e+03,-1.11191e+01,-7.71332e+01,0.00000e+00,0.00000e+00,0.00000e+00
1.20500e+03,-1.13974e+01,-7.41666e+01,0.00000e+00,0.00000e+00,0.00000e+00
1.20500e+03,-1.14396e+01,-7.11999e+01,0.00000e+00,0.00000e+00,0.00000e+00
1.20500e+03,-1.13040e+01,-6.82332e+01,0.00000e+00,0.00000e+00,0.00000e+00
1.20500e+03,-1.10567e+01,-6.52666e+01,0.00000e+00,0.00000e+00,0.00000e+00
1.20500e+03,-1.06975e+01,-6.22999e+01,0.00000e+00,0.00000e+00,0.00000e+00
1.20500e+03,-1.02698e+01,-5.93332e+01,0.00000e+00,0.00000e+00,0.00000e+00
1.20500e+03,-9.80253e+00,-5.63666e+01,0.00000e+00,0.00000e+00,0.00000e+00
1.20500e+03,-9.27551e+00,-5.33999e+01,0.00000e+00,0.00000e+00,0.00000e+00
1.20500e+03,-8.71115e+00,-5.04333e+01,0.00000e+00,0.00000e+00,0.00000e+00
1.20500e+03,-8.11045e+00,-4.74666e+01,0.00000e+00,0.00000e+00,0.00000e+00
1.20500e+03,-7.47352e+00,-4.44999e+01,0.00000e+00,0.00000e+00,0.00000e+00
1.20500e+03,-6.81389e+00,-4.15333e+01,0.00000e+00,0.00000e+00,0.00000e+00
1.20500e+03,-6.12518e+00,-3.85666e+01,0.00000e+00,0.00000e+00,0.00000e+00
1.20500e+03,-5.41785e+00,-3.55999e+01,0.00000e+00,0.00000e+00,0.00000e+00
1.20500e+03,-4.69381e+00,-3.26333e+01,0.00000e+00,0.00000e+00,0.00000e+00
1.20500e+03,-3.95486e+00,-2.96666e+01,0.00000e+00,0.00000e+00,0.00000e+00
1.20500e+03,-3.20961e+00,-2.67000e+01,0.00000e+00,0.00000e+00,0.00000e+00
1.20500e+03,-2.45457e+00,-2.37333e+01,0.00000e+00,0.00000e+00,0.00000e+00
1.20500e+03,-1.69790e+00,-2.07666e+01,0.00000e+00,0.00000e+00,0.00000e+00
1.20500e+03,-9.35389e-01,-1.78000e+01,0.00000e+00,0.00000e+00,0.00000e+00
1.20500e+03,-1.72956e-01,-1.48333e+01,0.00000e+00,0.00000e+00,0.00000e+00
1.20500e+03,5.86594e-01,-1.18666e+01,0.00000e+00,0.00000e+00,0.00000e+00
1.20500e+03,1.34615e+00,-8.89999e+00,0.00000e+00,0.00000e+00,0.00000e+00
1.20500e+03,2.08771e+00,-5.93332e+00,0.00000e+00,0.00000e+00,0.00000e+00
1.20500e+03,2.82592e+00,-2.96666e+00,0.00000e+00,0.00000e+00,0.00000e+00
1.29010e+03,3.63234e+01,0.00000e+00,0.00000e+00,0.00000e+00,0.00000e+00
1.29010e+03,3.61405e+01,-2.76019e+00,0.00000e+00,0.00000e+00,0.00000e+00
1.29010e+03,3.58971e+01,-5.52039e+00,0.00000e+00,0.00000e+00,0.00000e+00
1.29010e+03,3.56513e+01,-8.28058e+00,0.00000e+00,0.00000e+00,0.00000e+00
1.29010e+03,3.53522e+01,-1.10408e+01,0.00000e+00,0.00000e+00,0.00000e+00
1.29010e+03,3.50407e+01,-1.38010e+01,0.00000e+00,0.00000e+00,0.00000e+00
1.29010e+03,3.46882e+01,-1.65612e+01,0.00000e+00,0.00000e+00,0.00000e+00
1.29010e+03,3.43158e+01,-1.93214e+01,0.00000e+00,0.00000e+00,0.00000e+00
1.29010e+03,3.39106e+01,-2.20816e+01,0.00000e+00,0.00000e+00,0.00000e+00
1.29010e+03,3.34783e+01,-2.48418e+01,0.00000e+00,0.00000e+00,0.00000e+00
1.29010e+03,3.30163e+01,-2.76019e+01,0.00000e+00,0.00000e+00,0.00000e+00
1.29010e+03,3.25183e+01,-3.03621e+01,0.00000e+00,0.00000e+00,0.00000e+00
1.29010e+03,3.19834e+01,-3.31223e+01,0.00000e+00,0.00000e+00,0.00000e+00
1.29010e+03,3.13964e+01,-3.58825e+01,0.00000e+00,0.00000e+00,0.00000e+00
1.29010e+03,3.07585e+01,-3.86427e+01,0.00000e+00,0.00000e+00,0.00000e+00
1.29010e+03,3.00599e+01,-4.14029e+01,0.00000e+00,0.00000e+00,0.00000e+00
1.29010e+03,2.92790e+01,-4.41631e+01,0.00000e+00,0.00000e+00,0.00000e+00
1.29010e+03,2.84408e+01,-4.69233e+01,0.00000e+00,0.00000e+00,0.00000e+00
1.29010e+03,2.74738e+01,-4.96835e+01,0.00000e+00,0.00000e+00,0.00000e+00
1.29010e+03,2.64534e+01,-5.24437e+01,0.00000e+00,0.00000e+00,0.00000e+00
1.29010e+03,2.52842e+01,-5.52039e+01,0.00000e+00,0.00000e+00,0.00000e+00
1.29010e+03,2.39957e+01,-5.79641e+01,0.00000e+00,0.00000e+00,0.00000e+00
1.29010e+03,2.25860e+01,-6.07243e+01,0.00000e+00,0.00000e+00,0.00000e+00
1.29010e+03,2.09725e+01,-6.34845e+01,0.00000e+00,0.00000e+00,0.00000e+00
1.29010e+03,1.91232e+01,-6.62447e+01,0.00000e+00,0.00000e+00,0.00000e+00
1.29010e+03,1.70072e+01,-6.90049e+01,0.00000e+00,0.00000e+00,0.00000e+00
1.29010e+03,1.45045e+01,-7.17651e+01,0.00000e+00,0.00000e+00,0.00000e+00
1.29010e+03,1.12920e+01,-7.45253e+01,0.00000e+00,0.00000e+00,0.00000e+00
1.29010e+03,6.94724e+00,-7.72855e+01,0.00000e+00,0.00000e+00,0.00000e+00
1.29010e+03,-2.81497e+00,-8.00457e+01,0.00000e+00,0.00000e+00,0.00000e+00
1.29010e+03,-3.51951e+00,-8.00521e+01,0.00000e+00,0.00000e+00,0.00000e+00
1.29010e+03,-9.93839e+00,-7.71931e+01,0.00000e+00,0.00000e+00,0.00000e+00
1.29010e+03,-1.07156e+01,-7.43341e+01,0.00000e+00,0.00000e+00,0.00000e+00
1.29010e+03,-1.09838e+01,-7.14751e+01,0.00000e+00,0.00000e+00,0.00000e+00
1.29010e+03,-1.10244e+01,-6.86160e+01,0.00000e+00,0.00000e+00,0.00000e+00
1.29010e+03,-1.08937e+01,-6.57570e+01,0.00000e+00,0.00000e+00,0.00000e+00
1.29010e+03,-1.06555e+01,-6.28980e+01,0.00000e+00,0.00000e+00,0.00000e+00
1.29010e+03,-1.03093e+01,-6.00390e+01,0.00000e+00,0.00000e+00,0.00000e+00
1.29010e+03,-9.89713e+00,-5.71800e+01,0.00000e+00,0.00000e+00,0.00000e+00
1.29010e+03,-9.44680e+00,-5.43210e+01,0.00000e+00,0.00000e+00,0.00000e+00
1.29010e+03,-8.93890e+00,-5.14620e+01,0.00000e+00,0.00000e+00,0.00000e+00
1.29010e+03,-8.39503e+00,-4.86030e+01,0.00000e+00,0.00000e+00,0.00000e+00
1.29010e+03,-7.81612e+00,-4.57440e+01,0.00000e+00,0.00000e+00,0.00000e+00
1.29010e+03,-7.20231e+00,-4.28850e+01,0.00000e+00,0.00000e+00,0.00000e+00
1.29010e+03,-6.56662e+00,-4.00260e+01,0.00000e+00,0.00000e+00,0.00000e+00
1.29010e+03,-5.90290e+00,-3.71670e+01,0.00000e+00,0.00000e+00,0.00000e+00
1.29010e+03,-5.22123e+00,-3.43080e+01,0.00000e+00,0.00000e+00,0.00000e+00
1.29010e+03,-4.52347e+00,-3.14490e+01,0.00000e+00,0.00000e+00,0.00000e+00
1.29010e+03,-3.81134e+00,-2.85900e+01,0.00000e+00,0.00000e+00,0.00000e+00
1.29010e+03,-3.09313e+00,-2.57310e+01,0.00000e+00,0.00000e+00,0.00000e+00
1.29010e+03,-2.36549e+00,-2.28720e+01,0.00000e+00,0.00000e+00,0.00000e+00
1.29010e+03,-1.63628e+00,-2.00130e+01,0.00000e+00,0.00000e+00,0.00000e+00
1.29010e+03,-9.01444e-01,-1.71540e+01,0.00000e+00,0.00000e+00,0.00000e+00
1.29010e+03,-1.66680e-01,-1.42950e+01,0.00000e+00,0.00000e+00,0.00000e+00
1.29010e+03,5.65307e-01,-1.14360e+01,0.00000e+00,0.00000e+00,0.00000e+00
1.29010e+03,1.29729e+00,-8.57701e+00,0.00000e+00,0.00000e+00,0.00000e+00
1.29010e+03,2.01195e+00,-5.71800e+00,0.00000e+00,0.00000e+00,0.00000e+00
1.29010e+03,2.72337e+00,-2.85900e+00,0.00000e+00,0.00000e+00,0.00000e+00
1.37170e+03,3.50118e+01,0.00000e+00,0.00000e+00,0.00000e+00,0.00000e+00
1.37170e+03,3.48355e+01,-2.66053e+00,0.00000e+00,0.00000e+00,0.00000e+00
1.37170e+03,3.46009e+01,-5.32106e+00,0.00000e+00,0.00000e+00,0.00000e+00
1.37170e+03,3.43640e+01,-7.98159e+00,0.00000e+00,0.00000e+00,0.00000e+00
1.37170e+03,3.40757e+01,-1.06421e+01,0.00000e+00,0.00000e+00,0.00000e+00
1.37170e+03,3.37754e+01,-1.33027e+01,0.00000e+00,0.00000e+00,0.00000e+00
1.37170e+03,3.34357e+01,-1.59632e+01,0.00000e+00,0.00000e+00,0.00000e+00
1.37170e+03,3.30768e+01,-1.86237e+01,0.00000e+00,0.00000e+00,0.00000e+00
1.37170e+03,3.26861e+01,-2.12842e+01,0.00000e+00,0.00000e+00,0.00000e+00
1.37170e+03,3.22695e+01,-2.39448e+01,0.00000e+00,0.00000e+00,0.00000e+00
1.37170e+03,3.18241e+01,-2.66053e+01,0.00000e+00,0.00000e+00,0.00000e+00
1.37170e+03,3.13441e+01,-2.92658e+01,0.00000e+00,0.00000e+00,0.00000e+00
1.37170e+03,3.08286e+01,-3.19264e+01,0.00000e+00,0.00000e+00,0.00000e+00
1.37170e+03,3.02627e+01,-3.45869e+01,0.00000e+00,0.00000e+00,0.00000e+00
1.37170e+03,2.96479e+01,-3.72474e+01,0.00000e+00,0.00000e+00,0.00000e+00
1.37170e+03,2.89745e+01,-3.99080e+01,0.00000e+00,0.00000e+00,0.00000e+00
1.37170e+03,2.82218e+01,-4.25685e+01,0.00000e+00,0.00000e+00,0.00000e+00
1.37170e+03,2.74139e+01,-4.52290e+01,0.00000e+00,0.00000e+00,0.00000e+00
1.37170e+03,2.64818e+01,-4.78895e+01,0.00000e+00,0.00000e+00,0.00000e+00
1.37170e+03,2.54982e+01,-5.05501e+01,0.00000e+00,0.00000e+00,0.00000e+00
1.37170e+03,2.43712e+01,-5.32106e+01,0.00000e+00,0.00000e+00,0.00000e+00
1.37170e+03,2.31293e+01,-5.58711e+01,0.00000e+00,0.00000e+00,0.00000e+00
1.37170e+03,2.17704e+01,-5.85317e+01,0.00000e+00,0.00000e+00,0.00000e+00
1.37170e+03,2.02153e+01,-6.11922e+01,0.00000e+00,0.00000e+00,0.00000e+00
1.37170e+03,1.84327e+01,-6.38527e+01,0.00000e+00,0.00000e+00,0.00000e+00
1.37170e+03,1.63931e+01,-6.65133e+01,0.00000e+00,0.00000e+00,0.00000e+00
1.37170e+03,1.39807e+01,-6.91738e+01,0.00000e+00,0.00000e+00,0.00000e+00
1.37170e+03,1.08843e+01,-7.18343e+01,0.00000e+00,0.00000e+00,0.00000e+00
1.37170e+03,6.69639e+00,-7.44949e+01,0.00000e+00,0.00000e+00,0.00000e+00
1.37170e+03,-2.71333e+00,-7.71554e+01,0.00000e+00,0.00000e+00,0.00000e+00
1.37170e+03,-3.39243e+00,-7.71616e+01,0.00000e+00,0.00000e+00,0.00000e+00
1.37170e+03,-9.57954e+00,-7.44058e+01,0.00000e+00,0.00000e+00,0.00000e+00
1.37170e+03,-1.03287e+01,-7.16500e+01,0.00000e+00,0.00000e+00,0.00000e+00
1.37170e+03,-1.05872e+01,-6.88942e+01,0.00000e+00,0.00000e+00,0.00000e+00
1.37170e+03,-1.06264e+01,-6.61385e+01,0.00000e+00,0.00000e+00,0.00000e+00
1.37170e+03,-1.05004e+01,-6.33827e+01,0.00000e+00,0.00000e+00,0.00000e+00
1.37170e+03,-1.02708e+01,-6.06269e+01,0.00000e+00,0.00000e+00,0.00000e+00
1.37170e+03,-9.93701e+00,-5.78712e+01,0.00000e+00,0.00000e+00,0.00000e+00
1.37170e+03,-9.53977e+00,-5.51154e+01,0.00000e+00,0.00000e+00,0.00000e+00
1.37170e+03,-9.10569e+00,-5.23596e+01,0.00000e+00,0.00000e+00,0.00000e+00
1.37170e+03,-8.61613e+00,-4.96039e+01,0.00000e+00,0.00000e+00,0.00000e+00
1.37170e+03,-8.09190e+00,-4.68481e+01,0.00000e+00,0.00000e+00,0.00000e+00
1.37170e+03,-7.53389e+00,-4.40923e+01,0.00000e+00,0.00000e+00,0.00000e+00
1.37170e+03,-6.94225e+00,-4.13365e+01,0.00000e+00,0.00000e+00,0.00000e+00
1.37170e+03,-6.32951e+00,-3.85808e+01,0.00000e+00,0.00000e+00,0.00000e+00
1.37170e+03,-5.68976e+00,-3.58250e+01,0.00000e+00,0.00000e+00,0.00000e+00
1.37170e+03,-5.03271e+00,-3.30692e+01,0.00000e+00,0.00000e+00,0.00000e+00
1.37170e+03,-4.36014e+00,-3.03135e+01,0.00000e+00,0.00000e+00,0.00000e+00
1.37170e+03,-3.67372e+00,-2.75577e+01,0.00000e+00,0.00000e+00,0.00000e+00
1.37170e+03,-2.98144e+00,-2.48019e+01,0.00000e+00,0.00000e+00,0.00000e+00
1.37170e+03,-2.28008e+00,-2.20462e+01,0.00000e+00,0.00000e+00,0.00000e+00
1.37170e+03,-1.57720e+00,-1.92904e+01,0.00000e+00,0.00000e+00,0.00000e+00
1.37170e+03,-8.68894e-01,-1.65346e+01,0.00000e+00,0.00000e+00,0.00000e+00
1.37170e+03,-1.60661e-01,-1.37788e+01,0.00000e+00,0.00000e+00,0.00000e+00
1.37170e+03,5.44895e-01,-1.10231e+01,0.00000e+00,0.00000e+00,0.00000e+00
1.37170e+03,1.25045e+00,-8.26731e+00,0.00000e+00,0.00000e+00,0.00000e+00
1.37170e+03,1.93930e+00,-5.51154e+00,0.00000e+00,0.00000e+00,0.00000e+00
1.37170e+03,2.62503e+00,-2.75577e+00,0.00000e+00,0.00000e+00,0.00000e+00
1.44960e+03,3.37597e+01,0.00000e+00,0.00000e+00,0.00000e+00,0.00000e+00
1.44960e+03,3.35897e+01,-2.56538e+00,0.00000e+00,0.00000e+00,0.00000e+00
1.44960e+03,3.33635e+01,-5.13077e+00,0.00000e+00,0.00000e+00,0.00000e+00
1.44960e+03,3.31351e+01,-7.69615e+00,0.00000e+00,0.00000e+00,0.00000e+00
1.44960e+03,3.28571e+01,-1.02615e+01,0.00000e+00,0.00000e+00,0.00000e+00
1.44960e+03,3.25675e+01,-1.28269e+01,0.00000e+00,0.00000e+00,0.00000e+00
1.44960e+03,3.22399e+01,-1.53923e+01,0.00000e+00,0.00000e+00,0.00000e+00
1.44960e+03,3.18939e+01,-1.79577e+01,0.00000e+00,0.00000e+00,0.00000e+00
1.44960e+03,3.15172e+01,-2.05231e+01,0.00000e+00,0.00000e+00,0.00000e+00
1.44960e+03,3.11155e+01,-2.30885e+01,0.00000e+00,0.00000e+00,0.00000e+00
1.44960e+03,3.06860e+01,-2.56538e+01,0.00000e+00,0.00000e+00,0.00000e+00
1.44960e+03,3.02232e+01,-2.82192e+01,0.00000e+00,0.00000e+00,0.00000e+00
1.44960e+03,2.97261e+01,-3.07846e+01,0.00000e+00,0.00000e+00,0.00000e+00
1.44960e+03,2.91805e+01,-3.33500e+01,0.00000e+00,0.00000e+00,0.00000e+00
1.44960e+03,2.85877e+01,-3.59154e+01,0.00000e+00,0.00000e+00,0.00000e+00
1.44960e+03,2.79383e+01,-3.84808e+01,0.00000e+00,0.00000e+00,0.00000e+00
1.44960e+03,2.72125e+01,-4.10462e+01,0.00000e+00,0.00000e+00,0.00000e+00
1.44960e+03,2.64335e+01,-4.36115e+01,0.00000e+00,0.00000e+00,0.00000e+00
1.44960e+03,2.55347e+01,-4.61769e+01,0.00000e+00,0.00000e+00,0.00000e+00
1.44960e+03,2.45863e+01,-4.87423e+01,0.00000e+00,0.00000e+00,0.00000e+00
1.44960e+03,2.34997e+01,-5.13077e+01,0.00000e+00,0.00000e+00,0.00000e+00
1.44960e+03,2.23022e+01,-5.38731e+01,0.00000e+00,0.00000e+00,0.00000e+00
1.44960e+03,2.09919e+01,-5.64385e+01,0.00000e+00,0.00000e+00,0.00000e+00
1.44960e+03,1.94923e+01,-5.90039e+01,0.00000e+00,0.00000e+00,0.00000e+00
1.44960e+03,1.77735e+01,-6.15692e+01,0.00000e+00,0.00000e+00,0.00000e+00
1.44960e+03,1.58069e+01,-6.41346e+01,0.00000e+00,0.00000e+00,0.00000e+00
1.44960e+03,1.34808e+01,-6.67000e+01,0.00000e+00,0.00000e+00,0.00000e+00
1.44960e+03,1.04950e+01,-6.92654e+01,0.00000e+00,0.00000e+00,0.00000e+00
1.44960e+03,6.45692e+00,-7.18308e+01,0.00000e+00,0.00000e+00,0.00000e+00
1.44960e+03,-2.61629e+00,-7.43962e+01,0.00000e+00,0.00000e+00,0.00000e+00
1.44960e+03,-3.27111e+00,-7.44021e+01,0.00000e+00,0.00000e+00,0.00000e+00
1.44960e+03,-9.23696e+00,-7.17449e+01,0.00000e+00,0.00000e+00,0.00000e+00
1.44960e+03,-9.95928e+00,-6.90877e+01,0.00000e+00,0.00000e+00,0.00000e+00
1.44960e+03,-1.02085e+01,-6.64305e+01,0.00000e+00,0.00000e+00,0.00000e+00
1.44960e+03,-1.02464e+01,-6.37732e+01,0.00000e+00,0.00000e+00,0.00000e+00
1.44960e+03,-1.01249e+01,-6.11160e+01,0.00000e+00,0.00000e+00,0.00000e+00
1.44960e+03,-9.90345e+00,-5.84588e+01,0.00000e+00,0.00000e+00,0.00000e+00
1.44960e+03,-9.58164e+00,-5.58016e+01,0.00000e+00,0.00000e+00,0.00000e+00
1.44960e+03,-9.19861e+00,-5.31444e+01,0.00000e+00,0.00000e+00,0.00000e+00
1.44960e+03,-8.78006e+00,-5.04872e+01,0.00000e+00,0.00000e+00,0.00000e+00
1.44960e+03,-8.30801e+00,-4.78299e+01,0.00000e+00,0.00000e+00,0.00000e+00
1.44960e+03,-7.80252e+00,-4.51727e+01,0.00000e+00,0.00000e+00,0.00000e+00
1.44960e+03,-7.26447e+00,-4.25155e+01,0.00000e+00,0.00000e+00,0.00000e+00
1.44960e+03,-6.69398e+00,-3.98583e+01,0.00000e+00,0.00000e+00,0.00000e+00
1.44960e+03,-6.10316e+00,-3.72011e+01,0.00000e+00,0.00000e+00,0.00000e+00
1.44960e+03,-5.48628e+00,-3.45438e+01,0.00000e+00,0.00000e+00,0.00000e+00
1.44960e+03,-4.85273e+00,-3.18866e+01,0.00000e+00,0.00000e+00,0.00000e+00
1.44960e+03,-4.20421e+00,-2.92294e+01,0.00000e+00,0.00000e+00,0.00000e+00
1.44960e+03,-3.54234e+00,-2.65722e+01,0.00000e+00,0.00000e+00,0.00000e+00
1.44960e+03,-2.87482e+00,-2.39150e+01,0.00000e+00,0.00000e+00,0.00000e+00
1.44960e+03,-2.19854e+00,-2.12577e+01,0.00000e+00,0.00000e+00,0.00000e+00
1.44960e+03,-1.52080e+00,-1.86005e+01,0.00000e+00,0.00000e+00,0.00000e+00
1.44960e+03,-8.37821e-01,-1.59433e+01,0.00000e+00,0.00000e+00,0.00000e+00
1.44960e+03,-1.54916e-01,-1.32861e+01,0.00000e+00,0.00000e+00,0.00000e+00
1.44960e+03,5.25408e-01,-1.06289e+01,0.00000e+00,0.00000e+00,0.00000e+00
1.44960e+03,1.20573e+00,-7.97166e+00,0.00000e+00,0.00000e+00,0.00000e+00
1.44960e+03,1.86995e+00,-5.31444e+00,0.00000e+00,0.00000e+00,0.00000e+00
1.44960e+03,2.53116e+00,-2.65722e+00,0.00000e+00,0.00000e+00,0.00000e+00
1.52340e+03,3.25736e+01,0.00000e+00,0.00000e+00,0.00000e+00,0.00000e+00
1.52340e+03,3.24095e+01,-2.47525e+00,0.00000e+00,0.00000e+00,0.00000e+00
1.52340e+03,3.21913e+01,-4.95049e+00,0.00000e+00,0.00000e+00,0.00000e+00
1.52340e+03,3.19709e+01,-7.42574e+00,0.00000e+00,0.00000e+00,0.00000e+00
1.52340e+03,3.17026e+01,-9.90099e+00,0.00000e+00,0.00000e+00,0.00000e+00
1.52340e+03,3.14232e+01,-1.23762e+01,0.00000e+00,0.00000e+00,0.00000e+00
1.52340e+03,3.11072e+01,-1.48515e+01,0.00000e+00,0.00000e+00,0.00000e+00
1.52340e+03,3.07733e+01,-1.73267e+01,0.00000e+00,0.00000e+00,0.00000e+00
1.52340e+03,3.04098e+01,-1.98020e+01,0.00000e+00,0.00000e+00,0.00000e+00
1.52340e+03,3.00222e+01,-2.22772e+01,0.00000e+00,0.00000e+00,0.00000e+00
1.52340e+03,2.96079e+01,-2.47525e+01,0.00000e+00,0.00000e+00,0.00000e+00
1.52340e+03,2.91613e+01,-2.72277e+01,0.00000e+00,0.00000e+00,0.00000e+00
1.52340e+03,2.86816e+01,-2.97030e+01,0.00000e+00,0.00000e+00,0.00000e+00
1.52340e+03,2.81552e+01,-3.21782e+01,0.00000e+00,0.00000e+00,0.00000e+00
1.52340e+03,2.75832e+01,-3.46535e+01,0.00000e+00,0.00000e+00,0.00000e+00
1.52340e+03,2.69567e+01,-3.71287e+01,0.00000e+00,0.00000e+00,0.00000e+00
1.52340e+03,2.62564e+01,-3.96040e+01,0.00000e+00,0.00000e+00,0.00000e+00
1.52340e+03,2.55047e+01,-4.20792e+01,0.00000e+00,0.00000e+00,0.00000e+00
1.52340e+03,2.46375e+01,-4.45544e+01,0.00000e+00,0.00000e+00,0.00000e+00
1.52340e+03,2.37225e+01,-4.70297e+01,0.00000e+00,0.00000e+00,0.00000e+00
1.52340e+03,2.26740e+01,-4.95049e+01,0.00000e+00,0.00000e+00,0.00000e+00
1.52340e+03,2.15185e+01,-5.19802e+01,0.00000e+00,0.00000e+00,0.00000e+00
1.52340e+03,2.02543e+01,-5.44554e+01,0.00000e+00,0.00000e+00,0.00000e+00
1.52340e+03,1.88075e+01,-5.69307e+01,0.00000e+00,0.00000e+00,0.00000e+00
1.52340e+03,1.71490e+01,-5.94059e+01,0.00000e+00,0.00000e+00,0.00000e+00
1.52340e+03,1.52515e+01,-6.18812e+01,0.00000e+00,0.00000e+00,0.00000e+00
1.52340e+03,1.30071e+01,-6.43564e+01,0.00000e+00,0.00000e+00,0.00000e+00
1.52340e+03,1.01263e+01,-6.68317e+01,0.00000e+00,0.00000e+00,0.00000e+00
1.52340e+03,6.23005e+00,-6.93069e+01,0.00000e+00,0.00000e+00,0.00000e+00
1.52340e+03,-2.52437e+00,-7.17822e+01,0.00000e+00,0.00000e+00,0.00000e+00
1.52340e+03,-3.15618e+00,-7.17879e+01,0.00000e+00,0.00000e+00,0.00000e+00
1.52340e+03,-8.91241e+00,-6.92241e+01,0.00000e+00,0.00000e+00,0.00000e+00
1.52340e+03,-9.60935e+00,-6.66602e+01,0.00000e+00,0.00000e+00,0.00000e+00
1.52340e+03,-9.84985e+00,-6.40963e+01,0.00000e+00,0.00000e+00,0.00000e+00
1.52340e+03,-9.88634e+00,-6.15325e+01,0.00000e+00,0.00000e+00,0.00000e+00
1.52340e+03,-9.76914e+00,-5.89686e+01,0.00000e+00,0.00000e+00,0.00000e+00
1.52340e+03,-9.55548e+00,-5.64048e+01,0.00000e+00,0.00000e+00,0.00000e+00
1.52340e+03,-9.24498e+00,-5.38409e+01,0.00000e+00,0.00000e+00,0.00000e+00
1.52340e+03,-8.87540e+00,-5.12771e+01,0.00000e+00,0.00000e+00,0.00000e+00
1.52340e+03,-8.47156e+00,-4.87132e+01,0.00000e+00,0.00000e+00,0.00000e+00
1.52340e+03,-8.01609e+00,-4.61494e+01,0.00000e+00,0.00000e+00,0.00000e+00
1.52340e+03,-7.52837e+00,-4.35855e+01,0.00000e+00,0.00000e+00,0.00000e+00
1.52340e+03,-7.00922e+00,-4.10217e+01,0.00000e+00,0.00000e+00,0.00000e+00
1.52340e+03,-6.45878e+00,-3.84578e+01,0.00000e+00,0.00000e+00,0.00000e+00
1.52340e+03,-5.88872e+00,-3.58940e+01,0.00000e+00,0.00000e+00,0.00000e+00
1.52340e+03,-5.29352e+00,-3.33301e+01,0.00000e+00,0.00000e+00,0.00000e+00
1.52340e+03,-4.68222e+00,-3.07662e+01,0.00000e+00,0.00000e+00,0.00000e+00
1.52340e+03,-4.05649e+00,-2.82024e+01,0.00000e+00,0.00000e+00,0.00000e+00
1.52340e+03,-3.41788e+00,-2.56385e+01,0.00000e+00,0.00000e+00,0.00000e+00
1.52340e+03,-2.77381e+00,-2.30747e+01,0.00000e+00,0.00000e+00,0.00000e+00
1.52340e+03,-2.12129e+00,-2.05108e+01,0.00000e+00,0.00000e+00,0.00000e+00
1.52340e+03,-1.46736e+00,-1.79470e+01,0.00000e+00,0.00000e+00,0.00000e+00
1.52340e+03,-8.08383e-01,-1.53831e+01,0.00000e+00,0.00000e+00,0.00000e+00
1.52340e+03,-1.49473e-01,-1.28193e+01,0.00000e+00,0.00000e+00,0.00000e+00
1.52340e+03,5.06948e-01,-1.02554e+01,0.00000e+00,0.00000e+00,0.00000e+00
1.52340e+03,1.16337e+00,-7.69156e+00,0.00000e+00,0.00000e+00,0.00000e+00
1.52340e+03,1.80424e+00,-5.12771e+00,0.00000e+00,0.00000e+00,0.00000e+00
1.52340e+03,2.44222e+00,-2.56385e+00,0.00000e+00,0.00000e+00,0.00000e+00
1.59310e+03,3.14533e+01,0.00000e+00,0.00000e+00,0.00000e+00,0.00000e+00
1.59310e+03,3.12949e+01,-2.39012e+00,0.00000e+00,0.00000e+00,0.00000e+00
1.59310e+03,3.10841e+01,-4.78023e+00,0.00000e+00,0.00000e+00,0.00000e+00
1.59310e+03,3.08713e+01,-7.17035e+00,0.00000e+00,0.00000e+00,0.00000e+00
1.59310e+03,3.06123e+01,-9.56047e+00,0.00000e+00,0.00000e+00,0.00000e+00
1.59310e+03,3.03425e+01,-1.19506e+01,0.00000e+00,0.00000e+00,0.00000e+00
1.59310e+03,3.00373e+01,-1.43407e+01,0.00000e+00,0.00000e+00,0.00000e+00
1.59310e+03,2.97149e+01,-1.67308e+01,0.00000e+00,0.00000e+00,0.00000e+00
1.59310e+03,2.93640e+01,-1.91209e+01,0.00000e+00,0.00000e+00,0.00000e+00
1.59310e+03,2.89896e+01,-2.15111e+01,0.00000e+00,0.00000e+00,0.00000e+00
1.59310e+03,2.85896e+01,-2.39012e+01,0.00000e+00,0.00000e+00,0.00000e+00
1.59310e+03,2.81583e+01,-2.62913e+01,0.00000e+00,0.00000e+00,0.00000e+00
1.59310e+03,2.76952e+01,-2.86814e+01,0.00000e+00,0.00000e+00,0.00000e+00
1.59310e+03,2.71869e+01,-3.10715e+01,0.00000e+00,0.00000e+00,0.00000e+00
1.59310e+03,2.66345e+01,-3.34616e+01,0.00000e+00,0.00000e+00,0.00000e+00
1.59310e+03,2.60296e+01,-3.58518e+01,0.00000e+00,0.00000e+00,0.00000e+00
1.59310e+03,2.53533e+01,-3.82419e+01,0.00000e+00,0.00000e+00,0.00000e+00
1.59310e+03,2.46276e+01,-4.06320e+01,0.00000e+00,0.00000e+00,0.00000e+00
1.59310e+03,2.37902e+01,-4.30221e+01,0.00000e+00,0.00000e+00,0.00000e+00
1.59310e+03,2.29066e+01,-4.54122e+01,0.00000e+00,0.00000e+00,0.00000e+00
1.59310e+03,2.18941e+01,-4.78023e+01,0.00000e+00,0.00000e+00,0.00000e+00
1.59310e+03,2.07785e+01,-5.01925e+01,0.00000e+00,0.00000e+00,0.00000e+00
1.59310e+03,1.95577e+01,-5.25826e+01,0.00000e+00,0.00000e+00,0.00000e+00
1.59310e+03,1.81606e+01,-5.49727e+01,0.00000e+00,0.00000e+00,0.00000e+00
1.59310e+03,1.65592e+01,-5.73628e+01,0.00000e+00,0.00000e+00,0.00000e+00
1.59310e+03,1.47269e+01,-5.97529e+01,0.00000e+00,0.00000e+00,0.00000e+00
1.59310e+03,1.25597e+01,-6.21430e+01,0.00000e+00,0.00000e+00,0.00000e+00
1.59310e+03,9.77800e+00,-6.45332e+01,0.00000e+00,0.00000e+00,0.00000e+00
1.59310e+03,6.01578e+00,-6.69233e+01,0.00000e+00,0.00000e+00,0.00000e+00
1.59310e+03,-2.43755e+00,-6.93134e+01,0.00000e+00,0.00000e+00,0.00000e+00
1.59310e+03,-3.04763e+00,-6.93189e+01,0.00000e+00,0.00000e+00,0.00000e+00
1.59310e+03,-8.60589e+00,-6.68433e+01,0.00000e+00,0.00000e+00,0.00000e+00
1.59310e+03,-9.27886e+00,-6.43676e+01,0.00000e+00,0.00000e+00,0.00000e+00
1.59310e+03,-9.51109e+00,-6.18919e+01,0.00000e+00,0.00000e+00,0.00000e+00
1.59310e+03,-9.54632e+00,-5.94162e+01,0.00000e+00,0.00000e+00,0.00000e+00
1.59310e+03,-9.43315e+00,-5.69406e+01,0.00000e+00,0.00000e+00,0.00000e+00
1.59310e+03,-9.22684e+00,-5.44649e+01,0.00000e+00,0.00000e+00,0.00000e+00
1.59310e+03,-8.92702e+00,-5.19892e+01,0.00000e+00,0.00000e+00,0.00000e+00
1.59310e+03,-8.57016e+00,-4.95135e+01,0.00000e+00,0.00000e+00,0.00000e+00
1.59310e+03,-8.18020e+00,-4.70379e+01,0.00000e+00,0.00000e+00,0.00000e+00
1.59310e+03,-7.74040e+00,-4.45622e+01,0.00000e+00,0.00000e+00,0.00000e+00
1.59310e+03,-7.26945e+00,-4.20865e+01,0.00000e+00,0.00000e+00,0.00000e+00
1.59310e+03,-6.76816e+00,-3.96108e+01,0.00000e+00,0.00000e+00,0.00000e+00
1.59310e+03,-6.23665e+00,-3.71351e+01,0.00000e+00,0.00000e+00,0.00000e+00
1.59310e+03,-5.68619e+00,-3.46595e+01,0.00000e+00,0.00000e+00,0.00000e+00
1.59310e+03,-5.11146e+00,-3.21838e+01,0.00000e+00,0.00000e+00,0.00000e+00
1.59310e+03,-4.52119e+00,-2.97081e+01,0.00000e+00,0.00000e+00,0.00000e+00
1.59310e+03,-3.91698e+00,-2.72324e+01,0.00000e+00,0.00000e+00,0.00000e+00
1.59310e+03,-3.30033e+00,-2.47568e+01,0.00000e+00,0.00000e+00,0.00000e+00
1.59310e+03,-2.67841e+00,-2.22811e+01,0.00000e+00,0.00000e+00,0.00000e+00
1.59310e+03,-2.04833e+00,-1.98054e+01,0.00000e+00,0.00000e+00,0.00000e+00
1.59310e+03,-1.41689e+00,-1.73297e+01,0.00000e+00,0.00000e+00,0.00000e+00
1.59310e+03,-7.80581e-01,-1.48541e+01,0.00000e+00,0.00000e+00,0.00000e+00
1.59310e+03,-1.44332e-01,-1.23784e+01,0.00000e+00,0.00000e+00,0.00000e+00
1.59310e+03,4.89512e-01,-9.90271e+00,0.00000e+00,0.00000e+00,0.00000e+00
1.59310e+03,1.12336e+00,-7.42703e+00,0.00000e+00,0.00000e+00,0.00000e+00
1.59310e+03,1.74219e+00,-4.95135e+00,0.00000e+00,0.00000e+00,0.00000e+00
1.59310e+03,2.35823e+00,-2.47568e+00,0.00000e+00,0.00000e+00,0.00000e+00
1.65850e+03,3.04021e+01,0.00000e+00,0.00000e+00,0.00000e+00,0.00000e+00
1.65850e+03,3.02490e+01,-2.31024e+00,0.00000e+00,0.00000e+00,0.00000e+00
1.65850e+03,3.00453e+01,-4.62048e+00,0.00000e+00,0.00000e+00,0.00000e+00
1.65850e+03,2.98396e+01,-6.93072e+00,0.00000e+00,0.00000e+00,0.00000e+00
1.65850e+03,2.95892e+01,-9.24096e+00,0.00000e+00,0.00000e+00,0.00000e+00
1.65850e+03,2.93285e+01,-1.15512e+01,0.00000e+00,0.00000e+00,0.00000e+00
1.65850e+03,2.90335e+01,-1.38614e+01,0.00000e+00,0.00000e+00,0.00000e+00
1.65850e+03,2.87218e+01,-1.61717e+01,0.00000e+00,0.00000e+00,0.00000e+00
1.65850e+03,2.83826e+01,-1.84819e+01,0.00000e+00,0.00000e+00,0.00000e+00
1.65850e+03,2.80208e+01,-2.07921e+01,0.00000e+00,0.00000e+00,0.00000e+00
1.65850e+03,2.76341e+01,-2.31024e+01,0.00000e+00,0.00000e+00,0.00000e+00
1.65850e+03,2.72173e+01,-2.54126e+01,0.00000e+00,0.00000e+00,0.00000e+00
1.65850e+03,2.67696e+01,-2.77229e+01,0.00000e+00,0.00000e+00,0.00000e+00
1.65850e+03,2.62783e+01,-3.00331e+01,0.00000e+00,0.00000e+00,0.00000e+00
1.65850e+03,2.57444e+01,-3.23433e+01,0.00000e+00,0.00000e+00,0.00000e+00
1.65850e+03,2.51597e+01,-3.46536e+01,0.00000e+00,0.00000e+00,0.00000e+00
1.65850e+03,2.45060e+01,-3.69638e+01,0.00000e+00,0.00000e+00,0.00000e+00
1.65850e+03,2.38045e+01,-3.92741e+01,0.00000e+00,0.00000e+00,0.00000e+00
1.65850e+03,2.29951e+01,-4.15843e+01,0.00000e+00,0.00000e+00,0.00000e+00
1.65850e+03,2.21410e+01,-4.38945e+01,0.00000e+00,0.00000e+00,0.00000e+00
1.65850e+03,2.11624e+01,-4.62048e+01,0.00000e+00,0.00000e+00,0.00000e+00
1.65850e+03,2.00840e+01,-4.85150e+01,0.00000e+00,0.00000e+00,0.00000e+00
1.65850e+03,1.89041e+01,-5.08253e+01,0.00000e+00,0.00000e+00,0.00000e+00
1.65850e+03,1.75537e+01,-5.31355e+01,0.00000e+00,0.00000e+00,0.00000e+00
1.65850e+03,1.60058e+01,-5.54457e+01,0.00000e+00,0.00000e+00,0.00000e+00
1.65850e+03,1.42348e+01,-5.77560e+01,0.00000e+00,0.00000e+00,0.00000e+00
1.65850e+03,1.21400e+01,-6.00662e+01,0.00000e+00,0.00000e+00,0.00000e+00
1.65850e+03,9.45122e+00,-6.23764e+01,0.00000e+00,0.00000e+00,0.00000e+00
1.65850e+03,5.81473e+00,-6.46867e+01,0.00000e+00,0.00000e+00,0.00000e+00
1.65850e+03,-2.35608e+00,-6.69969e+01,0.00000e+00,0.00000e+00,0.00000e+00
1.65850e+03,-2.94577e+00,-6.70023e+01,0.00000e+00,0.00000e+00,0.00000e+00
1.65850e+03,-8.31828e+00,-6.46093e+01,0.00000e+00,0.00000e+00,0.00000e+00
1.65850e+03,-8.96876e+00,-6.22164e+01,0.00000e+00,0.00000e+00,0.00000e+00
1.65850e+03,-9.19322e+00,-5.98235e+01,0.00000e+00,0.00000e+00,0.00000e+00
1.65850e+03,-9.22728e+00,-5.74305e+01,0.00000e+00,0.00000e+00,0.00000e+00
1.65850e+03,-9.11789e+00,-5.50376e+01,0.00000e+00,0.00000e+00,0.00000e+00
1.65850e+03,-8.91848e+00,-5.26447e+01,0.00000e+00,0.00000e+00,0.00000e+00
1.65850e+03,-8.62868e+00,-5.02517e+01,0.00000e+00,0.00000e+00,0.00000e+00
1.65850e+03,-8.28374e+00,-4.78588e+01,0.00000e+00,0.00000e+00,0.00000e+00
1.65850e+03,-7.90682e+00,-4.54658e+01,0.00000e+00,0.00000e+00,0.00000e+00
1.65850e+03,-7.48171e+00,-4.30729e+01,0.00000e+00,0.00000e+00,0.00000e+00
1.65850e+03,-7.02650e+00,-4.06800e+01,0.00000e+00,0.00000e+00,0.00000e+00
1.65850e+03,-6.54196e+00,-3.82870e+01,0.00000e+00,0.00000e+00,0.00000e+00
1.65850e+03,-6.02822e+00,-3.58941e+01,0.00000e+00,0.00000e+00,0.00000e+00
1.65850e+03,-5.49615e+00,-3.35011e+01,0.00000e+00,0.00000e+00,0.00000e+00
1.65850e+03,-4.94063e+00,-3.11082e+01,0.00000e+00,0.00000e+00,0.00000e+00
1.65850e+03,-4.37009e+00,-2.87153e+01,0.00000e+00,0.00000e+00,0.00000e+00
1.65850e+03,-3.78607e+00,-2.63223e+01,0.00000e+00,0.00000e+00,0.00000e+00
1.65850e+03,-3.19003e+00,-2.39294e+01,0.00000e+00,0.00000e+00,0.00000e+00
1.65850e+03,-2.58890e+00,-2.15364e+01,0.00000e+00,0.00000e+00,0.00000e+00
1.65850e+03,-1.97988e+00,-1.91435e+01,0.00000e+00,0.00000e+00,0.00000e+00
1.65850e+03,-1.36954e+00,-1.67506e+01,0.00000e+00,0.00000e+00,0.00000e+00
1.65850e+03,-7.54494e-01,-1.43576e+01,0.00000e+00,0.00000e+00,0.00000e+00
1.65850e+03,-1.39508e-01,-1.19647e+01,0.00000e+00,0.00000e+00,0.00000e+00
1.65850e+03,4.73153e-01,-9.57176e+00,0.00000e+00,0.00000e+00,0.00000e+00
1.65850e+03,1.08581e+00,-7.17882e+00,0.00000e+00,0.00000e+00,0.00000e+00
1.65850e+03,1.68397e+00,-4.78588e+00,0.00000e+00,0.00000e+00,0.00000e+00
1.65850e+03,2.27942e+00,-2.39294e+00,0.00000e+00,0.00000e+00,0.00000e+00
1.71930e+03,2.94249e+01,0.00000e+00,0.00000e+00,0.00000e+00,0.00000e+00
1.71930e+03,2.92767e+01,-2.23598e+00,0.00000e+00,0.00000e+00,0.00000e+00
1.71930e+03,2.90795e+01,-4.47196e+00,0.00000e+00,0.00000e+00,0.00000e+00
1.71930e+03,2.88804e+01,-6.70794e+00,0.00000e+00,0.00000e+00,0.00000e+00
1.71930e+03,2.86381e+01,-8.94392e+00,0.00000e+00,0.00000e+00,0.00000e+00
1.71930e+03,2.83857e+01,-1.11799e+01,0.00000e+00,0.00000e+00,0.00000e+00
1.71930e+03,2.81002e+01,-1.34159e+01,0.00000e+00,0.00000e+00,0.00000e+00
1.71930e+03,2.77986e+01,-1.56519e+01,0.00000e+00,0.00000e+00,0.00000e+00
1.71930e+03,2.74703e+01,-1.78878e+01,0.00000e+00,0.00000e+00,0.00000e+00
1.71930e+03,2.71201e+01,-2.01238e+01,0.00000e+00,0.00000e+00,0.00000e+00
1.71930e+03,2.67458e+01,-2.23598e+01,0.00000e+00,0.00000e+00,0.00000e+00
1.71930e+03,2.63424e+01,-2.45958e+01,0.00000e+00,0.00000e+00,0.00000e+00
1.71930e+03,2.59091e+01,-2.68317e+01,0.00000e+00,0.00000e+00,0.00000e+00
1.71930e+03,2.54336e+01,-2.90677e+01,0.00000e+00,0.00000e+00,0.00000e+00
1.71930e+03,2.49169e+01,-3.13037e+01,0.00000e+00,0.00000e+00,0.00000e+00
1.71930e+03,2.43509e+01,-3.35397e+01,0.00000e+00,0.00000e+00,0.00000e+00
1.71930e+03,2.37183e+01,-3.57757e+01,0.00000e+00,0.00000e+00,0.00000e+00
1.71930e+03,2.30393e+01,-3.80116e+01,0.00000e+00,0.00000e+00,0.00000e+00
1.71930e+03,2.22560e+01,-4.02476e+01,0.00000e+00,0.00000e+00,0.00000e+00
1.71930e+03,2.14293e+01,-4.24836e+01,0.00000e+00,0.00000e+00,0.00000e+00
1.71930e+03,2.04822e+01,-4.47196e+01,0.00000e+00,0.00000e+00,0.00000e+00
1.71930e+03,1.94385e+01,-4.69556e+01,0.00000e+00,0.00000e+00,0.00000e+00
1.71930e+03,1.82964e+01,-4.91915e+01,0.00000e+00,0.00000e+00,0.00000e+00
1.71930e+03,1.69894e+01,-5.14275e+01,0.00000e+00,0.00000e+00,0.00000e+00
1.71930e+03,1.54913e+01,-5.36635e+01,0.00000e+00,0.00000e+00,0.00000e+00
1.71930e+03,1.37772e+01,-5.58995e+01,0.00000e+00,0.00000e+00,0.00000e+00
1.71930e+03,1.17498e+01,-5.81355e+01,0.00000e+00,0.00000e+00,0.00000e+00
1.71930e+03,9.14742e+00,-6.03714e+01,0.00000e+00,0.00000e+00,0.00000e+00
1.71930e+03,5.62782e+00,-6.26074e+01,0.00000e+00,0.00000e+00,0.00000e+00
1.71930e+03,-2.28035e+00,-6.48434e+01,0.00000e+00,0.00000e+00,0.00000e+00
1.71930e+03,-2.85109e+00,-6.48486e+01,0.00000e+00,0.00000e+00,0.00000e+00
1.71930e+03,-8.05090e+00,-6.25326e+01,0.00000e+00,0.00000e+00,0.00000e+00
1.71930e+03,-8.68047e+00,-6.02165e+01,0.00000e+00,0.00000e+00,0.00000e+00
1.71930e+03,-8.89772e+00,-5.79005e+01,0.00000e+00,0.00000e+00,0.00000e+00
1.71930e+03,-8.93068e+00,-5.55845e+01,0.00000e+00,0.00000e+00,0.00000e+00
1.71930e+03,-8.82481e+00,-5.32685e+01,0.00000e+00,0.00000e+00,0.00000e+00
1.71930e+03,-8.63181e+00,-5.09525e+01,0.00000e+00,0.00000e+00,0.00000e+00
1.71930e+03,-8.35132e+00,-4.86364e+01,0.00000e+00,0.00000e+00,0.00000e+00
1.71930e+03,-8.01747e+00,-4.63204e+01,0.00000e+00,0.00000e+00,0.00000e+00
1.71930e+03,-7.65266e+00,-4.40044e+01,0.00000e+00,0.00000e+00,0.00000e+00
1.71930e+03,-7.24122e+00,-4.16884e+01,0.00000e+00,0.00000e+00,0.00000e+00
1.71930e+03,-6.80064e+00,-3.93724e+01,0.00000e+00,0.00000e+00,0.00000e+00
1.71930e+03,-6.33168e+00,-3.70563e+01,0.00000e+00,0.00000e+00,0.00000e+00
1.71930e+03,-5.83445e+00,-3.47403e+01,0.00000e+00,0.00000e+00,0.00000e+00
1.71930e+03,-5.31949e+00,-3.24243e+01,0.00000e+00,0.00000e+00,0.00000e+00
1.71930e+03,-4.78182e+00,-3.01083e+01,0.00000e+00,0.00000e+00,0.00000e+00
1.71930e+03,-4.22962e+00,-2.77922e+01,0.00000e+00,0.00000e+00,0.00000e+00
1.71930e+03,-3.66437e+00,-2.54762e+01,0.00000e+00,0.00000e+00,0.00000e+00
1.71930e+03,-3.08749e+00,-2.31602e+01,0.00000e+00,0.00000e+00,0.00000e+00
1.71930e+03,-2.50568e+00,-2.08442e+01,0.00000e+00,0.00000e+00,0.00000e+00
1.71930e+03,-1.91624e+00,-1.85282e+01,0.00000e+00,0.00000e+00,0.00000e+00
1.71930e+03,-1.32552e+00,-1.62121e+01,0.00000e+00,0.00000e+00,0.00000e+00
1.71930e+03,-7.30242e-01,-1.38961e+01,0.00000e+00,0.00000e+00,0.00000e+00
1.71930e+03,-1.35024e-01,-1.15801e+01,0.00000e+00,0.00000e+00,0.00000e+00
1.71930e+03,4.57944e-01,-9.26408e+00,0.00000e+00,0.00000e+00,0.00000e+00
1.71930e+03,1.05091e+00,-6.94806e+00,0.00000e+00,0.00000e+00,0.00000e+00
1.71930e+03,1.62984e+00,-4.63204e+00,0.00000e+00,0.00000e+00,0.00000e+00
1.71930e+03,2.20615e+00,-2.31602e+00,0.00000e+00,0.00000e+00,0.00000e+00
1.77540e+03,2.77303e+01,0.00000e+00,0.00000e+00,0.00000e+00,0.00000e+00
1.77540e+03,2.75906e+01,-2.10721e+00,0.00000e+00,0.00000e+00,0.00000e+00
1.77540e+03,2.74048e+01,-4.21442e+00,0.00000e+00,0.00000e+00,0.00000e+00
1.77540e+03,2.72172e+01,-6.32163e+00,0.00000e+00,0.00000e+00,0.00000e+00
1.77540e+03,2.69888e+01,-8.42884e+00,0.00000e+00,0.00000e+00,0.00000e+00
1.77540e+03,2.67510e+01,-1.05361e+01,0.00000e+00,0.00000e+00,0.00000e+00
1.77540e+03,2.64819e+01,-1.26433e+01,0.00000e+00,0.00000e+00,0.00000e+00
1.77540e+03,2.61977e+01,-1.47505e+01,0.00000e+00,0.00000e+00,0.00000e+00
1.77540e+03,2.58883e+01,-1.68577e+01,0.00000e+00,0.00000e+00,0.00000e+00
1.77540e+03,2.55583e+01,-1.89649e+01,0.00000e+00,0.00000e+00,0.00000e+00
1.77540e+03,2.52056e+01,-2.10721e+01,0.00000e+00,0.00000e+00,0.00000e+00
1.77540e+03,2.48254e+01,-2.31793e+01,0.00000e+00,0.00000e+00,0.00000e+00
1.77540e+03,2.44171e+01,-2.52865e+01,0.00000e+00,0.00000e+00,0.00000e+00
1.77540e+03,2.39689e+01,-2.73937e+01,0.00000e+00,0.00000e+00,0.00000e+00
1.77540e+03,2.34819e+01,-2.95009e+01,0.00000e+00,0.00000e+00,0.00000e+00
1.77540e+03,2.29486e+01,-3.16082e+01,0.00000e+00,0.00000e+00,0.00000e+00
1.77540e+03,2.23524e+01,-3.37154e+01,0.00000e+00,0.00000e+00,0.00000e+00
1.77540e+03,2.17125e+01,-3.58226e+01,0.00000e+00,0.00000e+00,0.00000e+00
1.77540e+03,2.09743e+01,-3.79298e+01,0.00000e+00,0.00000e+00,0.00000e+00
1.77540e+03,2.01952e+01,-4.00370e+01,0.00000e+00,0.00000e+00,0.00000e+00
1.77540e+03,1.93026e+01,-4.21442e+01,0.00000e+00,0.00000e+00,0.00000e+00
1.77540e+03,1.83190e+01,-4.42514e+01,0.00000e+00,0.00000e+00,0.00000e+00
1.77540e+03,1.72428e+01,-4.63586e+01,0.00000e+00,0.00000e+00,0.00000e+00
1.77540e+03,1.60110e+01,-4.84658e+01,0.00000e+00,0.00000e+00,0.00000e+00
1.77540e+03,1.45992e+01,-5.05731e+01,0.00000e+00,0.00000e+00,0.00000e+00
1.77540e+03,1.29838e+01,-5.26803e+01,0.00000e+00,0.00000e+00,0.00000e+00
1.77540e+03,1.10731e+01,-5.47875e+01,0.00000e+00,0.00000e+00,0.00000e+00
1.77540e+03,8.62063e+00,-5.68947e+01,0.00000e+00,0.00000e+00,0.00000e+00
1.77540e+03,5.30372e+00,-5.90019e+01,0.00000e+00,0.00000e+00,0.00000e+00
1.77540e+03,-2.14903e+00,-6.11091e+01,0.00000e+00,0.00000e+00,0.00000e+00
1.77540e+03,-2.68689e+00,-6.11140e+01,0.00000e+00,0.00000e+00,0.00000e+00
1.77540e+03,-7.58725e+00,-5.89314e+01,0.00000e+00,0.00000e+00,0.00000e+00
1.77540e+03,-8.18057e+00,-5.67487e+01,0.00000e+00,0.00000e+00,0.00000e+00
1.77540e+03,-8.38530e+00,-5.45661e+01,0.00000e+00,0.00000e+00,0.00000e+00
1.77540e+03,-8.41637e+00,-5.23834e+01,0.00000e+00,0.00000e+00,0.00000e+00
1.77540e+03,-8.31659e+00,-5.02008e+01,0.00000e+00,0.00000e+00,0.00000e+00
1.77540e+03,-8.13471e+00,-4.80181e+01,0.00000e+00,0.00000e+00,0.00000e+00
1.77540e+03,-7.87037e+00,-4.58355e+01,0.00000e+00,0.00000e+00,0.00000e+00
1.77540e+03,-7.55575e+00,-4.36529e+01,0.00000e+00,0.00000e+00,0.00000e+00
1.77540e+03,-7.21195e+00,-4.14702e+01,0.00000e+00,0.00000e+00,0.00000e+00
1.77540e+03,-6.82421e+00,-3.92876e+01,0.00000e+00,0.00000e+00,0.00000e+00
1.77540e+03,-6.40900e+00,-3.71049e+01,0.00000e+00,0.00000e+00,0.00000e+00
1.77540e+03,-5.96704e+00,-3.49223e+01,0.00000e+00,0.00000e+00,0.00000e+00
1.77540e+03,-5.49844e+00,-3.27396e+01,0.00000e+00,0.00000e+00,0.00000e+00
1.77540e+03,-5.01314e+00,-3.05570e+01,0.00000e+00,0.00000e+00,0.00000e+00
1.77540e+03,-4.50644e+00,-2.83744e+01,0.00000e+00,0.00000e+00,0.00000e+00
1.77540e+03,-3.98604e+00,-2.61917e+01,0.00000e+00,0.00000e+00,0.00000e+00
1.77540e+03,-3.45334e+00,-2.40091e+01,0.00000e+00,0.00000e+00,0.00000e+00
1.77540e+03,-2.90969e+00,-2.18264e+01,0.00000e+00,0.00000e+00,0.00000e+00
1.77540e+03,-2.36138e+00,-1.96438e+01,0.00000e+00,0.00000e+00,0.00000e+00
1.77540e+03,-1.80588e+00,-1.74611e+01,0.00000e+00,0.00000e+00,0.00000e+00
1.77540e+03,-1.24918e+00,-1.52785e+01,0.00000e+00,0.00000e+00,0.00000e+00
1.77540e+03,-6.88187e-01,-1.30959e+01,0.00000e+00,0.00000e+00,0.00000e+00
1.77540e+03,-1.27248e-01,-1.09132e+01,0.00000e+00,0.00000e+00,0.00000e+00
1.77540e+03,4.31571e-01,-8.73057e+00,0.00000e+00,0.00000e+00,0.00000e+00
1.77540e+03,9.90390e-01,-6.54793e+00,0.00000e+00,0.00000e+00,0.00000e+00
1.77540e+03,1.53598e+00,-4.36529e+00,0.00000e+00,0.00000e+00,0.00000e+00
1.77540e+03,2.07910e+00,-2.18264e+00,0.00000e+00,0.00000e+00,0.00000e+00
1.82660e+03,2.53092e+01,0.00000e+00,0.00000e+00,0.00000e+00,0.00000e+00
1.82660e+03,2.51817e+01,-1.92323e+00,0.00000e+00,0.00000e+00,0.00000e+00
1.82660e+03,2.50121e+01,-3.84646e+00,0.00000e+00,0.00000e+00,0.00000e+00
1.82660e+03,2.48409e+01,-5.76969e+00,0.00000e+00,0.00000e+00,0.00000e+00
1.82660e+03,2.46324e+01,-7.69292e+00,0.00000e+00,0.00000e+00,0.00000e+00
1.82660e+03,2.44154e+01,-9.61614e+00,0.00000e+00,0.00000e+00,0.00000e+00
1.82660e+03,2.41698e+01,-1.15394e+01,0.00000e+00,0.00000e+00,0.00000e+00
1.82660e+03,2.39103e+01,-1.34626e+01,0.00000e+00,0.00000e+00,0.00000e+00
1.82660e+03,2.36280e+01,-1.53858e+01,0.00000e+00,0.00000e+00,0.00000e+00
1.82660e+03,2.33268e+01,-1.73091e+01,0.00000e+00,0.00000e+00,0.00000e+00
1.82660e+03,2.30049e+01,-1.92323e+01,0.00000e+00,0.00000e+00,0.00000e+00
1.82660e+03,2.26579e+01,-2.11555e+01,0.00000e+00,0.00000e+00,0.00000e+00
1.82660e+03,2.22852e+01,-2.30787e+01,0.00000e+00,0.00000e+00,0.00000e+00
1.82660e+03,2.18762e+01,-2.50020e+01,0.00000e+00,0.00000e+00,0.00000e+00
1.82660e+03,2.14317e+01,-2.69252e+01,0.00000e+00,0.00000e+00,0.00000e+00
1.82660e+03,2.09449e+01,-2.88484e+01,0.00000e+00,0.00000e+00,0.00000e+00
1.82660e+03,2.04008e+01,-3.07717e+01,0.00000e+00,0.00000e+00,0.00000e+00
1.82660e+03,1.98168e+01,-3.26949e+01,0.00000e+00,0.00000e+00,0.00000e+00
1.82660e+03,1.91430e+01,-3.46181e+01,0.00000e+00,0.00000e+00,0.00000e+00
1.82660e+03,1.84320e+01,-3.65413e+01,0.00000e+00,0.00000e+00,0.00000e+00
1.82660e+03,1.76173e+01,-3.84646e+01,0.00000e+00,0.00000e+00,0.00000e+00
1.82660e+03,1.67196e+01,-4.03878e+01,0.00000e+00,0.00000e+00,0.00000e+00
1.82660e+03,1.57373e+01,-4.23110e+01,0.00000e+00,0.00000e+00,0.00000e+00
1.82660e+03,1.46131e+01,-4.42343e+01,0.00000e+00,0.00000e+00,0.00000e+00
1.82660e+03,1.33245e+01,-4.61575e+01,0.00000e+00,0.00000e+00,0.00000e+00
1.82660e+03,1.18502e+01,-4.80807e+01,0.00000e+00,0.00000e+00,0.00000e+00
1.82660e+03,1.01063e+01,-5.00040e+01,0.00000e+00,0.00000e+00,0.00000e+00
1.82660e+03,7.86795e+00,-5.19272e+01,0.00000e+00,0.00000e+00,0.00000e+00
1.82660e+03,4.84065e+00,-5.38504e+01,0.00000e+00,0.00000e+00,0.00000e+00
1.82660e+03,-1.96139e+00,-5.57736e+01,0.00000e+00,0.00000e+00,0.00000e+00
1.82660e+03,-2.45230e+00,-5.57781e+01,0.00000e+00,0.00000e+00,0.00000e+00
1.82660e+03,-6.92480e+00,-5.37860e+01,0.00000e+00,0.00000e+00,0.00000e+00
1.82660e+03,-7.46632e+00,-5.17940e+01,0.00000e+00,0.00000e+00,0.00000e+00
1.82660e+03,-7.65318e+00,-4.98019e+01,0.00000e+00,0.00000e+00,0.00000e+00
1.82660e+03,-7.68153e+00,-4.78098e+01,0.00000e+00,0.00000e+00,0.00000e+00
1.82660e+03,-7.59047e+00,-4.58177e+01,0.00000e+00,0.00000e+00,0.00000e+00
1.82660e+03,-7.42446e+00,-4.38257e+01,0.00000e+00,0.00000e+00,0.00000e+00
1.82660e+03,-7.18321e+00,-4.18336e+01,0.00000e+00,0.00000e+00,0.00000e+00
1.82660e+03,-6.89605e+00,-3.98415e+01,0.00000e+00,0.00000e+00,0.00000e+00
1.82660e+03,-6.58227e+00,-3.78494e+01,0.00000e+00,0.00000e+00,0.00000e+00
1.82660e+03,-6.22838e+00,-3.58574e+01,0.00000e+00,0.00000e+00,0.00000e+00
1.82660e+03,-5.84943e+00,-3.38653e+01,0.00000e+00,0.00000e+00,0.00000e+00
1.82660e+03,-5.44606e+00,-3.18732e+01,0.00000e+00,0.00000e+00,0.00000e+00
1.82660e+03,-5.01837e+00,-2.98811e+01,0.00000e+00,0.00000e+00,0.00000e+00
1.82660e+03,-4.57544e+00,-2.78891e+01,0.00000e+00,0.00000e+00,0.00000e+00
1.82660e+03,-4.11298e+00,-2.58970e+01,0.00000e+00,0.00000e+00,0.00000e+00
1.82660e+03,-3.63801e+00,-2.39049e+01,0.00000e+00,0.00000e+00,0.00000e+00
1.82660e+03,-3.15183e+00,-2.19128e+01,0.00000e+00,0.00000e+00,0.00000e+00
1.82660e+03,-2.65564e+00,-1.99208e+01,0.00000e+00,0.00000e+00,0.00000e+00
1.82660e+03,-2.15521e+00,-1.79287e+01,0.00000e+00,0.00000e+00,0.00000e+00
1.82660e+03,-1.64821e+00,-1.59366e+01,0.00000e+00,0.00000e+00,0.00000e+00
1.82660e+03,-1.14012e+00,-1.39445e+01,0.00000e+00,0.00000e+00,0.00000e+00
1.82660e+03,-6.28101e-01,-1.19525e+01,0.00000e+00,0.00000e+00,0.00000e+00
1.82660e+03,-1.16138e-01,-9.96038e+00,0.00000e+00,0.00000e+00,0.00000e+00
1.82660e+03,3.93890e-01,-7.96830e+00,0.00000e+00,0.00000e+00,0.00000e+00
1.82660e+03,9.03919e-01,-5.97623e+00,0.00000e+00,0.00000e+00,0.00000e+00
1.82660e+03,1.40187e+00,-3.98415e+00,0.00000e+00,0.00000e+00,0.00000e+00
1.82660e+03,1.89757e+00,-1.99208e+00,0.00000e+00,0.00000e+00,0.00000e+00
1.87280e+03,2.31244e+01,0.00000e+00,0.00000e+00,0.00000e+00,0.00000e+00
1.87280e+03,2.30080e+01,-1.75721e+00,0.00000e+00,0.00000e+00,0.00000e+00
1.87280e+03,2.28531e+01,-3.51443e+00,0.00000e+00,0.00000e+00,0.00000e+00
1.87280e+03,2.26966e+01,-5.27164e+00,0.00000e+00,0.00000e+00,0.00000e+00
1.87280e+03,2.25061e+01,-7.02886e+00,0.00000e+00,0.00000e+00,0.00000e+00
1.87280e+03,2.23078e+01,-8.78607e+00,0.00000e+00,0.00000e+00,0.00000e+00
1.87280e+03,2.20834e+01,-1.05433e+01,0.00000e+00,0.00000e+00,0.00000e+00
1.87280e+03,2.18464e+01,-1.23005e+01,0.00000e+00,0.00000e+00,0.00000e+00
1.87280e+03,2.15884e+01,-1.40577e+01,0.00000e+00,0.00000e+00,0.00000e+00
1.87280e+03,2.13132e+01,-1.58149e+01,0.00000e+00,0.00000e+00,0.00000e+00
1.87280e+03,2.10191e+01,-1.75721e+01,0.00000e+00,0.00000e+00,0.00000e+00
1.87280e+03,2.07020e+01,-1.93294e+01,0.00000e+00,0.00000e+00,0.00000e+00
1.87280e+03,2.03615e+01,-2.10866e+01,0.00000e+00,0.00000e+00,0.00000e+00
1.87280e+03,1.99878e+01,-2.28438e+01,0.00000e+00,0.00000e+00,0.00000e+00
1.87280e+03,1.95817e+01,-2.46010e+01,0.00000e+00,0.00000e+00,0.00000e+00
1.87280e+03,1.91369e+01,-2.63582e+01,0.00000e+00,0.00000e+00,0.00000e+00
1.87280e+03,1.86398e+01,-2.81154e+01,0.00000e+00,0.00000e+00,0.00000e+00
1.87280e+03,1.81062e+01,-2.98726e+01,0.00000e+00,0.00000e+00,0.00000e+00
1.87280e+03,1.74905e+01,-3.16299e+01,0.00000e+00,0.00000e+00,0.00000e+00
1.87280e+03,1.68409e+01,-3.33871e+01,0.00000e+00,0.00000e+00,0.00000e+00
1.87280e+03,1.60966e+01,-3.51443e+01,0.00000e+00,0.00000e+00,0.00000e+00
1.87280e+03,1.52763e+01,-3.69015e+01,0.00000e+00,0.00000e+00,0.00000e+00
1.87280e+03,1.43788e+01,-3.86587e+01,0.00000e+00,0.00000e+00,0.00000e+00
1.87280e+03,1.33517e+01,-4.04159e+01,0.00000e+00,0.00000e+00,0.00000e+00
1.87280e+03,1.21743e+01,-4.21731e+01,0.00000e+00,0.00000e+00,0.00000e+00
1.87280e+03,1.08272e+01,-4.39304e+01,0.00000e+00,0.00000e+00,0.00000e+00
1.87280e+03,9.23393e+00,-4.56876e+01,0.00000e+00,0.00000e+00,0.00000e+00
1.87280e+03,7.18879e+00,-4.74448e+01,0.00000e+00,0.00000e+00,0.00000e+00
1.87280e+03,4.42280e+00,-4.92020e+01,0.00000e+00,0.00000e+00,0.00000e+00
1.87280e+03,-1.79208e+00,-5.09592e+01,0.00000e+00,0.00000e+00,0.00000e+00
1.87280e+03,-2.24062e+00,-5.09633e+01,0.00000e+00,0.00000e+00,0.00000e+00
1.87280e+03,-6.32705e+00,-4.91432e+01,0.00000e+00,0.00000e+00,0.00000e+00
1.87280e+03,-6.82182e+00,-4.73231e+01,0.00000e+00,0.00000e+00,0.00000e+00
1.87280e+03,-6.99255e+00,-4.55029e+01,0.00000e+00,0.00000e+00,0.00000e+00
1.87280e+03,-7.01846e+00,-4.36828e+01,0.00000e+00,0.00000e+00,0.00000e+00
1.87280e+03,-6.93525e+00,-4.18627e+01,0.00000e+00,0.00000e+00,0.00000e+00
1.87280e+03,-6.78358e+00,-4.00426e+01,0.00000e+00,0.00000e+00,0.00000e+00
1.87280e+03,-6.56315e+00,-3.82225e+01,0.00000e+00,0.00000e+00,0.00000e+00
1.87280e+03,-6.30078e+00,-3.64024e+01,0.00000e+00,0.00000e+00,0.00000e+00
1.87280e+03,-6.01408e+00,-3.45822e+01,0.00000e+00,0.00000e+00,0.00000e+00
1.87280e+03,-5.69074e+00,-3.27621e+01,0.00000e+00,0.00000e+00,0.00000e+00
1.87280e+03,-5.34450e+00,-3.09420e+01,0.00000e+00,0.00000e+00,0.00000e+00
1.87280e+03,-4.97595e+00,-2.91219e+01,0.00000e+00,0.00000e+00,0.00000e+00
1.87280e+03,-4.58518e+00,-2.73018e+01,0.00000e+00,0.00000e+00,0.00000e+00
1.87280e+03,-4.18049e+00,-2.54816e+01,0.00000e+00,0.00000e+00,0.00000e+00
1.87280e+03,-3.75794e+00,-2.36615e+01,0.00000e+00,0.00000e+00,0.00000e+00
1.87280e+03,-3.32398e+00,-2.18414e+01,0.00000e+00,0.00000e+00,0.00000e+00
1.87280e+03,-2.87976e+00,-2.00213e+01,0.00000e+00,0.00000e+00,0.00000e+00
1.87280e+03,-2.42640e+00,-1.82012e+01,0.00000e+00,0.00000e+00,0.00000e+00
1.87280e+03,-1.96917e+00,-1.63811e+01,0.00000e+00,0.00000e+00,0.00000e+00
1.87280e+03,-1.50594e+00,-1.45609e+01,0.00000e+00,0.00000e+00,0.00000e+00
1.87280e+03,-1.04170e+00,-1.27408e+01,0.00000e+00,0.00000e+00,0.00000e+00
1.87280e+03,-5.73883e-01,-1.09207e+01,0.00000e+00,0.00000e+00,0.00000e+00
1.87280e+03,-1.06113e-01,-9.10059e+00,0.00000e+00,0.00000e+00,0.00000e+00
1.87280e+03,3.59890e-01,-7.28047e+00,0.00000e+00,0.00000e+00,0.00000e+00
1.87280e+03,8.25892e-01,-5.46035e+00,0.00000e+00,0.00000e+00,0.00000e+00
1.87280e+03,1.28086e+00,-3.64024e+00,0.00000e+00,0.00000e+00,0.00000e+00
1.87280e+03,1.73377e+00,-1.82012e+00,0.00000e+00,0.00000e+00,0.00000e+00
1.91380e+03,2.11856e+01,0.00000e+00,0.00000e+00,0.00000e+00,0.00000e+00
1.91380e+03,2.10789e+01,-1.60989e+00,0.00000e+00,0.00000e+00,0.00000e+00
1.91380e+03,2.09370e+01,-3.21977e+00,0.00000e+00,0.00000e+00,0.00000e+00
1.91380e+03,2.07936e+01,-4.82966e+00,0.00000e+00,0.00000e+00,0.00000e+00
1.91380e+03,2.06192e+01,-6.43954e+00,0.00000e+00,0.00000e+00,0.00000e+00
1.91380e+03,2.04375e+01,-8.04943e+00,0.00000e+00,0.00000e+00,0.00000e+00
1.91380e+03,2.02319e+01,-9.65931e+00,0.00000e+00,0.00000e+00,0.00000e+00
1.91380e+03,2.00147e+01,-1.12692e+01,0.00000e+00,0.00000e+00,0.00000e+00
1.91380e+03,1.97784e+01,-1.28791e+01,0.00000e+00,0.00000e+00,0.00000e+00
1.91380e+03,1.95262e+01,-1.44890e+01,0.00000e+00,0.00000e+00,0.00000e+00
1.91380e+03,1.92568e+01,-1.60989e+01,0.00000e+00,0.00000e+00,0.00000e+00
1.91380e+03,1.89663e+01,-1.77087e+01,0.00000e+00,0.00000e+00,0.00000e+00
1.91380e+03,1.86544e+01,-1.93186e+01,0.00000e+00,0.00000e+00,0.00000e+00
1.91380e+03,1.83120e+01,-2.09285e+01,0.00000e+00,0.00000e+00,0.00000e+00
1.91380e+03,1.79399e+01,-2.25384e+01,0.00000e+00,0.00000e+00,0.00000e+00
1.91380e+03,1.75325e+01,-2.41483e+01,0.00000e+00,0.00000e+00,0.00000e+00
1.91380e+03,1.70770e+01,-2.57582e+01,0.00000e+00,0.00000e+00,0.00000e+00
1.91380e+03,1.65881e+01,-2.73680e+01,0.00000e+00,0.00000e+00,0.00000e+00
1.91380e+03,1.60241e+01,-2.89779e+01,0.00000e+00,0.00000e+00,0.00000e+00
1.91380e+03,1.54289e+01,-3.05878e+01,0.00000e+00,0.00000e+00,0.00000e+00
1.91380e+03,1.47470e+01,-3.21977e+01,0.00000e+00,0.00000e+00,0.00000e+00
1.91380e+03,1.39955e+01,-3.38076e+01,0.00000e+00,0.00000e+00,0.00000e+00
1.91380e+03,1.31733e+01,-3.54175e+01,0.00000e+00,0.00000e+00,0.00000e+00
1.91380e+03,1.22322e+01,-3.70274e+01,0.00000e+00,0.00000e+00,0.00000e+00
1.91380e+03,1.11536e+01,-3.86372e+01,0.00000e+00,0.00000e+00,0.00000e+00
1.91380e+03,9.91946e+00,-4.02471e+01,0.00000e+00,0.00000e+00,0.00000e+00
1.91380e+03,8.45973e+00,-4.18570e+01,0.00000e+00,0.00000e+00,0.00000e+00
1.91380e+03,6.58606e+00,-4.34669e+01,0.00000e+00,0.00000e+00,0.00000e+00
1.91380e+03,4.05198e+00,-4.50768e+01,0.00000e+00,0.00000e+00,0.00000e+00
1.91380e+03,-1.64183e+00,-4.66867e+01,0.00000e+00,0.00000e+00,0.00000e+00
1.91380e+03,-2.05276e+00,-4.66904e+01,0.00000e+00,0.00000e+00,0.00000e+00
1.91380e+03,-5.79657e+00,-4.50229e+01,0.00000e+00,0.00000e+00,0.00000e+00
1.91380e+03,-6.24986e+00,-4.33554e+01,0.00000e+00,0.00000e+00,0.00000e+00
1.91380e+03,-6.40628e+00,-4.16879e+01,0.00000e+00,0.00000e+00,0.00000e+00
1.91380e+03,-6.43001e+00,-4.00204e+01,0.00000e+00,0.00000e+00,0.00000e+00
1.91380e+03,-6.35378e+00,-3.83528e+01,0.00000e+00,0.00000e+00,0.00000e+00
1.91380e+03,-6.21483e+00,-3.66853e+01,0.00000e+00,0.00000e+00,0.00000e+00
1.91380e+03,-6.01288e+00,-3.50178e+01,0.00000e+00,0.00000e+00,0.00000e+00
1.91380e+03,-5.77251e+00,-3.33503e+01,0.00000e+00,0.00000e+00,0.00000e+00
1.91380e+03,-5.50985e+00,-3.16828e+01,0.00000e+00,0.00000e+00,0.00000e+00
1.91380e+03,-5.21362e+00,-3.00153e+01,0.00000e+00,0.00000e+00,0.00000e+00
1.91380e+03,-4.89640e+00,-2.83477e+01,0.00000e+00,0.00000e+00,0.00000e+00
1.91380e+03,-4.55876e+00,-2.66802e+01,0.00000e+00,0.00000e+00,0.00000e+00
1.91380e+03,-4.20075e+00,-2.50127e+01,0.00000e+00,0.00000e+00,0.00000e+00
1.91380e+03,-3.82998e+00,-2.33452e+01,0.00000e+00,0.00000e+00,0.00000e+00
1.91380e+03,-3.44287e+00,-2.16777e+01,0.00000e+00,0.00000e+00,0.00000e+00
1.91380e+03,-3.04529e+00,-2.00102e+01,0.00000e+00,0.00000e+00,0.00000e+00
1.91380e+03,-2.63832e+00,-1.83427e+01,0.00000e+00,0.00000e+00,0.00000e+00
1.91380e+03,-2.22297e+00,-1.66751e+01,0.00000e+00,0.00000e+00,0.00000e+00
1.91380e+03,-1.80407e+00,-1.50076e+01,0.00000e+00,0.00000e+00,0.00000e+00
1.91380e+03,-1.37967e+00,-1.33401e+01,0.00000e+00,0.00000e+00,0.00000e+00
1.91380e+03,-9.54362e-01,-1.16726e+01,0.00000e+00,0.00000e+00,0.00000e+00
1.91380e+03,-5.25768e-01,-1.00051e+01,0.00000e+00,0.00000e+00,0.00000e+00
1.91380e+03,-9.72161e-02,-8.33757e+00,0.00000e+00,0.00000e+00,0.00000e+00
1.91380e+03,3.29716e-01,-6.67006e+00,0.00000e+00,0.00000e+00,0.00000e+00
1.91380e+03,7.56647e-01,-5.00254e+00,0.00000e+00,0.00000e+00,0.00000e+00
1.91380e+03,1.17347e+00,-3.33503e+00,0.00000e+00,0.00000e+00,0.00000e+00
1.91380e+03,1.58841e+00,-1.66751e+00,0.00000e+00,0.00000e+00,0.00000e+00
1.94970e+03,1.94880e+01,0.00000e+00,0.00000e+00,0.00000e+00,0.00000e+00
1.94970e+03,1.93899e+01,-1.48088e+00,0.00000e+00,0.00000e+00,0.00000e+00
1.94970e+03,1.92593e+01,-2.96177e+00,0.00000e+00,0.00000e+00,0.00000e+00
1.94970e+03,1.91274e+01,-4.44265e+00,0.00000e+00,0.00000e+00,0.00000e+00
1.94970e+03,1.89669e+01,-5.92353e+00,0.00000e+00,0.00000e+00,0.00000e+00
1.94970e+03,1.87998e+01,-7.40441e+00,0.00000e+00,0.00000e+00,0.00000e+00
1.94970e+03,1.86107e+01,-8.88530e+00,0.00000e+00,0.00000e+00,0.00000e+00
1.94970e+03,1.84109e+01,-1.03662e+01,0.00000e+00,0.00000e+00,0.00000e+00
1.94970e+03,1.81935e+01,-1.18471e+01,0.00000e+00,0.00000e+00,0.00000e+00
1.94970e+03,1.79616e+01,-1.33279e+01,0.00000e+00,0.00000e+00,0.00000e+00
1.94970e+03,1.77137e+01,-1.48088e+01,0.00000e+00,0.00000e+00,0.00000e+00
1.94970e+03,1.74465e+01,-1.62897e+01,0.00000e+00,0.00000e+00,0.00000e+00
1.94970e+03,1.71596e+01,-1.77706e+01,0.00000e+00,0.00000e+00,0.00000e+00
1.94970e+03,1.68446e+01,-1.92515e+01,0.00000e+00,0.00000e+00,0.00000e+00
1.94970e+03,1.65024e+01,-2.07324e+01,0.00000e+00,0.00000e+00,0.00000e+00
1.94970e+03,1.61276e+01,-2.22132e+01,0.00000e+00,0.00000e+00,0.00000e+00
1.94970e+03,1.57086e+01,-2.36941e+01,0.00000e+00,0.00000e+00,0.00000e+00
1.94970e+03,1.52589e+01,-2.51750e+01,0.00000e+00,0.00000e+00,0.00000e+00
1.94970e+03,1.47401e+01,-2.66559e+01,0.00000e+00,0.00000e+00,0.00000e+00
1.94970e+03,1.41926e+01,-2.81368e+01,0.00000e+00,0.00000e+00,0.00000e+00
1.94970e+03,1.35653e+01,-2.96177e+01,0.00000e+00,0.00000e+00,0.00000e+00
1.94970e+03,1.28740e+01,-3.10985e+01,0.00000e+00,0.00000e+00,0.00000e+00
1.94970e+03,1.21177e+01,-3.25794e+01,0.00000e+00,0.00000e+00,0.00000e+00
1.94970e+03,1.12521e+01,-3.40603e+01,0.00000e+00,0.00000e+00,0.00000e+00
1.94970e+03,1.02599e+01,-3.55412e+01,0.00000e+00,0.00000e+00,0.00000e+00
1.94970e+03,9.12460e+00,-3.70221e+01,0.00000e+00,0.00000e+00,0.00000e+00
1.94970e+03,7.78184e+00,-3.85029e+01,0.00000e+00,0.00000e+00,0.00000e+00
1.94970e+03,6.05831e+00,-3.99838e+01,0.00000e+00,0.00000e+00,0.00000e+00
1.94970e+03,3.72729e+00,-4.14647e+01,0.00000e+00,0.00000e+00,0.00000e+00
1.94970e+03,-1.51027e+00,-4.29456e+01,0.00000e+00,0.00000e+00,0.00000e+00
1.94970e+03,-1.88827e+00,-4.29490e+01,0.00000e+00,0.00000e+00,0.00000e+00
1.94970e+03,-5.33209e+00,-4.14151e+01,0.00000e+00,0.00000e+00,0.00000e+00
1.94970e+03,-5.74905e+00,-3.98812e+01,0.00000e+00,0.00000e+00,0.00000e+00
1.94970e+03,-5.89293e+00,-3.83473e+01,0.00000e+00,0.00000e+00,0.00000e+00
1.94970e+03,-5.91477e+00,-3.68135e+01,0.00000e+00,0.00000e+00,0.00000e+00
1.94970e+03,-5.84465e+00,-3.52796e+01,0.00000e+00,0.00000e+00,0.00000e+00
1.94970e+03,-5.71682e+00,-3.37457e+01,0.00000e+00,0.00000e+00,0.00000e+00
1.94970e+03,-5.53106e+00,-3.22118e+01,0.00000e+00,0.00000e+00,0.00000e+00
1.94970e+03,-5.30995e+00,-3.06779e+01,0.00000e+00,0.00000e+00,0.00000e+00
1.94970e+03,-5.06834e+00,-2.91440e+01,0.00000e+00,0.00000e+00,0.00000e+00
1.94970e+03,-4.79584e+00,-2.76101e+01,0.00000e+00,0.00000e+00,0.00000e+00
1.94970e+03,-4.50405e+00,-2.60762e+01,0.00000e+00,0.00000e+00,0.00000e+00
1.94970e+03,-4.19345e+00,-2.45423e+01,0.00000e+00,0.00000e+00,0.00000e+00
1.94970e+03,-3.86414e+00,-2.30084e+01,0.00000e+00,0.00000e+00,0.00000e+00
1.94970e+03,-3.52308e+00,-2.14745e+01,0.00000e+00,0.00000e+00,0.00000e+00
1.94970e+03,-3.16699e+00,-1.99406e+01,0.00000e+00,0.00000e+00,0.00000e+00
1.94970e+03,-2.80126e+00,-1.84067e+01,0.00000e+00,0.00000e+00,0.00000e+00
1.94970e+03,-2.42690e+00,-1.68728e+01,0.00000e+00,0.00000e+00,0.00000e+00
1.94970e+03,-2.04484e+00,-1.53389e+01,0.00000e+00,0.00000e+00,0.00000e+00
1.94970e+03,-1.65951e+00,-1.38050e+01,0.00000e+00,0.00000e+00,0.00000e+00
1.94970e+03,-1.26912e+00,-1.22712e+01,0.00000e+00,0.00000e+00,0.00000e+00
1.94970e+03,-8.77888e-01,-1.07373e+01,0.00000e+00,0.00000e+00,0.00000e+00
1.94970e+03,-4.83637e-01,-9.20336e+00,0.00000e+00,0.00000e+00,0.00000e+00
1.94970e+03,-8.94260e-02,-7.66947e+00,0.00000e+00,0.00000e+00,0.00000e+00
1.94970e+03,3.03295e-01,-6.13558e+00,0.00000e+00,0.00000e+00,0.00000e+00
1.94970e+03,6.96016e-01,-4.60168e+00,0.00000e+00,0.00000e+00,0.00000e+00
1.94970e+03,1.07944e+00,-3.06779e+00,0.00000e+00,0.00000e+00,0.00000e+00
1.94970e+03,1.46113e+00,-1.53389e+00,0.00000e+00,0.00000e+00,0.00000e+00
1.98010e+03,1.80504e+01,0.00000e+00,0.00000e+00,0.00000e+00,0.00000e+00
1.98010e+03,1.79595e+01,-1.37164e+00,0.00000e+00,0.00000e+00,0.00000e+00
1.98010e+03,1.78386e+01,-2.74329e+00,0.00000e+00,0.00000e+00,0.00000e+00
1.98010e+03,1.77165e+01,-4.11493e+00,0.00000e+00,0.00000e+00,0.00000e+00
1.98010e+03,1.75678e+01,-5.48657e+00,0.00000e+00,0.00000e+00,0.00000e+00
1.98010e+03,1.74130e+01,-6.85822e+00,0.00000e+00,0.00000e+00,0.00000e+00
1.98010e+03,1.72378e+01,-8.22986e+00,0.00000e+00,0.00000e+00,0.00000e+00
1.98010e+03,1.70528e+01,-9.60150e+00,0.00000e+00,0.00000e+00,0.00000e+00
1.98010e+03,1.68514e+01,-1.09731e+01,0.00000e+00,0.00000e+00,0.00000e+00
1.98010e+03,1.66366e+01,-1.23448e+01,0.00000e+00,0.00000e+00,0.00000e+00
1.98010e+03,1.64070e+01,-1.37164e+01,0.00000e+00,0.00000e+00,0.00000e+00
1.98010e+03,1.61595e+01,-1.50881e+01,0.00000e+00,0.00000e+00,0.00000e+00
1.98010e+03,1.58938e+01,-1.64597e+01,0.00000e+00,0.00000e+00,0.00000e+00
1.98010e+03,1.56020e+01,-1.78314e+01,0.00000e+00,0.00000e+00,0.00000e+00
1.98010e+03,1.52851e+01,-1.92030e+01,0.00000e+00,0.00000e+00,0.00000e+00
1.98010e+03,1.49379e+01,-2.05747e+01,0.00000e+00,0.00000e+00,0.00000e+00
1.98010e+03,1.45498e+01,-2.19463e+01,0.00000e+00,0.00000e+00,0.00000e+00
1.98010e+03,1.41333e+01,-2.33179e+01,0.00000e+00,0.00000e+00,0.00000e+00
1.98010e+03,1.36527e+01,-2.46896e+01,0.00000e+00,0.00000e+00,0.00000e+00
1.98010e+03,1.31457e+01,-2.60612e+01,0.00000e+00,0.00000e+00,0.00000e+00
1.98010e+03,1.25646e+01,-2.74329e+01,0.00000e+00,0.00000e+00,0.00000e+00
1.98010e+03,1.19244e+01,-2.88045e+01,0.00000e+00,0.00000e+00,0.00000e+00
1.98010e+03,1.12238e+01,-3.01762e+01,0.00000e+00,0.00000e+00,0.00000e+00
1.98010e+03,1.04220e+01,-3.15478e+01,0.00000e+00,0.00000e+00,0.00000e+00
1.98010e+03,9.50303e+00,-3.29194e+01,0.00000e+00,0.00000e+00,0.00000e+00
1.98010e+03,8.45151e+00,-3.42911e+01,0.00000e+00,0.00000e+00,0.00000e+00
1.98010e+03,7.20780e+00,-3.56627e+01,0.00000e+00,0.00000e+00,0.00000e+00
1.98010e+03,5.61141e+00,-3.70344e+01,0.00000e+00,0.00000e+00,0.00000e+00
1.98010e+03,3.45234e+00,-3.84060e+01,0.00000e+00,0.00000e+00,0.00000e+00
1.98010e+03,-1.39886e+00,-3.97777e+01,0.00000e+00,0.00000e+00,0.00000e+00
1.98010e+03,-1.74898e+00,-3.97808e+01,0.00000e+00,0.00000e+00,0.00000e+00
1.98010e+03,-4.93876e+00,-3.83601e+01,0.00000e+00,0.00000e+00,0.00000e+00
1.98010e+03,-5.32496e+00,-3.69394e+01,0.00000e+00,0.00000e+00,0.00000e+00
1.98010e+03,-5.45823e+00,-3.55186e+01,0.00000e+00,0.00000e+00,0.00000e+00
1.98010e+03,-5.47846e+00,-3.40979e+01,0.00000e+00,0.00000e+00,0.00000e+00
1.98010e+03,-5.41351e+00,-3.26771e+01,0.00000e+00,0.00000e+00,0.00000e+00
1.98010e+03,-5.29511e+00,-3.12564e+01,0.00000e+00,0.00000e+00,0.00000e+00
1.98010e+03,-5.12305e+00,-2.98356e+01,0.00000e+00,0.00000e+00,0.00000e+00
1.98010e+03,-4.91825e+00,-2.84149e+01,0.00000e+00,0.00000e+00,0.00000e+00
1.98010e+03,-4.69446e+00,-2.69941e+01,0.00000e+00,0.00000e+00,0.00000e+00
1.98010e+03,-4.44207e+00,-2.55734e+01,0.00000e+00,0.00000e+00,0.00000e+00
1.98010e+03,-4.17180e+00,-2.41527e+01,0.00000e+00,0.00000e+00,0.00000e+00
1.98010e+03,-3.88412e+00,-2.27319e+01,0.00000e+00,0.00000e+00,0.00000e+00
1.98010e+03,-3.57909e+00,-2.13112e+01,0.00000e+00,0.00000e+00,0.00000e+00
1.98010e+03,-3.26320e+00,-1.98904e+01,0.00000e+00,0.00000e+00,0.00000e+00
1.98010e+03,-2.93337e+00,-1.84697e+01,0.00000e+00,0.00000e+00,0.00000e+00
1.98010e+03,-2.59462e+00,-1.70489e+01,0.00000e+00,0.00000e+00,0.00000e+00
1.98010e+03,-2.24788e+00,-1.56282e+01,0.00000e+00,0.00000e+00,0.00000e+00
1.98010e+03,-1.89400e+00,-1.42074e+01,0.00000e+00,0.00000e+00,0.00000e+00
1.98010e+03,-1.53709e+00,-1.27867e+01,0.00000e+00,0.00000e+00,0.00000e+00
1.98010e+03,-1.17550e+00,-1.13660e+01,0.00000e+00,0.00000e+00,0.00000e+00
1.98010e+03,-8.13129e-01,-9.94521e+00,0.00000e+00,0.00000e+00,0.00000e+00
1.98010e+03,-4.47961e-01,-8.52447e+00,0.00000e+00,0.00000e+00,0.00000e+00
1.98010e+03,-8.28294e-02,-7.10372e+00,0.00000e+00,0.00000e+00,0.00000e+00
1.98010e+03,2.80922e-01,-5.68298e+00,0.00000e+00,0.00000e+00,0.00000e+00
1.98010e+03,6.44673e-01,-4.26223e+00,0.00000e+00,0.00000e+00,0.00000e+00
1.98010e+03,9.99811e-01,-2.84149e+00,0.00000e+00,0.00000e+00,0.00000e+00
1.98010e+03,1.35334e+00,-1.42074e+00,0.00000e+00,0.00000e+00,0.00000e+00
2.00520e+03,1.68635e+01,0.00000e+00,0.00000e+00,0.00000e+00,0.00000e+00
2.00520e+03,1.67786e+01,-1.28145e+00,0.00000e+00,0.00000e+00,0.00000e+00
2.00520e+03,1.66656e+01,-2.56290e+00,0.00000e+00,0.00000e+00,0.00000e+00
2.00520e+03,1.65515e+01,-3.84435e+00,0.00000e+00,0.00000e+00,0.00000e+00
2.00520e+03,1.64126e+01,-5.12580e+00,0.00000e+00,0.00000e+00,0.00000e+00
2.00520e+03,1.62680e+01,-6.40725e+00,0.00000e+00,0.00000e+00,0.00000e+00
2.00520e+03,1.61044e+01,-7.68870e+00,0.00000e+00,0.00000e+00,0.00000e+00
2.00520e+03,1.59315e+01,-8.97015e+00,0.00000e+00,0.00000e+00,0.00000e+00
2.00520e+03,1.57433e+01,-1.02516e+01,0.00000e+00,0.00000e+00,0.00000e+00
2.00520e+03,1.55427e+01,-1.15330e+01,0.00000e+00,0.00000e+00,0.00000e+00
2.00520e+03,1.53282e+01,-1.28145e+01,0.00000e+00,0.00000e+00,0.00000e+00
2.00520e+03,1.50970e+01,-1.40959e+01,0.00000e+00,0.00000e+00,0.00000e+00
2.00520e+03,1.48486e+01,-1.53774e+01,0.00000e+00,0.00000e+00,0.00000e+00
2.00520e+03,1.45761e+01,-1.66588e+01,0.00000e+00,0.00000e+00,0.00000e+00
2.00520e+03,1.42800e+01,-1.79403e+01,0.00000e+00,0.00000e+00,0.00000e+00
2.00520e+03,1.39556e+01,-1.92217e+01,0.00000e+00,0.00000e+00,0.00000e+00
2.00520e+03,1.35931e+01,-2.05032e+01,0.00000e+00,0.00000e+00,0.00000e+00
2.00520e+03,1.32039e+01,-2.17846e+01,0.00000e+00,0.00000e+00,0.00000e+00
2.00520e+03,1.27550e+01,-2.30661e+01,0.00000e+00,0.00000e+00,0.00000e+00
2.00520e+03,1.22812e+01,-2.43475e+01,0.00000e+00,0.00000e+00,0.00000e+00
2.00520e+03,1.17384e+01,-2.56290e+01,0.00000e+00,0.00000e+00,0.00000e+00
2.00520e+03,1.11403e+01,-2.69104e+01,0.00000e+00,0.00000e+00,0.00000e+00
2.00520e+03,1.04858e+01,-2.81919e+01,0.00000e+00,0.00000e+00,0.00000e+00
2.00520e+03,9.73672e+00,-2.94733e+01,0.00000e+00,0.00000e+00,0.00000e+00
2.00520e+03,8.87814e+00,-3.07548e+01,0.00000e+00,0.00000e+00,0.00000e+00
2.00520e+03,7.89577e+00,-3.20362e+01,0.00000e+00,0.00000e+00,0.00000e+00
2.00520e+03,6.73385e+00,-3.33177e+01,0.00000e+00,0.00000e+00,0.00000e+00
2.00520e+03,5.24243e+00,-3.45991e+01,0.00000e+00,0.00000e+00,0.00000e+00
2.00520e+03,3.22533e+00,-3.58806e+01,0.00000e+00,0.00000e+00,0.00000e+00
2.00520e+03,-1.30688e+00,-3.71620e+01,0.00000e+00,0.00000e+00,0.00000e+00
2.00520e+03,-1.63397e+00,-3.71650e+01,0.00000e+00,0.00000e+00,0.00000e+00
2.00520e+03,-4.61400e+00,-3.58377e+01,0.00000e+00,0.00000e+00,0.00000e+00
2.00520e+03,-4.97481e+00,-3.45104e+01,0.00000e+00,0.00000e+00,0.00000e+00
2.00520e+03,-5.09932e+00,-3.31830e+01,0.00000e+00,0.00000e+00,0.00000e+00
2.00520e+03,-5.11821e+00,-3.18557e+01,0.00000e+00,0.00000e+00,0.00000e+00
2.00520e+03,-5.05754e+00,-3.05284e+01,0.00000e+00,0.00000e+00,0.00000e+00
2.00520e+03,-4.94693e+00,-2.92011e+01,0.00000e+00,0.00000e+00,0.00000e+00
2.00520e+03,-4.78618e+00,-2.78738e+01,0.00000e+00,0.00000e+00,0.00000e+00
2.00520e+03,-4.59485e+00,-2.65464e+01,0.00000e+00,0.00000e+00,0.00000e+00
2.00520e+03,-4.38577e+00,-2.52191e+01,0.00000e+00,0.00000e+00,0.00000e+00
2.00520e+03,-4.14998e+00,-2.38918e+01,0.00000e+00,0.00000e+00,0.00000e+00
2.00520e+03,-3.89748e+00,-2.25645e+01,0.00000e+00,0.00000e+00,0.00000e+00
2.00520e+03,-3.62871e+00,-2.12371e+01,0.00000e+00,0.00000e+00,0.00000e+00
2.00520e+03,-3.34375e+00,-1.99098e+01,0.00000e+00,0.00000e+00,0.00000e+00
2.00520e+03,-3.04862e+00,-1.85825e+01,0.00000e+00,0.00000e+00,0.00000e+00
2.00520e+03,-2.74048e+00,-1.72552e+01,0.00000e+00,0.00000e+00,0.00000e+00
2.00520e+03,-2.42401e+00,-1.59279e+01,0.00000e+00,0.00000e+00,0.00000e+00
2.00520e+03,-2.10007e+00,-1.46005e+01,0.00000e+00,0.00000e+00,0.00000e+00
2.00520e+03,-1.76946e+00,-1.32732e+01,0.00000e+00,0.00000e+00,0.00000e+00
2.00520e+03,-1.43602e+00,-1.19459e+01,0.00000e+00,0.00000e+00,0.00000e+00
2.00520e+03,-1.09820e+00,-1.06186e+01,0.00000e+00,0.00000e+00,0.00000e+00
2.00520e+03,-7.59661e-01,-9.29125e+00,0.00000e+00,0.00000e+00,0.00000e+00
2.00520e+03,-4.18505e-01,-7.96393e+00,0.00000e+00,0.00000e+00,0.00000e+00
2.00520e+03,-7.73829e-02,-6.63661e+00,0.00000e+00,0.00000e+00,0.00000e+00
2.00520e+03,2.62450e-01,-5.30929e+00,0.00000e+00,0.00000e+00,0.00000e+00
2.00520e+03,6.02282e-01,-3.98196e+00,0.00000e+00,0.00000e+00,0.00000e+00
2.00520e+03,9.34067e-01,-2.65464e+00,0.00000e+00,0.00000e+00,0.00000e+00
2.00520e+03,1.26435e+00,-1.32732e+00,0.00000e+00,0.00000e+00,0.00000e+00
2.02480e+03,1.59367e+01,0.00000e+00,0.00000e+00,0.00000e+00,0.00000e+00
2.02480e+03,1.58564e+01,-1.21102e+00,0.00000e+00,0.00000e+00,0.00000e+00
2.02480e+03,1.57496e+01,-2.42204e+00,0.00000e+00,0.00000e+00,0.00000e+00
2.02480e+03,1.56418e+01,-3.63306e+00,0.00000e+00,0.00000e+00,0.00000e+00
2.02480e+03,1.55106e+01,-4.84408e+00,0.00000e+00,0.00000e+00,0.00000e+00
2.02480e+03,1.53739e+01,-6.05509e+00,0.00000e+00,0.00000e+00,0.00000e+00
2.02480e+03,1.52192e+01,-7.26611e+00,0.00000e+00,0.00000e+00,0.00000e+00
2.02480e+03,1.50559e+01,-8.47713e+00,0.00000e+00,0.00000e+00,0.00000e+00
2.02480e+03,1.48781e+01,-9.68815e+00,0.00000e+00,0.00000e+00,0.00000e+00
2.02480e+03,1.46884e+01,-1.08992e+01,0.00000e+00,0.00000e+00,0.00000e+00
2.02480e+03,1.44857e+01,-1.21102e+01,0.00000e+00,0.00000e+00,0.00000e+00
2.02480e+03,1.42672e+01,-1.33212e+01,0.00000e+00,0.00000e+00,0.00000e+00
2.02480e+03,1.40325e+01,-1.45322e+01,0.00000e+00,0.00000e+00,0.00000e+00
2.02480e+03,1.37750e+01,-1.57432e+01,0.00000e+00,0.00000e+00,0.00000e+00
2.02480e+03,1.34951e+01,-1.69543e+01,0.00000e+00,0.00000e+00,0.00000e+00
2.02480e+03,1.31886e+01,-1.81653e+01,0.00000e+00,0.00000e+00,0.00000e+00
2.02480e+03,1.28460e+01,-1.93763e+01,0.00000e+00,0.00000e+00,0.00000e+00
2.02480e+03,1.24782e+01,-2.05873e+01,0.00000e+00,0.00000e+00,0.00000e+00
2.02480e+03,1.20540e+01,-2.17983e+01,0.00000e+00,0.00000e+00,0.00000e+00
2.02480e+03,1.16063e+01,-2.30094e+01,0.00000e+00,0.00000e+00,0.00000e+00
2.02480e+03,1.10933e+01,-2.42204e+01,0.00000e+00,0.00000e+00,0.00000e+00
2.02480e+03,1.05280e+01,-2.54314e+01,0.00000e+00,0.00000e+00,0.00000e+00
2.02480e+03,9.90946e+00,-2.66424e+01,0.00000e+00,0.00000e+00,0.00000e+00
2.02480e+03,9.20158e+00,-2.78534e+01,0.00000e+00,0.00000e+00,0.00000e+00
2.02480e+03,8.39019e+00,-2.90645e+01,0.00000e+00,0.00000e+00,0.00000e+00
2.02480e+03,7.46181e+00,-3.02755e+01,0.00000e+00,0.00000e+00,0.00000e+00
2.02480e+03,6.36374e+00,-3.14865e+01,0.00000e+00,0.00000e+00,0.00000e+00
2.02480e+03,4.95429e+00,-3.26975e+01,0.00000e+00,0.00000e+00,0.00000e+00
2.02480e+03,3.04806e+00,-3.39085e+01,0.00000e+00,0.00000e+00,0.00000e+00
2.02480e+03,-1.23505e+00,-3.51195e+01,0.00000e+00,0.00000e+00,0.00000e+00
2.02480e+03,-1.54416e+00,-3.51224e+01,0.00000e+00,0.00000e+00,0.00000e+00
2.02480e+03,-4.36041e+00,-3.38680e+01,0.00000e+00,0.00000e+00,0.00000e+00
2.02480e+03,-4.70139e+00,-3.26136e+01,0.00000e+00,0.00000e+00,0.00000e+00
2.02480e+03,-4.81905e+00,-3.13592e+01,0.00000e+00,0.00000e+00,0.00000e+00
2.02480e+03,-4.83691e+00,-3.01049e+01,0.00000e+00,0.00000e+00,0.00000e+00
2.02480e+03,-4.77957e+00,-2.88505e+01,0.00000e+00,0.00000e+00,0.00000e+00
2.02480e+03,-4.67504e+00,-2.75961e+01,0.00000e+00,0.00000e+00,0.00000e+00
2.02480e+03,-4.52312e+00,-2.63418e+01,0.00000e+00,0.00000e+00,0.00000e+00
2.02480e+03,-4.34231e+00,-2.50874e+01,0.00000e+00,0.00000e+00,0.00000e+00
2.02480e+03,-4.14473e+00,-2.38330e+01,0.00000e+00,0.00000e+00,0.00000e+00
2.02480e+03,-3.92189e+00,-2.25787e+01,0.00000e+00,0.00000e+00,0.00000e+00
2.02480e+03,-3.68327e+00,-2.13243e+01,0.00000e+00,0.00000e+00,0.00000e+00
2.02480e+03,-3.42927e+00,-2.00699e+01,0.00000e+00,0.00000e+00,0.00000e+00
2.02480e+03,-3.15997e+00,-1.88155e+01,0.00000e+00,0.00000e+00,0.00000e+00
2.02480e+03,-2.88106e+00,-1.75612e+01,0.00000e+00,0.00000e+00,0.00000e+00
2.02480e+03,-2.58986e+00,-1.63068e+01,0.00000e+00,0.00000e+00,0.00000e+00
2.02480e+03,-2.29078e+00,-1.50524e+01,0.00000e+00,0.00000e+00,0.00000e+00
2.02480e+03,-1.98465e+00,-1.37981e+01,0.00000e+00,0.00000e+00,0.00000e+00
2.02480e+03,-1.67220e+00,-1.25437e+01,0.00000e+00,0.00000e+00,0.00000e+00
2.02480e+03,-1.35709e+00,-1.12893e+01,0.00000e+00,0.00000e+00,0.00000e+00
2.02480e+03,-1.03784e+00,-1.00350e+01,0.00000e+00,0.00000e+00,0.00000e+00
2.02480e+03,-7.17909e-01,-8.78059e+00,0.00000e+00,0.00000e+00,0.00000e+00
2.02480e+03,-3.95503e-01,-7.52622e+00,0.00000e+00,0.00000e+00,0.00000e+00
2.02480e+03,-7.31298e-02,-6.27185e+00,0.00000e+00,0.00000e+00,0.00000e+00
2.02480e+03,2.48025e-01,-5.01748e+00,0.00000e+00,0.00000e+00,0.00000e+00
2.02480e+03,5.69180e-01,-3.76311e+00,0.00000e+00,0.00000e+00,0.00000e+00
2.02480e+03,8.82730e-01,-2.50874e+00,0.00000e+00,0.00000e+00,0.00000e+00
2.02480e+03,1.19486e+00,-1.25437e+00,0.00000e+00,0.00000e+00,0.00000e+00
2.03880e+03,1.52746e+01,0.00000e+00,0.00000e+00,0.00000e+00,0.00000e+00
2.03880e+03,1.51977e+01,-1.16071e+00,0.00000e+00,0.00000e+00,0.00000e+00
2.03880e+03,1.50954e+01,-2.32142e+00,0.00000e+00,0.00000e+00,0.00000e+00
2.03880e+03,1.49920e+01,-3.48213e+00,0.00000e+00,0.00000e+00,0.00000e+00
2.03880e+03,1.48662e+01,-4.64285e+00,0.00000e+00,0.00000e+00,0.00000e+00
2.03880e+03,1.47352e+01,-5.80356e+00,0.00000e+00,0.00000e+00,0.00000e+00
2.03880e+03,1.45870e+01,-6.96427e+00,0.00000e+00,0.00000e+00,0.00000e+00
2.03880e+03,1.44304e+01,-8.12498e+00,0.00000e+00,0.00000e+00,0.00000e+00
2.03880e+03,1.42600e+01,-9.28569e+00,0.00000e+00,0.00000e+00,0.00000e+00
2.03880e+03,1.40782e+01,-1.04464e+01,0.00000e+00,0.00000e+00,0.00000e+00
2.03880e+03,1.38839e+01,-1.16071e+01,0.00000e+00,0.00000e+00,0.00000e+00
2.03880e+03,1.36745e+01,-1.27678e+01,0.00000e+00,0.00000e+00,0.00000e+00
2.03880e+03,1.34496e+01,-1.39285e+01,0.00000e+00,0.00000e+00,0.00000e+00
2.03880e+03,1.32028e+01,-1.50892e+01,0.00000e+00,0.00000e+00,0.00000e+00
2.03880e+03,1.29345e+01,-1.62500e+01,0.00000e+00,0.00000e+00,0.00000e+00
2.03880e+03,1.26407e+01,-1.74107e+01,0.00000e+00,0.00000e+00,0.00000e+00
2.03880e+03,1.23123e+01,-1.85714e+01,0.00000e+00,0.00000e+00,0.00000e+00
2.03880e+03,1.19599e+01,-1.97321e+01,0.00000e+00,0.00000e+00,0.00000e+00
2.03880e+03,1.15532e+01,-2.08928e+01,0.00000e+00,0.00000e+00,0.00000e+00
2.03880e+03,1.11241e+01,-2.20535e+01,0.00000e+00,0.00000e+00,0.00000e+00
2.03880e+03,1.06324e+01,-2.32142e+01,0.00000e+00,0.00000e+00,0.00000e+00
2.03880e+03,1.00906e+01,-2.43749e+01,0.00000e+00,0.00000e+00,0.00000e+00
2.03880e+03,9.49781e+00,-2.55357e+01,0.00000e+00,0.00000e+00,0.00000e+00
2.03880e+03,8.81933e+00,-2.66964e+01,0.00000e+00,0.00000e+00,0.00000e+00
2.03880e+03,8.04165e+00,-2.78571e+01,0.00000e+00,0.00000e+00,0.00000e+00
2.03880e+03,7.15183e+00,-2.90178e+01,0.00000e+00,0.00000e+00,0.00000e+00
2.03880e+03,6.09938e+00,-3.01785e+01,0.00000e+00,0.00000e+00,0.00000e+00
2.03880e+03,4.74849e+00,-3.13392e+01,0.00000e+00,0.00000e+00,0.00000e+00
2.03880e+03,2.92144e+00,-3.24999e+01,0.00000e+00,0.00000e+00,0.00000e+00
2.03880e+03,-1.18374e+00,-3.36606e+01,0.00000e+00,0.00000e+00,0.00000e+00
2.03880e+03,-1.48002e+00,-3.36633e+01,0.00000e+00,0.00000e+00,0.00000e+00
2.03880e+03,-4.17927e+00,-3.24611e+01,0.00000e+00,0.00000e+00,0.00000e+00
2.03880e+03,-4.50609e+00,-3.12588e+01,0.00000e+00,0.00000e+00,0.00000e+00
2.03880e+03,-4.61886e+00,-3.00565e+01,0.00000e+00,0.00000e+00,0.00000e+00
2.03880e+03,-4.63598e+00,-2.88543e+01,0.00000e+00,0.00000e+00,0.00000e+00
2.03880e+03,-4.58102e+00,-2.76520e+01,0.00000e+00,0.00000e+00,0.00000e+00
2.03880e+03,-4.48083e+00,-2.64498e+01,0.00000e+00,0.00000e+00,0.00000e+00
2.03880e+03,-4.33523e+00,-2.52475e+01,0.00000e+00,0.00000e+00,0.00000e+00
2.03880e+03,-4.16192e+00,-2.40452e+01,0.00000e+00,0.00000e+00,0.00000e+00
2.03880e+03,-3.97255e+00,-2.28430e+01,0.00000e+00,0.00000e+00,0.00000e+00
2.03880e+03,-3.75897e+00,-2.16407e+01,0.00000e+00,0.00000e+00,0.00000e+00
2.03880e+03,-3.53026e+00,-2.04384e+01,0.00000e+00,0.00000e+00,0.00000e+00
2.03880e+03,-3.28682e+00,-1.92362e+01,0.00000e+00,0.00000e+00,0.00000e+00
2.03880e+03,-3.02870e+00,-1.80339e+01,0.00000e+00,0.00000e+00,0.00000e+00
2.03880e+03,-2.76138e+00,-1.68317e+01,0.00000e+00,0.00000e+00,0.00000e+00
2.03880e+03,-2.48228e+00,-1.56294e+01,0.00000e+00,0.00000e+00,0.00000e+00
2.03880e+03,-2.19562e+00,-1.44271e+01,0.00000e+00,0.00000e+00,0.00000e+00
2.03880e+03,-1.90220e+00,-1.32249e+01,0.00000e+00,0.00000e+00,0.00000e+00
2.03880e+03,-1.60274e+00,-1.20226e+01,0.00000e+00,0.00000e+00,0.00000e+00
2.03880e+03,-1.30072e+00,-1.08204e+01,0.00000e+00,0.00000e+00,0.00000e+00
2.03880e+03,-9.94731e-01,-9.61809e+00,0.00000e+00,0.00000e+00,0.00000e+00
2.03880e+03,-6.88086e-01,-8.41583e+00,0.00000e+00,0.00000e+00,0.00000e+00
2.03880e+03,-3.79073e-01,-7.21357e+00,0.00000e+00,0.00000e+00,0.00000e+00
2.03880e+03,-7.00919e-02,-6.01131e+00,0.00000e+00,0.00000e+00,0.00000e+00
2.03880e+03,2.37722e-01,-4.80905e+00,0.00000e+00,0.00000e+00,0.00000e+00
2.03880e+03,5.45535e-01,-3.60678e+00,0.00000e+00,0.00000e+00,0.00000e+00
2.03880e+03,8.46060e-01,-2.40452e+00,0.00000e+00,0.00000e+00,0.00000e+00
2.03880e+03,1.14523e+00,-1.20226e+00,0.00000e+00,0.00000e+00,0.00000e+00
2.04720e+03,1.48774e+01,0.00000e+00,0.00000e+00,0.00000e+00,0.00000e+00
2.04720e+03,1.48025e+01,-1.13053e+00,0.00000e+00,0.00000e+00,0.00000e+00
2.04720e+03,1.47028e+01,-2.26105e+00,0.00000e+00,0.00000e+00,0.00000e+00
2.04720e+03,1.46021e+01,-3.39158e+00,0.00000e+00,0.00000e+00,0.00000e+00
2.04720e+03,1.44796e+01,-4.52211e+00,0.00000e+00,0.00000e+00,0.00000e+00
2.04720e+03,1.43520e+01,-5.65264e+00,0.00000e+00,0.00000e+00,0.00000e+00
2.04720e+03,1.42077e+01,-6.78316e+00,0.00000e+00,0.00000e+00,0.00000e+00
2.04720e+03,1.40552e+01,-7.91369e+00,0.00000e+00,0.00000e+00,0.00000e+00
2.04720e+03,1.38892e+01,-9.04422e+00,0.00000e+00,0.00000e+00,0.00000e+00
2.04720e+03,1.37121e+01,-1.01747e+01,0.00000e+00,0.00000e+00,0.00000e+00
2.04720e+03,1.35229e+01,-1.13053e+01,0.00000e+00,0.00000e+00,0.00000e+00
2.04720e+03,1.33189e+01,-1.24358e+01,0.00000e+00,0.00000e+00,0.00000e+00
2.04720e+03,1.30998e+01,-1.35663e+01,0.00000e+00,0.00000e+00,0.00000e+00
2.04720e+03,1.28594e+01,-1.46969e+01,0.00000e+00,0.00000e+00,0.00000e+00
2.04720e+03,1.25982e+01,-1.58274e+01,0.00000e+00,0.00000e+00,0.00000e+00
2.04720e+03,1.23120e+01,-1.69579e+01,0.00000e+00,0.00000e+00,0.00000e+00
2.04720e+03,1.19922e+01,-1.80884e+01,0.00000e+00,0.00000e+00,0.00000e+00
2.04720e+03,1.16489e+01,-1.92190e+01,0.00000e+00,0.00000e+00,0.00000e+00
2.04720e+03,1.12528e+01,-2.03495e+01,0.00000e+00,0.00000e+00,0.00000e+00
2.04720e+03,1.08348e+01,-2.14800e+01,0.00000e+00,0.00000e+00,0.00000e+00
2.04720e+03,1.03559e+01,-2.26105e+01,0.00000e+00,0.00000e+00,0.00000e+00
2.04720e+03,9.82823e+00,-2.37411e+01,0.00000e+00,0.00000e+00,0.00000e+00
2.04720e+03,9.25081e+00,-2.48716e+01,0.00000e+00,0.00000e+00,0.00000e+00
2.04720e+03,8.58998e+00,-2.60021e+01,0.00000e+00,0.00000e+00,0.00000e+00
2.04720e+03,7.83252e+00,-2.71326e+01,0.00000e+00,0.00000e+00,0.00000e+00
2.04720e+03,6.96585e+00,-2.82632e+01,0.00000e+00,0.00000e+00,0.00000e+00
2.04720e+03,5.94077e+00,-2.93937e+01,0.00000e+00,0.00000e+00,0.00000e+00
2.04720e+03,4.62500e+00,-3.05242e+01,0.00000e+00,0.00000e+00,0.00000e+00
2.04720e+03,2.84547e+00,-3.16548e+01,0.00000e+00,0.00000e+00,0.00000e+00
2.04720e+03,-1.15296e+00,-3.27853e+01,0.00000e+00,0.00000e+00,0.00000e+00
2.04720e+03,-1.44153e+00,-3.27879e+01,0.00000e+00,0.00000e+00,0.00000e+00
2.04720e+03,-4.07059e+00,-3.16169e+01,0.00000e+00,0.00000e+00,0.00000e+00
2.04720e+03,-4.38891e+00,-3.04459e+01,0.00000e+00,0.00000e+00,0.00000e+00
2.04720e+03,-4.49875e+00,-2.92749e+01,0.00000e+00,0.00000e+00,0.00000e+00
2.04720e+03,-4.51542e+00,-2.81039e+01,0.00000e+00,0.00000e+00,0.00000e+00
2.04720e+03,-4.46189e+00,-2.69329e+01,0.00000e+00,0.00000e+00,0.00000e+00
2.04720e+03,-4.36430e+00,-2.57619e+01,0.00000e+00,0.00000e+00,0.00000e+00
2.04720e+03,-4.22249e+00,-2.45909e+01,0.00000e+00,0.00000e+00,0.00000e+00
2.04720e+03,-4.05369e+00,-2.34199e+01,0.00000e+00,0.00000e+00,0.00000e+00
2.04720e+03,-3.86924e+00,-2.22489e+01,0.00000e+00,0.00000e+00,0.00000e+00
2.04720e+03,-3.66121e+00,-2.10779e+01,0.00000e+00,0.00000e+00,0.00000e+00
2.04720e+03,-3.43845e+00,-1.99069e+01,0.00000e+00,0.00000e+00,0.00000e+00
2.04720e+03,-3.20134e+00,-1.87359e+01,0.00000e+00,0.00000e+00,0.00000e+00
2.04720e+03,-2.94994e+00,-1.75649e+01,0.00000e+00,0.00000e+00,0.00000e+00
2.04720e+03,-2.68957e+00,-1.63940e+01,0.00000e+00,0.00000e+00,0.00000e+00
2.04720e+03,-2.41772e+00,-1.52230e+01,0.00000e+00,0.00000e+00,0.00000e+00
2.04720e+03,-2.13852e+00,-1.40520e+01,0.00000e+00,0.00000e+00,0.00000e+00
2.04720e+03,-1.85273e+00,-1.28810e+01,0.00000e+00,0.00000e+00,0.00000e+00
2.04720e+03,-1.56106e+00,-1.17100e+01,0.00000e+00,0.00000e+00,0.00000e+00
2.04720e+03,-1.26689e+00,-1.05390e+01,0.00000e+00,0.00000e+00,0.00000e+00
2.04720e+03,-9.68863e-01,-9.36797e+00,0.00000e+00,0.00000e+00,0.00000e+00
2.04720e+03,-6.70192e-01,-8.19698e+00,0.00000e+00,0.00000e+00,0.00000e+00
2.04720e+03,-3.69215e-01,-7.02598e+00,0.00000e+00,0.00000e+00,0.00000e+00
2.04720e+03,-6.82691e-02,-5.85498e+00,0.00000e+00,0.00000e+00,0.00000e+00
2.04720e+03,2.31540e-01,-4.68399e+00,0.00000e+00,0.00000e+00,0.00000e+00
2.04720e+03,5.31348e-01,-3.51299e+00,0.00000e+00,0.00000e+00,0.00000e+00
2.04720e+03,8.24058e-01,-2.34199e+00,0.00000e+00,0.00000e+00,0.00000e+00
2.04720e+03,1.11544e+00,-1.17100e+00,0.00000e+00,0.00000e+00,0.00000e+00
2.05000e+03,1.47450e+01,0.00000e+00,0.00000e+00,0.00000e+00,0.00000e+00
2.05000e+03,1.46708e+01,-1.12047e+00,0.00000e+00,0.00000e+00,0.00000e+00
2.05000e+03,1.45720e+01,-2.24093e+00,0.00000e+00,0.00000e+00,0.00000e+00
2.05000e+03,1.44722e+01,-3.36140e+00,0.00000e+00,0.00000e+00,0.00000e+00
2.05000e+03,1.43508e+01,-4.48186e+00,0.00000e+00,0.00000e+00,0.00000e+00
2.05000e+03,1.42243e+01,-5.60233e+00,0.00000e+00,0.00000e+00,0.00000e+00
2.05000e+03,1.40812e+01,-6.72279e+00,0.00000e+00,0.00000e+00,0.00000e+00
2.05000e+03,1.39301e+01,-7.84326e+00,0.00000e+00,0.00000e+00,0.00000e+00
2.05000e+03,1.37656e+01,-8.96372e+00,0.00000e+00,0.00000e+00,0.00000e+00
2.05000e+03,1.35901e+01,-1.00842e+01,0.00000e+00,0.00000e+00,0.00000e+00
2.05000e+03,1.34025e+01,-1.12047e+01,0.00000e+00,0.00000e+00,0.00000e+00
2.05000e+03,1.32004e+01,-1.23251e+01,0.00000e+00,0.00000e+00,0.00000e+00
2.05000e+03,1.29833e+01,-1.34456e+01,0.00000e+00,0.00000e+00,0.00000e+00
2.05000e+03,1.27450e+01,-1.45661e+01,0.00000e+00,0.00000e+00,0.00000e+00
2.05000e+03,1.24860e+01,-1.56865e+01,0.00000e+00,0.00000e+00,0.00000e+00
2.05000e+03,1.22024e+01,-1.68070e+01,0.00000e+00,0.00000e+00,0.00000e+00
2.05000e+03,1.18854e+01,-1.79274e+01,0.00000e+00,0.00000e+00,0.00000e+00
2.05000e+03,1.15452e+01,-1.90479e+01,0.00000e+00,0.00000e+00,0.00000e+00
2.05000e+03,1.11526e+01,-2.01684e+01,0.00000e+00,0.00000e+00,0.00000e+00
2.05000e+03,1.07384e+01,-2.12888e+01,0.00000e+00,0.00000e+00,0.00000e+00
2.05000e+03,1.02638e+01,-2.24093e+01,0.00000e+00,0.00000e+00,0.00000e+00
2.05000e+03,9.74076e+00,-2.35298e+01,0.00000e+00,0.00000e+00,0.00000e+00
2.05000e+03,9.16848e+00,-2.46502e+01,0.00000e+00,0.00000e+00,0.00000e+00
2.05000e+03,8.51353e+00,-2.57707e+01,0.00000e+00,0.00000e+00,0.00000e+00
2.05000e+03,7.76281e+00,-2.68912e+01,0.00000e+00,0.00000e+00,0.00000e+00
2.05000e+03,6.90385e+00,-2.80116e+01,0.00000e+00,0.00000e+00,0.00000e+00
2.05000e+03,5.88790e+00,-2.91321e+01,0.00000e+00,0.00000e+00,0.00000e+00
2.05000e+03,4.58384e+00,-3.02526e+01,0.00000e+00,0.00000e+00,0.00000e+00
2.05000e+03,2.82014e+00,-3.13730e+01,0.00000e+00,0.00000e+00,0.00000e+00
2.05000e+03,-1.14270e+00,-3.24935e+01,0.00000e+00,0.00000e+00,0.00000e+00
2.05000e+03,-1.42870e+00,-3.24961e+01,0.00000e+00,0.00000e+00,0.00000e+00
2.05000e+03,-4.03436e+00,-3.13355e+01,0.00000e+00,0.00000e+00,0.00000e+00
2.05000e+03,-4.34985e+00,-3.01749e+01,0.00000e+00,0.00000e+00,0.00000e+00
2.05000e+03,-4.45871e+00,-2.90144e+01,0.00000e+00,0.00000e+00,0.00000e+00
2.05000e+03,-4.47523e+00,-2.78538e+01,0.00000e+00,0.00000e+00,0.00000e+00
2.05000e+03,-4.42218e+00,-2.66932e+01,0.00000e+00,0.00000e+00,0.00000e+00
2.05000e+03,-4.32546e+00,-2.55327e+01,0.00000e+00,0.00000e+00,0.00000e+00
2.05000e+03,-4.18491e+00,-2.43721e+01,0.00000e+00,0.00000e+00,0.00000e+00
2.05000e+03,-4.01761e+00,-2.32115e+01,0.00000e+00,0.00000e+00,0.00000e+00
2.05000e+03,-3.83480e+00,-2.20509e+01,0.00000e+00,0.00000e+00,0.00000e+00
2.05000e+03,-3.62863e+00,-2.08903e+01,0.00000e+00,0.00000e+00,0.00000e+00
2.05000e+03,-3.40785e+00,-1.97298e+01,0.00000e+00,0.00000e+00,0.00000e+00
2.05000e+03,-3.17285e+00,-1.85692e+01,0.00000e+00,0.00000e+00,0.00000e+00
2.05000e+03,-2.92368e+00,-1.74086e+01,0.00000e+00,0.00000e+00,0.00000e+00
2.05000e+03,-2.66563e+00,-1.62480e+01,0.00000e+00,0.00000e+00,0.00000e+00
2.05000e+03,-2.39621e+00,-1.50875e+01,0.00000e+00,0.00000e+00,0.00000e+00
2.05000e+03,-2.11949e+00,-1.39269e+01,0.00000e+00,0.00000e+00,0.00000e+00
2.05000e+03,-1.83624e+00,-1.27663e+01,0.00000e+00,0.00000e+00,0.00000e+00
2.05000e+03,-1.54717e+00,-1.16057e+01,0.00000e+00,0.00000e+00,0.00000e+00
2.05000e+03,-1.25562e+00,-1.04452e+01,0.00000e+00,0.00000e+00,0.00000e+00
2.05000e+03,-9.60241e-01,-9.28460e+00,0.00000e+00,0.00000e+00,0.00000e+00
2.05000e+03,-6.64227e-01,-8.12402e+00,0.00000e+00,0.00000e+00,0.00000e+00
2.05000e+03,-3.65929e-01,-6.96345e+00,0.00000e+00,0.00000e+00,0.00000e+00
2.05000e+03,-6.76615e-02,-5.80287e+00,0.00000e+00,0.00000e+00,0.00000e+00
2.05000e+03,2.29479e-01,-4.64230e+00,0.00000e+00,0.00000e+00,0.00000e+00
2.05000e+03,5.26620e-01,-3.48173e+00,0.00000e+00,0.00000e+00,0.00000e+00
2.05000e+03,8.16724e-01,-2.32115e+00,0.00000e+00,0.00000e+00,0.00000e+00
2.05000e+03,1.10552e+00,-1.16058e+00,0.00000e+00,0.00000e+00,0.00000e+00
--------------------------------------------------------------------------------------------------------------------------------------------------------------------------------------------------------------------------------------------------------------------------------------------------------------------------------------------------------------------------------

ALMA 
--------------------------------------------------------------------------------------------------------------------------------------------------------------------------------------------------------------------------------------------------------------------------------------------------------------------------------------------------------------------------------
X,Y,Z,Sigma,Tau,Von Mises
0.00000e+00,4.05613e+00,0.00000e+00,1.53680e-01,6.22987e-01,1.08993e+00
0.00000e+00,1.70710e+01,0.00000e+00,6.20209e-02,6.23588e-01,1.08186e+00
0.00000e+00,3.00859e+01,0.00000e+00,-2.96377e-02,6.23588e-01,1.08049e+00
0.00000e+00,4.31008e+01,0.00000e+00,-1.21296e-01,6.23000e-01,1.08586e+00
1.07300e+02,4.01639e+00,0.00000e+00,1.37947e-01,5.90861e-01,1.03266e+00
1.07300e+02,1.69038e+01,0.00000e+00,5.56749e-02,5.91425e-01,1.02589e+00
1.07300e+02,2.97912e+01,0.00000e+00,-2.65975e-02,5.91425e-01,1.02472e+00
1.07300e+02,4.26785e+01,0.00000e+00,-1.08870e-01,5.90872e-01,1.02920e+00
2.14300e+02,3.97676e+00,0.00000e+00,1.22994e-01,5.58626e-01,9.75355e-01
2.14300e+02,1.67370e+01,0.00000e+00,4.96453e-02,5.59156e-01,9.69758e-01
2.14300e+02,2.94972e+01,0.00000e+00,-2.37037e-02,5.59156e-01,9.68776e-01
2.14300e+02,4.22575e+01,0.00000e+00,-9.70528e-02,5.58637e-01,9.72443e-01
3.20700e+02,3.93736e+00,0.00000e+00,1.08873e-01,5.25689e-01,9.17006e-01
3.20700e+02,1.65712e+01,0.00000e+00,4.39527e-02,5.26183e-01,9.12435e-01
3.20700e+02,2.92050e+01,0.00000e+00,-2.09678e-02,5.26183e-01,9.11617e-01
3.20700e+02,4.18388e+01,0.00000e+00,-8.58883e-02,5.25699e-01,9.14579e-01
4.26200e+02,3.89829e+00,0.00000e+00,9.56345e-02,4.92572e-01,8.58503e-01
4.26200e+02,1.64067e+01,0.00000e+00,3.86167e-02,4.93031e-01,8.54828e-01
4.26200e+02,2.89151e+01,0.00000e+00,-1.84011e-02,4.93031e-01,8.54153e-01
4.26200e+02,4.14236e+01,0.00000e+00,-7.54189e-02,4.92581e-01,8.56503e-01
5.30600e+02,3.85963e+00,0.00000e+00,8.32988e-02,4.59347e-01,7.99960e-01
5.30600e+02,1.62440e+01,0.00000e+00,3.36452e-02,4.59771e-01,7.97058e-01
5.30600e+02,2.86284e+01,0.00000e+00,-1.60084e-02,4.59771e-01,7.96508e-01
5.30600e+02,4.10127e+01,0.00000e+00,-6.56620e-02,4.59355e-01,7.98331e-01
6.33500e+02,3.82152e+00,0.00000e+00,7.19030e-02,4.26154e-01,7.41614e-01
6.33500e+02,1.60836e+01,0.00000e+00,2.90528e-02,4.26545e-01,7.39369e-01
6.33500e+02,2.83457e+01,0.00000e+00,-1.37975e-02,4.26545e-01,7.38927e-01
6.33500e+02,4.06078e+01,0.00000e+00,-5.66477e-02,4.26162e-01,7.40304e-01
7.34700e+02,3.78404e+00,0.00000e+00,6.14523e-02,3.93057e-01,6.83562e-01
7.34700e+02,1.59259e+01,0.00000e+00,2.48412e-02,3.93415e-01,6.81867e-01
7.34700e+02,2.80677e+01,0.00000e+00,-1.17700e-02,3.93415e-01,6.81516e-01
7.34700e+02,4.02095e+01,0.00000e+00,-4.83811e-02,3.93064e-01,6.82523e-01
8.33800e+02,3.74734e+00,0.00000e+00,5.19633e-02,3.60239e-01,6.26112e-01
8.33800e+02,1.57714e+01,0.00000e+00,2.10168e-02,3.60565e-01,6.24870e-01
8.33800e+02,2.77955e+01,0.00000e+00,-9.92966e-03,3.60565e-01,6.24596e-01
8.33800e+02,3.98196e+01,0.00000e+00,-4.08762e-02,3.60245e-01,6.25300e-01
9.30700e+02,3.71145e+00,0.00000e+00,4.34139e-02,3.27730e-01,5.69303e-01
9.30700e+02,1.56204e+01,0.00000e+00,1.75707e-02,3.28025e-01,5.68427e-01
9.30700e+02,2.75293e+01,0.00000e+00,-8.27254e-03,3.28025e-01,5.68216e-01
9.30700e+02,3.94382e+01,0.00000e+00,-3.41158e-02,3.27736e-01,5.68679e-01
1.02500e+03,3.67653e+00,0.00000e+00,3.57960e-02,2.95980e-01,5.13900e-01
1.02500e+03,1.54734e+01,0.00000e+00,1.44996e-02,2.96245e-01,5.13316e-01
1.02500e+03,2.72703e+01,0.00000e+00,-6.79682e-03,2.96245e-01,5.13157e-01
1.02500e+03,3.90671e+01,0.00000e+00,-2.80933e-02,2.95985e-01,5.13430e-01
1.11650e+03,3.64264e+00,0.00000e+00,2.90801e-02,2.64538e-01,4.59115e-01
1.11650e+03,1.53308e+01,0.00000e+00,1.17917e-02,2.64774e-01,4.58754e-01
1.11650e+03,2.70189e+01,0.00000e+00,-5.49684e-03,2.64774e-01,4.58636e-01
1.11650e+03,3.87070e+01,0.00000e+00,-2.27853e-02,2.64543e-01,4.58767e-01
1.20500e+03,3.54704e+00,0.00000e+00,3.34126e-02,2.37406e-01,4.12555e-01
1.20500e+03,1.49284e+01,0.00000e+00,1.36852e-02,2.37701e-01,4.11937e-01
1.20500e+03,2.63098e+01,0.00000e+00,-6.04219e-03,2.37701e-01,4.11754e-01
1.20500e+03,3.76912e+01,0.00000e+00,-2.57696e-02,2.37414e-01,4.12020e-01
1.29010e+03,3.41832e+00,0.00000e+00,2.70920e-02,2.16303e-01,3.75627e-01
1.29010e+03,1.43867e+01,0.00000e+00,1.11070e-02,2.16562e-01,3.75261e-01
1.29010e+03,2.53550e+01,0.00000e+00,-4.87801e-03,2.16562e-01,3.75129e-01
1.29010e+03,3.63234e+01,0.00000e+00,-2.08630e-02,2.16310e-01,3.75240e-01
1.37170e+03,3.29489e+00,0.00000e+00,2.14895e-02,1.94572e-01,3.37693e-01
1.37170e+03,1.38672e+01,0.00000e+00,8.82289e-03,1.94797e-01,3.37513e-01
1.37170e+03,2.44395e+01,0.00000e+00,-3.84376e-03,1.94797e-01,3.37419e-01
1.37170e+03,3.50118e+01,0.00000e+00,-1.65104e-02,1.94577e-01,3.37422e-01
1.44960e+03,3.17706e+00,0.00000e+00,1.66126e-02,1.72535e-01,2.99301e-01
1.44960e+03,1.33713e+01,0.00000e+00,6.83457e-03,1.72728e-01,2.99251e-01
1.44960e+03,2.35655e+01,0.00000e+00,-2.94349e-03,1.72728e-01,2.99188e-01
1.44960e+03,3.37597e+01,0.00000e+00,-1.27215e-02,1.72540e-01,2.99119e-01
1.52340e+03,3.06543e+00,0.00000e+00,1.24734e-02,1.49815e-01,2.59787e-01
1.52340e+03,1.29015e+01,0.00000e+00,5.14599e-03,1.49976e-01,2.59818e-01
1.52340e+03,2.27375e+01,0.00000e+00,-2.18143e-03,1.49976e-01,2.59776e-01
1.52340e+03,3.25736e+01,0.00000e+00,-9.50885e-03,1.49819e-01,2.59668e-01
1.59310e+03,2.96000e+00,0.00000e+00,9.05017e-03,1.27044e-01,2.20232e-01
1.59310e+03,1.24578e+01,0.00000e+00,3.74745e-03,1.27176e-01,2.20307e-01
1.59310e+03,2.19555e+01,0.00000e+00,-1.55527e-03,1.27176e-01,2.20280e-01
1.59310e+03,3.14533e+01,0.00000e+00,-6.85799e-03,1.27047e-01,2.20158e-01
1.65850e+03,2.86108e+00,0.00000e+00,6.31128e-03,1.04588e-01,1.81261e-01
1.65850e+03,1.20414e+01,0.00000e+00,2.62566e-03,1.04693e-01,1.81352e-01
1.65850e+03,2.12218e+01,0.00000e+00,-1.05995e-03,1.04693e-01,1.81336e-01
1.65850e+03,3.04021e+01,0.00000e+00,-4.74557e-03,1.04590e-01,1.81217e-01
1.71930e+03,2.76911e+00,0.00000e+00,4.21242e-03,8.26956e-02,1.43295e-01
1.71930e+03,1.16544e+01,0.00000e+00,1.76286e-03,8.27757e-02,1.43383e-01
1.71930e+03,2.05396e+01,0.00000e+00,-6.86704e-04,8.27757e-02,1.43373e-01
1.71930e+03,2.94249e+01,0.00000e+00,-3.13626e-03,8.26973e-02,1.43270e-01
1.77540e+03,2.60964e+00,0.00000e+00,4.88822e-03,1.05828e-01,1.83364e-01
1.77540e+03,1.09832e+01,0.00000e+00,2.10465e-03,1.05931e-01,1.83490e-01
1.77540e+03,1.93567e+01,0.00000e+00,-6.78910e-04,1.05931e-01,1.83479e-01
1.77540e+03,2.77303e+01,0.00000e+00,-3.46247e-03,1.05832e-01,1.83338e-01
1.82660e+03,2.38179e+00,0.00000e+00,3.20674e-03,8.36545e-02,1.44929e-01
1.82660e+03,1.00242e+01,0.00000e+00,1.39136e-03,8.37284e-02,1.45029e-01
1.82660e+03,1.76667e+01,0.00000e+00,-4.24025e-04,8.37284e-02,1.45022e-01
1.82660e+03,2.53092e+01,0.00000e+00,-2.23941e-03,8.36571e-02,1.44916e-01
1.87280e+03,2.17619e+00,0.00000e+00,1.98701e-03,6.42764e-02,1.11348e-01
1.87280e+03,9.15894e+00,0.00000e+00,8.71613e-04,6.43273e-02,1.11421e-01
1.87280e+03,1.61417e+01,0.00000e+00,-2.43788e-04,6.43273e-02,1.11418e-01
1.87280e+03,2.31244e+01,0.00000e+00,-1.35919e-03,6.42780e-02,1.11341e-01
1.91380e+03,1.99374e+00,0.00000e+00,1.14709e-03,4.77018e-02,8.26299e-02
1.91380e+03,8.39104e+00,0.00000e+00,5.10464e-04,4.77354e-02,8.26816e-02
1.91380e+03,1.47883e+01,0.00000e+00,-1.26165e-04,4.77354e-02,8.26802e-02
1.91380e+03,2.11856e+01,0.00000e+00,-7.62794e-04,4.77028e-02,8.26272e-02
1.94970e+03,1.83398e+00,0.00000e+00,6.01239e-04,3.37140e-02,5.83975e-02
1.94970e+03,7.71865e+00,0.00000e+00,2.72598e-04,3.37349e-02,5.84312e-02
1.94970e+03,1.36033e+01,0.00000e+00,-5.60426e-05,3.37349e-02,5.84306e-02
1.94970e+03,1.94880e+01,0.00000e+00,-3.84683e-04,3.37146e-02,5.83967e-02
1.98010e+03,1.69869e+00,0.00000e+00,2.78124e-04,2.23334e-02,3.86836e-02
1.98010e+03,7.14927e+00,0.00000e+00,1.29176e-04,2.23455e-02,3.87038e-02
1.98010e+03,1.25999e+01,0.00000e+00,-1.97719e-05,2.23455e-02,3.87036e-02
1.98010e+03,1.80504e+01,0.00000e+00,-1.68720e-04,2.23337e-02,3.86835e-02
2.00520e+03,1.58699e+00,0.00000e+00,1.06620e-04,1.33839e-02,2.31819e-02
2.00520e+03,6.67917e+00,0.00000e+00,5.11363e-05,1.33902e-02,2.31925e-02
2.00520e+03,1.17713e+01,0.00000e+00,-4.34782e-06,1.33902e-02,2.31924e-02
2.00520e+03,1.68635e+01,0.00000e+00,-5.98319e-05,1.33841e-02,2.31820e-02
2.02480e+03,1.49977e+00,0.00000e+00,3.07607e-05,6.84991e-03,1.18644e-02
2.02480e+03,6.31207e+00,0.00000e+00,1.54285e-05,6.85260e-03,1.18691e-02
2.02480e+03,1.11244e+01,0.00000e+00,9.63978e-08,6.85260e-03,1.18690e-02
2.02480e+03,1.59367e+01,0.00000e+00,-1.52357e-05,6.84997e-03,1.18645e-02
2.03880e+03,1.43746e+00,0.00000e+00,5.63745e-06,2.65116e-03,4.59194e-03
2.03880e+03,6.04986e+00,0.00000e+00,3.02845e-06,2.65197e-03,4.59335e-03
2.03880e+03,1.06622e+01,0.00000e+00,4.19453e-07,2.65197e-03,4.59335e-03
2.03880e+03,1.52746e+01,0.00000e+00,-2.18954e-06,2.65117e-03,4.59197e-03
2.04720e+03,1.40008e+00,0.00000e+00,7.60728e-07,5.25590e-04,9.10348e-04
2.04720e+03,5.89253e+00,0.00000e+00,4.48261e-07,5.25685e-04,9.10514e-04
2.04720e+03,1.03850e+01,0.00000e+00,1.35793e-07,5.25685e-04,9.10514e-04
2.04720e+03,1.48774e+01,0.00000e+00,-1.76674e-07,5.25592e-04,9.10352e-04
2.05000e+03,1.38762e+00,0.00000e+00,0.00000e+00,0.00000e+00,0.00000e+00
2.05000e+03,5.84009e+00,0.00000e+00,0.00000e+00,0.00000e+00,0.00000e+00
2.05000e+03,1.02925e+01,0.00000e+00,0.00000e+00,0.00000e+00,0.00000e+00
2.05000e+03,1.47450e+01,0.00000e+00,0.00000e+00,0.00000e+00,0.00000e+00
MESA INFERIOR 
--------------------------------------------------------------------------------------------------------------------------------------------------------------------------------------------------------------------------------------------------------------------------------------------------------------------------------------------------------------------------------
X,Y,Z,Sigma,Von Mises
0.00000e+00,4.05613e+00,0.00000e+00,0.00000e+00,0.00000e+00
1.07300e+02,4.01639e+00,0.00000e+00,0.00000e+00,0.00000e+00
2.14300e+02,3.97676e+00,0.00000e+00,0.00000e+00,0.00000e+00
3.20700e+02,3.93736e+00,0.00000e+00,0.00000e+00,0.00000e+00
4.26200e+02,3.89829e+00,0.00000e+00,0.00000e+00,0.00000e+00
5.30600e+02,3.85963e+00,0.00000e+00,0.00000e+00,0.00000e+00
6.33500e+02,3.82152e+00,0.00000e+00,0.00000e+00,0.00000e+00
7.34700e+02,3.78404e+00,0.00000e+00,0.00000e+00,0.00000e+00
8.33800e+02,3.74734e+00,0.00000e+00,0.00000e+00,0.00000e+00
9.30700e+02,3.71145e+00,0.00000e+00,0.00000e+00,0.00000e+00
1.02500e+03,3.67653e+00,0.00000e+00,0.00000e+00,0.00000e+00
1.11650e+03,3.64264e+00,0.00000e+00,0.00000e+00,0.00000e+00
1.20500e+03,3.54704e+00,0.00000e+00,0.00000e+00,0.00000e+00
1.29010e+03,3.41832e+00,0.00000e+00,0.00000e+00,0.00000e+00
1.37170e+03,3.29489e+00,0.00000e+00,0.00000e+00,0.00000e+00
1.44960e+03,3.17706e+00,0.00000e+00,0.00000e+00,0.00000e+00
1.52340e+03,3.06543e+00,0.00000e+00,0.00000e+00,0.00000e+00
1.59310e+03,2.96000e+00,0.00000e+00,0.00000e+00,0.00000e+00
1.65850e+03,2.86108e+00,0.00000e+00,0.00000e+00,0.00000e+00
1.71930e+03,2.76911e+00,0.00000e+00,0.00000e+00,0.00000e+00
1.77540e+03,2.60964e+00,0.00000e+00,0.00000e+00,0.00000e+00
1.82660e+03,2.38179e+00,0.00000e+00,0.00000e+00,0.00000e+00
1.87280e+03,2.17619e+00,0.00000e+00,0.00000e+00,0.00000e+00
1.91380e+03,1.99374e+00,0.00000e+00,0.00000e+00,0.00000e+00
1.94970e+03,1.83398e+00,0.00000e+00,0.00000e+00,0.00000e+00
1.98010e+03,1.69869e+00,0.00000e+00,0.00000e+00,0.00000e+00
2.00520e+03,1.58699e+00,0.00000e+00,0.00000e+00,0.00000e+00
2.02480e+03,1.49977e+00,0.00000e+00,0.00000e+00,0.00000e+00
2.03880e+03,1.43746e+00,0.00000e+00,0.00000e+00,0.00000e+00
2.04720e+03,1.40008e+00,0.00000e+00,0.00000e+00,0.00000e+00
2.05000e+03,1.38762e+00,0.00000e+00,0.00000e+00,0.00000e+00
--------------------------------------------------------------------------------------------------------------------------------------------------------------------------------------------------------------------------------------------------------------------------------------------------------------------------------------------------------------------------------

MESA SUPERIOR 
--------------------------------------------------------------------------------------------------------------------------------------------------------------------------------------------------------------------------------------------------------------------------------------------------------------------------------------------------------------------------------
X,Y,Z,Sigma,Von Mises
0.00000e+00,4.31008e+01,0.00000e+00,0.00000e+00,0.00000e+00
1.07300e+02,4.26785e+01,0.00000e+00,0.00000e+00,0.00000e+00
2.14300e+02,4.22575e+01,0.00000e+00,0.00000e+00,0.00000e+00
3.20700e+02,4.18388e+01,0.00000e+00,0.00000e+00,0.00000e+00
4.26200e+02,4.14236e+01,0.00000e+00,0.00000e+00,0.00000e+00
5.30600e+02,4.10127e+01,0.00000e+00,0.00000e+00,0.00000e+00
6.33500e+02,4.06078e+01,0.00000e+00,0.00000e+00,0.00000e+00
7.34700e+02,4.02095e+01,0.00000e+00,0.00000e+00,0.00000e+00
8.33800e+02,3.98196e+01,0.00000e+00,0.00000e+00,0.00000e+00
9.30700e+02,3.94382e+01,0.00000e+00,0.00000e+00,0.00000e+00
1.02500e+03,3.90671e+01,0.00000e+00,0.00000e+00,0.00000e+00
1.11650e+03,3.87070e+01,0.00000e+00,0.00000e+00,0.00000e+00
1.20500e+03,3.76912e+01,0.00000e+00,0.00000e+00,0.00000e+00
1.29010e+03,3.63234e+01,0.00000e+00,0.00000e+00,0.00000e+00
1.37170e+03,3.50118e+01,0.00000e+00,0.00000e+00,0.00000e+00
1.44960e+03,3.37597e+01,0.00000e+00,0.00000e+00,0.00000e+00
1.52340e+03,3.25736e+01,0.00000e+00,0.00000e+00,0.00000e+00
1.59310e+03,3.14533e+01,0.00000e+00,0.00000e+00,0.00000e+00
1.65850e+03,3.04021e+01,0.00000e+00,0.00000e+00,0.00000e+00
1.71930e+03,2.94249e+01,0.00000e+00,0.00000e+00,0.00000e+00
1.77540e+03,2.77303e+01,0.00000e+00,0.00000e+00,0.00000e+00
1.82660e+03,2.53092e+01,0.00000e+00,0.00000e+00,0.00000e+00
1.87280e+03,2.31244e+01,0.00000e+00,0.00000e+00,0.00000e+00
1.91380e+03,2.11856e+01,0.00000e+00,0.00000e+00,0.00000e+00
1.94970e+03,1.94880e+01,0.00000e+00,0.00000e+00,0.00000e+00
1.98010e+03,1.80504e+01,0.00000e+00,0.00000e+00,0.00000e+00
2.00520e+03,1.68635e+01,0.00000e+00,0.00000e+00,0.00000e+00
2.02480e+03,1.59367e+01,0.00000e+00,0.00000e+00,0.00000e+00
2.03880e+03,1.52746e+01,0.00000e+00,0.00000e+00,0.00000e+00
2.04720e+03,1.48774e+01,0.00000e+00,0.00000e+00,0.00000e+00
2.05000e+03,1.47450e+01,0.00000e+00,0.00000e+00,0.00000e+00
--------------------------------------------------------------------------------------------------------------------------------------------------------------------------------------------------------------------------------------------------------------------------------------------------------------------------------------------------------------------------------

