----------------------------------------------
LOG MATLAB Estruturas Copyright Charles 2020
----------------------------------------------

VISÃO GERAL POR SEÇÃO
--------------------------------------------------------------------------------------------------------------------------------------------------------------------------------------------------------------------------------------------------------------------------------------------------------------------------------------------------------------------------------
SEÇÃO,POSIÇÃO .25c,, ESFORÇOS,,,,,INÉRCIAS,,,,CENTROS GEOMÉTRICOS,,,DEFLEXÇOES,,,,,TENSÕES NORMAIS,,,,,,,,TENSÕES CISALHAMENTO,,,TENSÕES DE VON MISES
NUMERO,X,Y,MFz,MFy,MTx,Vz,Vy,EIzz,EIyy,EIzy,GJ,Zcg,Ycg,Zcc,Z,Y,Z´,Y´,Theta,Sigma_Chap+,Sigma_Chap-,Sigma_Lam+,Sigma_Lam-,Sigma_Mesa+,Sigma_Mesa-,Sigma_Alma+,Sigma_Alma-,  Tau_Alma,  Tau_Chap,  Tau_Lam, Von Mises_Alma,  Von Mises_Chap,  Von Mises_Lam
--------------------------------------------------------------------------------------------------------------------------------------------------------------------------------------------------------------------------------------------------------------------------------------------------------------------------------------------------------------------------------
01,0.00000e+00,0.00000e+00,1.75796e+05,6.75724e+04,-2.32541e+04,7.21471e+01,1.90464e+02,2.43720e+09,3.02407e+09,6.88619e+08,4.72913e+07,8.66395e+01,2.17434e+01,7.43235e+01,0.00000e+00,0.00000e+00,0.00000e+00,0.00000e+00,0.00000e+00,2.63678e+00,-4.60155e+00,0.00000e+00,0.00000e+00,1.53539e+02,-1.21212e+02,1.92075e-01,-1.51634e-01,7.79336e-01,1.22466e+00,0.00000e+00,1.36216e+00,4.93409e+00,0.00000e+00
02,1.07300e+02,0.00000e+00,1.55983e+05,6.00677e+04,-2.16183e+04,6.77355e+01,1.78836e+02,2.38487e+09,2.93941e+09,6.69313e+08,4.59231e+07,8.58583e+01,2.15452e+01,7.36225e+01,3.52524e-02,3.85944e-01,6.57080e-04,7.19374e-03,-5.16365e-02,2.36595e+00,-4.14857e+00,0.00000e+00,0.00000e+00,1.37822e+02,-1.08794e+02,1.72412e-01,-1.36100e-01,7.39141e-01,1.15977e+00,0.00000e+00,1.29058e+00,4.47907e+00,0.00000e+00
03,2.14300e+02,0.00000e+00,1.37456e+05,5.30509e+04,-2.00148e+04,6.34187e+01,1.67472e+02,2.33333e+09,2.85653e+09,6.50412e+08,4.45761e+07,8.50782e+01,2.13473e+01,7.29231e+01,1.38272e-01,1.50235e+00,1.26851e-03,1.36736e-02,-1.00843e-01,2.10865e+00,-3.71573e+00,0.00000e+00,0.00000e+00,1.22882e+02,-9.69857e+01,1.53724e-01,-1.21327e-01,6.98813e-01,1.09416e+00,0.00000e+00,1.21897e+00,4.04354e+00,0.00000e+00
04,3.20700e+02,0.00000e+00,1.20245e+05,4.65304e+04,-1.84503e+04,5.91470e+01,1.56047e+02,2.28273e+09,2.77562e+09,6.31961e+08,4.32676e+07,8.43013e+01,2.11503e+01,7.22271e+01,3.03241e-01,3.26469e+00,1.83242e-03,1.94532e-02,-1.47416e-01,1.86577e+00,-3.30468e+00,0.00000e+00,0.00000e+00,1.08774e+02,-8.58291e+01,1.36075e-01,-1.07371e-01,6.57606e-01,1.02780e+00,0.00000e+00,1.14604e+00,3.62916e+00,0.00000e+00
05,4.26200e+02,0.00000e+00,1.04374e+05,4.05114e+04,-1.69279e+04,5.49587e+01,1.44815e+02,2.23318e+09,2.69686e+09,6.14002e+08,4.19916e+07,8.35299e+01,2.09548e+01,7.15366e+01,5.23732e-01,5.58613e+00,2.34751e-03,2.45552e-02,-1.91175e-01,1.63817e+00,-2.91705e+00,0.00000e+00,0.00000e+00,9.55478e+01,-7.53671e+01,1.19529e-01,-9.42829e-02,6.16174e-01,9.61025e-01,0.00000e+00,1.07293e+00,3.23738e+00,0.00000e+00
06,5.30600e+02,0.00000e+00,8.98305e+04,3.49877e+04,-1.54499e+04,5.08589e+01,1.33796e+02,2.18477e+09,2.62035e+09,5.96558e+08,4.07490e+07,8.27655e+01,2.07610e+01,7.08528e+01,7.93144e-01,8.38241e+00,2.81363e-03,2.90134e-02,-2.32009e-01,1.42621e+00,-2.55368e+00,0.00000e+00,0.00000e+00,8.32235e+01,-6.56170e+01,1.04111e-01,-8.20858e-02,5.74608e-01,8.93994e-01,0.00000e+00,9.99766e-01,2.86891e+00,0.00000e+00
07,6.33500e+02,0.00000e+00,7.66175e+04,2.99603e+04,-1.40239e+04,4.68551e+01,1.23018e+02,2.13765e+09,2.54632e+09,5.79679e+08,3.95445e+07,8.20110e+01,2.05698e+01,7.01785e+01,1.10411e+00,1.15658e+01,3.23037e-03,3.28595e-02,-2.69763e-01,1.23050e+00,-2.21592e+00,0.00000e+00,0.00000e+00,7.18382e+01,-5.66091e+01,8.98683e-02,-7.08171e-02,5.33084e-01,8.27100e-01,0.00000e+00,9.26849e-01,2.52506e+00,0.00000e+00
08,7.34700e+02,0.00000e+00,6.47004e+04,2.54160e+04,-1.26501e+04,4.29529e+01,1.12497e+02,2.09189e+09,2.47483e+09,5.63383e+08,3.83782e+07,8.12680e+01,2.03815e+01,6.95148e+01,1.44967e+00,1.50571e+01,3.59893e-03,3.61385e-02,-3.04386e-01,1.05111e+00,-1.90470e+00,0.00000e+00,0.00000e+00,6.13971e+01,-4.83484e+01,7.68067e-02,-6.04830e-02,4.91679e-01,7.60447e-01,0.00000e+00,8.54298e-01,2.20606e+00,0.00000e+00
09,8.33800e+02,0.00000e+00,5.40579e+04,2.13470e+04,-1.13331e+04,3.91662e+01,1.02286e+02,2.04762e+09,2.40610e+09,5.47713e+08,3.72519e+07,8.05393e+01,2.01969e+01,6.88645e+01,1.82225e+00,1.87749e+01,3.92040e-03,3.88929e-02,-3.35793e-01,8.88329e-01,-1.62023e+00,0.00000e+00,0.00000e+00,5.19168e+01,-4.08487e+01,6.49471e-02,-5.11010e-02,4.50626e-01,6.94369e-01,0.00000e+00,7.82500e-01,1.91253e+00,0.00000e+00
10,9.30700e+02,0.00000e+00,4.46257e+04,1.77297e+04,-1.00703e+04,3.54948e+01,9.23924e+01,2.00486e+09,2.34009e+09,5.32666e+08,3.61626e+07,7.98259e+01,2.00162e+01,6.82283e+01,2.21556e+00,2.26543e+01,4.19750e-03,4.11765e-02,-3.64025e-01,7.41748e-01,-1.36216e+00,0.00000e+00,0.00000e+00,4.33753e+01,-3.40931e+01,5.42618e-02,-4.26499e-02,4.09958e-01,6.28863e-01,0.00000e+00,7.11502e-01,1.64377e+00,0.00000e+00
11,1.02500e+03,0.00000e+00,3.63566e+04,1.45488e+04,-8.86501e+03,3.19688e+01,8.29866e+01,1.96375e+09,2.27699e+09,5.18282e+08,3.51025e+07,7.91308e+01,1.98401e+01,6.76088e+01,2.62247e+00,2.66249e+01,4.43258e-03,4.30367e-02,-3.89062e-01,6.11213e-01,-1.13062e+00,0.00000e+00,0.00000e+00,3.57644e+01,-2.80748e+01,4.47407e-02,-3.51211e-02,3.70241e-01,5.64368e-01,0.00000e+00,6.42262e-01,1.39966e+00,0.00000e+00
12,1.11650e+03,0.00000e+00,2.91821e+04,1.17798e+04,-7.71753e+03,2.85560e+01,7.38311e+01,1.92432e+09,2.21681e+09,5.04566e+08,3.40838e+07,7.84554e+01,1.96691e+01,6.70073e+01,3.03704e+00,3.06309e+01,4.62907e-03,4.45258e-02,-4.10976e-01,4.96202e-01,-9.25083e-01,0.00000e+00,0.00000e+00,2.90547e+01,-2.27706e+01,3.63469e-02,-2.84857e-02,3.30909e-01,5.00820e-01,0.00000e+00,5.73792e-01,1.17952e+00,0.00000e+00
13,1.20500e+03,0.00000e+00,2.30319e+04,9.39626e+03,-6.63723e+03,2.53089e+01,6.51584e+01,1.32148e+09,1.95268e+09,4.45208e+08,3.12177e+07,7.39632e+01,1.86188e+01,6.42675e+01,3.45237e+00,3.46336e+01,4.75688e-03,4.59316e-02,-4.30403e-01,5.76575e-01,-9.23402e-01,0.00000e+00,0.00000e+00,3.33835e+01,-2.57535e+01,4.17622e-02,-3.22172e-02,2.97071e-01,4.77769e-01,0.00000e+00,5.15599e-01,1.14237e+00,0.00000e+00
14,1.29010e+03,0.00000e+00,1.78368e+04,7.37298e+03,-5.64219e+03,2.22417e+01,5.69358e+01,1.21619e+09,1.75686e+09,4.00479e+08,2.80064e+07,7.15330e+01,1.79989e+01,6.20379e+01,3.86050e+00,3.85994e+01,4.83478e-03,4.72713e-02,-4.48022e-01,4.66880e-01,-7.60548e-01,0.00000e+00,0.00000e+00,2.70689e+01,-2.08504e+01,3.38627e-02,-2.60835e-02,2.70653e-01,4.34232e-01,0.00000e+00,4.69447e-01,9.78322e-01,0.00000e+00
15,1.37170e+03,0.00000e+00,1.35107e+04,5.67612e+03,-4.74215e+03,1.93479e+01,4.90958e+01,1.12002e+09,1.58132e+09,3.60391e+08,2.51449e+07,6.91884e+01,1.74013e+01,5.98941e+01,4.25806e+00,4.25002e+01,4.90942e-03,4.83375e-02,-4.63936e-01,3.69780e-01,-6.13918e-01,0.00000e+00,0.00000e+00,2.14716e+01,-1.65009e+01,2.68606e-02,-2.06423e-02,2.43452e-01,3.90027e-01,0.00000e+00,4.22040e-01,8.28467e-01,0.00000e+00
16,1.44960e+03,0.00000e+00,9.97243e+03,4.27425e+03,-3.93256e+03,1.66438e+01,4.17446e+01,1.03251e+09,1.42458e+09,3.24609e+08,2.25998e+07,6.69366e+01,1.68278e+01,5.78421e+01,4.64319e+00,4.62978e+01,4.97829e-03,4.91616e-02,-4.78059e-01,2.85381e-01,-4.83696e-01,0.00000e+00,0.00000e+00,1.65992e+01,-1.27146e+01,2.07653e-02,-1.59058e-02,2.15873e-01,3.45476e-01,0.00000e+00,3.74063e-01,6.93106e-01,0.00000e+00
17,1.52340e+03,0.00000e+00,7.14924e+03,3.14043e+03,-3.19972e+03,1.40829e+01,3.47645e+01,9.53418e+08,1.28561e+09,2.92889e+08,2.03538e+07,6.47909e+01,1.62818e+01,5.58929e+01,5.01283e+00,4.99486e+01,5.03921e-03,4.97758e-02,-4.90281e-01,2.13868e-01,-3.70785e-01,0.00000e+00,0.00000e+00,1.24637e+01,-9.50416e+00,1.55919e-02,-1.18895e-02,1.87441e-01,2.99890e-01,0.00000e+00,3.24721e-01,5.71578e-01,0.00000e+00
18,1.59310e+03,0.00000e+00,4.95228e+03,2.24157e+03,-2.54927e+03,1.17093e+01,2.82759e+01,8.82075e+08,1.16263e+09,2.64824e+08,1.83770e+07,6.27531e+01,1.57637e+01,5.40474e+01,5.36587e+00,5.34334e+01,5.09101e-03,5.02170e-02,-5.00594e-01,1.54837e-01,-2.75393e-01,0.00000e+00,0.00000e+00,9.04357e+00,-6.85505e+00,1.13134e-02,-8.57554e-03,1.58948e-01,2.54516e-01,0.00000e+00,2.75345e-01,4.63688e-01,0.00000e+00
19,1.65850e+03,0.00000e+00,3.29699e+03,1.54718e+03,-1.97644e+03,9.52602e+00,2.23445e+01,8.18049e+08,1.05434e+09,2.40117e+08,1.66425e+07,6.08309e+01,1.52752e+01,5.23116e+01,5.70020e+00,5.67275e+01,5.13306e-03,5.05199e-02,-5.09014e-01,1.07710e-01,-1.97207e-01,0.00000e+00,0.00000e+00,6.30706e+00,-4.74394e+00,7.89002e-03,-5.93459e-03,1.30853e-01,2.09832e-01,0.00000e+00,2.26667e-01,3.76195e-01,0.00000e+00
20,1.71930e+03,0.00000e+00,2.10082e+03,1.02920e+03,-1.47304e+03,7.51283e+00,1.70032e+01,7.61023e+08,9.59670e+08,2.18523e+08,1.51237e+07,5.90349e+01,1.48192e+01,5.06943e+01,6.01327e+00,5.98051e+01,5.16540e-03,5.07170e-02,-5.15585e-01,7.16857e-02,-1.35527e-01,0.00000e+00,0.00000e+00,4.20991e+00,-3.13553e+00,5.26653e-03,-3.92249e-03,1.03465e-01,1.65994e-01,0.00000e+00,1.79221e-01,2.94088e-01,0.00000e+00
21,1.77540e+03,0.00000e+00,1.27634e+03,6.59068e+02,-1.04142e+03,5.68249e+00,1.23903e+01,3.98519e+08,7.29057e+08,1.66652e+08,1.11722e+07,5.21005e+01,1.31900e+01,4.07358e+01,6.30357e+00,6.26548e+01,5.18405e-03,5.08782e-02,-5.20932e-01,8.45406e-02,-1.26183e-01,0.00000e+00,0.00000e+00,4.88566e+00,-3.46221e+00,6.11187e-03,-4.33117e-03,1.32418e-01,1.43594e-01,0.00000e+00,2.29371e-01,2.60000e-01,0.00000e+00
22,1.82660e+03,0.00000e+00,7.36897e+02,4.06806e+02,-7.07349e+02,4.17148e+00,8.68145e+00,3.22692e+08,5.63581e+08,1.28741e+08,8.60673e+06,4.80842e+01,1.21552e+01,3.73499e+01,6.56927e+00,6.52633e+01,5.19456e-03,5.10143e-02,-5.25422e-01,5.52504e-02,-8.64539e-02,0.00000e+00,0.00000e+00,3.20536e+00,-2.23957e+00,4.00984e-03,-2.80166e-03,1.04675e-01,1.14099e-01,0.00000e+00,1.81310e-01,2.03231e-01,0.00000e+00
23,1.87280e+03,0.00000e+00,4.01009e+02,2.40611e+02,-4.73116e+02,3.02311e+00,5.85917e+00,2.62353e+08,4.36581e+08,9.96683e+07,6.67077e+06,4.43938e+01,1.12070e+01,3.42731e+01,6.80949e+00,6.76221e+01,5.20476e-03,5.10984e-02,-5.28959e-01,3.40704e-02,-5.64829e-02,0.00000e+00,0.00000e+00,1.98634e+00,-1.35951e+00,2.48488e-03,-1.70073e-03,8.04277e-02,8.89823e-02,0.00000e+00,1.39309e-01,1.56455e-01,0.00000e+00
24,1.91380e+03,0.00000e+00,2.03096e+02,1.34651e+02,-3.09555e+02,2.14568e+00,3.79515e+00,2.14932e+08,3.40501e+08,7.76906e+07,5.21945e+06,4.10625e+01,1.03532e+01,3.15244e+01,7.02306e+00,6.97181e+01,5.21332e-03,5.11459e-02,-5.31628e-01,1.95499e-02,-3.47686e-02,0.00000e+00,0.00000e+00,1.14681e+00,-7.63111e-01,1.43464e-03,-9.54639e-04,5.96888e-02,6.75718e-02,0.00000e+00,1.03386e-01,1.17830e-01,0.00000e+00
25,1.94970e+03,0.00000e+00,9.32282e+01,6.96838e+01,-1.95721e+02,1.47365e+00,2.32560e+00,1.77937e+08,2.68420e+08,6.12136e+07,4.13729e+06,3.80992e+01,9.59536e+00,2.91026e+01,7.21033e+00,7.15547e+01,5.21956e-03,5.11701e-02,-5.33542e-01,1.01687e-02,-1.96748e-02,0.00000e+00,0.00000e+00,6.01137e-01,-3.84918e-01,7.52012e-04,-4.81526e-04,4.21859e-02,4.92608e-02,0.00000e+00,7.30689e-02,8.55991e-02,0.00000e+00
26,1.98010e+03,0.00000e+00,3.77043e+01,3.25708e+01,-1.18310e+02,9.67999e-01,1.32729e+00,1.49784e+08,2.15653e+08,4.91590e+07,3.34972e+06,3.55543e+01,8.94582e+00,2.70403e+01,7.36906e+00,7.31104e+01,5.22341e-03,5.11806e-02,-5.34798e-01,4.65851e-03,-9.96595e-03,0.00000e+00,0.00000e+00,2.78095e-01,-1.68859e-01,3.47892e-04,-2.11239e-04,2.79452e-02,3.39319e-02,0.00000e+00,4.84027e-02,5.88493e-02,0.00000e+00
27,2.00520e+03,0.00000e+00,1.25468e+01,1.30058e+01,-6.63448e+01,5.90964e-01,6.77281e-01,1.28656e+08,1.77484e+08,4.04436e+07,2.78532e+06,3.34272e+01,8.40385e+00,2.53292e+01,7.50020e+00,7.43951e+01,5.22537e-03,5.11843e-02,-5.35540e-01,1.76335e-03,-4.26694e-03,0.00000e+00,0.00000e+00,1.06614e-01,-5.98961e-02,1.33372e-04,-7.49290e-05,1.67459e-02,2.13485e-02,0.00000e+00,2.90049e-02,3.69921e-02,0.00000e+00
28,2.02480e+03,0.00000e+00,3.08167e+00,4.07853e+00,-3.28688e+01,3.19984e-01,2.88554e-01,1.13447e+08,1.50904e+08,3.43767e+07,2.40027e+06,3.17493e+01,7.97693e+00,2.39876e+01,7.60262e+00,7.53983e+01,5.22613e-03,5.11853e-02,-5.35908e-01,4.99937e-04,-1.41244e-03,0.00000e+00,0.00000e+00,3.07590e-02,-1.52572e-02,3.84789e-05,-1.90865e-05,8.56989e-03,1.16112e-02,0.00000e+00,1.48435e-02,2.01131e-02,0.00000e+00
29,2.03880e+03,0.00000e+00,4.51612e-01,8.68939e-01,-1.29434e+01,1.38529e-01,8.71686e-02,1.03260e+08,1.33576e+08,3.04229e+07,2.16492e+06,3.05414e+01,7.66993e+00,2.30264e+01,7.67579e+00,7.61149e+01,5.22633e-03,5.11855e-02,-5.36046e-01,8.91921e-05,-3.10743e-04,0.00000e+00,0.00000e+00,5.63686e-03,-2.19403e-03,7.05161e-06,-2.74470e-06,3.31632e-03,4.87778e-03,0.00000e+00,5.74404e-03,8.44866e-03,0.00000e+00
30,2.04720e+03,0.00000e+00,4.27521e-02,1.43558e-01,-2.84732e+00,3.41805e-02,1.01791e-02,9.74134e+07,1.23821e+08,2.81976e+07,2.06728e+06,2.98129e+01,7.48488e+00,2.24484e+01,7.71969e+00,7.65448e+01,5.22636e-03,5.11855e-02,-5.36077e-01,1.15780e-05,-5.22219e-05,0.00000e+00,0.00000e+00,7.60562e-04,-1.77359e-04,9.51450e-07,-2.21873e-07,6.57242e-04,1.10319e-03,0.00000e+00,1.13838e-03,1.91078e-03,0.00000e+00
31,2.05000e+03,0.00000e+00,0.00000e+00,0.00000e+00,0.00000e+00,0.00000e+00,0.00000e+00,5.74754e+07,1.08343e+08,2.47732e+07,NaN,2.74871e+01,6.96602e+00,2.15905e+01,7.73432e+00,7.66882e+01,5.22636e-03,5.11855e-02,-5.36078e-01,0.00000e+00,0.00000e+00,0.00000e+00,0.00000e+00,0.00000e+00,0.00000e+00,0.00000e+00,0.00000e+00,0.00000e+00,0.00000e+00,0.00000e+00,0.00000e+00,0.00000e+00,0.00000e+00
--------------------------------------------------------------------------------------------------------------------------------------------------------------------------------------------------------------------------------------------------------------------------------------------------------------------------------------------------------------------------------

CHAPEADO 
--------------------------------------------------------------------------------------------------------------------------------------------------------------------------------------------------------------------------------------------------------------------------------------------------------------------------------------------------------------------------------
X,Y,Z,Sigma,Tau,Von Mises
0.00000e+00,4.31008e+01,0.00000e+00,-2.16620e+00,1.22466e+00,3.03180e+00
0.00000e+00,4.28837e+01,-3.27521e+00,-2.34247e+00,1.21644e+00,3.15061e+00
0.00000e+00,4.25950e+01,-6.55041e+00,-2.50972e+00,1.20802e+00,3.26751e+00
0.00000e+00,4.23033e+01,-9.82562e+00,-2.67661e+00,1.19941e+00,3.38821e+00
0.00000e+00,4.19484e+01,-1.31008e+01,-2.83554e+00,1.19062e+00,3.50614e+00
0.00000e+00,4.15787e+01,-1.63760e+01,-2.99263e+00,1.18167e+00,3.62558e+00
0.00000e+00,4.11605e+01,-1.96512e+01,-3.14360e+00,1.17257e+00,3.74259e+00
0.00000e+00,4.07187e+01,-2.29264e+01,-3.29160e+00,1.16334e+00,3.85936e+00
0.00000e+00,4.02378e+01,-2.62017e+01,-3.43469e+00,1.15398e+00,3.97393e+00
0.00000e+00,3.97249e+01,-2.94769e+01,-3.57375e+00,1.14451e+00,4.08674e+00
0.00000e+00,3.91766e+01,-3.27521e+01,-3.70838e+00,1.13494e+00,4.19718e+00
0.00000e+00,3.85857e+01,-3.60273e+01,-3.83763e+00,1.12528e+00,4.30420e+00
0.00000e+00,3.79511e+01,-3.93025e+01,-3.96139e+00,1.11554e+00,4.40748e+00
0.00000e+00,3.72545e+01,-4.25777e+01,-4.07736e+00,1.10575e+00,4.50477e+00
0.00000e+00,3.64976e+01,-4.58529e+01,-4.18574e+00,1.09593e+00,4.59604e+00
0.00000e+00,3.56687e+01,-4.91281e+01,-4.28506e+00,1.08607e+00,4.67978e+00
0.00000e+00,3.47420e+01,-5.24033e+01,-4.37209e+00,1.07623e+00,4.75289e+00
0.00000e+00,3.37474e+01,-5.56785e+01,-4.45058e+00,1.06641e+00,4.81865e+00
0.00000e+00,3.26000e+01,-5.89537e+01,-4.50985e+00,1.05665e+00,4.86706e+00
0.00000e+00,3.13892e+01,-6.22289e+01,-4.56115e+00,1.04699e+00,4.90842e+00
0.00000e+00,3.00018e+01,-6.55041e+01,-4.59025e+00,1.03744e+00,4.92943e+00
0.00000e+00,2.84730e+01,-6.87793e+01,-4.60155e+00,1.02810e+00,4.93409e+00
0.00000e+00,2.68002e+01,-7.20546e+01,-4.59475e+00,1.01896e+00,4.92205e+00
0.00000e+00,2.48857e+01,-7.53298e+01,-4.55756e+00,1.01008e+00,4.88182e+00
0.00000e+00,2.26913e+01,-7.86050e+01,-4.48516e+00,1.00155e+00,4.80895e+00
0.00000e+00,2.01805e+01,-8.18802e+01,-4.37298e+00,9.93473e-01,4.69935e+00
0.00000e+00,1.72108e+01,-8.51554e+01,-4.20308e+00,9.85923e-01,4.53674e+00
0.00000e+00,1.33989e+01,-8.84306e+01,-3.92728e+00,9.79267e-01,4.27790e+00
0.00000e+00,8.24350e+00,-9.17058e+01,-3.48252e+00,9.75201e-01,3.87053e+00
0.00000e+00,-3.34020e+00,-9.49810e+01,-2.22936e+00,9.76814e-01,2.79867e+00
0.00000e+00,-4.17620e+00,-9.49886e+01,-2.12470e+00,9.81819e-01,2.72144e+00
0.00000e+00,-1.17928e+01,-9.15961e+01,-9.56010e-01,9.91310e-01,1.96521e+00
0.00000e+00,-1.27149e+01,-8.82037e+01,-6.29186e-01,9.98322e-01,1.84006e+00
0.00000e+00,-1.30332e+01,-8.48113e+01,-3.78313e-01,1.00570e+00,1.78253e+00
0.00000e+00,-1.30814e+01,-8.14188e+01,-1.61387e-01,1.01342e+00,1.76270e+00
0.00000e+00,-1.29264e+01,-7.80264e+01,2.99632e-02,1.02142e+00,1.76941e+00
0.00000e+00,-1.26437e+01,-7.46339e+01,2.05265e-01,1.02966e+00,1.79520e+00
0.00000e+00,-1.22328e+01,-7.12415e+01,3.64451e-01,1.03808e+00,1.83458e+00
0.00000e+00,-1.17438e+01,-6.78490e+01,5.13807e-01,1.04665e+00,1.88426e+00
0.00000e+00,-1.12094e+01,-6.44565e+01,6.57461e-01,1.05534e+00,1.94255e+00
0.00000e+00,-1.06068e+01,-6.10641e+01,7.92526e-01,1.06413e+00,2.00630e+00
0.00000e+00,-9.96142e+00,-5.76716e+01,9.22222e-01,1.07300e+00,2.07472e+00
0.00000e+00,-9.27449e+00,-5.42792e+01,1.04669e+00,1.08192e+00,2.14645e+00
0.00000e+00,-8.54615e+00,-5.08867e+01,1.16595e+00,1.09089e+00,2.22026e+00
0.00000e+00,-7.79185e+00,-4.74943e+01,1.28195e+00,1.09987e+00,2.29620e+00
0.00000e+00,-7.00429e+00,-4.41018e+01,1.39376e+00,1.10887e+00,2.37304e+00
0.00000e+00,-6.19544e+00,-4.07094e+01,1.50289e+00,1.11786e+00,2.45103e+00
0.00000e+00,-5.36748e+00,-3.73169e+01,1.60962e+00,1.12684e+00,2.52986e+00
0.00000e+00,-4.52248e+00,-3.39245e+01,1.71421e+00,1.13580e+00,2.60934e+00
0.00000e+00,-3.67026e+00,-3.05320e+01,1.81789e+00,1.14473e+00,2.68997e+00
0.00000e+00,-2.80686e+00,-2.71396e+01,1.92017e+00,1.15362e+00,2.77120e+00
0.00000e+00,-1.94159e+00,-2.37472e+01,2.02221e+00,1.16247e+00,2.85366e+00
0.00000e+00,-1.06964e+00,-2.03547e+01,2.12341e+00,1.17128e+00,2.93676e+00
0.00000e+00,-1.97780e-01,-1.69622e+01,2.22462e+00,1.18005e+00,3.02101e+00
0.00000e+00,6.70785e-01,-1.35698e+01,2.32625e+00,1.18878e+00,3.10660e+00
0.00000e+00,1.53935e+00,-1.01774e+01,2.42787e+00,1.19746e+00,3.19316e+00
0.00000e+00,2.38735e+00,-6.78490e+00,2.53208e+00,1.20609e+00,3.28259e+00
0.00000e+00,3.23151e+00,-3.39245e+00,2.63678e+00,1.21469e+00,3.37328e+00
1.07300e+02,4.26785e+01,0.00000e+00,-1.94429e+00,1.15977e+00,2.79561e+00
1.07300e+02,4.24636e+01,-3.24312e+00,-2.10338e+00,1.15204e+00,2.89927e+00
1.07300e+02,4.21777e+01,-6.48624e+00,-2.25437e+00,1.14412e+00,3.00154e+00
1.07300e+02,4.18889e+01,-9.72936e+00,-2.40505e+00,1.13602e+00,3.10739e+00
1.07300e+02,4.15374e+01,-1.29725e+01,-2.54857e+00,1.12776e+00,3.21103e+00
1.07300e+02,4.11714e+01,-1.62156e+01,-2.69044e+00,1.11934e+00,3.31621e+00
1.07300e+02,4.07572e+01,-1.94587e+01,-2.82683e+00,1.11078e+00,3.41942e+00
1.07300e+02,4.03197e+01,-2.27018e+01,-2.96055e+00,1.10210e+00,3.52260e+00
1.07300e+02,3.98436e+01,-2.59450e+01,-3.08986e+00,1.09330e+00,3.62397e+00
1.07300e+02,3.93357e+01,-2.91881e+01,-3.21555e+00,1.08439e+00,3.72391e+00
1.07300e+02,3.87928e+01,-3.24312e+01,-3.33726e+00,1.07539e+00,3.82187e+00
1.07300e+02,3.82077e+01,-3.56743e+01,-3.45415e+00,1.06631e+00,3.91691e+00
1.07300e+02,3.75793e+01,-3.89174e+01,-3.56611e+00,1.05715e+00,4.00872e+00
1.07300e+02,3.68895e+01,-4.21606e+01,-3.67107e+00,1.04795e+00,4.09529e+00
1.07300e+02,3.61401e+01,-4.54037e+01,-3.76923e+00,1.03870e+00,4.17658e+00
1.07300e+02,3.53192e+01,-4.86468e+01,-3.85925e+00,1.02944e+00,4.25124e+00
1.07300e+02,3.44016e+01,-5.18899e+01,-3.93825e+00,1.02018e+00,4.31649e+00
1.07300e+02,3.34168e+01,-5.51330e+01,-4.00957e+00,1.01094e+00,4.37524e+00
1.07300e+02,3.22806e+01,-5.83762e+01,-4.06364e+00,1.00177e+00,4.41858e+00
1.07300e+02,3.10816e+01,-6.16193e+01,-4.11056e+00,9.92683e-01,4.45567e+00
1.07300e+02,2.97079e+01,-6.48624e+01,-4.13755e+00,9.83708e-01,4.47464e+00
1.07300e+02,2.81940e+01,-6.81055e+01,-4.14857e+00,9.74918e-01,4.47907e+00
1.07300e+02,2.65376e+01,-7.13486e+01,-4.14334e+00,9.66329e-01,4.46863e+00
1.07300e+02,2.46419e+01,-7.45918e+01,-4.11083e+00,9.57972e-01,4.43306e+00
1.07300e+02,2.24690e+01,-7.78349e+01,-4.04672e+00,9.49949e-01,4.36843e+00
1.07300e+02,1.99828e+01,-8.10780e+01,-3.94690e+00,9.42356e-01,4.27108e+00
1.07300e+02,1.70422e+01,-8.43211e+01,-3.79527e+00,9.35257e-01,4.12652e+00
1.07300e+02,1.32676e+01,-8.75642e+01,-3.54858e+00,9.28998e-01,3.89635e+00
1.07300e+02,8.16273e+00,-9.08074e+01,-3.15024e+00,9.25174e-01,3.53438e+00
1.07300e+02,-3.30748e+00,-9.40505e+01,-2.02628e+00,9.26691e-01,2.58497e+00
1.07300e+02,-4.13529e+00,-9.40580e+01,-1.93234e+00,9.31397e-01,2.51723e+00
1.07300e+02,-1.16772e+01,-9.06988e+01,-8.82422e-01,9.40324e-01,1.85238e+00
1.07300e+02,-1.25904e+01,-8.73396e+01,-5.88162e-01,9.46918e-01,1.74238e+00
1.07300e+02,-1.29055e+01,-8.39804e+01,-3.62076e-01,9.53857e-01,1.69134e+00
1.07300e+02,-1.29533e+01,-8.06211e+01,-1.66460e-01,9.61117e-01,1.67301e+00
1.07300e+02,-1.27997e+01,-7.72619e+01,6.19937e-03,9.68643e-01,1.67775e+00
1.07300e+02,-1.25198e+01,-7.39027e+01,1.64453e-01,9.76388e-01,1.69913e+00
1.07300e+02,-1.21130e+01,-7.05435e+01,3.08242e-01,9.84309e-01,1.73251e+00
1.07300e+02,-1.16287e+01,-6.71843e+01,4.43208e-01,9.92367e-01,1.77505e+00
1.07300e+02,-1.10996e+01,-6.38251e+01,5.73055e-01,1.00054e+00,1.82528e+00
1.07300e+02,-1.05029e+01,-6.04659e+01,6.95192e-01,1.00881e+00,1.88052e+00
1.07300e+02,-9.86382e+00,-5.71066e+01,8.12511e-01,1.01714e+00,1.94008e+00
1.07300e+02,-9.18363e+00,-5.37474e+01,9.25137e-01,1.02554e+00,2.00276e+00
1.07300e+02,-8.46243e+00,-5.03882e+01,1.03309e+00,1.03397e+00,2.06749e+00
1.07300e+02,-7.71552e+00,-4.70290e+01,1.13811e+00,1.04242e+00,2.13429e+00
1.07300e+02,-6.93567e+00,-4.36698e+01,1.23938e+00,1.05088e+00,2.20206e+00
1.07300e+02,-6.13474e+00,-4.03106e+01,1.33824e+00,1.05934e+00,2.27100e+00
1.07300e+02,-5.31490e+00,-3.69514e+01,1.43494e+00,1.06778e+00,2.34084e+00
1.07300e+02,-4.47818e+00,-3.35921e+01,1.52973e+00,1.07620e+00,2.41137e+00
1.07300e+02,-3.63431e+00,-3.02329e+01,1.62369e+00,1.08460e+00,2.48303e+00
1.07300e+02,-2.77936e+00,-2.68737e+01,1.71640e+00,1.09296e+00,2.55533e+00
1.07300e+02,-1.92257e+00,-2.35145e+01,1.80889e+00,1.10129e+00,2.62880e+00
1.07300e+02,-1.05916e+00,-2.01553e+01,1.90063e+00,1.10957e+00,2.70294e+00
1.07300e+02,-1.95842e-01,-1.67961e+01,1.99239e+00,1.11782e+00,2.77816e+00
1.07300e+02,6.64213e-01,-1.34369e+01,2.08451e+00,1.12602e+00,2.85464e+00
1.07300e+02,1.52427e+00,-1.00776e+01,2.17663e+00,1.13418e+00,2.93204e+00
1.07300e+02,2.36396e+00,-6.71843e+00,2.27107e+00,1.14230e+00,3.01204e+00
1.07300e+02,3.19985e+00,-3.35921e+00,2.36595e+00,1.15039e+00,3.09321e+00
2.14300e+02,4.22575e+01,0.00000e+00,-1.73325e+00,1.09416e+00,2.56822e+00
2.14300e+02,4.20447e+01,-3.21112e+00,-1.87591e+00,1.08691e+00,2.65766e+00
2.14300e+02,4.17615e+01,-6.42224e+00,-2.01135e+00,1.07949e+00,2.74616e+00
2.14300e+02,4.14756e+01,-9.63337e+00,-2.14650e+00,1.07189e+00,2.83801e+00
2.14300e+02,4.11276e+01,-1.28445e+01,-2.27528e+00,1.06414e+00,2.92816e+00
2.14300e+02,4.07652e+01,-1.60556e+01,-2.40259e+00,1.05625e+00,3.01984e+00
2.14300e+02,4.03551e+01,-1.92667e+01,-2.52500e+00,1.04822e+00,3.10998e+00
2.14300e+02,3.99219e+01,-2.24779e+01,-2.64504e+00,1.04008e+00,3.20024e+00
2.14300e+02,3.94505e+01,-2.56890e+01,-2.76115e+00,1.03182e+00,3.28906e+00
2.14300e+02,3.89476e+01,-2.89001e+01,-2.87403e+00,1.02347e+00,3.37676e+00
2.14300e+02,3.84101e+01,-3.21112e+01,-2.98337e+00,1.01503e+00,3.46285e+00
2.14300e+02,3.78307e+01,-3.53223e+01,-3.08840e+00,1.00651e+00,3.54646e+00
2.14300e+02,3.72085e+01,-3.85335e+01,-3.18904e+00,9.97922e-01,3.62733e+00
2.14300e+02,3.65256e+01,-4.17446e+01,-3.28344e+00,9.89287e-01,3.70365e+00
2.14300e+02,3.57835e+01,-4.49557e+01,-3.37177e+00,9.80618e-01,3.77541e+00
2.14300e+02,3.49707e+01,-4.81668e+01,-3.45285e+00,9.71927e-01,3.84137e+00
2.14300e+02,3.40622e+01,-5.13780e+01,-3.52410e+00,9.63245e-01,3.89908e+00
2.14300e+02,3.30871e+01,-5.45891e+01,-3.58851e+00,9.54580e-01,3.95109e+00
2.14300e+02,3.19621e+01,-5.78002e+01,-3.63754e+00,9.45976e-01,3.98953e+00
2.14300e+02,3.07750e+01,-6.10113e+01,-3.68019e+00,9.37454e-01,4.02247e+00
2.14300e+02,2.94148e+01,-6.42224e+01,-3.70508e+00,9.29036e-01,4.03942e+00
2.14300e+02,2.79159e+01,-6.74336e+01,-3.71573e+00,9.20792e-01,4.04354e+00
2.14300e+02,2.62758e+01,-7.06447e+01,-3.71188e+00,9.12737e-01,4.03452e+00
2.14300e+02,2.43988e+01,-7.38558e+01,-3.68372e+00,9.04899e-01,4.00329e+00
2.14300e+02,2.22473e+01,-7.70669e+01,-3.62739e+00,8.97374e-01,3.94636e+00
2.14300e+02,1.97856e+01,-8.02781e+01,-3.53921e+00,8.90253e-01,3.86053e+00
2.14300e+02,1.68740e+01,-8.34892e+01,-3.40486e+00,8.83594e-01,3.73300e+00
2.14300e+02,1.31367e+01,-8.67003e+01,-3.18575e+00,8.77724e-01,3.52990e+00
2.14300e+02,8.08220e+00,-8.99114e+01,-2.83143e+00,8.74138e-01,3.21082e+00
2.14300e+02,-3.27484e+00,-9.31226e+01,-1.83020e+00,8.75560e-01,2.37685e+00
2.14300e+02,-4.09449e+00,-9.31300e+01,-1.74645e+00,8.79975e-01,2.31800e+00
2.14300e+02,-1.15620e+01,-8.98039e+01,-8.09554e-01,8.88347e-01,1.73864e+00
2.14300e+02,-1.24661e+01,-8.64779e+01,-5.46357e-01,8.94532e-01,1.64288e+00
2.14300e+02,-1.27781e+01,-8.31518e+01,-3.43941e-01,9.01040e-01,1.59810e+00
2.14300e+02,-1.28255e+01,-7.98257e+01,-1.68690e-01,9.07850e-01,1.58146e+00
2.14300e+02,-1.26734e+01,-7.64996e+01,-1.39050e-02,9.14908e-01,1.58473e+00
2.14300e+02,-1.23963e+01,-7.31736e+01,1.28037e-01,9.22173e-01,1.60237e+00
2.14300e+02,-1.19935e+01,-6.98475e+01,2.57082e-01,9.29602e-01,1.63051e+00
2.14300e+02,-1.15140e+01,-6.65214e+01,3.78261e-01,9.37159e-01,1.66670e+00
2.14300e+02,-1.09901e+01,-6.31954e+01,4.94877e-01,9.44825e-01,1.70967e+00
2.14300e+02,-1.03992e+01,-5.98693e+01,6.04619e-01,9.52579e-01,1.75721e+00
2.14300e+02,-9.76651e+00,-5.65432e+01,7.10065e-01,9.60399e-01,1.80867e+00
2.14300e+02,-9.09302e+00,-5.32171e+01,8.11327e-01,9.68270e-01,1.86303e+00
2.14300e+02,-8.37893e+00,-4.98911e+01,9.08422e-01,9.76175e-01,1.91937e+00
2.14300e+02,-7.63939e+00,-4.65650e+01,1.00290e+00,9.84101e-01,1.97767e+00
2.14300e+02,-6.86724e+00,-4.32389e+01,1.09404e+00,9.92037e-01,2.03699e+00
2.14300e+02,-6.07421e+00,-3.99129e+01,1.18303e+00,9.99969e-01,2.09747e+00
2.14300e+02,-5.26246e+00,-3.65868e+01,1.27010e+00,1.00789e+00,2.15886e+00
2.14300e+02,-4.43399e+00,-3.32607e+01,1.35545e+00,1.01579e+00,2.22098e+00
2.14300e+02,-3.59845e+00,-2.99346e+01,1.44008e+00,1.02366e+00,2.28418e+00
2.14300e+02,-2.75194e+00,-2.66086e+01,1.52358e+00,1.03150e+00,2.34804e+00
2.14300e+02,-1.90360e+00,-2.32825e+01,1.60690e+00,1.03931e+00,2.41301e+00
2.14300e+02,-1.04871e+00,-1.99564e+01,1.68954e+00,1.04709e+00,2.47865e+00
2.14300e+02,-1.93910e-01,-1.66304e+01,1.77219e+00,1.05482e+00,2.54531e+00
2.14300e+02,6.57660e-01,-1.33043e+01,1.85517e+00,1.06251e+00,2.61314e+00
2.14300e+02,1.50923e+00,-9.97821e+00,1.93816e+00,1.07017e+00,2.68183e+00
2.14300e+02,2.34063e+00,-6.65214e+00,2.02321e+00,1.07778e+00,2.75286e+00
2.14300e+02,3.16828e+00,-3.32607e+00,2.10865e+00,1.08537e+00,2.82497e+00
3.20700e+02,4.18388e+01,0.00000e+00,-1.53387e+00,1.02780e+00,2.34986e+00
3.20700e+02,4.16280e+01,-3.17930e+00,-1.66090e+00,1.02103e+00,2.42613e+00
3.20700e+02,4.13477e+01,-6.35861e+00,-1.78155e+00,1.01410e+00,2.50182e+00
3.20700e+02,4.10646e+01,-9.53791e+00,-1.90194e+00,1.00701e+00,2.58062e+00
3.20700e+02,4.07201e+01,-1.27172e+01,-2.01669e+00,9.99777e-01,2.65814e+00
3.20700e+02,4.03613e+01,-1.58965e+01,-2.13014e+00,9.92411e-01,2.73717e+00
3.20700e+02,3.99553e+01,-1.90758e+01,-2.23925e+00,9.84921e-01,2.81504e+00
3.20700e+02,3.95264e+01,-2.22551e+01,-2.34627e+00,9.77319e-01,2.89317e+00
3.20700e+02,3.90596e+01,-2.54344e+01,-2.44980e+00,9.69615e-01,2.97019e+00
3.20700e+02,3.85617e+01,-2.86137e+01,-2.55048e+00,9.61819e-01,3.04635e+00
3.20700e+02,3.80295e+01,-3.17930e+01,-2.64802e+00,9.53940e-01,3.12122e+00
3.20700e+02,3.74559e+01,-3.49724e+01,-2.74176e+00,9.45990e-01,3.19405e+00
3.20700e+02,3.68398e+01,-3.81517e+01,-2.83160e+00,9.37979e-01,3.26456e+00
3.20700e+02,3.61637e+01,-4.13310e+01,-2.91592e+00,9.29920e-01,3.33119e+00
3.20700e+02,3.54289e+01,-4.45103e+01,-2.99487e+00,9.21829e-01,3.39390e+00
3.20700e+02,3.46242e+01,-4.76896e+01,-3.06740e+00,9.13719e-01,3.45161e+00
3.20700e+02,3.37247e+01,-5.08689e+01,-3.13123e+00,9.05617e-01,3.50215e+00
3.20700e+02,3.27593e+01,-5.40482e+01,-3.18901e+00,8.97530e-01,3.54774e+00
3.20700e+02,3.16454e+01,-5.72275e+01,-3.23318e+00,8.89501e-01,3.58149e+00
3.20700e+02,3.04701e+01,-6.04068e+01,-3.27169e+00,8.81548e-01,3.61045e+00
3.20700e+02,2.91233e+01,-6.35861e+01,-3.29449e+00,8.73693e-01,3.62542e+00
3.20700e+02,2.76393e+01,-6.67654e+01,-3.30468e+00,8.65999e-01,3.62916e+00
3.20700e+02,2.60154e+01,-6.99447e+01,-3.30205e+00,8.58481e-01,3.62139e+00
3.20700e+02,2.41570e+01,-7.31240e+01,-3.27789e+00,8.51167e-01,3.59417e+00
3.20700e+02,2.20269e+01,-7.63033e+01,-3.22880e+00,8.44145e-01,3.54442e+00
3.20700e+02,1.95896e+01,-7.94826e+01,-3.15153e+00,8.37499e-01,3.46934e+00
3.20700e+02,1.67068e+01,-8.26619e+01,-3.03337e+00,8.31285e-01,3.35775e+00
3.20700e+02,1.30066e+01,-8.58412e+01,-2.84021e+00,8.25807e-01,3.18004e+00
3.20700e+02,8.00212e+00,-8.90205e+01,-2.52738e+00,8.22461e-01,2.90120e+00
3.20700e+02,-3.24239e+00,-9.21998e+01,-1.64196e+00,8.23789e-01,2.17530e+00
3.20700e+02,-4.05392e+00,-9.22072e+01,-1.56784e+00,8.27909e-01,2.12471e+00
3.20700e+02,-1.14474e+01,-8.89141e+01,-7.37804e-01,8.35722e-01,1.62470e+00
3.20700e+02,-1.23426e+01,-8.56210e+01,-5.04055e-01,8.41494e-01,1.54221e+00
3.20700e+02,-1.26515e+01,-8.23279e+01,-3.24102e-01,8.47568e-01,1.50338e+00
3.20700e+02,-1.26984e+01,-7.90348e+01,-1.68192e-01,8.53923e-01,1.48857e+00
3.20700e+02,-1.25479e+01,-7.57416e+01,-3.03977e-02,8.60509e-01,1.49076e+00
3.20700e+02,-1.22734e+01,-7.24485e+01,9.60297e-02,8.67289e-01,1.50525e+00
3.20700e+02,-1.18746e+01,-6.91554e+01,2.11043e-01,8.74222e-01,1.52883e+00
3.20700e+02,-1.13999e+01,-6.58623e+01,3.19093e-01,8.81274e-01,1.55941e+00
3.20700e+02,-1.08812e+01,-6.25692e+01,4.23105e-01,8.88429e-01,1.59591e+00
3.20700e+02,-1.02962e+01,-5.92761e+01,5.21033e-01,8.95664e-01,1.63650e+00
3.20700e+02,-9.66973e+00,-5.59829e+01,6.15158e-01,9.02962e-01,1.68061e+00
3.20700e+02,-9.00292e+00,-5.26898e+01,7.05581e-01,9.10308e-01,1.72738e+00
3.20700e+02,-8.29591e+00,-4.93967e+01,7.92314e-01,9.17685e-01,1.77601e+00
3.20700e+02,-7.56370e+00,-4.61036e+01,8.76736e-01,9.25082e-01,1.82647e+00
3.20700e+02,-6.79920e+00,-4.28105e+01,9.58194e-01,9.32487e-01,1.87796e+00
3.20700e+02,-6.01403e+00,-3.95174e+01,1.03776e+00,9.39889e-01,1.93057e+00
3.20700e+02,-5.21032e+00,-3.62243e+01,1.11562e+00,9.47281e-01,1.98409e+00
3.20700e+02,-4.39006e+00,-3.29311e+01,1.19196e+00,9.54653e-01,2.03835e+00
3.20700e+02,-3.56279e+00,-2.96380e+01,1.26766e+00,9.62000e-01,2.09363e+00
3.20700e+02,-2.72467e+00,-2.63449e+01,1.34236e+00,9.69319e-01,2.14957e+00
3.20700e+02,-1.88474e+00,-2.30518e+01,1.41690e+00,9.76606e-01,2.20655e+00
3.20700e+02,-1.03832e+00,-1.97587e+01,1.49084e+00,9.83859e-01,2.26419e+00
3.20700e+02,-1.91989e-01,-1.64656e+01,1.56479e+00,9.91076e-01,2.32277e+00
3.20700e+02,6.51143e-01,-1.31725e+01,1.63903e+00,9.98257e-01,2.38243e+00
3.20700e+02,1.49428e+00,-9.87934e+00,1.71328e+00,1.00540e+00,2.44291e+00
3.20700e+02,2.31744e+00,-6.58623e+00,1.78935e+00,1.01251e+00,2.50545e+00
3.20700e+02,3.13689e+00,-3.29311e+00,1.86577e+00,1.01958e+00,2.56900e+00
4.26200e+02,4.14236e+01,0.00000e+00,-1.34690e+00,9.61025e-01,2.14122e+00
4.26200e+02,4.12150e+01,-3.14776e+00,-1.45918e+00,9.54736e-01,2.20540e+00
4.26200e+02,4.09374e+01,-6.29551e+00,-1.56585e+00,9.48294e-01,2.26929e+00
4.26200e+02,4.06571e+01,-9.44327e+00,-1.67230e+00,9.41706e-01,2.33602e+00
4.26200e+02,4.03160e+01,-1.25910e+01,-1.77379e+00,9.34984e-01,2.40186e+00
4.26200e+02,3.99607e+01,-1.57388e+01,-1.87413e+00,9.28137e-01,2.46915e+00
4.26200e+02,3.95588e+01,-1.88865e+01,-1.97067e+00,9.21176e-01,2.53560e+00
4.26200e+02,3.91341e+01,-2.20343e+01,-2.06537e+00,9.14110e-01,2.60241e+00
4.26200e+02,3.86720e+01,-2.51820e+01,-2.15702e+00,9.06949e-01,2.66840e+00
4.26200e+02,3.81790e+01,-2.83298e+01,-2.24615e+00,8.99703e-01,2.73379e+00
4.26200e+02,3.76521e+01,-3.14776e+01,-2.33252e+00,8.92380e-01,2.79816e+00
4.26200e+02,3.70842e+01,-3.46253e+01,-2.41556e+00,8.84991e-01,2.86086e+00
4.26200e+02,3.64743e+01,-3.77731e+01,-2.49517e+00,8.77545e-01,2.92166e+00
4.26200e+02,3.58048e+01,-4.09208e+01,-2.56994e+00,8.70054e-01,2.97919e+00
4.26200e+02,3.50774e+01,-4.40686e+01,-2.63999e+00,8.62535e-01,3.03339e+00
4.26200e+02,3.42806e+01,-4.72163e+01,-2.70440e+00,8.54996e-01,3.08332e+00
4.26200e+02,3.33901e+01,-5.03641e+01,-2.76117e+00,8.47466e-01,3.12708e+00
4.26200e+02,3.24342e+01,-5.35118e+01,-2.81263e+00,8.39950e-01,3.16661e+00
4.26200e+02,3.13314e+01,-5.66596e+01,-2.85212e+00,8.32487e-01,3.19589e+00
4.26200e+02,3.01677e+01,-5.98074e+01,-2.88666e+00,8.25095e-01,3.22105e+00
4.26200e+02,2.88343e+01,-6.29551e+01,-2.90739e+00,8.17794e-01,3.23408e+00
4.26200e+02,2.73650e+01,-6.61029e+01,-2.91705e+00,8.10644e-01,3.23738e+00
4.26200e+02,2.57573e+01,-6.92506e+01,-2.91545e+00,8.03656e-01,3.23070e+00
4.26200e+02,2.39173e+01,-7.23984e+01,-2.89494e+00,7.96858e-01,3.20712e+00
4.26200e+02,2.18083e+01,-7.55461e+01,-2.85254e+00,7.90331e-01,3.16399e+00
4.26200e+02,1.93952e+01,-7.86939e+01,-2.78538e+00,7.84154e-01,3.09887e+00
4.26200e+02,1.65410e+01,-8.18417e+01,-2.68232e+00,7.78379e-01,3.00207e+00
4.26200e+02,1.28775e+01,-8.49894e+01,-2.51338e+00,7.73288e-01,2.84798e+00
4.26200e+02,7.92271e+00,-8.81372e+01,-2.23933e+00,7.70178e-01,2.60656e+00
4.26200e+02,-3.21022e+00,-9.12849e+01,-1.46241e+00,7.71412e-01,1.98087e+00
4.26200e+02,-4.01369e+00,-9.12922e+01,-1.39731e+00,7.75241e-01,1.93790e+00
4.26200e+02,-1.13339e+01,-8.80318e+01,-6.67577e-01,7.82504e-01,1.51083e+00
4.26200e+02,-1.22201e+01,-8.47713e+01,-4.61547e-01,7.87868e-01,1.44057e+00
4.26200e+02,-1.25260e+01,-8.15109e+01,-3.02765e-01,7.93513e-01,1.40736e+00
4.26200e+02,-1.25724e+01,-7.82505e+01,-1.65099e-01,7.99420e-01,1.39444e+00
4.26200e+02,-1.24233e+01,-7.49900e+01,-4.33428e-02,8.05542e-01,1.39591e+00
4.26200e+02,-1.21516e+01,-7.17296e+01,6.84296e-02,8.11843e-01,1.40782e+00
4.26200e+02,-1.17568e+01,-6.84692e+01,1.70177e-01,8.18287e-01,1.42750e+00
4.26200e+02,-1.12868e+01,-6.52087e+01,2.65810e-01,8.24842e-01,1.45319e+00
4.26200e+02,-1.07732e+01,-6.19483e+01,3.57895e-01,8.31492e-01,1.48399e+00
4.26200e+02,-1.01940e+01,-5.86879e+01,4.44637e-01,8.38217e-01,1.51840e+00
4.26200e+02,-9.57378e+00,-5.54274e+01,5.28040e-01,8.45000e-01,1.55592e+00
4.26200e+02,-8.91358e+00,-5.21670e+01,6.08190e-01,8.51827e-01,1.59585e+00
4.26200e+02,-8.21359e+00,-4.89065e+01,6.85101e-01,8.58684e-01,1.63749e+00
4.26200e+02,-7.48864e+00,-4.56461e+01,7.59980e-01,8.65559e-01,1.68082e+00
4.26200e+02,-6.73173e+00,-4.23857e+01,8.32258e-01,8.72441e-01,1.72514e+00
4.26200e+02,-5.95435e+00,-3.91252e+01,9.02870e-01,8.79321e-01,1.77053e+00
4.26200e+02,-5.15861e+00,-3.58648e+01,9.71987e-01,8.86191e-01,1.81680e+00
4.26200e+02,-4.34650e+00,-3.26044e+01,1.03977e+00,8.93043e-01,1.86379e+00
4.26200e+02,-3.52744e+00,-2.93439e+01,1.10699e+00,8.99872e-01,1.91174e+00
4.26200e+02,-2.69763e+00,-2.60835e+01,1.17333e+00,9.06674e-01,1.96033e+00
4.26200e+02,-1.86603e+00,-2.28231e+01,1.23953e+00,9.13447e-01,2.00988e+00
4.26200e+02,-1.02802e+00,-1.95626e+01,1.30521e+00,9.20188e-01,2.06005e+00
4.26200e+02,-1.90083e-01,-1.63022e+01,1.37089e+00,9.26895e-01,2.11110e+00
4.26200e+02,6.44682e-01,-1.30417e+01,1.43683e+00,9.33569e-01,2.16313e+00
4.26200e+02,1.47945e+00,-9.78131e+00,1.50277e+00,9.40208e-01,2.21592e+00
4.26200e+02,2.29445e+00,-6.52087e+00,1.57032e+00,9.46814e-01,2.27053e+00
4.26200e+02,3.10576e+00,-3.26044e+00,1.63817e+00,9.53392e-01,2.32604e+00
5.30600e+02,4.10127e+01,0.00000e+00,-1.17265e+00,8.93994e-01,1.94237e+00
5.30600e+02,4.08062e+01,-3.11654e+00,-1.27108e+00,8.88175e-01,1.99555e+00
5.30600e+02,4.05314e+01,-6.23307e+00,-1.36463e+00,8.82214e-01,2.04869e+00
5.30600e+02,4.02539e+01,-9.34961e+00,-1.45798e+00,8.76117e-01,2.10439e+00
5.30600e+02,3.99161e+01,-1.24661e+01,-1.54701e+00,8.69897e-01,2.15949e+00
5.30600e+02,3.95644e+01,-1.55827e+01,-1.63505e+00,8.63561e-01,2.21599e+00
5.30600e+02,3.91664e+01,-1.86992e+01,-1.71977e+00,8.57120e-01,2.27191e+00
5.30600e+02,3.87460e+01,-2.18158e+01,-1.80289e+00,8.50582e-01,2.32828e+00
5.30600e+02,3.82884e+01,-2.49323e+01,-1.88335e+00,8.43955e-01,2.38407e+00
5.30600e+02,3.78003e+01,-2.80488e+01,-1.96162e+00,8.37250e-01,2.43945e+00
5.30600e+02,3.72787e+01,-3.11654e+01,-2.03749e+00,8.30474e-01,2.49408e+00
5.30600e+02,3.67164e+01,-3.42819e+01,-2.11045e+00,8.23637e-01,2.54738e+00
5.30600e+02,3.61125e+01,-3.73984e+01,-2.18043e+00,8.16747e-01,2.59914e+00
5.30600e+02,3.54497e+01,-4.05150e+01,-2.24619e+00,8.09816e-01,2.64817e+00
5.30600e+02,3.47295e+01,-4.36315e+01,-2.30785e+00,8.02857e-01,2.69442e+00
5.30600e+02,3.39406e+01,-4.67480e+01,-2.36459e+00,7.95882e-01,2.73707e+00
5.30600e+02,3.30589e+01,-4.98646e+01,-2.41468e+00,7.88914e-01,2.77450e+00
5.30600e+02,3.21125e+01,-5.29811e+01,-2.46014e+00,7.81959e-01,2.80832e+00
5.30600e+02,3.10206e+01,-5.60976e+01,-2.49519e+00,7.75054e-01,2.83339e+00
5.30600e+02,2.98685e+01,-5.92142e+01,-2.52592e+00,7.68214e-01,2.85494e+00
5.30600e+02,2.85484e+01,-6.23307e+01,-2.54462e+00,7.61458e-01,2.86610e+00
5.30600e+02,2.70936e+01,-6.54473e+01,-2.55368e+00,7.54842e-01,2.86891e+00
5.30600e+02,2.55018e+01,-6.85638e+01,-2.55294e+00,7.48376e-01,2.86316e+00
5.30600e+02,2.36801e+01,-7.16803e+01,-2.53573e+00,7.42086e-01,2.84289e+00
5.30600e+02,2.15920e+01,-7.47969e+01,-2.49945e+00,7.36046e-01,2.80581e+00
5.30600e+02,1.92028e+01,-7.79134e+01,-2.44162e+00,7.30331e-01,2.74984e+00
5.30600e+02,1.63770e+01,-8.10299e+01,-2.35252e+00,7.24987e-01,2.66668e+00
5.30600e+02,1.27498e+01,-8.41465e+01,-2.20605e+00,7.20276e-01,2.53437e+00
5.30600e+02,7.84413e+00,-8.72630e+01,-1.96805e+00,7.17399e-01,2.32749e+00
5.30600e+02,-3.17838e+00,-9.03795e+01,-1.29212e+00,7.18541e-01,1.79401e+00
5.30600e+02,-3.97388e+00,-9.03868e+01,-1.23543e+00,7.22084e-01,1.75798e+00
5.30600e+02,-1.12214e+01,-8.71587e+01,-5.99271e-01,7.28804e-01,1.39735e+00
5.30600e+02,-1.20989e+01,-8.39306e+01,-4.19176e-01,7.33768e-01,1.33827e+00
5.30600e+02,-1.24018e+01,-8.07025e+01,-2.80227e-01,7.38992e-01,1.31029e+00
5.30600e+02,-1.24477e+01,-7.74744e+01,-1.59667e-01,7.44458e-01,1.29929e+00
5.30600e+02,-1.23001e+01,-7.42463e+01,-5.29625e-02,7.50122e-01,1.30033e+00
5.30600e+02,-1.20311e+01,-7.10182e+01,4.50482e-02,7.55953e-01,1.31012e+00
5.30600e+02,-1.16402e+01,-6.77901e+01,1.34329e-01,7.61916e-01,1.32650e+00
5.30600e+02,-1.11748e+01,-6.45620e+01,2.18284e-01,7.67981e-01,1.34797e+00
5.30600e+02,-1.06664e+01,-6.13339e+01,2.99150e-01,7.74134e-01,1.37381e+00
5.30600e+02,-1.00929e+01,-5.81058e+01,3.75363e-01,7.80357e-01,1.40277e+00
5.30600e+02,-9.47882e+00,-5.48777e+01,4.48668e-01,7.86633e-01,1.43446e+00
5.30600e+02,-8.82518e+00,-5.16496e+01,5.19141e-01,7.92951e-01,1.46827e+00
5.30600e+02,-8.13212e+00,-4.84215e+01,5.86792e-01,7.99295e-01,1.50364e+00
5.30600e+02,-7.41437e+00,-4.51934e+01,6.52675e-01,8.05657e-01,1.54053e+00
5.30600e+02,-6.66496e+00,-4.19653e+01,7.16292e-01,8.12025e-01,1.57836e+00
5.30600e+02,-5.89529e+00,-3.87372e+01,7.78458e-01,8.18391e-01,1.61719e+00
5.30600e+02,-5.10745e+00,-3.55091e+01,8.39323e-01,8.24748e-01,1.65683e+00
5.30600e+02,-4.30339e+00,-3.22810e+01,8.99027e-01,8.31088e-01,1.69717e+00
5.30600e+02,-3.49245e+00,-2.90529e+01,9.58238e-01,8.37407e-01,1.73838e+00
5.30600e+02,-2.67088e+00,-2.58248e+01,1.01669e+00,8.43701e-01,1.78021e+00
5.30600e+02,-1.84753e+00,-2.25967e+01,1.07501e+00,8.49968e-01,1.82291e+00
5.30600e+02,-1.01782e+00,-1.93686e+01,1.13288e+00,8.56205e-01,1.86619e+00
5.30600e+02,-1.88198e-01,-1.61405e+01,1.19075e+00,8.62412e-01,1.91028e+00
5.30600e+02,6.38288e-01,-1.29124e+01,1.24885e+00,8.68587e-01,1.95524e+00
5.30600e+02,1.46477e+00,-9.68430e+00,1.30695e+00,8.74729e-01,2.00089e+00
5.30600e+02,2.27169e+00,-6.45620e+00,1.36645e+00,8.80842e-01,2.04813e+00
5.30600e+02,3.07496e+00,-3.22810e+00,1.42621e+00,8.86928e-01,2.09619e+00
6.33500e+02,4.06078e+01,0.00000e+00,-1.01167e+00,8.27100e-01,1.75379e+00
6.33500e+02,4.04033e+01,-3.08576e+00,-1.09721e+00,8.21741e-01,1.79712e+00
6.33500e+02,4.01312e+01,-6.17153e+00,-1.17853e+00,8.16252e-01,1.84058e+00
6.33500e+02,3.98564e+01,-9.25729e+00,-1.25968e+00,8.10638e-01,1.88632e+00
6.33500e+02,3.95220e+01,-1.23431e+01,-1.33711e+00,8.04910e-01,1.93171e+00
6.33500e+02,3.91738e+01,-1.54288e+01,-1.41367e+00,7.99076e-01,1.97839e+00
6.33500e+02,3.87797e+01,-1.85146e+01,-1.48738e+00,7.93144e-01,2.02473e+00
6.33500e+02,3.83634e+01,-2.16004e+01,-1.55970e+00,7.87124e-01,2.07156e+00
6.33500e+02,3.79104e+01,-2.46861e+01,-1.62973e+00,7.81022e-01,2.11802e+00
6.33500e+02,3.74271e+01,-2.77719e+01,-1.69787e+00,7.74848e-01,2.16424e+00
6.33500e+02,3.69106e+01,-3.08576e+01,-1.76394e+00,7.68608e-01,2.20992e+00
6.33500e+02,3.63539e+01,-3.39434e+01,-1.82749e+00,7.62312e-01,2.25457e+00
6.33500e+02,3.57559e+01,-3.70292e+01,-1.88848e+00,7.55967e-01,2.29800e+00
6.33500e+02,3.50997e+01,-4.01149e+01,-1.94582e+00,7.49585e-01,2.33920e+00
6.33500e+02,3.43866e+01,-4.32007e+01,-1.99962e+00,7.43178e-01,2.37811e+00
6.33500e+02,3.36055e+01,-4.62865e+01,-2.04918e+00,7.36754e-01,2.41404e+00
6.33500e+02,3.27325e+01,-4.93722e+01,-2.09300e+00,7.30338e-01,2.44557e+00
6.33500e+02,3.17954e+01,-5.24580e+01,-2.13283e+00,7.23934e-01,2.47410e+00
6.33500e+02,3.07144e+01,-5.55438e+01,-2.16366e+00,7.17575e-01,2.49523e+00
6.33500e+02,2.95736e+01,-5.86295e+01,-2.19077e+00,7.11277e-01,2.51341e+00
6.33500e+02,2.82665e+01,-6.17153e+01,-2.20751e+00,7.05056e-01,2.52277e+00
6.33500e+02,2.68261e+01,-6.48011e+01,-2.21592e+00,6.98963e-01,2.52506e+00
6.33500e+02,2.52500e+01,-6.78868e+01,-2.21587e+00,6.93010e-01,2.52009e+00
6.33500e+02,2.34463e+01,-7.09726e+01,-2.20161e+00,6.87218e-01,2.50278e+00
6.33500e+02,2.13788e+01,-7.40584e+01,-2.17090e+00,6.81656e-01,2.47119e+00
6.33500e+02,1.90132e+01,-7.71441e+01,-2.12158e+00,6.76393e-01,2.42355e+00
6.33500e+02,1.62153e+01,-8.02299e+01,-2.04528e+00,6.71473e-01,2.35283e+00
6.33500e+02,1.26239e+01,-8.33156e+01,-1.91947e+00,6.67135e-01,2.24044e+00
6.33500e+02,7.76668e+00,-8.64014e+01,-1.71467e+00,6.64486e-01,2.06512e+00
6.33500e+02,-3.14700e+00,-8.94872e+01,-1.13194e+00,6.65537e-01,1.61559e+00
6.33500e+02,-3.93464e+00,-8.94943e+01,-1.08302e+00,6.68801e-01,1.58582e+00
6.33500e+02,-1.11106e+01,-8.62981e+01,-5.33416e-01,6.74988e-01,1.28505e+00
6.33500e+02,-1.19795e+01,-8.31019e+01,-3.77383e-01,6.79560e-01,1.23605e+00
6.33500e+02,-1.22793e+01,-7.99057e+01,-2.56858e-01,6.84370e-01,1.21287e+00
6.33500e+02,-1.23248e+01,-7.67094e+01,-1.52203e-01,6.89403e-01,1.20374e+00
6.33500e+02,-1.21787e+01,-7.35132e+01,-5.95049e-02,6.94619e-01,1.20459e+00
6.33500e+02,-1.19123e+01,-7.03170e+01,2.56905e-02,6.99988e-01,1.21269e+00
6.33500e+02,-1.15252e+01,-6.71208e+01,1.03352e-01,7.05479e-01,1.22629e+00
6.33500e+02,-1.10645e+01,-6.39245e+01,1.76418e-01,7.11064e-01,1.24417e+00
6.33500e+02,-1.05611e+01,-6.07283e+01,2.46818e-01,7.16729e-01,1.26571e+00
6.33500e+02,-9.99326e+00,-5.75321e+01,3.13202e-01,7.22460e-01,1.28994e+00
6.33500e+02,-9.38524e+00,-5.43358e+01,3.77077e-01,7.28239e-01,1.31650e+00
6.33500e+02,-8.73804e+00,-5.11396e+01,4.38507e-01,7.34056e-01,1.34492e+00
6.33500e+02,-8.05183e+00,-4.79434e+01,4.97503e-01,7.39898e-01,1.37472e+00
6.33500e+02,-7.34116e+00,-4.47472e+01,5.54972e-01,7.45756e-01,1.40586e+00
6.33500e+02,-6.59916e+00,-4.15509e+01,6.10486e-01,7.51620e-01,1.43788e+00
6.33500e+02,-5.83709e+00,-3.83547e+01,6.64748e-01,7.57482e-01,1.47079e+00
6.33500e+02,-5.05702e+00,-3.51585e+01,7.17887e-01,7.63336e-01,1.50446e+00
6.33500e+02,-4.26090e+00,-3.19623e+01,7.70025e-01,7.69173e-01,1.53877e+00
6.33500e+02,-3.45797e+00,-2.87660e+01,8.21737e-01,7.74992e-01,1.57388e+00
6.33500e+02,-2.64450e+00,-2.55698e+01,8.72792e-01,7.80788e-01,1.60955e+00
6.33500e+02,-1.82928e+00,-2.23736e+01,9.23737e-01,7.86558e-01,1.64600e+00
6.33500e+02,-1.00777e+00,-1.91774e+01,9.74290e-01,7.92302e-01,1.68299e+00
6.33500e+02,-1.86340e-01,-1.59811e+01,1.02485e+00,7.98017e-01,1.72070e+00
6.33500e+02,6.31986e-01,-1.27849e+01,1.07560e+00,8.03703e-01,1.75918e+00
6.33500e+02,1.45031e+00,-9.58868e+00,1.12635e+00,8.09359e-01,1.79829e+00
6.33500e+02,2.24926e+00,-6.39245e+00,1.17831e+00,8.14987e-01,1.83876e+00
6.33500e+02,3.04460e+00,-3.19623e+00,1.23050e+00,8.20592e-01,1.87996e+00
7.34700e+02,4.02095e+01,0.00000e+00,-8.64043e-01,7.60447e-01,1.57525e+00
7.34700e+02,4.00070e+01,-3.05550e+00,-9.37661e-01,7.55539e-01,1.60988e+00
7.34700e+02,3.97376e+01,-6.11100e+00,-1.00768e+00,7.50512e-01,1.64475e+00
7.34700e+02,3.94656e+01,-9.16651e+00,-1.07755e+00,7.45370e-01,1.68162e+00
7.34700e+02,3.91344e+01,-1.22220e+01,-1.14424e+00,7.40124e-01,1.71832e+00
7.34700e+02,3.87896e+01,-1.52775e+01,-1.21019e+00,7.34781e-01,1.75621e+00
7.34700e+02,3.83994e+01,-1.83330e+01,-1.27370e+00,7.29349e-01,1.79393e+00
7.34700e+02,3.79872e+01,-2.13885e+01,-1.33603e+00,7.23835e-01,1.83215e+00
7.34700e+02,3.75386e+01,-2.44440e+01,-1.39640e+00,7.18247e-01,1.87018e+00
7.34700e+02,3.70601e+01,-2.74995e+01,-1.45515e+00,7.12592e-01,1.90810e+00
7.34700e+02,3.65486e+01,-3.05550e+01,-1.51214e+00,7.06877e-01,1.94566e+00
7.34700e+02,3.59973e+01,-3.36105e+01,-1.56697e+00,7.01111e-01,1.98244e+00
7.34700e+02,3.54053e+01,-3.66660e+01,-1.61962e+00,6.95301e-01,2.01829e+00
7.34700e+02,3.47554e+01,-3.97215e+01,-1.66915e+00,6.89455e-01,2.05234e+00
7.34700e+02,3.40493e+01,-4.27770e+01,-1.71565e+00,6.83587e-01,2.08454e+00
7.34700e+02,3.32760e+01,-4.58325e+01,-1.75853e+00,6.77705e-01,2.11430e+00
7.34700e+02,3.24115e+01,-4.88880e+01,-1.79650e+00,6.71829e-01,2.14044e+00
7.34700e+02,3.14836e+01,-5.19435e+01,-1.83106e+00,6.65963e-01,2.16410e+00
7.34700e+02,3.04131e+01,-5.49990e+01,-1.85795e+00,6.60140e-01,2.18159e+00
7.34700e+02,2.92835e+01,-5.80545e+01,-1.88165e+00,6.54372e-01,2.19663e+00
7.34700e+02,2.79893e+01,-6.11100e+01,-1.89648e+00,6.48674e-01,2.20431e+00
7.34700e+02,2.65630e+01,-6.41655e+01,-1.90420e+00,6.43095e-01,2.20606e+00
7.34700e+02,2.50024e+01,-6.72210e+01,-1.90470e+00,6.37642e-01,2.20173e+00
7.34700e+02,2.32164e+01,-7.02765e+01,-1.89305e+00,6.32337e-01,2.18705e+00
7.34700e+02,2.11691e+01,-7.33320e+01,-1.86734e+00,6.27244e-01,2.16039e+00
7.34700e+02,1.88268e+01,-7.63875e+01,-1.82574e+00,6.22425e-01,2.12027e+00
7.34700e+02,1.60563e+01,-7.94430e+01,-1.76109e+00,6.17918e-01,2.06080e+00
7.34700e+02,1.25001e+01,-8.24985e+01,-1.65413e+00,6.13945e-01,1.96645e+00
7.34700e+02,7.69051e+00,-8.55540e+01,-1.47969e+00,6.11519e-01,1.81971e+00
7.34700e+02,-3.11614e+00,-8.86096e+01,-9.82338e-01,6.12483e-01,1.44582e+00
7.34700e+02,-3.89606e+00,-8.86166e+01,-9.40541e-01,6.15471e-01,1.42163e+00
7.34700e+02,-1.10017e+01,-8.54518e+01,-4.70401e-01,6.21138e-01,1.17419e+00
7.34700e+02,-1.18620e+01,-8.22869e+01,-3.36532e-01,6.25325e-01,1.13417e+00
7.34700e+02,-1.21589e+01,-7.91220e+01,-2.33000e-01,6.29730e-01,1.11533e+00
7.34700e+02,-1.22039e+01,-7.59571e+01,-1.43028e-01,6.34340e-01,1.10798e+00
7.34700e+02,-1.20592e+01,-7.27922e+01,-6.32718e-02,6.39117e-01,1.10879e+00
7.34700e+02,-1.17955e+01,-6.96274e+01,1.00741e-02,6.44034e-01,1.11554e+00
7.34700e+02,-1.14122e+01,-6.64625e+01,7.69829e-02,6.49062e-01,1.12684e+00
7.34700e+02,-1.09560e+01,-6.32976e+01,1.39965e-01,6.54178e-01,1.14168e+00
7.34700e+02,-1.04575e+01,-6.01327e+01,2.00670e-01,6.59366e-01,1.15955e+00
7.34700e+02,-9.89525e+00,-5.69678e+01,2.57944e-01,6.64614e-01,1.17969e+00
7.34700e+02,-9.29319e+00,-5.38030e+01,3.13073e-01,6.69907e-01,1.20181e+00
7.34700e+02,-8.65235e+00,-5.06381e+01,3.66114e-01,6.75235e-01,1.22551e+00
7.34700e+02,-7.97287e+00,-4.74732e+01,4.17075e-01,6.80585e-01,1.25042e+00
7.34700e+02,-7.26917e+00,-4.43083e+01,4.66732e-01,6.85950e-01,1.27649e+00
7.34700e+02,-6.53444e+00,-4.11434e+01,5.14718e-01,6.91320e-01,1.30334e+00
7.34700e+02,-5.77984e+00,-3.79786e+01,5.61634e-01,6.96689e-01,1.33100e+00
7.34700e+02,-5.00742e+00,-3.48137e+01,6.07591e-01,7.02049e-01,1.35933e+00
7.34700e+02,-4.21911e+00,-3.16488e+01,6.52692e-01,7.07396e-01,1.38825e+00
7.34700e+02,-3.42406e+00,-2.84839e+01,6.97430e-01,7.12724e-01,1.41786e+00
7.34700e+02,-2.61857e+00,-2.53190e+01,7.41606e-01,7.18032e-01,1.44800e+00
7.34700e+02,-1.81134e+00,-2.21542e+01,7.85689e-01,7.23317e-01,1.47881e+00
7.34700e+02,-9.97887e-01,-1.89893e+01,8.29436e-01,7.28577e-01,1.51011e+00
7.34700e+02,-1.84513e-01,-1.58244e+01,8.73187e-01,7.33811e-01,1.54204e+00
7.34700e+02,6.25788e-01,-1.26595e+01,9.17105e-01,7.39018e-01,1.57465e+00
7.34700e+02,1.43609e+00,-9.49464e+00,9.61022e-01,7.44198e-01,1.60781e+00
7.34700e+02,2.22720e+00,-6.32976e+00,1.00597e+00,7.49352e-01,1.64212e+00
7.34700e+02,3.01474e+00,-3.16488e+00,1.05111e+00,7.54485e-01,1.67708e+00
8.33800e+02,3.98196e+01,0.00000e+00,-7.30015e-01,6.94369e-01,1.40690e+00
8.33800e+02,3.96190e+01,-3.02587e+00,-7.92723e-01,6.89900e-01,1.43398e+00
8.33800e+02,3.93522e+01,-6.05173e+00,-8.52386e-01,6.85322e-01,1.46136e+00
8.33800e+02,3.90828e+01,-9.07760e+00,-9.11927e-01,6.80641e-01,1.49045e+00
8.33800e+02,3.87549e+01,-1.21035e+01,-9.68781e-01,6.75864e-01,1.51951e+00
8.33800e+02,3.84134e+01,-1.51293e+01,-1.02501e+00,6.70998e-01,1.54963e+00
8.33800e+02,3.80270e+01,-1.81552e+01,-1.07918e+00,6.66052e-01,1.57971e+00
8.33800e+02,3.76188e+01,-2.11811e+01,-1.13234e+00,6.61031e-01,1.61031e+00
8.33800e+02,3.71745e+01,-2.42069e+01,-1.18385e+00,6.55943e-01,1.64082e+00
8.33800e+02,3.67006e+01,-2.72328e+01,-1.23399e+00,6.50794e-01,1.67133e+00
8.33800e+02,3.61941e+01,-3.02587e+01,-1.28264e+00,6.45590e-01,1.70162e+00
8.33800e+02,3.56482e+01,-3.32845e+01,-1.32947e+00,6.40340e-01,1.73136e+00
8.33800e+02,3.50619e+01,-3.63104e+01,-1.37445e+00,6.35049e-01,1.76039e+00
8.33800e+02,3.44183e+01,-3.93363e+01,-1.41680e+00,6.29726e-01,1.78801e+00
8.33800e+02,3.37191e+01,-4.23621e+01,-1.45659e+00,6.24383e-01,1.81417e+00
8.33800e+02,3.29532e+01,-4.53880e+01,-1.49331e+00,6.19027e-01,1.83836e+00
8.33800e+02,3.20971e+01,-4.84139e+01,-1.52589e+00,6.13676e-01,1.85961e+00
8.33800e+02,3.11783e+01,-5.14397e+01,-1.55559e+00,6.08336e-01,1.87885e+00
8.33800e+02,3.01182e+01,-5.44656e+01,-1.57879e+00,6.03033e-01,1.89302e+00
8.33800e+02,2.89995e+01,-5.74915e+01,-1.59931e+00,5.97781e-01,1.90520e+00
8.33800e+02,2.77178e+01,-6.05173e+01,-1.61232e+00,5.92593e-01,1.91130e+00
8.33800e+02,2.63054e+01,-6.35432e+01,-1.61933e+00,5.87512e-01,1.91253e+00
8.33800e+02,2.47599e+01,-6.65691e+01,-1.62023e+00,5.82548e-01,1.90873e+00
8.33800e+02,2.29912e+01,-6.95949e+01,-1.61087e+00,5.77717e-01,1.89636e+00
8.33800e+02,2.09638e+01,-7.26208e+01,-1.58962e+00,5.73080e-01,1.87407e+00
8.33800e+02,1.86442e+01,-7.56467e+01,-1.55493e+00,5.68691e-01,1.84067e+00
8.33800e+02,1.59005e+01,-7.86725e+01,-1.50076e+00,5.64588e-01,1.79125e+00
8.33800e+02,1.23789e+01,-8.16984e+01,-1.41084e+00,5.60971e-01,1.71305e+00
8.33800e+02,7.61592e+00,-8.47243e+01,-1.26386e+00,5.58762e-01,1.59185e+00
8.33800e+02,-3.08591e+00,-8.77501e+01,-8.43947e-01,5.59639e-01,1.28524e+00
8.33800e+02,-3.85827e+00,-8.77572e+01,-8.08617e-01,5.62360e-01,1.26594e+00
8.33800e+02,-1.08950e+01,-8.46230e+01,-4.10721e-01,5.67521e-01,1.06533e+00
8.33800e+02,-1.17470e+01,-8.14888e+01,-2.97066e-01,5.71333e-01,1.03320e+00
8.33800e+02,-1.20409e+01,-7.83546e+01,-2.09055e-01,5.75344e-01,1.01822e+00
8.33800e+02,-1.20856e+01,-7.52204e+01,-1.32506e-01,5.79541e-01,1.01250e+00
8.33800e+02,-1.19423e+01,-7.20862e+01,-6.45914e-02,5.83891e-01,1.01339e+00
8.33800e+02,-1.16811e+01,-6.89521e+01,-2.09573e-03,5.88369e-01,1.01909e+00
8.33800e+02,-1.13015e+01,-6.58179e+01,5.49588e-02,5.92947e-01,1.02848e+00
8.33800e+02,-1.08497e+01,-6.26837e+01,1.08694e-01,5.97605e-01,1.04077e+00
8.33800e+02,-1.03561e+01,-5.95495e+01,1.60505e-01,6.02330e-01,1.05554e+00
8.33800e+02,-9.79928e+00,-5.64153e+01,2.09415e-01,6.07108e-01,1.07219e+00
8.33800e+02,-9.20306e+00,-5.32811e+01,2.56512e-01,6.11927e-01,1.09049e+00
8.33800e+02,-8.56843e+00,-5.01469e+01,3.01845e-01,6.16778e-01,1.11012e+00
8.33800e+02,-7.89554e+00,-4.70128e+01,3.45419e-01,6.21650e-01,1.13078e+00
8.33800e+02,-7.19866e+00,-4.38786e+01,3.87891e-01,6.26535e-01,1.15243e+00
8.33800e+02,-6.47106e+00,-4.07444e+01,4.28950e-01,6.31425e-01,1.17477e+00
8.33800e+02,-5.72378e+00,-3.76102e+01,4.69105e-01,6.36313e-01,1.19781e+00
8.33800e+02,-4.95886e+00,-3.44760e+01,5.08450e-01,6.41194e-01,1.22144e+00
8.33800e+02,-4.17819e+00,-3.13418e+01,5.47070e-01,6.46062e-01,1.24558e+00
8.33800e+02,-3.39085e+00,-2.82077e+01,5.85384e-01,6.50914e-01,1.27033e+00
8.33800e+02,-2.59317e+00,-2.50735e+01,6.23223e-01,6.55747e-01,1.29554e+00
8.33800e+02,-1.79378e+00,-2.19393e+01,6.60983e-01,6.60559e-01,1.32133e+00
8.33800e+02,-9.88209e-01,-1.88051e+01,6.98460e-01,6.65349e-01,1.34756e+00
8.33800e+02,-1.82723e-01,-1.56709e+01,7.35940e-01,6.70114e-01,1.37432e+00
8.33800e+02,6.19718e-01,-1.25367e+01,7.73560e-01,6.74856e-01,1.40167e+00
8.33800e+02,1.42216e+00,-9.40255e+00,8.11180e-01,6.79572e-01,1.42950e+00
8.33800e+02,2.20560e+00,-6.26837e+00,8.49673e-01,6.84266e-01,1.45829e+00
8.33800e+02,2.98550e+00,-3.13418e+00,8.88329e-01,6.88939e-01,1.48763e+00
9.30700e+02,3.94382e+01,0.00000e+00,-6.09284e-01,6.28863e-01,1.24805e+00
9.30700e+02,3.92396e+01,-2.99689e+00,-6.62081e-01,6.24820e-01,1.26868e+00
9.30700e+02,3.89754e+01,-5.99378e+00,-7.12335e-01,6.20679e-01,1.28963e+00
9.30700e+02,3.87085e+01,-8.99067e+00,-7.62488e-01,6.16444e-01,1.31202e+00
9.30700e+02,3.83837e+01,-1.19876e+01,-8.10396e-01,6.12123e-01,1.33448e+00
9.30700e+02,3.80455e+01,-1.49844e+01,-8.57783e-01,6.07722e-01,1.35785e+00
9.30700e+02,3.76628e+01,-1.79813e+01,-9.03447e-01,6.03247e-01,1.38128e+00
9.30700e+02,3.72585e+01,-2.09782e+01,-9.48274e-01,5.98706e-01,1.40519e+00
9.30700e+02,3.68185e+01,-2.39751e+01,-9.91717e-01,5.94103e-01,1.42912e+00
9.30700e+02,3.63492e+01,-2.69720e+01,-1.03402e+00,5.89445e-01,1.45311e+00
9.30700e+02,3.58475e+01,-2.99689e+01,-1.07508e+00,5.84738e-01,1.47701e+00
9.30700e+02,3.53068e+01,-3.29658e+01,-1.11462e+00,5.79989e-01,1.50051e+00
9.30700e+02,3.47261e+01,-3.59627e+01,-1.15261e+00,5.75203e-01,1.52351e+00
9.30700e+02,3.40887e+01,-3.89596e+01,-1.18840e+00,5.70389e-01,1.54542e+00
9.30700e+02,3.33962e+01,-4.19565e+01,-1.22206e+00,5.65555e-01,1.56620e+00
9.30700e+02,3.26376e+01,-4.49533e+01,-1.25316e+00,5.60710e-01,1.58543e+00
9.30700e+02,3.17897e+01,-4.79502e+01,-1.28080e+00,5.55870e-01,1.60232e+00
9.30700e+02,3.08797e+01,-5.09471e+01,-1.30602e+00,5.51039e-01,1.61760e+00
9.30700e+02,2.98297e+01,-5.39440e+01,-1.32583e+00,5.46243e-01,1.62880e+00
9.30700e+02,2.87218e+01,-5.69409e+01,-1.34339e+00,5.41492e-01,1.63840e+00
9.30700e+02,2.74524e+01,-5.99378e+01,-1.35469e+00,5.36799e-01,1.64306e+00
9.30700e+02,2.60534e+01,-6.29347e+01,-1.36098e+00,5.32203e-01,1.64377e+00
9.30700e+02,2.45228e+01,-6.59316e+01,-1.36216e+00,5.27713e-01,1.64040e+00
9.30700e+02,2.27710e+01,-6.89285e+01,-1.35477e+00,5.23343e-01,1.63005e+00
9.30700e+02,2.07631e+01,-7.19254e+01,-1.33745e+00,5.19149e-01,1.61162e+00
9.30700e+02,1.84656e+01,-7.49222e+01,-1.30892e+00,5.15179e-01,1.58414e+00
9.30700e+02,1.57483e+01,-7.79191e+01,-1.26411e+00,5.11467e-01,1.54362e+00
9.30700e+02,1.22603e+01,-8.09160e+01,-1.18944e+00,5.08195e-01,1.47972e+00
9.30700e+02,7.54299e+00,-8.39129e+01,-1.06713e+00,5.06197e-01,1.38112e+00
9.30700e+02,-3.05636e+00,-8.69098e+01,-7.16890e-01,5.06991e-01,1.13360e+00
9.30700e+02,-3.82132e+00,-8.69168e+01,-6.87387e-01,5.09453e-01,1.11854e+00
9.30700e+02,-1.07906e+01,-8.38126e+01,-3.54659e-01,5.14121e-01,9.58511e-01
9.30700e+02,-1.16345e+01,-8.07084e+01,-2.59301e-01,5.17569e-01,9.33204e-01
9.30700e+02,-1.19256e+01,-7.76042e+01,-1.85358e-01,5.21198e-01,9.21574e-01
9.30700e+02,-1.19698e+01,-7.45001e+01,-1.20987e-01,5.24994e-01,9.17330e-01
9.30700e+02,-1.18279e+01,-7.13959e+01,-6.38267e-02,5.28929e-01,9.18352e-01
9.30700e+02,-1.15692e+01,-6.82917e+01,-1.11916e-02,5.32979e-01,9.23214e-01
9.30700e+02,-1.11933e+01,-6.51876e+01,3.68997e-02,5.37121e-01,9.31052e-01
9.30700e+02,-1.07458e+01,-6.20834e+01,8.22192e-02,5.41334e-01,9.41215e-01
9.30700e+02,-1.02569e+01,-5.89792e+01,1.25931e-01,5.45607e-01,9.53373e-01
9.30700e+02,-9.70544e+00,-5.58751e+01,1.67221e-01,5.49930e-01,9.67073e-01
9.30700e+02,-9.11493e+00,-5.27709e+01,2.06997e-01,5.54289e-01,9.82119e-01
9.30700e+02,-8.48637e+00,-4.96667e+01,2.45299e-01,5.58677e-01,9.98265e-01
9.30700e+02,-7.81993e+00,-4.65625e+01,2.82133e-01,5.63084e-01,1.01528e+00
9.30700e+02,-7.12973e+00,-4.34584e+01,3.18046e-01,5.67502e-01,1.03312e+00
9.30700e+02,-6.40909e+00,-4.03542e+01,3.52780e-01,5.71926e-01,1.05155e+00
9.30700e+02,-5.66897e+00,-3.72500e+01,3.86759e-01,5.76347e-01,1.07057e+00
9.30700e+02,-4.91137e+00,-3.41459e+01,4.20060e-01,5.80762e-01,1.09009e+00
9.30700e+02,-4.13818e+00,-3.10417e+01,4.52757e-01,5.85166e-01,1.11007e+00
9.30700e+02,-3.35837e+00,-2.79375e+01,4.85198e-01,5.89555e-01,1.13055e+00
9.30700e+02,-2.56834e+00,-2.48334e+01,5.17243e-01,5.93926e-01,1.15143e+00
9.30700e+02,-1.77660e+00,-2.17292e+01,5.49221e-01,5.98279e-01,1.17280e+00
9.30700e+02,-9.78745e-01,-1.86250e+01,5.80963e-01,6.02611e-01,1.19455e+00
9.30700e+02,-1.80973e-01,-1.55208e+01,6.12708e-01,6.06922e-01,1.21675e+00
9.30700e+02,6.13784e-01,-1.24167e+01,6.44569e-01,6.11211e-01,1.23944e+00
9.30700e+02,1.40854e+00,-9.31251e+00,6.76431e-01,6.15477e-01,1.26253e+00
9.30700e+02,2.18448e+00,-6.20834e+00,7.09021e-01,6.19722e-01,1.28642e+00
9.30700e+02,2.95691e+00,-3.10417e+00,7.41748e-01,6.23949e-01,1.31077e+00
1.02500e+03,3.90671e+01,0.00000e+00,-5.01730e-01,5.64368e-01,1.09876e+00
1.02500e+03,3.88704e+01,-2.96869e+00,-5.45624e-01,5.60732e-01,1.11399e+00
1.02500e+03,3.86086e+01,-5.93738e+00,-5.87421e-01,5.57007e-01,1.12953e+00
1.02500e+03,3.83443e+01,-8.90607e+00,-6.29136e-01,5.53198e-01,1.14625e+00
1.02500e+03,3.80226e+01,-1.18748e+01,-6.69000e-01,5.49311e-01,1.16309e+00
1.02500e+03,3.76875e+01,-1.48435e+01,-7.08435e-01,5.45352e-01,1.18072e+00
1.02500e+03,3.73084e+01,-1.78121e+01,-7.46450e-01,5.41328e-01,1.19846e+00
1.02500e+03,3.69079e+01,-2.07808e+01,-7.83776e-01,5.37243e-01,1.21663e+00
1.02500e+03,3.64721e+01,-2.37495e+01,-8.19961e-01,5.33103e-01,1.23488e+00
1.02500e+03,3.60071e+01,-2.67182e+01,-8.55209e-01,5.28914e-01,1.25325e+00
1.02500e+03,3.55102e+01,-2.96869e+01,-8.89426e-01,5.24680e-01,1.27159e+00
1.02500e+03,3.49746e+01,-3.26556e+01,-9.22395e-01,5.20408e-01,1.28968e+00
1.02500e+03,3.43994e+01,-3.56243e+01,-9.54087e-01,5.16103e-01,1.30743e+00
1.02500e+03,3.37680e+01,-3.85930e+01,-9.83969e-01,5.11773e-01,1.32436e+00
1.02500e+03,3.30819e+01,-4.15617e+01,-1.01209e+00,5.07426e-01,1.34044e+00
1.02500e+03,3.23305e+01,-4.45304e+01,-1.03810e+00,5.03068e-01,1.35532e+00
1.02500e+03,3.14906e+01,-4.74990e+01,-1.06126e+00,4.98715e-01,1.36837e+00
1.02500e+03,3.05891e+01,-5.04677e+01,-1.08244e+00,4.94369e-01,1.38017e+00
1.02500e+03,2.95491e+01,-5.34364e+01,-1.09914e+00,4.90055e-01,1.38873e+00
1.02500e+03,2.84516e+01,-5.64051e+01,-1.11400e+00,4.85782e-01,1.39605e+00
1.02500e+03,2.71940e+01,-5.93738e+01,-1.12370e+00,4.81561e-01,1.39943e+00
1.02500e+03,2.58083e+01,-6.23425e+01,-1.12926e+00,4.77428e-01,1.39966e+00
1.02500e+03,2.42920e+01,-6.53112e+01,-1.13062e+00,4.73389e-01,1.39663e+00
1.02500e+03,2.25567e+01,-6.82799e+01,-1.12491e+00,4.69459e-01,1.38802e+00
1.02500e+03,2.05677e+01,-7.12486e+01,-1.11103e+00,4.65686e-01,1.37294e+00
1.02500e+03,1.82919e+01,-7.42173e+01,-1.08790e+00,4.62115e-01,1.35062e+00
1.02500e+03,1.56001e+01,-7.71859e+01,-1.05136e+00,4.58777e-01,1.31787e+00
1.02500e+03,1.21450e+01,-8.01546e+01,-9.90213e-01,4.55834e-01,1.26644e+00
1.02500e+03,7.47201e+00,-8.31233e+01,-8.89808e-01,4.54037e-01,1.18752e+00
1.02500e+03,-3.02760e+00,-8.60920e+01,-6.01569e-01,4.54751e-01,9.91101e-01
1.02500e+03,-3.78536e+00,-8.60989e+01,-5.77257e-01,4.56965e-01,9.79632e-01
1.02500e+03,-1.06891e+01,-8.30239e+01,-3.02668e-01,4.61164e-01,8.54181e-01
1.02500e+03,-1.15250e+01,-7.99490e+01,-2.23688e-01,4.64265e-01,8.34664e-01
1.02500e+03,-1.18134e+01,-7.68740e+01,-1.62355e-01,4.67529e-01,8.25899e-01
1.02500e+03,-1.18572e+01,-7.37991e+01,-1.08910e-01,4.70944e-01,8.22937e-01
1.02500e+03,-1.17166e+01,-7.07241e+01,-6.14073e-02,4.74483e-01,8.24120e-01
1.02500e+03,-1.14604e+01,-6.76491e+01,-1.76336e-02,4.78126e-01,8.28326e-01
1.02500e+03,-1.10880e+01,-6.45742e+01,2.23956e-02,4.81851e-01,8.34891e-01
1.02500e+03,-1.06447e+01,-6.14992e+01,6.01407e-02,4.85640e-01,8.43301e-01
1.02500e+03,-1.01604e+01,-5.84243e+01,9.65609e-02,4.89484e-01,8.53293e-01
1.02500e+03,-9.61411e+00,-5.53493e+01,1.30985e-01,4.93372e-01,8.64526e-01
1.02500e+03,-9.02916e+00,-5.22743e+01,1.64162e-01,4.97293e-01,8.76841e-01
1.02500e+03,-8.40652e+00,-4.91994e+01,1.96125e-01,5.01240e-01,8.90050e-01
1.02500e+03,-7.74634e+00,-4.61244e+01,2.26877e-01,5.05203e-01,9.03972e-01
1.02500e+03,-7.06264e+00,-4.30495e+01,2.56871e-01,5.09178e-01,9.18568e-01
1.02500e+03,-6.34878e+00,-3.99745e+01,2.85892e-01,5.13156e-01,9.33661e-01
1.02500e+03,-5.61563e+00,-3.68995e+01,3.14292e-01,5.17133e-01,9.49241e-01
1.02500e+03,-4.86516e+00,-3.38246e+01,3.42133e-01,5.21104e-01,9.65248e-01
1.02500e+03,-4.09924e+00,-3.07496e+01,3.69477e-01,5.25065e-01,9.81627e-01
1.02500e+03,-3.32677e+00,-2.76746e+01,3.96609e-01,5.29012e-01,9.98429e-01
1.02500e+03,-2.54417e+00,-2.45997e+01,4.23415e-01,5.32944e-01,1.01556e+00
1.02500e+03,-1.75988e+00,-2.15247e+01,4.50166e-01,5.36859e-01,1.03310e+00
1.02500e+03,-9.69535e-01,-1.84498e+01,4.76722e-01,5.40755e-01,1.05096e+00
1.02500e+03,-1.79270e-01,-1.53748e+01,5.03280e-01,5.44632e-01,1.06919e+00
1.02500e+03,6.08008e-01,-1.22998e+01,5.29935e-01,5.48490e-01,1.08782e+00
1.02500e+03,1.39529e+00,-9.22488e+00,5.56590e-01,5.52327e-01,1.10679e+00
1.02500e+03,2.16392e+00,-6.14992e+00,5.83846e-01,5.56145e-01,1.12640e+00
1.02500e+03,2.92908e+00,-3.07496e+00,6.11213e-01,5.59947e-01,1.14639e+00
1.11650e+03,3.87070e+01,0.00000e+00,-4.06938e-01,5.00820e-01,9.58155e-01
1.11650e+03,3.85121e+01,-2.94133e+00,-4.42917e-01,4.97581e-01,9.68987e-01
1.11650e+03,3.82528e+01,-5.88266e+00,-4.77195e-01,4.94262e-01,9.80102e-01
1.11650e+03,3.79909e+01,-8.82398e+00,-5.11405e-01,4.90869e-01,9.92165e-01
1.11650e+03,3.76721e+01,-1.17653e+01,-5.44113e-01,4.87406e-01,1.00437e+00
1.11650e+03,3.73401e+01,-1.47066e+01,-5.76472e-01,4.83880e-01,1.01722e+00
1.11650e+03,3.69645e+01,-1.76480e+01,-6.07679e-01,4.80294e-01,1.03020e+00
1.11650e+03,3.65678e+01,-2.05893e+01,-6.38326e-01,4.76655e-01,1.04358e+00
1.11650e+03,3.61359e+01,-2.35306e+01,-6.68048e-01,4.72967e-01,1.05706e+00
1.11650e+03,3.56753e+01,-2.64720e+01,-6.97008e-01,4.69234e-01,1.07068e+00
1.11650e+03,3.51829e+01,-2.94133e+01,-7.25131e-01,4.65463e-01,1.08433e+00
1.11650e+03,3.46522e+01,-3.23546e+01,-7.52242e-01,4.61657e-01,1.09784e+00
1.11650e+03,3.40823e+01,-3.52959e+01,-7.78315e-01,4.57822e-01,1.11112e+00
1.11650e+03,3.34567e+01,-3.82373e+01,-8.02920e-01,4.53964e-01,1.12380e+00
1.11650e+03,3.27770e+01,-4.11786e+01,-8.26094e-01,4.50091e-01,1.13586e+00
1.11650e+03,3.20325e+01,-4.41199e+01,-8.47557e-01,4.46209e-01,1.14702e+00
1.11650e+03,3.12004e+01,-4.70612e+01,-8.66704e-01,4.42331e-01,1.15678e+00
1.11650e+03,3.03072e+01,-5.00026e+01,-8.84240e-01,4.38460e-01,1.16560e+00
1.11650e+03,2.92767e+01,-5.29439e+01,-8.98149e-01,4.34616e-01,1.17190e+00
1.11650e+03,2.81893e+01,-5.58852e+01,-9.10555e-01,4.30810e-01,1.17724e+00
1.11650e+03,2.69434e+01,-5.88266e+01,-9.18773e-01,4.27049e-01,1.17952e+00
1.11650e+03,2.55704e+01,-6.17679e+01,-9.23636e-01,4.23367e-01,1.17933e+00
1.11650e+03,2.40681e+01,-6.47092e+01,-9.25083e-01,4.19769e-01,1.17660e+00
1.11650e+03,2.23488e+01,-6.76505e+01,-9.20798e-01,4.16268e-01,1.16949e+00
1.11650e+03,2.03781e+01,-7.05919e+01,-9.09872e-01,4.12906e-01,1.15730e+00
1.11650e+03,1.81233e+01,-7.35332e+01,-8.91440e-01,4.09726e-01,1.13943e+00
1.11650e+03,1.54563e+01,-7.64745e+01,-8.62123e-01,4.06752e-01,1.11337e+00
1.11650e+03,1.20330e+01,-7.94159e+01,-8.12830e-01,4.04130e-01,1.07269e+00
1.11650e+03,7.40314e+00,-8.23572e+01,-7.31666e-01,4.02529e-01,1.01066e+00
1.11650e+03,-2.99970e+00,-8.52985e+01,-4.98017e-01,4.03165e-01,8.57699e-01
1.11650e+03,-3.75047e+00,-8.53053e+01,-4.78281e-01,4.05138e-01,8.49213e-01
1.11650e+03,-1.05906e+01,-8.22587e+01,-2.55009e-01,4.08879e-01,7.52711e-01
1.11650e+03,-1.14188e+01,-7.92121e+01,-1.90534e-01,4.11642e-01,7.38004e-01
1.11650e+03,-1.17045e+01,-7.61655e+01,-1.40385e-01,4.14549e-01,7.31615e-01
1.11650e+03,-1.17479e+01,-7.31189e+01,-9.66394e-02,4.17591e-01,7.29717e-01
1.11650e+03,-1.16086e+01,-7.00722e+01,-5.77181e-02,4.20744e-01,7.31033e-01
1.11650e+03,-1.13547e+01,-6.70256e+01,-2.18240e-02,4.23990e-01,7.34696e-01
1.11650e+03,-1.09858e+01,-6.39790e+01,1.10303e-02,4.27308e-01,7.40202e-01
1.11650e+03,-1.05466e+01,-6.09324e+01,4.20303e-02,4.30684e-01,7.47150e-01
1.11650e+03,-1.00667e+01,-5.78858e+01,7.19548e-02,4.34109e-01,7.55333e-01
1.11650e+03,-9.52550e+00,-5.48391e+01,1.00259e-01,4.37572e-01,7.64500e-01
1.11650e+03,-8.94594e+00,-5.17925e+01,1.27551e-01,4.41065e-01,7.74522e-01
1.11650e+03,-8.32904e+00,-4.87459e+01,1.53856e-01,4.44581e-01,7.85257e-01
1.11650e+03,-7.67495e+00,-4.56993e+01,1.79179e-01,4.48112e-01,7.96567e-01
1.11650e+03,-6.99754e+00,-4.26527e+01,2.03887e-01,4.51653e-01,8.08418e-01
1.11650e+03,-6.29027e+00,-3.96060e+01,2.27805e-01,4.55197e-01,8.20675e-01
1.11650e+03,-5.56387e+00,-3.65594e+01,2.51218e-01,4.58740e-01,8.33329e-01
1.11650e+03,-4.82031e+00,-3.35128e+01,2.74178e-01,4.62277e-01,8.46330e-01
1.11650e+03,-4.06146e+00,-3.04662e+01,2.96734e-01,4.65806e-01,8.59637e-01
1.11650e+03,-3.29611e+00,-2.74196e+01,3.19119e-01,4.69322e-01,8.73285e-01
1.11650e+03,-2.52072e+00,-2.43730e+01,3.41238e-01,4.72825e-01,8.87206e-01
1.11650e+03,-1.74366e+00,-2.13263e+01,3.63313e-01,4.76313e-01,9.01453e-01
1.11650e+03,-9.60599e-01,-1.82797e+01,3.85230e-01,4.79784e-01,9.15958e-01
1.11650e+03,-1.77618e-01,-1.52331e+01,4.07148e-01,4.83238e-01,9.30766e-01
1.11650e+03,6.02404e-01,-1.21865e+01,4.29145e-01,4.86674e-01,9.45897e-01
1.11650e+03,1.38243e+00,-9.13986e+00,4.51142e-01,4.90092e-01,9.61301e-01
1.11650e+03,2.14398e+00,-6.09324e+00,4.73627e-01,4.93494e-01,9.77206e-01
1.11650e+03,2.90209e+00,-3.04662e+00,4.96202e-01,4.96881e-01,9.93422e-01
1.20500e+03,3.76912e+01,0.00000e+00,-4.60246e-01,4.77769e-01,9.46898e-01
1.20500e+03,3.75014e+01,-2.86413e+00,-4.95256e-01,4.73754e-01,9.58439e-01
1.20500e+03,3.72488e+01,-5.72827e+00,-5.28325e-01,4.69640e-01,9.69955e-01
1.20500e+03,3.69938e+01,-8.59240e+00,-5.61317e-01,4.65432e-01,9.82323e-01
1.20500e+03,3.66834e+01,-1.14565e+01,-5.92595e-01,4.61139e-01,9.94544e-01
1.20500e+03,3.63602e+01,-1.43207e+01,-6.23476e-01,4.56766e-01,1.00729e+00
1.20500e+03,3.59944e+01,-1.71848e+01,-6.53041e-01,4.52320e-01,1.01992e+00
1.20500e+03,3.56080e+01,-2.00489e+01,-6.81967e-01,4.47806e-01,1.03280e+00
1.20500e+03,3.51875e+01,-2.29131e+01,-7.09837e-01,4.43232e-01,1.04558e+00
1.20500e+03,3.47390e+01,-2.57772e+01,-7.36839e-01,4.38603e-01,1.05832e+00
1.20500e+03,3.42596e+01,-2.86413e+01,-7.62885e-01,4.33924e-01,1.07092e+00
1.20500e+03,3.37428e+01,-3.15055e+01,-7.87776e-01,4.29203e-01,1.08316e+00
1.20500e+03,3.31878e+01,-3.43696e+01,-8.11484e-01,4.24445e-01,1.09497e+00
1.20500e+03,3.25787e+01,-3.72337e+01,-8.33515e-01,4.19659e-01,1.10593e+00
1.20500e+03,3.19168e+01,-4.00979e+01,-8.53914e-01,4.14854e-01,1.11601e+00
1.20500e+03,3.11919e+01,-4.29620e+01,-8.72361e-01,4.10037e-01,1.12490e+00
1.20500e+03,3.03815e+01,-4.58261e+01,-8.88165e-01,4.05225e-01,1.13202e+00
1.20500e+03,2.95118e+01,-4.86903e+01,-9.02130e-01,4.00421e-01,1.13791e+00
1.20500e+03,2.85084e+01,-5.15544e+01,-9.11957e-01,3.95652e-01,1.14074e+00
1.20500e+03,2.74495e+01,-5.44186e+01,-9.20069e-01,3.90927e-01,1.14237e+00
1.20500e+03,2.62363e+01,-5.72827e+01,-9.23402e-01,3.86261e-01,1.14029e+00
1.20500e+03,2.48993e+01,-6.01468e+01,-9.22906e-01,3.81690e-01,1.13526e+00
1.20500e+03,2.34365e+01,-6.30110e+01,-9.18513e-01,3.77223e-01,1.12719e+00
1.20500e+03,2.17623e+01,-6.58751e+01,-9.07578e-01,3.72877e-01,1.11392e+00
1.20500e+03,1.98433e+01,-6.87392e+01,-8.89066e-01,3.68705e-01,1.09465e+00
1.20500e+03,1.76476e+01,-7.16034e+01,-8.61990e-01,3.64755e-01,1.06872e+00
1.20500e+03,1.50506e+01,-7.44675e+01,-8.22493e-01,3.61062e-01,1.03324e+00
1.20500e+03,1.17172e+01,-7.73316e+01,-7.60200e-01,3.57806e-01,9.80805e-01
1.20500e+03,7.20885e+00,-8.01958e+01,-6.61541e-01,3.55814e-01,9.04127e-01
1.20500e+03,-2.92097e+00,-8.30599e+01,-3.88883e-01,3.56599e-01,7.29876e-01
1.20500e+03,-3.65204e+00,-8.30665e+01,-3.66349e-01,3.59045e-01,7.21770e-01
1.20500e+03,-1.03126e+01,-8.00999e+01,-1.17837e-01,3.63684e-01,6.40846e-01
1.20500e+03,-1.11191e+01,-7.71332e+01,-5.05263e-02,3.67112e-01,6.37861e-01
1.20500e+03,-1.13974e+01,-7.41666e+01,4.36632e-04,3.70719e-01,6.42105e-01
1.20500e+03,-1.14396e+01,-7.11999e+01,4.40930e-02,3.74494e-01,6.50140e-01
1.20500e+03,-1.13040e+01,-6.82332e+01,8.22446e-02,3.78407e-01,6.60560e-01
1.20500e+03,-1.10567e+01,-6.52666e+01,1.16942e-01,3.82434e-01,6.72639e-01
1.20500e+03,-1.06975e+01,-6.22999e+01,1.48170e-01,3.86553e-01,6.85729e-01
1.20500e+03,-1.02698e+01,-5.93332e+01,1.77283e-01,3.90743e-01,6.99621e-01
1.20500e+03,-9.80253e+00,-5.63666e+01,2.05169e-01,3.94994e-01,7.14251e-01
1.20500e+03,-9.27551e+00,-5.33999e+01,2.31205e-01,3.99293e-01,7.29220e-01
1.20500e+03,-8.71115e+00,-5.04333e+01,2.56087e-01,4.03630e-01,7.44534e-01
1.20500e+03,-8.11045e+00,-4.74666e+01,2.79843e-01,4.07995e-01,7.60060e-01
1.20500e+03,-7.47352e+00,-4.44999e+01,3.02477e-01,4.12379e-01,7.75669e-01
1.20500e+03,-6.81389e+00,-4.15333e+01,3.24410e-01,4.16775e-01,7.91420e-01
1.20500e+03,-6.12518e+00,-3.85666e+01,3.45442e-01,4.21176e-01,8.07154e-01
1.20500e+03,-5.41785e+00,-3.55999e+01,3.65897e-01,4.25576e-01,8.22937e-01
1.20500e+03,-4.69381e+00,-3.26333e+01,3.85836e-01,4.29969e-01,8.38743e-01
1.20500e+03,-3.95486e+00,-2.96666e+01,4.05313e-01,4.34351e-01,8.54554e-01
1.20500e+03,-3.20961e+00,-2.67000e+01,4.24595e-01,4.38719e-01,8.70462e-01
1.20500e+03,-2.45457e+00,-2.37333e+01,4.43574e-01,4.43070e-01,8.86392e-01
1.20500e+03,-1.69790e+00,-2.07666e+01,4.62502e-01,4.47403e-01,9.02450e-01
1.20500e+03,-9.35389e-01,-1.78000e+01,4.81250e-01,4.51715e-01,9.18554e-01
1.20500e+03,-1.72956e-01,-1.48333e+01,5.00000e-01,4.56006e-01,9.34786e-01
1.20500e+03,5.86594e-01,-1.18666e+01,5.18839e-01,4.60276e-01,9.51187e-01
1.20500e+03,1.34615e+00,-8.89999e+00,5.37679e-01,4.64523e-01,9.67701e-01
1.20500e+03,2.08771e+00,-5.93332e+00,5.57075e-01,4.68751e-01,9.84639e-01
1.20500e+03,2.82592e+00,-2.96666e+00,5.76575e-01,4.72960e-01,1.00175e+00
1.29010e+03,3.63234e+01,0.00000e+00,-3.72622e-01,4.34232e-01,8.39357e-01
1.29010e+03,3.61405e+01,-2.76019e+00,-4.01611e-01,4.30698e-01,8.47227e-01
1.29010e+03,3.58971e+01,-5.52039e+00,-4.29028e-01,4.27077e-01,8.55131e-01
1.29010e+03,3.56513e+01,-8.28058e+00,-4.56382e-01,4.23373e-01,8.63724e-01
1.29010e+03,3.53522e+01,-1.10408e+01,-4.82347e-01,4.19594e-01,8.72259e-01
1.29010e+03,3.50407e+01,-1.38010e+01,-5.07990e-01,4.15745e-01,8.81241e-01
1.29010e+03,3.46882e+01,-1.65612e+01,-5.32568e-01,4.11831e-01,8.90192e-01
1.29010e+03,3.43158e+01,-1.93214e+01,-5.56627e-01,4.07858e-01,8.99377e-01
1.29010e+03,3.39106e+01,-2.20816e+01,-5.79831e-01,4.03832e-01,9.08540e-01
1.29010e+03,3.34783e+01,-2.48418e+01,-6.02331e-01,3.99757e-01,9.17726e-01
1.29010e+03,3.30163e+01,-2.76019e+01,-6.24057e-01,3.95639e-01,9.26844e-01
1.29010e+03,3.25183e+01,-3.03621e+01,-6.44847e-01,3.91484e-01,9.35739e-01
1.29010e+03,3.19834e+01,-3.31223e+01,-6.64678e-01,3.87296e-01,9.44348e-01
1.29010e+03,3.13964e+01,-3.58825e+01,-6.83151e-01,3.83084e-01,9.52342e-01
1.29010e+03,3.07585e+01,-3.86427e+01,-7.00300e-01,3.78855e-01,9.59694e-01
1.29010e+03,3.00599e+01,-4.14029e+01,-7.15869e-01,3.74615e-01,9.66166e-01
1.29010e+03,2.92790e+01,-4.41631e+01,-7.29295e-01,3.70379e-01,9.71295e-01
1.29010e+03,2.84408e+01,-4.69233e+01,-7.41231e-01,3.66151e-01,9.75512e-01
1.29010e+03,2.74738e+01,-4.96835e+01,-7.49815e-01,3.61954e-01,9.77371e-01
1.29010e+03,2.64534e+01,-5.24437e+01,-7.57008e-01,3.57796e-01,9.78322e-01
1.29010e+03,2.52842e+01,-5.52039e+01,-7.60330e-01,3.53688e-01,9.76415e-01
1.29010e+03,2.39957e+01,-5.79641e+01,-7.60548e-01,3.49665e-01,9.72230e-01
1.29010e+03,2.25860e+01,-6.07243e+01,-7.57608e-01,3.45734e-01,9.65695e-01
1.29010e+03,2.09725e+01,-6.34845e+01,-7.49369e-01,3.41910e-01,9.55123e-01
1.29010e+03,1.91232e+01,-6.62447e+01,-7.34989e-01,3.38237e-01,9.39905e-01
1.29010e+03,1.70072e+01,-6.90049e+01,-7.13669e-01,3.34761e-01,9.19521e-01
1.29010e+03,1.45045e+01,-7.17651e+01,-6.82284e-01,3.31511e-01,8.91746e-01
1.29010e+03,1.12920e+01,-7.45253e+01,-6.32428e-01,3.28645e-01,8.50875e-01
1.29010e+03,6.94724e+00,-7.72855e+01,-5.53104e-01,3.26893e-01,7.91518e-01
1.29010e+03,-2.81497e+00,-8.00457e+01,-3.32787e-01,3.27585e-01,6.57786e-01
1.29010e+03,-3.51951e+00,-8.00521e+01,-3.14529e-01,3.29737e-01,6.52004e-01
1.29010e+03,-9.93839e+00,-7.71931e+01,-1.12515e-01,3.33821e-01,5.89041e-01
1.29010e+03,-1.07156e+01,-7.43341e+01,-5.73304e-02,3.36838e-01,5.86231e-01
1.29010e+03,-1.09838e+01,-7.14751e+01,-1.53920e-02,3.40013e-01,5.89122e-01
1.29010e+03,-1.10244e+01,-6.86160e+01,2.06258e-02,3.43336e-01,5.95033e-01
1.29010e+03,-1.08937e+01,-6.57570e+01,5.21830e-02,3.46780e-01,6.02902e-01
1.29010e+03,-1.06555e+01,-6.28980e+01,8.09411e-02,3.50324e-01,6.12154e-01
1.29010e+03,-1.03093e+01,-6.00390e+01,1.06889e-01,3.53949e-01,6.22307e-01
1.29010e+03,-9.89713e+00,-5.71800e+01,1.31121e-01,3.57637e-01,6.33171e-01
1.29010e+03,-9.44680e+00,-5.43210e+01,1.54360e-01,3.61378e-01,6.44678e-01
1.29010e+03,-8.93890e+00,-5.14620e+01,1.76100e-01,3.65162e-01,6.56538e-01
1.29010e+03,-8.39503e+00,-4.86030e+01,1.96904e-01,3.68979e-01,6.68736e-01
1.29010e+03,-7.81612e+00,-4.57440e+01,2.16797e-01,3.72821e-01,6.81166e-01
1.29010e+03,-7.20231e+00,-4.28850e+01,2.35781e-01,3.76679e-01,6.93725e-01
1.29010e+03,-6.56662e+00,-4.00260e+01,2.54195e-01,3.80548e-01,7.06446e-01
1.29010e+03,-5.90290e+00,-3.71670e+01,2.71880e-01,3.84421e-01,7.19207e-01
1.29010e+03,-5.22123e+00,-3.43080e+01,2.89098e-01,3.88293e-01,7.32047e-01
1.29010e+03,-4.52347e+00,-3.14490e+01,3.05897e-01,3.92160e-01,7.44944e-01
1.29010e+03,-3.81134e+00,-2.85900e+01,3.22322e-01,3.96017e-01,7.57878e-01
1.29010e+03,-3.09313e+00,-2.57310e+01,3.38589e-01,3.99861e-01,7.70914e-01
1.29010e+03,-2.36549e+00,-2.28720e+01,3.54610e-01,4.03690e-01,7.83993e-01
1.29010e+03,-1.63628e+00,-2.00130e+01,3.70591e-01,4.07502e-01,7.97190e-01
1.29010e+03,-9.01444e-01,-1.71540e+01,3.86425e-01,4.11297e-01,8.10445e-01
1.29010e+03,-1.66680e-01,-1.42950e+01,4.02261e-01,4.15074e-01,8.23816e-01
1.29010e+03,5.65307e-01,-1.14360e+01,4.18169e-01,4.18831e-01,8.37332e-01
1.29010e+03,1.29729e+00,-8.57701e+00,4.34078e-01,4.22569e-01,8.50951e-01
1.29010e+03,2.01195e+00,-5.71800e+00,4.50437e-01,4.26289e-01,8.64905e-01
1.29010e+03,2.72337e+00,-2.85900e+00,4.66880e-01,4.29993e-01,8.79010e-01
1.37170e+03,3.50118e+01,0.00000e+00,-2.94890e-01,3.90027e-01,7.37105e-01
1.37170e+03,3.48355e+01,-2.66053e+00,-3.18416e-01,3.86957e-01,7.42022e-01
1.37170e+03,3.46009e+01,-5.32106e+00,-3.40695e-01,3.83813e-01,7.47001e-01
1.37170e+03,3.43640e+01,-7.98159e+00,-3.62925e-01,3.80597e-01,7.52513e-01
1.37170e+03,3.40757e+01,-1.06421e+01,-3.84054e-01,3.77315e-01,7.58022e-01
1.37170e+03,3.37754e+01,-1.33027e+01,-4.04928e-01,3.73972e-01,7.63893e-01
1.37170e+03,3.34357e+01,-1.59632e+01,-4.24957e-01,3.70573e-01,7.69781e-01
1.37170e+03,3.30768e+01,-1.86237e+01,-4.44576e-01,3.67123e-01,7.75878e-01
1.37170e+03,3.26861e+01,-2.12842e+01,-4.63517e-01,3.63627e-01,7.81999e-01
1.37170e+03,3.22695e+01,-2.39448e+01,-4.81900e-01,3.60089e-01,7.88175e-01
1.37170e+03,3.18241e+01,-2.66053e+01,-4.99670e-01,3.56513e-01,7.94339e-01
1.37170e+03,3.13441e+01,-2.92658e+01,-5.16698e-01,3.52904e-01,8.00376e-01
1.37170e+03,3.08286e+01,-3.19264e+01,-5.32966e-01,3.49268e-01,8.06237e-01
1.37170e+03,3.02627e+01,-3.45869e+01,-5.48158e-01,3.45610e-01,8.11675e-01
1.37170e+03,2.96479e+01,-3.72474e+01,-5.62302e-01,3.41937e-01,8.16668e-01
1.37170e+03,2.89745e+01,-3.99080e+01,-5.75192e-01,3.38256e-01,8.21034e-01
1.37170e+03,2.82218e+01,-4.25685e+01,-5.86385e-01,3.34578e-01,8.24424e-01
1.37170e+03,2.74139e+01,-4.52290e+01,-5.96397e-01,3.30907e-01,8.27156e-01
1.37170e+03,2.64818e+01,-4.78895e+01,-6.03752e-01,3.27262e-01,8.28141e-01
1.37170e+03,2.54982e+01,-5.05501e+01,-6.10006e-01,3.23651e-01,8.28467e-01
1.37170e+03,2.43712e+01,-5.32106e+01,-6.13192e-01,3.20085e-01,8.26660e-01
1.37170e+03,2.31293e+01,-5.58711e+01,-6.13918e-01,3.16592e-01,8.23157e-01
1.37170e+03,2.17704e+01,-5.85317e+01,-6.12143e-01,3.13178e-01,8.17900e-01
1.37170e+03,2.02153e+01,-6.11922e+01,-6.06167e-01,3.09857e-01,8.09613e-01
1.37170e+03,1.84327e+01,-6.38527e+01,-5.95325e-01,3.06668e-01,7.97840e-01
1.37170e+03,1.63931e+01,-6.65133e+01,-5.78985e-01,3.03650e-01,7.82198e-01
1.37170e+03,1.39807e+01,-6.91738e+01,-5.54668e-01,3.00828e-01,7.61019e-01
1.37170e+03,1.08843e+01,-7.18343e+01,-5.15715e-01,2.98340e-01,7.30056e-01
1.37170e+03,6.69639e+00,-7.44949e+01,-4.53410e-01,2.96819e-01,6.85482e-01
1.37170e+03,-2.71333e+00,-7.71554e+01,-2.79378e-01,2.97420e-01,5.86028e-01
1.37170e+03,-3.39243e+00,-7.71616e+01,-2.64912e-01,2.99290e-01,5.82152e-01
1.37170e+03,-9.57954e+00,-7.44058e+01,-1.04257e-01,3.02836e-01,5.34788e-01
1.37170e+03,-1.03287e+01,-7.16500e+01,-5.99537e-02,3.05456e-01,5.32452e-01
1.37170e+03,-1.05872e+01,-6.88942e+01,-2.61473e-02,3.08213e-01,5.34481e-01
1.37170e+03,-1.06264e+01,-6.61385e+01,2.96756e-03,3.11098e-01,5.38846e-01
1.37170e+03,-1.05004e+01,-6.33827e+01,2.85477e-02,3.14089e-01,5.44766e-01
1.37170e+03,-1.02708e+01,-6.06269e+01,5.19098e-02,3.17167e-01,5.51796e-01
1.37170e+03,-9.93701e+00,-5.78712e+01,7.30446e-02,3.20315e-01,5.59589e-01
1.37170e+03,-9.53977e+00,-5.51154e+01,9.28208e-02,3.23517e-01,5.67983e-01
1.37170e+03,-9.10569e+00,-5.23596e+01,1.11809e-01,3.26765e-01,5.76913e-01
1.37170e+03,-8.61613e+00,-4.96039e+01,1.29610e-01,3.30051e-01,5.86174e-01
1.37170e+03,-8.09190e+00,-4.68481e+01,1.46669e-01,3.33365e-01,5.95742e-01
1.37170e+03,-7.53389e+00,-4.40923e+01,1.63006e-01,3.36701e-01,6.05535e-01
1.37170e+03,-6.94225e+00,-4.13365e+01,1.78622e-01,3.40051e-01,6.15476e-01
1.37170e+03,-6.32951e+00,-3.85808e+01,1.93788e-01,3.43410e-01,6.25576e-01
1.37170e+03,-5.68976e+00,-3.58250e+01,2.08375e-01,3.46774e-01,6.35749e-01
1.37170e+03,-5.03271e+00,-3.30692e+01,2.22593e-01,3.50136e-01,6.46013e-01
1.37170e+03,-4.36014e+00,-3.03135e+01,2.36478e-01,3.53493e-01,6.56349e-01
1.37170e+03,-3.67372e+00,-2.75577e+01,2.50067e-01,3.56841e-01,6.66739e-01
1.37170e+03,-2.98144e+00,-2.48019e+01,2.63531e-01,3.60179e-01,6.77226e-01
1.37170e+03,-2.28008e+00,-2.20462e+01,2.76800e-01,3.63503e-01,6.87766e-01
1.37170e+03,-1.57720e+00,-1.92904e+01,2.90037e-01,3.66814e-01,6.98411e-01
1.37170e+03,-8.68894e-01,-1.65346e+01,3.03158e-01,3.70109e-01,7.09117e-01
1.37170e+03,-1.60661e-01,-1.37788e+01,3.16280e-01,3.73388e-01,7.19922e-01
1.37170e+03,5.44895e-01,-1.10231e+01,3.29459e-01,3.76650e-01,7.30848e-01
1.37170e+03,1.25045e+00,-8.26731e+00,3.42639e-01,3.79895e-01,7.41864e-01
1.37170e+03,1.93930e+00,-5.51154e+00,3.56176e-01,3.83125e-01,7.53137e-01
1.37170e+03,2.62503e+00,-2.75577e+00,3.69780e-01,3.86341e-01,7.64535e-01
1.44960e+03,3.37597e+01,0.00000e+00,-2.27226e-01,3.45476e-01,6.40072e-01
1.44960e+03,3.35897e+01,-2.56538e+00,-2.45872e-01,3.42848e-01,6.42718e-01
1.44960e+03,3.33635e+01,-5.13077e+00,-2.63556e-01,3.40156e-01,6.45430e-01
1.44960e+03,3.31351e+01,-7.69615e+00,-2.81202e-01,3.37402e-01,6.48533e-01
1.44960e+03,3.28571e+01,-1.02615e+01,-2.97999e-01,3.34593e-01,6.51660e-01
1.44960e+03,3.25675e+01,-1.28269e+01,-3.14598e-01,3.31731e-01,6.55064e-01
1.44960e+03,3.22399e+01,-1.53923e+01,-3.30545e-01,3.28822e-01,6.58507e-01
1.44960e+03,3.18939e+01,-1.79577e+01,-3.46176e-01,3.25869e-01,6.62124e-01
1.44960e+03,3.15172e+01,-2.05231e+01,-3.61283e-01,3.22875e-01,6.65786e-01
1.44960e+03,3.11155e+01,-2.30885e+01,-3.75959e-01,3.19846e-01,6.69515e-01
1.44960e+03,3.06860e+01,-2.56538e+01,-3.90162e-01,3.16785e-01,6.73265e-01
1.44960e+03,3.02232e+01,-2.82192e+01,-4.03793e-01,3.13697e-01,6.76953e-01
1.44960e+03,2.97261e+01,-3.07846e+01,-4.16836e-01,3.10584e-01,6.80544e-01
1.44960e+03,2.91805e+01,-3.33500e+01,-4.29049e-01,3.07452e-01,6.83860e-01
1.44960e+03,2.85877e+01,-3.59154e+01,-4.40453e-01,3.04309e-01,6.86884e-01
1.44960e+03,2.79383e+01,-3.84808e+01,-4.50889e-01,3.01157e-01,6.89484e-01
1.44960e+03,2.72125e+01,-4.10462e+01,-4.60015e-01,2.98009e-01,6.91406e-01
1.44960e+03,2.64335e+01,-4.36115e+01,-4.68229e-01,2.94867e-01,6.92876e-01
1.44960e+03,2.55347e+01,-4.61769e+01,-4.74392e-01,2.91746e-01,6.93106e-01
1.44960e+03,2.45863e+01,-4.87423e+01,-4.79705e-01,2.88656e-01,6.92881e-01
1.44960e+03,2.34997e+01,-5.13077e+01,-4.82650e-01,2.85603e-01,6.91128e-01
1.44960e+03,2.23022e+01,-5.38731e+01,-4.83696e-01,2.82613e-01,6.88166e-01
1.44960e+03,2.09919e+01,-5.64385e+01,-4.82810e-01,2.79691e-01,6.83950e-01
1.44960e+03,1.94923e+01,-5.90039e+01,-4.78682e-01,2.76849e-01,6.77549e-01
1.44960e+03,1.77735e+01,-6.15692e+01,-4.70798e-01,2.74119e-01,6.68636e-01
1.44960e+03,1.58069e+01,-6.41346e+01,-4.58668e-01,2.71536e-01,6.56942e-01
1.44960e+03,1.34808e+01,-6.67000e+01,-4.40382e-01,2.69121e-01,6.41260e-01
1.44960e+03,1.04950e+01,-6.92654e+01,-4.10796e-01,2.66991e-01,6.18551e-01
1.44960e+03,6.45692e+00,-7.18308e+01,-3.63183e-01,2.65689e-01,5.86238e-01
1.44960e+03,-2.61629e+00,-7.43962e+01,-2.29320e-01,2.66204e-01,5.14958e-01
1.44960e+03,-3.27111e+00,-7.44021e+01,-2.18153e-01,2.67805e-01,5.12591e-01
1.44960e+03,-9.23696e+00,-7.17449e+01,-9.36295e-02,2.70841e-01,4.78362e-01
1.44960e+03,-9.95928e+00,-6.90877e+01,-5.89258e-02,2.73084e-01,4.76651e-01
1.44960e+03,-1.02085e+01,-6.64305e+01,-3.23255e-02,2.75444e-01,4.78177e-01
1.44960e+03,-1.02464e+01,-6.37732e+01,-9.34708e-03,2.77914e-01,4.81451e-01
1.44960e+03,-1.01249e+01,-6.11160e+01,1.09027e-02,2.80473e-01,4.85916e-01
1.44960e+03,-9.90345e+00,-5.84588e+01,2.94401e-02,2.83108e-01,4.91240e-01
1.44960e+03,-9.58164e+00,-5.58016e+01,4.62582e-02,2.85803e-01,4.97181e-01
1.44960e+03,-9.19861e+00,-5.31444e+01,6.20275e-02,2.88544e-01,5.03607e-01
1.44960e+03,-8.78006e+00,-5.04872e+01,7.71884e-02,2.91324e-01,5.10458e-01
1.44960e+03,-8.30801e+00,-4.78299e+01,9.14328e-02,2.94137e-01,5.17600e-01
1.44960e+03,-7.80252e+00,-4.51727e+01,1.05105e-01,2.96973e-01,5.25001e-01
1.44960e+03,-7.26447e+00,-4.25155e+01,1.18218e-01,2.99829e-01,5.32604e-01
1.44960e+03,-6.69398e+00,-3.98583e+01,1.30777e-01,3.02696e-01,5.40350e-01
1.44960e+03,-6.10316e+00,-3.72011e+01,1.42987e-01,3.05572e-01,5.48240e-01
1.44960e+03,-5.48628e+00,-3.45438e+01,1.54750e-01,3.08451e-01,5.56213e-01
1.44960e+03,-4.85273e+00,-3.18866e+01,1.66228e-01,3.11328e-01,5.64276e-01
1.44960e+03,-4.20421e+00,-2.92294e+01,1.77450e-01,3.14202e-01,5.72413e-01
1.44960e+03,-3.54234e+00,-2.65722e+01,1.88443e-01,3.17068e-01,5.80609e-01
1.44960e+03,-2.87482e+00,-2.39150e+01,1.99339e-01,3.19924e-01,5.88890e-01
1.44960e+03,-2.19854e+00,-2.12577e+01,2.10085e-01,3.22770e-01,5.97224e-01
1.44960e+03,-1.52080e+00,-1.86005e+01,2.20806e-01,3.25603e-01,6.05647e-01
1.44960e+03,-8.37821e-01,-1.59433e+01,2.31437e-01,3.28424e-01,6.14125e-01
1.44960e+03,-1.54916e-01,-1.32861e+01,2.42070e-01,3.31230e-01,6.22685e-01
1.44960e+03,5.25408e-01,-1.06289e+01,2.52747e-01,3.34022e-01,6.31342e-01
1.44960e+03,1.20573e+00,-7.97166e+00,2.63424e-01,3.36799e-01,6.40073e-01
1.44960e+03,1.86995e+00,-5.31444e+00,2.74376e-01,3.39563e-01,6.48993e-01
1.44960e+03,2.53116e+00,-2.65722e+00,2.85381e-01,3.42316e-01,6.58014e-01
1.52340e+03,3.25736e+01,0.00000e+00,-1.69851e-01,2.99890e-01,5.46490e-01
1.52340e+03,3.24095e+01,-2.47525e+00,-1.84240e-01,2.97687e-01,5.47538e-01
1.52340e+03,3.21913e+01,-4.95049e+00,-1.97909e-01,2.95431e-01,5.48640e-01
1.52340e+03,3.19709e+01,-7.42574e+00,-2.11549e-01,2.93123e-01,5.50014e-01
1.52340e+03,3.17026e+01,-9.90099e+00,-2.24552e-01,2.90768e-01,5.51418e-01
1.52340e+03,3.14232e+01,-1.23762e+01,-2.37407e-01,2.88369e-01,5.53022e-01
1.52340e+03,3.11072e+01,-1.48515e+01,-2.49774e-01,2.85931e-01,5.54668e-01
1.52340e+03,3.07733e+01,-1.73267e+01,-2.61904e-01,2.83455e-01,5.56448e-01
1.52340e+03,3.04098e+01,-1.98020e+01,-2.73641e-01,2.80946e-01,5.58276e-01
1.52340e+03,3.00222e+01,-2.22772e+01,-2.85055e-01,2.78408e-01,5.60169e-01
1.52340e+03,2.96079e+01,-2.47525e+01,-2.96115e-01,2.75842e-01,5.62095e-01
1.52340e+03,2.91613e+01,-2.72277e+01,-3.06746e-01,2.73253e-01,5.63999e-01
1.52340e+03,2.86816e+01,-2.97030e+01,-3.16937e-01,2.70644e-01,5.65857e-01
1.52340e+03,2.81552e+01,-3.21782e+01,-3.26505e-01,2.68020e-01,5.67547e-01
1.52340e+03,2.75832e+01,-3.46535e+01,-3.35467e-01,2.65385e-01,5.69056e-01
1.52340e+03,2.69567e+01,-3.71287e+01,-3.43704e-01,2.62743e-01,5.70293e-01
1.52340e+03,2.62564e+01,-3.96040e+01,-3.50959e-01,2.60105e-01,5.71083e-01
1.52340e+03,2.55047e+01,-4.20792e+01,-3.57530e-01,2.57471e-01,5.71578e-01
1.52340e+03,2.46375e+01,-4.45544e+01,-3.62565e-01,2.54856e-01,5.71234e-01
1.52340e+03,2.37225e+01,-4.70297e+01,-3.66962e-01,2.52266e-01,5.70592e-01
1.52340e+03,2.26740e+01,-4.95049e+01,-3.69585e-01,2.49707e-01,5.68906e-01
1.52340e+03,2.15185e+01,-5.19802e+01,-3.70785e-01,2.47201e-01,5.66398e-01
1.52340e+03,2.02543e+01,-5.44554e+01,-3.70537e-01,2.44752e-01,5.63035e-01
1.52340e+03,1.88075e+01,-5.69307e+01,-3.67859e-01,2.42370e-01,5.58167e-01
1.52340e+03,1.71490e+01,-5.94059e+01,-3.62367e-01,2.40082e-01,5.51569e-01
1.52340e+03,1.52515e+01,-6.18812e+01,-3.53693e-01,2.37918e-01,5.43059e-01
1.52340e+03,1.30071e+01,-6.43564e+01,-3.40405e-01,2.35893e-01,5.31801e-01
1.52340e+03,1.01263e+01,-6.68317e+01,-3.18649e-01,2.34109e-01,5.15711e-01
1.52340e+03,6.23005e+00,-6.93069e+01,-2.83384e-01,2.33018e-01,4.93152e-01
1.52340e+03,-2.52437e+00,-7.17822e+01,-1.83482e-01,2.33450e-01,4.44030e-01
1.52340e+03,-3.15618e+00,-7.17879e+01,-1.75115e-01,2.34792e-01,4.42771e-01
1.52340e+03,-8.91241e+00,-6.92241e+01,-8.13653e-02,2.37336e-01,4.19053e-01
1.52340e+03,-9.60935e+00,-6.66602e+01,-5.49273e-02,2.39216e-01,4.17959e-01
1.52340e+03,-9.84985e+00,-6.40963e+01,-3.45622e-02,2.41194e-01,4.19188e-01
1.52340e+03,-9.88634e+00,-6.15325e+01,-1.69112e-02,2.43264e-01,4.21685e-01
1.52340e+03,-9.76914e+00,-5.89686e+01,-1.30514e-03,2.45410e-01,4.25064e-01
1.52340e+03,-9.55548e+00,-5.64048e+01,1.30177e-02,2.47618e-01,4.29084e-01
1.52340e+03,-9.24498e+00,-5.38409e+01,2.60521e-02,2.49876e-01,4.33582e-01
1.52340e+03,-8.87540e+00,-5.12771e+01,3.83005e-02,2.52174e-01,4.38454e-01
1.52340e+03,-8.47156e+00,-4.87132e+01,5.00929e-02,2.54504e-01,4.43651e-01
1.52340e+03,-8.01609e+00,-4.61494e+01,6.11986e-02,2.56861e-01,4.49086e-01
1.52340e+03,-7.52837e+00,-4.35855e+01,7.18751e-02,2.59239e-01,4.54731e-01
1.52340e+03,-7.00922e+00,-4.10217e+01,8.21335e-02,2.61632e-01,4.60543e-01
1.52340e+03,-6.45878e+00,-3.84578e+01,9.19756e-02,2.64035e-01,4.66480e-01
1.52340e+03,-5.88872e+00,-3.58940e+01,1.01557e-01,2.66445e-01,4.72539e-01
1.52340e+03,-5.29352e+00,-3.33301e+01,1.10803e-01,2.68858e-01,4.78676e-01
1.52340e+03,-4.68222e+00,-3.07662e+01,1.19836e-01,2.71269e-01,4.84894e-01
1.52340e+03,-4.05649e+00,-2.82024e+01,1.28676e-01,2.73678e-01,4.91178e-01
1.52340e+03,-3.41788e+00,-2.56385e+01,1.37345e-01,2.76080e-01,4.97517e-01
1.52340e+03,-2.77381e+00,-2.30747e+01,1.45941e-01,2.78474e-01,5.03926e-01
1.52340e+03,-2.12129e+00,-2.05108e+01,1.54425e-01,2.80858e-01,5.10384e-01
1.52340e+03,-1.46736e+00,-1.79470e+01,1.62890e-01,2.83233e-01,5.16910e-01
1.52340e+03,-8.08383e-01,-1.53831e+01,1.71289e-01,2.85596e-01,5.23484e-01
1.52340e+03,-1.49473e-01,-1.28193e+01,1.79687e-01,2.87948e-01,5.30122e-01
1.52340e+03,5.06948e-01,-1.02554e+01,1.88120e-01,2.90288e-01,5.36834e-01
1.52340e+03,1.16337e+00,-7.69156e+00,1.96552e-01,2.92616e-01,5.43603e-01
1.52340e+03,1.80424e+00,-5.12771e+00,2.05190e-01,2.94932e-01,5.50507e-01
1.52340e+03,2.44222e+00,-2.56385e+00,2.13868e-01,2.97238e-01,5.57487e-01
1.59310e+03,3.14533e+01,0.00000e+00,-1.22508e-01,2.54516e-01,4.57541e-01
1.59310e+03,3.12949e+01,-2.39012e+00,-1.33269e-01,2.52713e-01,4.57551e-01
1.59310e+03,3.10841e+01,-4.78023e+00,-1.43509e-01,2.50867e-01,4.57599e-01
1.59310e+03,3.08713e+01,-7.17035e+00,-1.53728e-01,2.48978e-01,4.57823e-01
1.59310e+03,3.06123e+01,-9.56047e+00,-1.63486e-01,2.47051e-01,4.58072e-01
1.59310e+03,3.03425e+01,-1.19506e+01,-1.73137e-01,2.45088e-01,4.58454e-01
1.59310e+03,3.00373e+01,-1.43407e+01,-1.82435e-01,2.43092e-01,4.58872e-01
1.59310e+03,2.97149e+01,-1.67308e+01,-1.91561e-01,2.41066e-01,4.59385e-01
1.59310e+03,2.93640e+01,-1.91209e+01,-2.00403e-01,2.39013e-01,4.59938e-01
1.59310e+03,2.89896e+01,-2.15111e+01,-2.09011e-01,2.36936e-01,4.60544e-01
1.59310e+03,2.85896e+01,-2.39012e+01,-2.17363e-01,2.34836e-01,4.61184e-01
1.59310e+03,2.81583e+01,-2.62913e+01,-2.25404e-01,2.32717e-01,4.61821e-01
1.59310e+03,2.76952e+01,-2.86814e+01,-2.33127e-01,2.30582e-01,4.62442e-01
1.59310e+03,2.71869e+01,-3.10715e+01,-2.40399e-01,2.28435e-01,4.62967e-01
1.59310e+03,2.66345e+01,-3.34616e+01,-2.47232e-01,2.26278e-01,4.63389e-01
1.59310e+03,2.60296e+01,-3.58518e+01,-2.53541e-01,2.24117e-01,4.63647e-01
1.59310e+03,2.53533e+01,-3.82419e+01,-2.59139e-01,2.21958e-01,4.63625e-01
1.59310e+03,2.46276e+01,-4.06320e+01,-2.64243e-01,2.19802e-01,4.63426e-01
1.59310e+03,2.37902e+01,-4.30221e+01,-2.68234e-01,2.17662e-01,4.62688e-01
1.59310e+03,2.29066e+01,-4.54122e+01,-2.71764e-01,2.15543e-01,4.61770e-01
1.59310e+03,2.18941e+01,-4.78023e+01,-2.74009e-01,2.13449e-01,4.60177e-01
1.59310e+03,2.07785e+01,-5.01925e+01,-2.75225e-01,2.11398e-01,4.58058e-01
1.59310e+03,1.95577e+01,-5.25826e+01,-2.75393e-01,2.09395e-01,4.55390e-01
1.59310e+03,1.81606e+01,-5.49727e+01,-2.73803e-01,2.07445e-01,4.51739e-01
1.59310e+03,1.65592e+01,-5.73628e+01,-2.70175e-01,2.05573e-01,4.46963e-01
1.59310e+03,1.47269e+01,-5.97529e+01,-2.64245e-01,2.03802e-01,4.40944e-01
1.59310e+03,1.25597e+01,-6.21430e+01,-2.54976e-01,2.02146e-01,4.33130e-01
1.59310e+03,9.77800e+00,-6.45332e+01,-2.39578e-01,2.00685e-01,4.22163e-01
1.59310e+03,6.01578e+00,-6.69233e+01,-2.14403e-01,1.99793e-01,4.07088e-01
1.59310e+03,-2.43755e+00,-6.93134e+01,-1.42450e-01,2.00147e-01,3.74791e-01
1.59310e+03,-3.04763e+00,-6.93189e+01,-1.36395e-01,2.01245e-01,3.74302e-01
1.59310e+03,-8.60589e+00,-6.68433e+01,-6.81869e-02,2.03327e-01,3.58714e-01
1.59310e+03,-9.27886e+00,-6.43676e+01,-4.86933e-02,2.04866e-01,3.58163e-01
1.59310e+03,-9.51109e+00,-6.18919e+01,-3.35947e-02,2.06485e-01,3.59216e-01
1.59310e+03,-9.54632e+00,-5.94162e+01,-2.04604e-02,2.08179e-01,3.61156e-01
1.59310e+03,-9.43315e+00,-5.69406e+01,-8.80605e-03,2.09934e-01,3.63723e-01
1.59310e+03,-9.22684e+00,-5.44649e+01,1.91963e-03,2.11741e-01,3.66752e-01
1.59310e+03,-8.92702e+00,-5.19892e+01,1.17128e-02,2.13589e-01,3.70133e-01
1.59310e+03,-8.57016e+00,-4.95135e+01,2.09371e-02,2.15469e-01,3.73791e-01
1.59310e+03,-8.18020e+00,-4.70379e+01,2.98315e-02,2.17376e-01,3.77687e-01
1.59310e+03,-7.74040e+00,-4.45622e+01,3.82288e-02,2.19305e-01,3.81767e-01
1.59310e+03,-7.26945e+00,-4.20865e+01,4.63155e-02,2.21251e-01,3.86006e-01
1.59310e+03,-6.76816e+00,-3.96108e+01,5.40996e-02,2.23209e-01,3.90376e-01
1.59310e+03,-6.23665e+00,-3.71351e+01,6.15824e-02,2.25176e-01,3.94847e-01
1.59310e+03,-5.68619e+00,-3.46595e+01,6.88763e-02,2.27147e-01,3.99414e-01
1.59310e+03,-5.11146e+00,-3.21838e+01,7.59282e-02,2.29122e-01,4.04049e-01
1.59310e+03,-4.52119e+00,-2.97081e+01,8.28250e-02,2.31095e-01,4.08748e-01
1.59310e+03,-3.91698e+00,-2.72324e+01,8.95829e-02,2.33066e-01,4.13502e-01
1.59310e+03,-3.30033e+00,-2.47568e+01,9.62168e-02,2.35031e-01,4.18302e-01
1.59310e+03,-2.67841e+00,-2.22811e+01,1.02798e-01,2.36990e-01,4.23155e-01
1.59310e+03,-2.04833e+00,-1.98054e+01,1.09298e-01,2.38941e-01,4.28048e-01
1.59310e+03,-1.41689e+00,-1.73297e+01,1.15784e-01,2.40884e-01,4.32991e-01
1.59310e+03,-7.80581e-01,-1.48541e+01,1.22222e-01,2.42818e-01,4.37973e-01
1.59310e+03,-1.44332e-01,-1.23784e+01,1.28660e-01,2.44742e-01,4.43001e-01
1.59310e+03,4.89512e-01,-9.90271e+00,1.35123e-01,2.46657e-01,4.48081e-01
1.59310e+03,1.12336e+00,-7.42703e+00,1.41585e-01,2.48561e-01,4.53205e-01
1.59310e+03,1.74219e+00,-4.95135e+00,1.48197e-01,2.50457e-01,4.58419e-01
1.59310e+03,2.35823e+00,-2.47568e+00,1.54837e-01,2.52344e-01,4.63688e-01
1.65850e+03,3.04021e+01,0.00000e+00,-8.47798e-02,2.09832e-01,3.73196e-01
1.65850e+03,3.02490e+01,-2.31024e+00,-9.25400e-02,2.08399e-01,3.72631e-01
1.65850e+03,3.00453e+01,-4.62048e+00,-9.99374e-02,2.06931e-01,3.72087e-01
1.65850e+03,2.98396e+01,-6.93072e+00,-1.07320e-01,2.05429e-01,3.71647e-01
1.65850e+03,2.95892e+01,-9.24096e+00,-1.14383e-01,2.03898e-01,3.71223e-01
1.65850e+03,2.93285e+01,-1.15512e+01,-1.21372e-01,2.02337e-01,3.70881e-01
1.65850e+03,2.90335e+01,-1.38614e+01,-1.28114e-01,2.00751e-01,3.70562e-01
1.65850e+03,2.87218e+01,-1.61717e+01,-1.34737e-01,1.99141e-01,3.70305e-01
1.65850e+03,2.83826e+01,-1.84819e+01,-1.41163e-01,1.97509e-01,3.70077e-01
1.65850e+03,2.80208e+01,-2.07921e+01,-1.47427e-01,1.95858e-01,3.69886e-01
1.65850e+03,2.76341e+01,-2.31024e+01,-1.53512e-01,1.94189e-01,3.69722e-01
1.65850e+03,2.72173e+01,-2.54126e+01,-1.59381e-01,1.92505e-01,3.69564e-01
1.65850e+03,2.67696e+01,-2.77229e+01,-1.65029e-01,1.90808e-01,3.69402e-01
1.65850e+03,2.62783e+01,-3.00331e+01,-1.70364e-01,1.89101e-01,3.69191e-01
1.65850e+03,2.57444e+01,-3.23433e+01,-1.75393e-01,1.87388e-01,3.68925e-01
1.65850e+03,2.51597e+01,-3.46536e+01,-1.80058e-01,1.85670e-01,3.68566e-01
1.65850e+03,2.45060e+01,-3.69638e+01,-1.84229e-01,1.83954e-01,3.68045e-01
1.65850e+03,2.38045e+01,-3.92741e+01,-1.88057e-01,1.82241e-01,3.67424e-01
1.65850e+03,2.29951e+01,-4.15843e+01,-1.91111e-01,1.80540e-01,3.66480e-01
1.65850e+03,2.21410e+01,-4.38945e+01,-1.93845e-01,1.78855e-01,3.65436e-01
1.65850e+03,2.11624e+01,-4.62048e+01,-1.95685e-01,1.77191e-01,3.63982e-01
1.65850e+03,2.00840e+01,-4.85150e+01,-1.96810e-01,1.75562e-01,3.62215e-01
1.65850e+03,1.89041e+01,-5.08253e+01,-1.97207e-01,1.73969e-01,3.60120e-01
1.65850e+03,1.75537e+01,-5.31355e+01,-1.96381e-01,1.72420e-01,3.57423e-01
1.65850e+03,1.60058e+01,-5.54457e+01,-1.94140e-01,1.70932e-01,3.54039e-01
1.65850e+03,1.42348e+01,-5.77560e+01,-1.90298e-01,1.69524e-01,3.49898e-01
1.65850e+03,1.21400e+01,-6.00662e+01,-1.84135e-01,1.68208e-01,3.44656e-01
1.65850e+03,9.45122e+00,-6.23764e+01,-1.73712e-01,1.67048e-01,3.37477e-01
1.65850e+03,5.81473e+00,-6.46867e+01,-1.56493e-01,1.66339e-01,3.27866e-01
1.65850e+03,-2.35608e+00,-6.69969e+01,-1.06759e-01,1.66620e-01,3.07708e-01
1.65850e+03,-2.94577e+00,-6.70023e+01,-1.02551e-01,1.67493e-01,3.07698e-01
1.65850e+03,-8.31828e+00,-6.46093e+01,-5.48497e-02,1.69148e-01,2.98063e-01
1.65850e+03,-8.96876e+00,-6.22164e+01,-4.10099e-02,1.70371e-01,2.97927e-01
1.65850e+03,-9.19322e+00,-5.98235e+01,-3.02251e-02,1.71657e-01,2.98852e-01
1.65850e+03,-9.22728e+00,-5.74305e+01,-2.08057e-02,1.73004e-01,3.00373e-01
1.65850e+03,-9.11789e+00,-5.50376e+01,-1.24149e-02,1.74399e-01,3.02323e-01
1.65850e+03,-8.91848e+00,-5.26447e+01,-4.66964e-03,1.75835e-01,3.04592e-01
1.65850e+03,-8.62868e+00,-5.02517e+01,2.42741e-03,1.77304e-01,3.07110e-01
1.65850e+03,-8.28374e+00,-4.78588e+01,9.12908e-03,1.78798e-01,3.09822e-01
1.65850e+03,-7.90682e+00,-4.54658e+01,1.56014e-02,1.80314e-01,3.12703e-01
1.65850e+03,-7.48171e+00,-4.30729e+01,2.17282e-02,1.81847e-01,3.15717e-01
1.65850e+03,-7.02650e+00,-4.06800e+01,2.76392e-02,1.83393e-01,3.18847e-01
1.65850e+03,-6.54196e+00,-3.82870e+01,3.33398e-02,1.84949e-01,3.22072e-01
1.65850e+03,-6.02822e+00,-3.58941e+01,3.88309e-02,1.86512e-01,3.25374e-01
1.65850e+03,-5.49615e+00,-3.35011e+01,4.41908e-02,1.88080e-01,3.28747e-01
1.65850e+03,-4.94063e+00,-3.11082e+01,4.93824e-02,1.89649e-01,3.32172e-01
1.65850e+03,-4.37009e+00,-2.87153e+01,5.44662e-02,1.91217e-01,3.35646e-01
1.65850e+03,-3.78607e+00,-2.63223e+01,5.94535e-02,1.92783e-01,3.39162e-01
1.65850e+03,-3.19003e+00,-2.39294e+01,6.43546e-02,1.94345e-01,3.42712e-01
1.65850e+03,-2.58890e+00,-2.15364e+01,6.92191e-02,1.95902e-01,3.46300e-01
1.65850e+03,-1.97988e+00,-1.91435e+01,7.40271e-02,1.97452e-01,3.49918e-01
1.65850e+03,-1.36954e+00,-1.67506e+01,7.88256e-02,1.98996e-01,3.53571e-01
1.65850e+03,-7.54494e-01,-1.43576e+01,8.35903e-02,2.00533e-01,3.57251e-01
1.65850e+03,-1.39508e-01,-1.19647e+01,8.83555e-02,2.02062e-01,3.60963e-01
1.65850e+03,4.73153e-01,-9.57176e+00,9.31374e-02,2.03584e-01,3.64711e-01
1.65850e+03,1.08581e+00,-7.17882e+00,9.79193e-02,2.05097e-01,3.68488e-01
1.65850e+03,1.68397e+00,-4.78588e+00,1.02805e-01,2.06604e-01,3.72322e-01
1.65850e+03,2.27942e+00,-2.39294e+00,1.07710e-01,2.08103e-01,3.76195e-01
1.71930e+03,2.94249e+01,0.00000e+00,-5.60356e-02,1.65994e-01,2.92919e-01
1.71930e+03,2.92767e+01,-2.23598e+00,-6.14102e-02,1.64897e-01,2.92138e-01
1.71930e+03,2.90795e+01,-4.47196e+00,-6.65437e-02,1.63774e-01,2.91366e-01
1.71930e+03,2.88804e+01,-6.70794e+00,-7.16675e-02,1.62626e-01,2.90650e-01
1.71930e+03,2.86381e+01,-8.94392e+00,-7.65785e-02,1.61454e-01,2.89942e-01
1.71930e+03,2.83857e+01,-1.11799e+01,-8.14401e-02,1.60260e-01,2.89279e-01
1.71930e+03,2.81002e+01,-1.34159e+01,-8.61382e-02,1.59046e-01,2.88630e-01
1.71930e+03,2.77986e+01,-1.56519e+01,-9.07572e-02,1.57815e-01,2.88016e-01
1.71930e+03,2.74703e+01,-1.78878e+01,-9.52448e-02,1.56566e-01,2.87420e-01
1.71930e+03,2.71201e+01,-2.01238e+01,-9.96246e-02,1.55303e-01,2.86848e-01
1.71930e+03,2.67458e+01,-2.23598e+01,-1.03886e-01,1.54026e-01,2.86294e-01
1.71930e+03,2.63424e+01,-2.45958e+01,-1.08003e-01,1.52738e-01,2.85747e-01
1.71930e+03,2.59091e+01,-2.68317e+01,-1.11974e-01,1.51439e-01,2.85202e-01
1.71930e+03,2.54336e+01,-2.90677e+01,-1.15736e-01,1.50133e-01,2.84632e-01
1.71930e+03,2.49169e+01,-3.13037e+01,-1.19296e-01,1.48822e-01,2.84035e-01
1.71930e+03,2.43509e+01,-3.35397e+01,-1.22613e-01,1.47508e-01,2.83390e-01
1.71930e+03,2.37183e+01,-3.57757e+01,-1.25602e-01,1.46195e-01,2.82657e-01
1.71930e+03,2.30393e+01,-3.80116e+01,-1.28363e-01,1.44885e-01,2.81872e-01
1.71930e+03,2.22560e+01,-4.02476e+01,-1.30609e-01,1.43584e-01,2.80905e-01
1.71930e+03,2.14293e+01,-4.24836e+01,-1.32643e-01,1.42295e-01,2.79888e-01
1.71930e+03,2.04822e+01,-4.47196e+01,-1.34083e-01,1.41022e-01,2.78639e-01
1.71930e+03,1.94385e+01,-4.69556e+01,-1.35047e-01,1.39775e-01,2.77216e-01
1.71930e+03,1.82964e+01,-4.91915e+01,-1.35527e-01,1.38557e-01,2.75611e-01
1.71930e+03,1.69894e+01,-5.14275e+01,-1.35195e-01,1.37371e-01,2.73661e-01
1.71930e+03,1.54913e+01,-5.36635e+01,-1.33922e-01,1.36233e-01,2.71318e-01
1.71930e+03,1.37772e+01,-5.58995e+01,-1.31584e-01,1.35156e-01,2.68545e-01
1.71930e+03,1.17498e+01,-5.81355e+01,-1.27704e-01,1.34149e-01,2.65135e-01
1.71930e+03,9.14742e+00,-6.03714e+01,-1.20993e-01,1.33262e-01,2.60606e-01
1.71930e+03,5.62782e+00,-6.26074e+01,-1.09764e-01,1.32720e-01,2.54739e-01
1.71930e+03,-2.28035e+00,-6.48434e+01,-7.69230e-02,1.32935e-01,2.42760e-01
1.71930e+03,-2.85109e+00,-6.48486e+01,-7.41265e-02,1.33603e-01,2.42989e-01
1.71930e+03,-8.05090e+00,-6.25326e+01,-4.21961e-02,1.34869e-01,2.37381e-01
1.71930e+03,-8.68047e+00,-6.02165e+01,-3.27727e-02,1.35805e-01,2.37493e-01
1.71930e+03,-8.89772e+00,-5.79005e+01,-2.53800e-02,1.36789e-01,2.38281e-01
1.71930e+03,-8.93068e+00,-5.55845e+01,-1.88947e-02,1.37819e-01,2.39456e-01
1.71930e+03,-8.82481e+00,-5.32685e+01,-1.30933e-02,1.38887e-01,2.40915e-01
1.71930e+03,-8.63181e+00,-5.09525e+01,-7.72087e-03,1.39985e-01,2.42585e-01
1.71930e+03,-8.35132e+00,-4.86364e+01,-2.77931e-03,1.41109e-01,2.44424e-01
1.71930e+03,-8.01747e+00,-4.63204e+01,1.89943e-03,1.42252e-01,2.46395e-01
1.71930e+03,-7.65266e+00,-4.40044e+01,6.42574e-03,1.43412e-01,2.48480e-01
1.71930e+03,-7.24122e+00,-4.16884e+01,1.07224e-02,1.44585e-01,2.50657e-01
1.71930e+03,-6.80064e+00,-3.93724e+01,1.48755e-02,1.45767e-01,2.52914e-01
1.71930e+03,-6.33168e+00,-3.70563e+01,1.88889e-02,1.46958e-01,2.55239e-01
1.71930e+03,-5.83445e+00,-3.47403e+01,2.27630e-02,1.48154e-01,2.57617e-01
1.71930e+03,-5.31949e+00,-3.24243e+01,2.65499e-02,1.49353e-01,2.60045e-01
1.71930e+03,-4.78182e+00,-3.01083e+01,3.02249e-02,1.50553e-01,2.62511e-01
1.71930e+03,-4.22962e+00,-2.77922e+01,3.38283e-02,1.51753e-01,2.65011e-01
1.71930e+03,-3.66437e+00,-2.54762e+01,3.73676e-02,1.52951e-01,2.67541e-01
1.71930e+03,-3.08749e+00,-2.31602e+01,4.08495e-02,1.54146e-01,2.70095e-01
1.71930e+03,-2.50568e+00,-2.08442e+01,4.43071e-02,1.55337e-01,2.72675e-01
1.71930e+03,-1.91624e+00,-1.85282e+01,4.77271e-02,1.56523e-01,2.75275e-01
1.71930e+03,-1.32552e+00,-1.62121e+01,5.11409e-02,1.57704e-01,2.77897e-01
1.71930e+03,-7.30242e-01,-1.38961e+01,5.45322e-02,1.58880e-01,2.80539e-01
1.71930e+03,-1.35024e-01,-1.15801e+01,5.79238e-02,1.60049e-01,2.83201e-01
1.71930e+03,4.57944e-01,-9.26408e+00,6.13265e-02,1.61213e-01,2.85885e-01
1.71930e+03,1.05091e+00,-6.94806e+00,6.47291e-02,1.62371e-01,2.88588e-01
1.71930e+03,1.62984e+00,-4.63204e+00,6.82010e-02,1.63523e-01,2.91326e-01
1.71930e+03,2.20615e+00,-2.31602e+00,7.16857e-02,1.64670e-01,2.94088e-01
1.77540e+03,2.77303e+01,0.00000e+00,-6.18738e-02,1.43594e-01,2.56292e-01
1.77540e+03,2.75906e+01,-2.10721e+00,-6.67624e-02,1.42197e-01,2.55181e-01
1.77540e+03,2.74048e+01,-4.21442e+00,-7.13770e-02,1.40766e-01,2.54048e-01
1.77540e+03,2.72172e+01,-6.32163e+00,-7.59806e-02,1.39303e-01,2.52960e-01
1.77540e+03,2.69888e+01,-8.42884e+00,-8.03424e-02,1.37809e-01,2.51851e-01
1.77540e+03,2.67510e+01,-1.05361e+01,-8.46480e-02,1.36288e-01,2.50776e-01
1.77540e+03,2.64819e+01,-1.26433e+01,-8.87679e-02,1.34741e-01,2.49689e-01
1.77540e+03,2.61977e+01,-1.47505e+01,-9.27977e-02,1.33170e-01,2.48624e-01
1.77540e+03,2.58883e+01,-1.68577e+01,-9.66783e-02,1.31578e-01,2.47558e-01
1.77540e+03,2.55583e+01,-1.89649e+01,-1.00436e-01,1.29967e-01,2.46498e-01
1.77540e+03,2.52056e+01,-2.10721e+01,-1.04060e-01,1.28338e-01,2.45439e-01
1.77540e+03,2.48254e+01,-2.31793e+01,-1.07520e-01,1.26694e-01,2.44366e-01
1.77540e+03,2.44171e+01,-2.52865e+01,-1.10813e-01,1.25038e-01,2.43276e-01
1.77540e+03,2.39689e+01,-2.73937e+01,-1.13869e-01,1.23371e-01,2.42132e-01
1.77540e+03,2.34819e+01,-2.95009e+01,-1.16695e-01,1.21698e-01,2.40934e-01
1.77540e+03,2.29486e+01,-3.16082e+01,-1.19246e-01,1.20021e-01,2.39655e-01
1.77540e+03,2.23524e+01,-3.37154e+01,-1.21423e-01,1.18345e-01,2.38244e-01
1.77540e+03,2.17125e+01,-3.58226e+01,-1.23341e-01,1.16672e-01,2.36748e-01
1.77540e+03,2.09743e+01,-3.79298e+01,-1.24675e-01,1.15010e-01,2.35002e-01
1.77540e+03,2.01952e+01,-4.00370e+01,-1.25766e-01,1.13364e-01,2.33177e-01
1.77540e+03,1.93026e+01,-4.21442e+01,-1.26183e-01,1.11738e-01,2.31038e-01
1.77540e+03,1.83190e+01,-4.42514e+01,-1.26060e-01,1.10146e-01,2.28664e-01
1.77540e+03,1.72428e+01,-4.63586e+01,-1.25386e-01,1.08589e-01,2.26046e-01
1.77540e+03,1.60110e+01,-4.84658e+01,-1.23789e-01,1.07075e-01,2.22977e-01
1.77540e+03,1.45992e+01,-5.05731e+01,-1.21122e-01,1.05621e-01,2.19403e-01
1.77540e+03,1.29838e+01,-5.26803e+01,-1.17247e-01,1.04244e-01,2.15284e-01
1.77540e+03,1.10731e+01,-5.47875e+01,-1.11618e-01,1.02956e-01,2.10376e-01
1.77540e+03,8.62063e+00,-5.68947e+01,-1.02771e-01,1.01820e-01,2.04117e-01
1.77540e+03,5.30372e+00,-5.90019e+01,-8.87903e-02,1.01123e-01,1.96370e-01
1.77540e+03,-2.14903e+00,-6.11091e+01,-5.02480e-02,1.01394e-01,1.82667e-01
1.77540e+03,-2.68689e+00,-6.11140e+01,-4.70670e-02,1.02245e-01,1.83241e-01
1.77540e+03,-7.58725e+00,-5.89314e+01,-1.20422e-02,1.03859e-01,1.80292e-01
1.77540e+03,-8.18057e+00,-5.67487e+01,-2.59595e-03,1.05052e-01,1.81975e-01
1.77540e+03,-8.38530e+00,-5.45661e+01,4.54261e-03,1.06308e-01,1.84188e-01
1.77540e+03,-8.41637e+00,-5.23834e+01,1.06498e-02,1.07623e-01,1.86712e-01
1.77540e+03,-8.31659e+00,-5.02008e+01,1.59799e-02,1.08986e-01,1.89444e-01
1.77540e+03,-8.13471e+00,-4.80181e+01,2.08223e-02,1.10388e-01,1.92329e-01
1.77540e+03,-7.87037e+00,-4.58355e+01,2.51752e-02,1.11823e-01,1.95313e-01
1.77540e+03,-7.55575e+00,-4.36529e+01,2.92293e-02,1.13283e-01,1.98377e-01
1.77540e+03,-7.21195e+00,-4.14702e+01,3.31103e-02,1.14764e-01,2.01516e-01
1.77540e+03,-6.82421e+00,-3.92876e+01,3.67302e-02,1.16262e-01,2.04694e-01
1.77540e+03,-6.40900e+00,-3.71049e+01,4.01870e-02,1.17773e-01,2.07910e-01
1.77540e+03,-5.96704e+00,-3.49223e+01,4.34850e-02,1.19294e-01,2.11150e-01
1.77540e+03,-5.49844e+00,-3.27396e+01,4.66248e-02,1.20823e-01,2.14402e-01
1.77540e+03,-5.01314e+00,-3.05570e+01,4.96653e-02,1.22355e-01,2.17667e-01
1.77540e+03,-4.50644e+00,-2.83744e+01,5.25788e-02,1.23889e-01,2.20930e-01
1.77540e+03,-3.98604e+00,-2.61917e+01,5.54109e-02,1.25423e-01,2.24195e-01
1.77540e+03,-3.45334e+00,-2.40091e+01,5.81700e-02,1.26955e-01,2.27457e-01
1.77540e+03,-2.90969e+00,-2.18264e+01,6.08640e-02,1.28483e-01,2.30713e-01
1.77540e+03,-2.36138e+00,-1.96438e+01,6.35304e-02,1.30007e-01,2.33969e-01
1.77540e+03,-1.80588e+00,-1.74611e+01,6.61540e-02,1.31524e-01,2.37218e-01
1.77540e+03,-1.24918e+00,-1.52785e+01,6.87706e-02,1.33035e-01,2.40468e-01
1.77540e+03,-6.88187e-01,-1.30959e+01,7.13616e-02,1.34540e-01,2.43712e-01
1.77540e+03,-1.27248e-01,-1.09132e+01,7.39530e-02,1.36037e-01,2.46956e-01
1.77540e+03,4.31571e-01,-8.73057e+00,7.65569e-02,1.37527e-01,2.50204e-01
1.77540e+03,9.90390e-01,-6.54793e+00,7.91609e-02,1.39009e-01,2.53451e-01
1.77540e+03,1.53598e+00,-4.36529e+00,8.18434e-02,1.40485e-01,2.56722e-01
1.77540e+03,2.07910e+00,-2.18264e+00,8.45406e-02,1.41954e-01,2.60000e-01
1.82660e+03,2.53092e+01,0.00000e+00,-4.00238e-02,1.14099e-01,2.01638e-01
1.82660e+03,2.51817e+01,-1.92323e+00,-4.34297e-02,1.13097e-01,2.00647e-01
1.82660e+03,2.50121e+01,-3.84646e+00,-4.66570e-02,1.12071e-01,1.99641e-01
1.82660e+03,2.48409e+01,-5.76969e+00,-4.98771e-02,1.11020e-01,1.98656e-01
1.82660e+03,2.46324e+01,-7.69292e+00,-5.29394e-02,1.09949e-01,1.97658e-01
1.82660e+03,2.44154e+01,-9.61614e+00,-5.59651e-02,1.08857e-01,1.96676e-01
1.82660e+03,2.41698e+01,-1.15394e+01,-5.88697e-02,1.07747e-01,1.95688e-01
1.82660e+03,2.39103e+01,-1.34626e+01,-6.17155e-02,1.06620e-01,1.94711e-01
1.82660e+03,2.36280e+01,-1.53858e+01,-6.44641e-02,1.05478e-01,1.93732e-01
1.82660e+03,2.33268e+01,-1.73091e+01,-6.71326e-02,1.04322e-01,1.92758e-01
1.82660e+03,2.30049e+01,-1.92323e+01,-6.97133e-02,1.03153e-01,1.91786e-01
1.82660e+03,2.26579e+01,-2.11555e+01,-7.21875e-02,1.01974e-01,1.90807e-01
1.82660e+03,2.22852e+01,-2.30787e+01,-7.45528e-02,1.00786e-01,1.89820e-01
1.82660e+03,2.18762e+01,-2.50020e+01,-7.67638e-02,9.95903e-02,1.88805e-01
1.82660e+03,2.14317e+01,-2.69252e+01,-7.88244e-02,9.83899e-02,1.87763e-01
1.82660e+03,2.09449e+01,-2.88484e+01,-8.07053e-02,9.71865e-02,1.86679e-01
1.82660e+03,2.04008e+01,-3.07717e+01,-8.23429e-02,9.59843e-02,1.85524e-01
1.82660e+03,1.98168e+01,-3.26949e+01,-8.38111e-02,9.47841e-02,1.84327e-01
1.82660e+03,1.91430e+01,-3.46181e+01,-8.48984e-02,9.35924e-02,1.82993e-01
1.82660e+03,1.84320e+01,-3.65413e+01,-8.58277e-02,9.24119e-02,1.81621e-01
1.82660e+03,1.76173e+01,-3.84646e+01,-8.63171e-02,9.12456e-02,1.80078e-01
1.82660e+03,1.67196e+01,-4.03878e+01,-8.64539e-02,9.01034e-02,1.78410e-01
1.82660e+03,1.57373e+01,-4.23110e+01,-8.62318e-02,8.89870e-02,1.76613e-01
1.82660e+03,1.46131e+01,-4.42343e+01,-8.54075e-02,8.79008e-02,1.74568e-01
1.82660e+03,1.33245e+01,-4.61575e+01,-8.38855e-02,8.68577e-02,1.72248e-01
1.82660e+03,1.18502e+01,-4.80807e+01,-8.15750e-02,8.58703e-02,1.69634e-01
1.82660e+03,1.01063e+01,-5.00040e+01,-7.81208e-02,8.49467e-02,1.66585e-01
1.82660e+03,7.86795e+00,-5.19272e+01,-7.25678e-02,8.41321e-02,1.62790e-01
1.82660e+03,4.84065e+00,-5.38504e+01,-6.36664e-02,8.36327e-02,1.58230e-01
1.82660e+03,-1.96139e+00,-5.57736e+01,-3.87444e-02,8.38278e-02,1.50275e-01
1.82660e+03,-2.45230e+00,-5.57781e+01,-3.66701e-02,8.44381e-02,1.50778e-01
1.82660e+03,-6.92480e+00,-5.37860e+01,-1.35998e-02,8.55964e-02,1.48880e-01
1.82660e+03,-7.46632e+00,-5.17940e+01,-7.21334e-03,8.64525e-02,1.49914e-01
1.82660e+03,-7.65318e+00,-4.98019e+01,-2.33205e-03,8.73536e-02,1.51319e-01
1.82660e+03,-7.68153e+00,-4.78098e+01,1.87652e-03,8.82965e-02,1.52946e-01
1.82660e+03,-7.59047e+00,-4.58177e+01,5.57824e-03,8.92740e-02,1.54728e-01
1.82660e+03,-7.42446e+00,-4.38257e+01,8.96190e-03,9.02802e-02,1.56627e-01
1.82660e+03,-7.18321e+00,-4.18336e+01,1.20262e-02,9.13094e-02,1.58609e-01
1.82660e+03,-6.89605e+00,-3.98415e+01,1.48957e-02,9.23564e-02,1.60658e-01
1.82660e+03,-6.58227e+00,-3.78494e+01,1.76522e-02,9.34187e-02,1.62766e-01
1.82660e+03,-6.22838e+00,-3.58574e+01,2.02384e-02,9.44932e-02,1.64914e-01
1.82660e+03,-5.84943e+00,-3.38653e+01,2.27183e-02,9.55770e-02,1.67096e-01
1.82660e+03,-5.44606e+00,-3.18732e+01,2.50946e-02,9.66681e-02,1.69304e-01
1.82660e+03,-5.01837e+00,-2.98811e+01,2.73676e-02,9.77640e-02,1.71530e-01
1.82660e+03,-4.57544e+00,-2.78891e+01,2.95760e-02,9.88630e-02,1.73771e-01
1.82660e+03,-4.11298e+00,-2.58970e+01,3.17014e-02,9.99634e-02,1.76020e-01
1.82660e+03,-3.63801e+00,-2.39049e+01,3.37738e-02,1.01063e-01,1.78275e-01
1.82660e+03,-3.15183e+00,-2.19128e+01,3.57986e-02,1.02162e-01,1.80535e-01
1.82660e+03,-2.65564e+00,-1.99208e+01,3.77809e-02,1.03258e-01,1.82795e-01
1.82660e+03,-2.15521e+00,-1.79287e+01,3.97452e-02,1.04350e-01,1.85058e-01
1.82660e+03,-1.64821e+00,-1.59366e+01,4.16817e-02,1.05438e-01,1.87321e-01
1.82660e+03,-1.14012e+00,-1.39445e+01,4.36135e-02,1.06522e-01,1.89586e-01
1.82660e+03,-6.28101e-01,-1.19525e+01,4.55286e-02,1.07601e-01,1.91850e-01
1.82660e+03,-1.16138e-01,-9.96038e+00,4.74440e-02,1.08674e-01,1.94116e-01
1.82660e+03,3.93890e-01,-7.96830e+00,4.93676e-02,1.09742e-01,1.96386e-01
1.82660e+03,9.03919e-01,-5.97623e+00,5.12912e-02,1.10805e-01,1.98656e-01
1.82660e+03,1.40187e+00,-3.98415e+00,5.32660e-02,1.11863e-01,2.00941e-01
1.82660e+03,1.89757e+00,-1.99208e+00,5.52504e-02,1.12916e-01,2.03231e-01
1.87280e+03,2.31244e+01,0.00000e+00,-2.42961e-02,8.89823e-02,1.56025e-01
1.87280e+03,2.30080e+01,-1.75721e+00,-2.65614e-02,8.82909e-02,1.55214e-01
1.87280e+03,2.28531e+01,-3.51443e+00,-2.87169e-02,8.75825e-02,1.54392e-01
1.87280e+03,2.26966e+01,-5.27164e+00,-3.08680e-02,8.68579e-02,1.53576e-01
1.87280e+03,2.25061e+01,-7.02886e+00,-3.29222e-02,8.61186e-02,1.52752e-01
1.87280e+03,2.23078e+01,-8.78607e+00,-3.49538e-02,8.53654e-02,1.51933e-01
1.87280e+03,2.20834e+01,-1.05433e+01,-3.69110e-02,8.45996e-02,1.51108e-01
1.87280e+03,2.18464e+01,-1.23005e+01,-3.88321e-02,8.38221e-02,1.50288e-01
1.87280e+03,2.15884e+01,-1.40577e+01,-4.06935e-02,8.30342e-02,1.49466e-01
1.87280e+03,2.13132e+01,-1.58149e+01,-4.25057e-02,8.22367e-02,1.48645e-01
1.87280e+03,2.10191e+01,-1.75721e+01,-4.42638e-02,8.14308e-02,1.47825e-01
1.87280e+03,2.07020e+01,-1.93294e+01,-4.59566e-02,8.06174e-02,1.47002e-01
1.87280e+03,2.03615e+01,-2.10866e+01,-4.75824e-02,7.97978e-02,1.46175e-01
1.87280e+03,1.99878e+01,-2.28438e+01,-4.91134e-02,7.89731e-02,1.45335e-01
1.87280e+03,1.95817e+01,-2.46010e+01,-5.05520e-02,7.81452e-02,1.44484e-01
1.87280e+03,1.91369e+01,-2.63582e+01,-5.18802e-02,7.73152e-02,1.43612e-01
1.87280e+03,1.86398e+01,-2.81154e+01,-5.30589e-02,7.64860e-02,1.42708e-01
1.87280e+03,1.81062e+01,-2.98726e+01,-5.41335e-02,7.56582e-02,1.41785e-01
1.87280e+03,1.74905e+01,-3.16299e+01,-5.49740e-02,7.48363e-02,1.40796e-01
1.87280e+03,1.68409e+01,-3.33871e+01,-5.57174e-02,7.40221e-02,1.39794e-01
1.87280e+03,1.60966e+01,-3.51443e+01,-5.61905e-02,7.32178e-02,1.38708e-01
1.87280e+03,1.52763e+01,-3.69015e+01,-5.64469e-02,7.24300e-02,1.37567e-01
1.87280e+03,1.43788e+01,-3.86587e+01,-5.64829e-02,7.16602e-02,1.36367e-01
1.87280e+03,1.33517e+01,-4.04159e+01,-5.61487e-02,7.09111e-02,1.35047e-01
1.87280e+03,1.21743e+01,-4.21731e+01,-5.53859e-02,7.01918e-02,1.33597e-01
1.87280e+03,1.08272e+01,-4.39304e+01,-5.41384e-02,6.95109e-02,1.32009e-01
1.87280e+03,9.23393e+00,-4.56876e+01,-5.21882e-02,6.88741e-02,1.30210e-01
1.87280e+03,7.18879e+00,-4.74448e+01,-4.89484e-02,6.83124e-02,1.28046e-01
1.87280e+03,4.42280e+00,-4.92020e+01,-4.36509e-02,6.79684e-02,1.25557e-01
1.87280e+03,-1.79208e+00,-5.09592e+01,-2.85089e-02,6.81032e-02,1.21354e-01
1.87280e+03,-2.24062e+00,-5.09633e+01,-2.72347e-02,6.85243e-02,1.21772e-01
1.87280e+03,-6.32705e+00,-4.91432e+01,-1.28797e-02,6.93233e-02,1.20760e-01
1.87280e+03,-6.82182e+00,-4.73231e+01,-8.77671e-03,6.99139e-02,1.21412e-01
1.87280e+03,-6.99255e+00,-4.55029e+01,-5.59865e-03,7.05354e-02,1.22299e-01
1.87280e+03,-7.01846e+00,-4.36828e+01,-2.83398e-03,7.11858e-02,1.23330e-01
1.87280e+03,-6.93525e+00,-4.18627e+01,-3.80753e-04,7.18599e-02,1.24466e-01
1.87280e+03,-6.78358e+00,-4.00426e+01,1.87703e-03,7.25539e-02,1.25681e-01
1.87280e+03,-6.56315e+00,-3.82225e+01,3.93856e-03,7.32637e-02,1.26958e-01
1.87280e+03,-6.30078e+00,-3.64024e+01,5.88039e-03,7.39858e-02,1.28282e-01
1.87280e+03,-6.01408e+00,-3.45822e+01,7.75277e-03,7.47184e-02,1.29648e-01
1.87280e+03,-5.69074e+00,-3.27621e+01,9.52056e-03,7.54594e-02,1.31046e-01
1.87280e+03,-5.34450e+00,-3.09420e+01,1.12230e-02,7.62069e-02,1.32470e-01
1.87280e+03,-4.97595e+00,-2.91219e+01,1.28617e-02,7.69593e-02,1.33916e-01
1.87280e+03,-4.58518e+00,-2.73018e+01,1.44370e-02,7.77150e-02,1.35378e-01
1.87280e+03,-4.18049e+00,-2.54816e+01,1.59726e-02,7.84728e-02,1.36854e-01
1.87280e+03,-3.75794e+00,-2.36615e+01,1.74572e-02,7.92316e-02,1.38339e-01
1.87280e+03,-3.32398e+00,-2.18414e+01,1.89092e-02,7.99901e-02,1.39831e-01
1.87280e+03,-2.87976e+00,-2.00213e+01,2.03320e-02,8.07475e-02,1.41329e-01
1.87280e+03,-2.42640e+00,-1.82012e+01,2.17287e-02,8.15031e-02,1.42830e-01
1.87280e+03,-1.96917e+00,-1.63811e+01,2.31143e-02,8.22563e-02,1.44335e-01
1.87280e+03,-1.50594e+00,-1.45609e+01,2.44827e-02,8.30065e-02,1.45841e-01
1.87280e+03,-1.04170e+00,-1.27408e+01,2.58484e-02,8.37537e-02,1.47350e-01
1.87280e+03,-5.73883e-01,-1.09207e+01,2.72037e-02,8.44974e-02,1.48861e-01
1.87280e+03,-1.06113e-01,-9.10059e+00,2.85593e-02,8.52374e-02,1.50373e-01
1.87280e+03,3.59890e-01,-7.28047e+00,2.99198e-02,8.59739e-02,1.51887e-01
1.87280e+03,8.25892e-01,-5.46035e+00,3.12804e-02,8.67065e-02,1.53403e-01
1.87280e+03,1.28086e+00,-3.64024e+00,3.26725e-02,8.74356e-02,1.54927e-01
1.87280e+03,1.73377e+00,-1.82012e+00,3.40704e-02,8.81617e-02,1.56455e-01
1.91380e+03,2.11856e+01,0.00000e+00,-1.36377e-02,6.75718e-02,1.17830e-01
1.91380e+03,2.10789e+01,-1.60989e+00,-1.50562e-02,6.71149e-02,1.17217e-01
1.91380e+03,2.09370e+01,-3.21977e+00,-1.64119e-02,6.66469e-02,1.16597e-01
1.91380e+03,2.07936e+01,-4.82966e+00,-1.77652e-02,6.61681e-02,1.15975e-01
1.91380e+03,2.06192e+01,-6.43954e+00,-1.90631e-02,6.56796e-02,1.15346e-01
1.91380e+03,2.04375e+01,-8.04943e+00,-2.03482e-02,6.51819e-02,1.14717e-01
1.91380e+03,2.02319e+01,-9.65931e+00,-2.15908e-02,6.46759e-02,1.14084e-01
1.91380e+03,2.00147e+01,-1.12692e+01,-2.28128e-02,6.41623e-02,1.13450e-01
1.91380e+03,1.97784e+01,-1.28791e+01,-2.40006e-02,6.36417e-02,1.12813e-01
1.91380e+03,1.95262e+01,-1.44890e+01,-2.51604e-02,6.31148e-02,1.12176e-01
1.91380e+03,1.92568e+01,-1.60989e+01,-2.62894e-02,6.25823e-02,1.11538e-01
1.91380e+03,1.89663e+01,-1.77087e+01,-2.73810e-02,6.20450e-02,1.10898e-01
1.91380e+03,1.86544e+01,-1.93186e+01,-2.84344e-02,6.15035e-02,1.10257e-01
1.91380e+03,1.83120e+01,-2.09285e+01,-2.94337e-02,6.09587e-02,1.09610e-01
1.91380e+03,1.79399e+01,-2.25384e+01,-3.03803e-02,6.04118e-02,1.08957e-01
1.91380e+03,1.75325e+01,-2.41483e+01,-3.12638e-02,5.98635e-02,1.08297e-01
1.91380e+03,1.70770e+01,-2.57582e+01,-3.20620e-02,5.93157e-02,1.07624e-01
1.91380e+03,1.65881e+01,-2.73680e+01,-3.28007e-02,5.87689e-02,1.06945e-01
1.91380e+03,1.60241e+01,-2.89779e+01,-3.34058e-02,5.82260e-02,1.06239e-01
1.91380e+03,1.54289e+01,-3.05878e+01,-3.39556e-02,5.76882e-02,1.05531e-01
1.91380e+03,1.47470e+01,-3.21977e+01,-3.43510e-02,5.71569e-02,1.04789e-01
1.91380e+03,1.39955e+01,-3.38076e+01,-3.46227e-02,5.66365e-02,1.04028e-01
1.91380e+03,1.31733e+01,-3.54175e+01,-3.47686e-02,5.61280e-02,1.03247e-01
1.91380e+03,1.22322e+01,-3.70274e+01,-3.47032e-02,5.56333e-02,1.02418e-01
1.91380e+03,1.11536e+01,-3.86372e+01,-3.43931e-02,5.51582e-02,1.01539e-01
1.91380e+03,9.91946e+00,-4.02471e+01,-3.38063e-02,5.47085e-02,1.00608e-01
1.91380e+03,8.45973e+00,-4.18570e+01,-3.28185e-02,5.42879e-02,9.95921e-02
1.91380e+03,6.58606e+00,-4.34669e+01,-3.10944e-02,5.39170e-02,9.84276e-02
1.91380e+03,4.05198e+00,-4.50768e+01,-2.81958e-02,5.36900e-02,9.71743e-02
1.91380e+03,-1.64183e+00,-4.66867e+01,-1.96776e-02,5.37792e-02,9.52041e-02
1.91380e+03,-2.05276e+00,-4.66904e+01,-1.89505e-02,5.40575e-02,9.55288e-02
1.91380e+03,-5.79657e+00,-4.50229e+01,-1.06264e-02,5.45854e-02,9.51400e-02
1.91380e+03,-6.24986e+00,-4.33554e+01,-8.15447e-03,5.49755e-02,9.55689e-02
1.91380e+03,-6.40628e+00,-4.16879e+01,-6.21050e-03,5.53861e-02,9.61324e-02
1.91380e+03,-6.43001e+00,-4.00204e+01,-4.50250e-03,5.58158e-02,9.67805e-02
1.91380e+03,-6.35378e+00,-3.83528e+01,-2.97229e-03,5.62611e-02,9.74924e-02
1.91380e+03,-6.21483e+00,-3.66853e+01,-1.55364e-03,5.67196e-02,9.82534e-02
1.91380e+03,-6.01288e+00,-3.50178e+01,-2.47019e-04,5.71884e-02,9.90536e-02
1.91380e+03,-5.77251e+00,-3.33503e+01,9.91269e-04,5.76654e-02,9.98843e-02
1.91380e+03,-5.50985e+00,-3.16828e+01,2.18992e-03,5.81493e-02,1.00741e-01
1.91380e+03,-5.21362e+00,-3.00153e+01,3.32886e-03,5.86388e-02,1.01620e-01
1.91380e+03,-4.89640e+00,-2.83477e+01,4.43049e-03,5.91324e-02,1.02516e-01
1.91380e+03,-4.55876e+00,-2.66802e+01,5.49577e-03,5.96294e-02,1.03427e-01
1.91380e+03,-4.20075e+00,-2.50127e+01,6.52484e-03,6.01285e-02,1.04350e-01
1.91380e+03,-3.82998e+00,-2.33452e+01,7.53123e-03,6.06290e-02,1.05282e-01
1.91380e+03,-3.44287e+00,-2.16777e+01,8.50853e-03,6.11302e-02,1.06222e-01
1.91380e+03,-3.04529e+00,-2.00102e+01,9.46722e-03,6.16311e-02,1.07167e-01
1.91380e+03,-2.63832e+00,-1.83427e+01,1.04092e-02,6.21314e-02,1.08117e-01
1.91380e+03,-2.22297e+00,-1.66751e+01,1.13363e-02,6.26303e-02,1.09070e-01
1.91380e+03,-1.80407e+00,-1.50076e+01,1.22571e-02,6.31277e-02,1.10025e-01
1.91380e+03,-1.37967e+00,-1.33401e+01,1.31681e-02,6.36232e-02,1.10983e-01
1.91380e+03,-9.54362e-01,-1.16726e+01,1.40775e-02,6.41165e-02,1.11942e-01
1.91380e+03,-5.25768e-01,-1.00051e+01,1.49810e-02,6.46077e-02,1.12902e-01
1.91380e+03,-9.72161e-02,-8.33757e+00,1.58846e-02,6.50963e-02,1.13864e-01
1.91380e+03,3.29716e-01,-6.67006e+00,1.67911e-02,6.55826e-02,1.14827e-01
1.91380e+03,7.56647e-01,-5.00254e+00,1.76976e-02,6.60664e-02,1.15791e-01
1.91380e+03,1.17347e+00,-3.33503e+00,1.86221e-02,6.65478e-02,1.16759e-01
1.91380e+03,1.58841e+00,-1.66751e+00,1.95499e-02,6.70272e-02,1.17729e-01
1.94970e+03,1.94880e+01,0.00000e+00,-6.87894e-03,4.92608e-02,8.55991e-02
1.94970e+03,1.93899e+01,-1.48088e+00,-7.69475e-03,4.89758e-02,8.51768e-02
1.94970e+03,1.92593e+01,-2.96177e+00,-8.47820e-03,4.86838e-02,8.47480e-02
1.94970e+03,1.91274e+01,-4.44265e+00,-9.26035e-03,4.83852e-02,8.43156e-02
1.94970e+03,1.89669e+01,-5.92353e+00,-1.00139e-02,4.80804e-02,8.38777e-02
1.94970e+03,1.87998e+01,-7.40441e+00,-1.07609e-02,4.77700e-02,8.34369e-02
1.94970e+03,1.86107e+01,-8.88530e+00,-1.14859e-02,4.74544e-02,8.29921e-02
1.94970e+03,1.84109e+01,-1.03662e+01,-1.22003e-02,4.71341e-02,8.25452e-02
1.94970e+03,1.81935e+01,-1.18471e+01,-1.28970e-02,4.68093e-02,8.20955e-02
1.94970e+03,1.79616e+01,-1.33279e+01,-1.35793e-02,4.64807e-02,8.16442e-02
1.94970e+03,1.77137e+01,-1.48088e+01,-1.42456e-02,4.61487e-02,8.11913e-02
1.94970e+03,1.74465e+01,-1.62897e+01,-1.48927e-02,4.58135e-02,8.07368e-02
1.94970e+03,1.71596e+01,-1.77706e+01,-1.55201e-02,4.54758e-02,8.02809e-02
1.94970e+03,1.68446e+01,-1.92515e+01,-1.61195e-02,4.51361e-02,7.98225e-02
1.94970e+03,1.65024e+01,-2.07324e+01,-1.66916e-02,4.47950e-02,7.93623e-02
1.94970e+03,1.61276e+01,-2.22132e+01,-1.72313e-02,4.44530e-02,7.88995e-02
1.94970e+03,1.57086e+01,-2.36941e+01,-1.77268e-02,4.41114e-02,7.84327e-02
1.94970e+03,1.52589e+01,-2.51750e+01,-1.81917e-02,4.37704e-02,7.79647e-02
1.94970e+03,1.47401e+01,-2.66559e+01,-1.85876e-02,4.34319e-02,7.74886e-02
1.94970e+03,1.41926e+01,-2.81368e+01,-1.89549e-02,4.30965e-02,7.70144e-02
1.94970e+03,1.35653e+01,-2.96177e+01,-1.92425e-02,4.27652e-02,7.65301e-02
1.94970e+03,1.28740e+01,-3.10985e+01,-1.94663e-02,4.24407e-02,7.60433e-02
1.94970e+03,1.21177e+01,-3.25794e+01,-1.96251e-02,4.21236e-02,7.55536e-02
1.94970e+03,1.12521e+01,-3.40603e+01,-1.96748e-02,4.18151e-02,7.50507e-02
1.94970e+03,1.02599e+01,-3.55412e+01,-1.95982e-02,4.15189e-02,7.45355e-02
1.94970e+03,9.12460e+00,-3.70221e+01,-1.93788e-02,4.12385e-02,7.40093e-02
1.94970e+03,7.78184e+00,-3.85029e+01,-1.89522e-02,4.09763e-02,7.34599e-02
1.94970e+03,6.05831e+00,-3.99838e+01,-1.81456e-02,4.07451e-02,7.28680e-02
1.94970e+03,3.72729e+00,-4.14647e+01,-1.67326e-02,4.06036e-02,7.22907e-02
1.94970e+03,-1.51027e+00,-4.29456e+01,-1.24183e-02,4.06593e-02,7.15106e-02
1.94970e+03,-1.88827e+00,-4.29490e+01,-1.20431e-02,4.08329e-02,7.17427e-02
1.94970e+03,-5.33209e+00,-4.14151e+01,-7.65909e-03,4.11622e-02,7.17053e-02
1.94970e+03,-5.74905e+00,-3.98812e+01,-6.29640e-03,4.14055e-02,7.19923e-02
1.94970e+03,-5.89293e+00,-3.83473e+01,-5.20629e-03,4.16616e-02,7.23476e-02
1.94970e+03,-5.91477e+00,-3.68135e+01,-4.23801e-03,4.19295e-02,7.27477e-02
1.94970e+03,-5.84465e+00,-3.52796e+01,-3.36151e-03,4.22073e-02,7.31824e-02
1.94970e+03,-5.71682e+00,-3.37457e+01,-2.54262e-03,4.24932e-02,7.36442e-02
1.94970e+03,-5.53106e+00,-3.22118e+01,-1.78156e-03,4.27855e-02,7.41282e-02
1.94970e+03,-5.30995e+00,-3.06779e+01,-1.05578e-03,4.30830e-02,7.46294e-02
1.94970e+03,-5.06834e+00,-2.91440e+01,-3.50459e-04,4.33847e-02,7.51454e-02
1.94970e+03,-4.79584e+00,-2.76101e+01,3.24029e-04,4.36899e-02,7.56739e-02
1.94970e+03,-4.50405e+00,-2.60762e+01,9.79253e-04,4.39978e-02,7.62127e-02
1.94970e+03,-4.19345e+00,-2.45423e+01,1.61571e-03,4.43077e-02,7.67601e-02
1.94970e+03,-3.86414e+00,-2.30084e+01,2.23348e-03,4.46189e-02,7.73144e-02
1.94970e+03,-3.52308e+00,-2.14745e+01,2.83953e-03,4.49310e-02,7.78745e-02
1.94970e+03,-3.16699e+00,-1.99406e+01,3.43057e-03,4.52434e-02,7.84389e-02
1.94970e+03,-2.80126e+00,-1.84067e+01,4.01200e-03,4.55557e-02,7.90068e-02
1.94970e+03,-2.42690e+00,-1.68728e+01,4.58481e-03,4.58676e-02,7.95773e-02
1.94970e+03,-2.04484e+00,-1.53389e+01,5.14992e-03,4.61787e-02,8.01495e-02
1.94970e+03,-1.65951e+00,-1.38050e+01,5.71178e-03,4.64888e-02,8.07233e-02
1.94970e+03,-1.26912e+00,-1.22712e+01,6.26859e-03,4.67977e-02,8.12981e-02
1.94970e+03,-8.77888e-01,-1.07373e+01,6.82456e-03,4.71053e-02,8.18737e-02
1.94970e+03,-4.83637e-01,-9.20336e+00,7.37751e-03,4.74115e-02,8.24498e-02
1.94970e+03,-8.94260e-02,-7.66947e+00,7.93050e-03,4.77161e-02,8.30264e-02
1.94970e+03,3.03295e-01,-6.13558e+00,8.48498e-03,4.80193e-02,8.36035e-02
1.94970e+03,6.96016e-01,-4.60168e+00,9.03946e-03,4.83208e-02,8.41809e-02
1.94970e+03,1.07944e+00,-3.06779e+00,9.60323e-03,4.86209e-02,8.47597e-02
1.94970e+03,1.46113e+00,-1.53389e+00,1.01687e-02,4.89198e-02,8.53396e-02
1.98010e+03,1.80504e+01,0.00000e+00,-3.01770e-03,3.39319e-02,5.88493e-02
1.98010e+03,1.79595e+01,-1.37164e+00,-3.43678e-03,3.37667e-02,5.85866e-02
1.98010e+03,1.78386e+01,-2.74329e+00,-3.84118e-03,3.35975e-02,5.83193e-02
1.98010e+03,1.77165e+01,-4.11493e+00,-4.24500e-03,3.34245e-02,5.80483e-02
1.98010e+03,1.75678e+01,-5.48657e+00,-4.63587e-03,3.32479e-02,5.77733e-02
1.98010e+03,1.74130e+01,-6.85822e+00,-5.02373e-03,3.30680e-02,5.74953e-02
1.98010e+03,1.72378e+01,-8.22986e+00,-5.40165e-03,3.28851e-02,5.72142e-02
1.98010e+03,1.70528e+01,-9.60150e+00,-5.77474e-03,3.26994e-02,5.69307e-02
1.98010e+03,1.68514e+01,-1.09731e+01,-6.13985e-03,3.25113e-02,5.66449e-02
1.98010e+03,1.66366e+01,-1.23448e+01,-6.49839e-03,3.23209e-02,5.63573e-02
1.98010e+03,1.64070e+01,-1.37164e+01,-6.84972e-03,3.21284e-02,5.60681e-02
1.98010e+03,1.61595e+01,-1.50881e+01,-7.19231e-03,3.19343e-02,5.57774e-02
1.98010e+03,1.58938e+01,-1.64597e+01,-7.52596e-03,3.17386e-02,5.54856e-02
1.98010e+03,1.56020e+01,-1.78314e+01,-7.84694e-03,3.15417e-02,5.51925e-02
1.98010e+03,1.52851e+01,-1.92030e+01,-8.15558e-03,3.13441e-02,5.48987e-02
1.98010e+03,1.49379e+01,-2.05747e+01,-8.44947e-03,3.11459e-02,5.46040e-02
1.98010e+03,1.45498e+01,-2.19463e+01,-8.72339e-03,3.09480e-02,5.43087e-02
1.98010e+03,1.41333e+01,-2.33179e+01,-8.98340e-03,3.07504e-02,5.40136e-02
1.98010e+03,1.36527e+01,-2.46896e+01,-9.21214e-03,3.05543e-02,5.37173e-02
1.98010e+03,1.31457e+01,-2.60612e+01,-9.42792e-03,3.03599e-02,5.34234e-02
1.98010e+03,1.25646e+01,-2.74329e+01,-9.60758e-03,3.01680e-02,5.31284e-02
1.98010e+03,1.19244e+01,-2.88045e+01,-9.75830e-03,2.99800e-02,5.28359e-02
1.98010e+03,1.12238e+01,-3.01762e+01,-9.87956e-03,2.97963e-02,5.25458e-02
1.98010e+03,1.04220e+01,-3.15478e+01,-9.95139e-03,2.96176e-02,5.22554e-02
1.98010e+03,9.50303e+00,-3.29194e+01,-9.96595e-03,2.94459e-02,5.19664e-02
1.98010e+03,8.45151e+00,-3.42911e+01,-9.91578e-03,2.92835e-02,5.16807e-02
1.98010e+03,7.20780e+00,-3.56627e+01,-9.77173e-03,2.91316e-02,5.13950e-02
1.98010e+03,5.61141e+00,-3.70344e+01,-9.45539e-03,2.89977e-02,5.11078e-02
1.98010e+03,3.45234e+00,-3.84060e+01,-8.86420e-03,2.89158e-02,5.08620e-02
1.98010e+03,-1.39886e+00,-3.97777e+01,-6.95794e-03,2.89481e-02,5.06201e-02
1.98010e+03,-1.74898e+00,-3.97808e+01,-6.78799e-03,2.90487e-02,5.07697e-02
1.98010e+03,-4.93876e+00,-3.83601e+01,-4.74976e-03,2.92395e-02,5.08666e-02
1.98010e+03,-5.32496e+00,-3.69394e+01,-4.08103e-03,2.93805e-02,5.10520e-02
1.98010e+03,-5.45823e+00,-3.55186e+01,-3.53586e-03,2.95289e-02,5.12677e-02
1.98010e+03,-5.47846e+00,-3.40979e+01,-3.04591e-03,2.96842e-02,5.15046e-02
1.98010e+03,-5.41351e+00,-3.26771e+01,-2.59756e-03,2.98451e-02,5.17584e-02
1.98010e+03,-5.29511e+00,-3.12564e+01,-2.17533e-03,3.00107e-02,5.20256e-02
1.98010e+03,-5.12305e+00,-2.98356e+01,-1.77930e-03,3.01801e-02,5.23038e-02
1.98010e+03,-4.91825e+00,-2.84149e+01,-1.39927e-03,3.03525e-02,5.25907e-02
1.98010e+03,-4.69446e+00,-2.69941e+01,-1.02852e-03,3.05273e-02,5.28848e-02
1.98010e+03,-4.44207e+00,-2.55734e+01,-6.71738e-04,3.07041e-02,5.31854e-02
1.98010e+03,-4.17180e+00,-2.41527e+01,-3.23689e-04,3.08825e-02,5.34910e-02
1.98010e+03,-3.88412e+00,-2.27319e+01,1.58539e-05,3.10620e-02,5.38010e-02
1.98010e+03,-3.57909e+00,-2.13112e+01,3.46925e-04,3.12423e-02,5.41144e-02
1.98010e+03,-3.26320e+00,-1.98904e+01,6.72686e-04,3.14231e-02,5.44306e-02
1.98010e+03,-2.93337e+00,-1.84697e+01,9.91642e-04,3.16041e-02,5.47489e-02
1.98010e+03,-2.59462e+00,-1.70489e+01,1.30624e-03,3.17851e-02,5.50688e-02
1.98010e+03,-2.24788e+00,-1.56282e+01,1.61693e-03,3.19657e-02,5.53899e-02
1.98010e+03,-1.89400e+00,-1.42074e+01,1.92414e-03,3.21460e-02,5.57117e-02
1.98010e+03,-1.53709e+00,-1.27867e+01,2.22987e-03,3.23256e-02,5.60339e-02
1.98010e+03,-1.17550e+00,-1.13660e+01,2.53331e-03,3.25045e-02,5.63564e-02
1.98010e+03,-8.13129e-01,-9.94521e+00,2.83637e-03,3.26827e-02,5.66791e-02
1.98010e+03,-4.47961e-01,-8.52447e+00,3.13806e-03,3.28600e-02,5.70017e-02
1.98010e+03,-8.28294e-02,-7.10372e+00,3.43977e-03,3.30365e-02,5.73242e-02
1.98010e+03,2.80922e-01,-5.68298e+00,3.74215e-03,3.32121e-02,5.76466e-02
1.98010e+03,6.44673e-01,-4.26223e+00,4.04454e-03,3.33868e-02,5.79688e-02
1.98010e+03,9.99811e-01,-2.84149e+00,4.35113e-03,3.35606e-02,5.82913e-02
1.98010e+03,1.35334e+00,-1.42074e+00,4.65851e-03,3.37337e-02,5.86139e-02
2.00520e+03,1.68635e+01,0.00000e+00,-1.07041e-03,2.13485e-02,3.69921e-02
2.00520e+03,1.67786e+01,-1.28145e+00,-1.25161e-03,2.12631e-02,3.68500e-02
2.00520e+03,1.66656e+01,-2.56290e+00,-1.42733e-03,2.11756e-02,3.67051e-02
2.00520e+03,1.65515e+01,-3.84435e+00,-1.60284e-03,2.10862e-02,3.65575e-02
2.00520e+03,1.64126e+01,-5.12580e+00,-1.77352e-03,2.09949e-02,3.64075e-02
2.00520e+03,1.62680e+01,-6.40725e+00,-1.94308e-03,2.09020e-02,3.62553e-02
2.00520e+03,1.61044e+01,-7.68870e+00,-2.10894e-03,2.08074e-02,3.61012e-02
2.00520e+03,1.59315e+01,-8.97015e+00,-2.27300e-03,2.07115e-02,3.59453e-02
2.00520e+03,1.57433e+01,-1.02516e+01,-2.43409e-03,2.06142e-02,3.57878e-02
2.00520e+03,1.55427e+01,-1.15330e+01,-2.59273e-03,2.05158e-02,3.56289e-02
2.00520e+03,1.53282e+01,-1.28145e+01,-2.74868e-03,2.04164e-02,3.54689e-02
2.00520e+03,1.50970e+01,-1.40959e+01,-2.90138e-03,2.03160e-02,3.53078e-02
2.00520e+03,1.48486e+01,-1.53774e+01,-3.05075e-03,2.02149e-02,3.51459e-02
2.00520e+03,1.45761e+01,-1.66588e+01,-3.19539e-03,2.01132e-02,3.49833e-02
2.00520e+03,1.42800e+01,-1.79403e+01,-3.33544e-03,2.00110e-02,3.48203e-02
2.00520e+03,1.39556e+01,-1.92217e+01,-3.47000e-03,1.99086e-02,3.46569e-02
2.00520e+03,1.35931e+01,-2.05032e+01,-3.59711e-03,1.98064e-02,3.44937e-02
2.00520e+03,1.32039e+01,-2.17846e+01,-3.71904e-03,1.97043e-02,3.43308e-02
2.00520e+03,1.27550e+01,-2.30661e+01,-3.82933e-03,1.96029e-02,3.41685e-02
2.00520e+03,1.22812e+01,-2.43475e+01,-3.93478e-03,1.95025e-02,3.40077e-02
2.00520e+03,1.17384e+01,-2.56290e+01,-4.02678e-03,1.94033e-02,3.38479e-02
2.00520e+03,1.11403e+01,-2.69104e+01,-4.10800e-03,1.93062e-02,3.36907e-02
2.00520e+03,1.04858e+01,-2.81919e+01,-4.17824e-03,1.92112e-02,3.35362e-02
2.00520e+03,9.73672e+00,-2.94733e+01,-4.23007e-03,1.91189e-02,3.33840e-02
2.00520e+03,8.87814e+00,-3.07548e+01,-4.26056e-03,1.90302e-02,3.32355e-02
2.00520e+03,7.89577e+00,-3.20362e+01,-4.26694e-03,1.89463e-02,3.30922e-02
2.00520e+03,6.73385e+00,-3.33177e+01,-4.23834e-03,1.88678e-02,3.29537e-02
2.00520e+03,5.24243e+00,-3.45991e+01,-4.14556e-03,1.87986e-02,3.28230e-02
2.00520e+03,3.22533e+00,-3.58806e+01,-3.95038e-03,1.87563e-02,3.27262e-02
2.00520e+03,-1.30688e+00,-3.71620e+01,-3.26528e-03,1.87731e-02,3.26794e-02
2.00520e+03,-1.63397e+00,-3.71650e+01,-3.20203e-03,1.88251e-02,3.27628e-02
2.00520e+03,-4.61400e+00,-3.58377e+01,-2.41673e-03,1.89237e-02,3.28657e-02
2.00520e+03,-4.97481e+00,-3.45104e+01,-2.14163e-03,1.89965e-02,3.29726e-02
2.00520e+03,-5.09932e+00,-3.31830e+01,-1.91257e-03,1.90732e-02,3.30911e-02
2.00520e+03,-5.11821e+00,-3.18557e+01,-1.70408e-03,1.91534e-02,3.32185e-02
2.00520e+03,-5.05754e+00,-3.05284e+01,-1.51108e-03,1.92366e-02,3.33530e-02
2.00520e+03,-4.94693e+00,-2.92011e+01,-1.32782e-03,1.93222e-02,3.34934e-02
2.00520e+03,-4.78618e+00,-2.78738e+01,-1.15432e-03,1.94097e-02,3.36385e-02
2.00520e+03,-4.59485e+00,-2.65464e+01,-9.86774e-04,1.94988e-02,3.37873e-02
2.00520e+03,-4.38577e+00,-2.52191e+01,-8.22687e-04,1.95891e-02,3.39394e-02
2.00520e+03,-4.14998e+00,-2.38918e+01,-6.63805e-04,1.96805e-02,3.40941e-02
2.00520e+03,-3.89748e+00,-2.25645e+01,-5.08177e-04,1.97727e-02,3.42510e-02
2.00520e+03,-3.62871e+00,-2.12371e+01,-3.55718e-04,1.98654e-02,3.44098e-02
2.00520e+03,-3.34375e+00,-1.99098e+01,-2.06414e-04,1.99586e-02,3.45699e-02
2.00520e+03,-3.04862e+00,-1.85825e+01,-5.90894e-05,2.00520e-02,3.47311e-02
2.00520e+03,-2.74048e+00,-1.72552e+01,8.57006e-05,2.01455e-02,3.48932e-02
2.00520e+03,-2.42401e+00,-1.59279e+01,2.28867e-04,2.02390e-02,3.50558e-02
2.00520e+03,-2.10007e+00,-1.46005e+01,3.70579e-04,2.03324e-02,3.52187e-02
2.00520e+03,-1.76946e+00,-1.32732e+01,5.10991e-04,2.04255e-02,3.53817e-02
2.00520e+03,-1.43602e+00,-1.19459e+01,6.50853e-04,2.05183e-02,3.55447e-02
2.00520e+03,-1.09820e+00,-1.06186e+01,7.89862e-04,2.06107e-02,3.57076e-02
2.00520e+03,-7.59661e-01,-9.29125e+00,9.28730e-04,2.07028e-02,3.58703e-02
2.00520e+03,-4.18505e-01,-7.96393e+00,1.06709e-03,2.07944e-02,3.60328e-02
2.00520e+03,-7.73829e-02,-6.63661e+00,1.20545e-03,2.08856e-02,3.61950e-02
2.00520e+03,2.62450e-01,-5.30929e+00,1.34407e-03,2.09763e-02,3.63569e-02
2.00520e+03,6.02282e-01,-3.98196e+00,1.48269e-03,2.10665e-02,3.65184e-02
2.00520e+03,9.34067e-01,-2.65464e+00,1.62287e-03,2.11563e-02,3.66798e-02
2.00520e+03,1.26435e+00,-1.32732e+00,1.76335e-03,2.12458e-02,3.68410e-02
2.02480e+03,1.59367e+01,0.00000e+00,-2.72664e-04,1.16112e-02,2.01131e-02
2.02480e+03,1.58564e+01,-1.21102e+00,-3.32903e-04,1.15745e-02,2.00504e-02
2.02480e+03,1.57496e+01,-2.42204e+00,-3.91632e-04,1.15368e-02,1.99862e-02
2.02480e+03,1.56418e+01,-3.63306e+00,-4.50300e-04,1.14983e-02,1.99208e-02
2.02480e+03,1.55106e+01,-4.84408e+00,-5.07634e-04,1.14591e-02,1.98542e-02
2.02480e+03,1.53739e+01,-6.05509e+00,-5.64659e-04,1.14191e-02,1.97864e-02
2.02480e+03,1.52192e+01,-7.26611e+00,-6.20661e-04,1.13784e-02,1.97177e-02
2.02480e+03,1.50559e+01,-8.47713e+00,-6.76166e-04,1.13371e-02,1.96480e-02
2.02480e+03,1.48781e+01,-9.68815e+00,-7.30848e-04,1.12952e-02,1.95776e-02
2.02480e+03,1.46884e+01,-1.08992e+01,-7.84855e-04,1.12529e-02,1.95064e-02
2.02480e+03,1.44857e+01,-1.21102e+01,-8.38119e-04,1.12101e-02,1.94345e-02
2.02480e+03,1.42672e+01,-1.33212e+01,-8.90484e-04,1.11669e-02,1.93621e-02
2.02480e+03,1.40325e+01,-1.45322e+01,-9.41927e-04,1.11234e-02,1.92893e-02
2.02480e+03,1.37750e+01,-1.57432e+01,-9.92067e-04,1.10796e-02,1.92161e-02
2.02480e+03,1.34951e+01,-1.69543e+01,-1.04094e-03,1.10357e-02,1.91426e-02
2.02480e+03,1.31886e+01,-1.81653e+01,-1.08829e-03,1.09916e-02,1.90691e-02
2.02480e+03,1.28460e+01,-1.93763e+01,-1.13358e-03,1.09476e-02,1.89956e-02
2.02480e+03,1.24782e+01,-2.05873e+01,-1.17744e-03,1.09036e-02,1.89223e-02
2.02480e+03,1.20540e+01,-2.17983e+01,-1.21809e-03,1.08600e-02,1.88495e-02
2.02480e+03,1.16063e+01,-2.30094e+01,-1.25739e-03,1.08168e-02,1.87774e-02
2.02480e+03,1.10933e+01,-2.42204e+01,-1.29298e-03,1.07741e-02,1.87061e-02
2.02480e+03,1.05280e+01,-2.54314e+01,-1.32559e-03,1.07323e-02,1.86362e-02
2.02480e+03,9.90946e+00,-2.66424e+01,-1.35517e-03,1.06915e-02,1.85677e-02
2.02480e+03,9.20158e+00,-2.78534e+01,-1.37966e-03,1.06518e-02,1.85009e-02
2.02480e+03,8.39019e+00,-2.90645e+01,-1.39825e-03,1.06136e-02,1.84364e-02
2.02480e+03,7.46181e+00,-3.02755e+01,-1.41018e-03,1.05775e-02,1.83749e-02
2.02480e+03,6.36374e+00,-3.14865e+01,-1.41244e-03,1.05437e-02,1.83168e-02
2.02480e+03,4.95429e+00,-3.26975e+01,-1.39697e-03,1.05140e-02,1.82642e-02
2.02480e+03,3.04806e+00,-3.39085e+01,-1.35319e-03,1.04958e-02,1.82295e-02
2.02480e+03,-1.23505e+00,-3.51195e+01,-1.17403e-03,1.05030e-02,1.82295e-02
2.02480e+03,-1.54416e+00,-3.51224e+01,-1.15657e-03,1.05254e-02,1.82671e-02
2.02480e+03,-4.36041e+00,-3.38680e+01,-9.29017e-04,1.05678e-02,1.83275e-02
2.02480e+03,-4.70139e+00,-3.26136e+01,-8.42463e-04,1.05992e-02,1.83776e-02
2.02480e+03,-4.81905e+00,-3.13592e+01,-7.68630e-04,1.06321e-02,1.84315e-02
2.02480e+03,-4.83691e+00,-3.01049e+01,-7.00483e-04,1.06667e-02,1.84885e-02
2.02480e+03,-4.77957e+00,-2.88505e+01,-6.36618e-04,1.07025e-02,1.85481e-02
2.02480e+03,-4.67504e+00,-2.75961e+01,-5.75442e-04,1.07393e-02,1.86099e-02
2.02480e+03,-4.52312e+00,-2.63418e+01,-5.16965e-04,1.07770e-02,1.86734e-02
2.02480e+03,-4.34231e+00,-2.50874e+01,-4.60134e-04,1.08153e-02,1.87383e-02
2.02480e+03,-4.14473e+00,-2.38330e+01,-4.04258e-04,1.08542e-02,1.88043e-02
2.02480e+03,-3.92189e+00,-2.25787e+01,-3.49821e-04,1.08935e-02,1.88713e-02
2.02480e+03,-3.68327e+00,-2.13243e+01,-2.96283e-04,1.09331e-02,1.89391e-02
2.02480e+03,-3.42927e+00,-2.00699e+01,-2.43620e-04,1.09730e-02,1.90074e-02
2.02480e+03,-3.15997e+00,-1.88155e+01,-1.91830e-04,1.10131e-02,1.90763e-02
2.02480e+03,-2.88106e+00,-1.75612e+01,-1.40586e-04,1.10533e-02,1.91454e-02
2.02480e+03,-2.58986e+00,-1.63068e+01,-9.00433e-05,1.10936e-02,1.92148e-02
2.02480e+03,-2.29078e+00,-1.50524e+01,-3.99489e-05,1.11338e-02,1.92843e-02
2.02480e+03,-1.98465e+00,-1.37981e+01,9.74327e-06,1.11740e-02,1.93539e-02
2.02480e+03,-1.67220e+00,-1.25437e+01,5.90764e-05,1.12140e-02,1.94234e-02
2.02480e+03,-1.35709e+00,-1.12893e+01,1.08257e-04,1.12540e-02,1.94927e-02
2.02480e+03,-1.03784e+00,-1.00350e+01,1.57203e-04,1.12937e-02,1.95620e-02
2.02480e+03,-7.17909e-01,-8.78059e+00,2.06109e-04,1.13333e-02,1.96310e-02
2.02480e+03,-3.95503e-01,-7.52622e+00,2.54875e-04,1.13728e-02,1.96998e-02
2.02480e+03,-7.31298e-02,-6.27185e+00,3.03642e-04,1.14120e-02,1.97685e-02
2.02480e+03,2.48025e-01,-5.01748e+00,3.52479e-04,1.14510e-02,1.98369e-02
2.02480e+03,5.69180e-01,-3.76311e+00,4.01316e-04,1.14898e-02,1.99050e-02
2.02480e+03,8.82730e-01,-2.50874e+00,4.50586e-04,1.15285e-02,1.99730e-02
2.02480e+03,1.19486e+00,-1.25437e+00,4.99937e-04,1.15669e-02,2.00408e-02
2.03880e+03,1.52746e+01,0.00000e+00,-3.92100e-05,4.87778e-03,8.44866e-03
2.03880e+03,1.51977e+01,-1.16071e+00,-5.24317e-05,4.86660e-03,8.42936e-03
2.03880e+03,1.50954e+01,-2.32142e+00,-6.53964e-05,4.85515e-03,8.40962e-03
2.03880e+03,1.49920e+01,-3.48213e+00,-7.83508e-05,4.84343e-03,8.38944e-03
2.03880e+03,1.48662e+01,-4.64285e+00,-9.10783e-05,4.83148e-03,8.36886e-03
2.03880e+03,1.47352e+01,-5.80356e+00,-1.03753e-04,4.81930e-03,8.34793e-03
2.03880e+03,1.45870e+01,-6.96427e+00,-1.16254e-04,4.80693e-03,8.32665e-03
2.03880e+03,1.44304e+01,-8.12498e+00,-1.28670e-04,4.79436e-03,8.30508e-03
2.03880e+03,1.42600e+01,-9.28569e+00,-1.40946e-04,4.78163e-03,8.28322e-03
2.03880e+03,1.40782e+01,-1.04464e+01,-1.53107e-04,4.76874e-03,8.26112e-03
2.03880e+03,1.38839e+01,-1.16071e+01,-1.65142e-04,4.75572e-03,8.23881e-03
2.03880e+03,1.36745e+01,-1.27678e+01,-1.77024e-04,4.74258e-03,8.21630e-03
2.03880e+03,1.34496e+01,-1.39285e+01,-1.88749e-04,4.72934e-03,8.19363e-03
2.03880e+03,1.32028e+01,-1.50892e+01,-2.00252e-04,4.71602e-03,8.17084e-03
2.03880e+03,1.29345e+01,-1.62500e+01,-2.11539e-04,4.70265e-03,8.14797e-03
2.03880e+03,1.26407e+01,-1.74107e+01,-2.22567e-04,4.68924e-03,8.12505e-03
2.03880e+03,1.23123e+01,-1.85714e+01,-2.33245e-04,4.67585e-03,8.10216e-03
2.03880e+03,1.19599e+01,-1.97321e+01,-2.43680e-04,4.66248e-03,8.07933e-03
2.03880e+03,1.15532e+01,-2.08928e+01,-2.53567e-04,4.64921e-03,8.05665e-03
2.03880e+03,1.11241e+01,-2.20535e+01,-2.63227e-04,4.63606e-03,8.03421e-03
2.03880e+03,1.06324e+01,-2.32142e+01,-2.72254e-04,4.62308e-03,8.01203e-03
2.03880e+03,1.00906e+01,-2.43749e+01,-2.80774e-04,4.61036e-03,7.99031e-03
2.03880e+03,9.49781e+00,-2.55357e+01,-2.88778e-04,4.59793e-03,7.96909e-03
2.03880e+03,8.81933e+00,-2.66964e+01,-2.95916e-04,4.58584e-03,7.94842e-03
2.03880e+03,8.04165e+00,-2.78571e+01,-3.02050e-04,4.57423e-03,7.92856e-03
2.03880e+03,7.15183e+00,-2.90178e+01,-3.07050e-04,4.56325e-03,7.90974e-03
2.03880e+03,6.09938e+00,-3.01785e+01,-3.10406e-04,4.55297e-03,7.89209e-03
2.03880e+03,4.74849e+00,-3.13392e+01,-3.10743e-04,4.54392e-03,7.87643e-03
2.03880e+03,2.92144e+00,-3.24999e+01,-3.06264e-04,4.53838e-03,7.86668e-03
2.03880e+03,-1.18374e+00,-3.36606e+01,-2.78744e-04,4.54058e-03,7.86945e-03
2.03880e+03,-1.48002e+00,-3.36633e+01,-2.75780e-04,4.54739e-03,7.88113e-03
2.03880e+03,-4.17927e+00,-3.24611e+01,-2.33980e-04,4.56030e-03,7.90214e-03
2.03880e+03,-4.50609e+00,-3.12588e+01,-2.16173e-04,4.56985e-03,7.91816e-03
2.03880e+03,-4.61886e+00,-3.00565e+01,-2.00532e-04,4.57989e-03,7.93513e-03
2.03880e+03,-4.63598e+00,-2.88543e+01,-1.85858e-04,4.59039e-03,7.95296e-03
2.03880e+03,-4.58102e+00,-2.76520e+01,-1.71913e-04,4.60128e-03,7.97150e-03
2.03880e+03,-4.48083e+00,-2.64498e+01,-1.58425e-04,4.61249e-03,7.99063e-03
2.03880e+03,-4.33523e+00,-2.52475e+01,-1.45397e-04,4.62395e-03,8.01023e-03
2.03880e+03,-4.16192e+00,-2.40452e+01,-1.32649e-04,4.63561e-03,8.03020e-03
2.03880e+03,-3.97255e+00,-2.28430e+01,-1.20063e-04,4.64744e-03,8.05049e-03
2.03880e+03,-3.75897e+00,-2.16407e+01,-1.07723e-04,4.65940e-03,8.07103e-03
2.03880e+03,-3.53026e+00,-2.04384e+01,-9.55348e-05,4.67146e-03,8.09177e-03
2.03880e+03,-3.28682e+00,-1.92362e+01,-8.34960e-05,4.68361e-03,8.11268e-03
2.03880e+03,-3.02870e+00,-1.80339e+01,-7.16057e-05,4.69580e-03,8.13369e-03
2.03880e+03,-2.76138e+00,-1.68317e+01,-5.98085e-05,4.70803e-03,8.15477e-03
2.03880e+03,-2.48228e+00,-1.56294e+01,-4.81304e-05,4.72028e-03,8.17590e-03
2.03880e+03,-2.19562e+00,-1.44271e+01,-3.65287e-05,4.73251e-03,8.19704e-03
2.03880e+03,-1.90220e+00,-1.32249e+01,-2.49955e-05,4.74474e-03,8.21816e-03
2.03880e+03,-1.60274e+00,-1.20226e+01,-1.35233e-05,4.75692e-03,8.23925e-03
2.03880e+03,-1.30072e+00,-1.08204e+01,-2.07701e-06,4.76907e-03,8.26028e-03
2.03880e+03,-9.94731e-01,-9.61809e+00,9.32918e-06,4.78117e-03,8.28124e-03
2.03880e+03,-6.88086e-01,-8.41583e+00,2.07287e-05,4.79322e-03,8.30213e-03
2.03880e+03,-3.79073e-01,-7.21357e+00,3.21043e-05,4.80522e-03,8.32294e-03
2.03880e+03,-7.00919e-02,-6.01131e+00,4.34802e-05,4.81715e-03,8.34366e-03
2.03880e+03,2.37722e-01,-4.80905e+00,5.48679e-05,4.82902e-03,8.36429e-03
2.03880e+03,5.45535e-01,-3.60678e+00,6.62556e-05,4.84083e-03,8.38483e-03
2.03880e+03,8.46060e-01,-2.40452e+00,7.77170e-05,4.85259e-03,8.40529e-03
2.03880e+03,1.14523e+00,-1.20226e+00,8.91921e-05,4.86429e-03,8.42567e-03
2.04720e+03,1.48774e+01,0.00000e+00,-3.16962e-06,1.10319e-03,1.91078e-03
2.04720e+03,1.48025e+01,-1.13053e+00,-5.36273e-06,1.10188e-03,1.90852e-03
2.04720e+03,1.47028e+01,-2.26105e+00,-7.52506e-06,1.10053e-03,1.90620e-03
2.04720e+03,1.46021e+01,-3.39158e+00,-9.68616e-06,1.09916e-03,1.90383e-03
2.04720e+03,1.44796e+01,-4.52211e+00,-1.18201e-05,1.09776e-03,1.90141e-03
2.04720e+03,1.43520e+01,-5.65264e+00,-1.39477e-05,1.09633e-03,1.89895e-03
2.04720e+03,1.42077e+01,-6.78316e+00,-1.60544e-05,1.09488e-03,1.89645e-03
2.04720e+03,1.40552e+01,-7.91369e+00,-1.81511e-05,1.09341e-03,1.89392e-03
2.04720e+03,1.38892e+01,-9.04422e+00,-2.02309e-05,1.09191e-03,1.89135e-03
2.04720e+03,1.37121e+01,-1.01747e+01,-2.22970e-05,1.09040e-03,1.88876e-03
2.04720e+03,1.35229e+01,-1.13053e+01,-2.43480e-05,1.08887e-03,1.88614e-03
2.04720e+03,1.33189e+01,-1.24358e+01,-2.63806e-05,1.08733e-03,1.88350e-03
2.04720e+03,1.30998e+01,-1.35663e+01,-2.83944e-05,1.08578e-03,1.88084e-03
2.04720e+03,1.28594e+01,-1.46969e+01,-3.03817e-05,1.08422e-03,1.87816e-03
2.04720e+03,1.25982e+01,-1.58274e+01,-3.23431e-05,1.08265e-03,1.87548e-03
2.04720e+03,1.23120e+01,-1.69579e+01,-3.42735e-05,1.08108e-03,1.87279e-03
2.04720e+03,1.19922e+01,-1.80884e+01,-3.61620e-05,1.07951e-03,1.87011e-03
2.04720e+03,1.16489e+01,-1.92190e+01,-3.80213e-05,1.07794e-03,1.86743e-03
2.04720e+03,1.12528e+01,-2.03495e+01,-3.98150e-05,1.07638e-03,1.86477e-03
2.04720e+03,1.08348e+01,-2.14800e+01,-4.15815e-05,1.07484e-03,1.86214e-03
2.04720e+03,1.03559e+01,-2.26105e+01,-4.32722e-05,1.07332e-03,1.85954e-03
2.04720e+03,9.82823e+00,-2.37411e+01,-4.49022e-05,1.07182e-03,1.85700e-03
2.04720e+03,9.25081e+00,-2.48716e+01,-4.64704e-05,1.07037e-03,1.85451e-03
2.04720e+03,8.58998e+00,-2.60021e+01,-4.79348e-05,1.06895e-03,1.85209e-03
2.04720e+03,7.83252e+00,-2.71326e+01,-4.92791e-05,1.06759e-03,1.84977e-03
2.04720e+03,6.96585e+00,-2.82632e+01,-5.04875e-05,1.06630e-03,1.84757e-03
2.04720e+03,5.94077e+00,-2.93937e+01,-5.14989e-05,1.06509e-03,1.84552e-03
2.04720e+03,4.62500e+00,-3.05242e+01,-5.21488e-05,1.06403e-03,1.84370e-03
2.04720e+03,2.84547e+00,-3.16548e+01,-5.22219e-05,1.06338e-03,1.84258e-03
2.04720e+03,-1.15296e+00,-3.27853e+01,-4.95353e-05,1.06364e-03,1.84295e-03
2.04720e+03,-1.44153e+00,-3.27879e+01,-4.91817e-05,1.06444e-03,1.84432e-03
2.04720e+03,-4.07059e+00,-3.16169e+01,-4.35438e-05,1.06595e-03,1.84680e-03
2.04720e+03,-4.38891e+00,-3.04459e+01,-4.07798e-05,1.06707e-03,1.84868e-03
2.04720e+03,-4.49875e+00,-2.92749e+01,-3.82750e-05,1.06825e-03,1.85066e-03
2.04720e+03,-4.51542e+00,-2.81039e+01,-3.58862e-05,1.06948e-03,1.85275e-03
2.04720e+03,-4.46189e+00,-2.69329e+01,-3.35846e-05,1.07076e-03,1.85492e-03
2.04720e+03,-4.36430e+00,-2.57619e+01,-3.13378e-05,1.07208e-03,1.85715e-03
2.04720e+03,-4.22249e+00,-2.45909e+01,-2.91461e-05,1.07342e-03,1.85945e-03
2.04720e+03,-4.05369e+00,-2.34199e+01,-2.69878e-05,1.07479e-03,1.86178e-03
2.04720e+03,-3.86924e+00,-2.22489e+01,-2.48491e-05,1.07617e-03,1.86415e-03
2.04720e+03,-3.66121e+00,-2.10779e+01,-2.27397e-05,1.07758e-03,1.86656e-03
2.04720e+03,-3.43845e+00,-1.99069e+01,-2.06486e-05,1.07899e-03,1.86898e-03
2.04720e+03,-3.20134e+00,-1.87359e+01,-1.85753e-05,1.08042e-03,1.87143e-03
2.04720e+03,-2.94994e+00,-1.75649e+01,-1.65199e-05,1.08185e-03,1.87389e-03
2.04720e+03,-2.68957e+00,-1.63940e+01,-1.44755e-05,1.08328e-03,1.87635e-03
2.04720e+03,-2.41772e+00,-1.52230e+01,-1.24455e-05,1.08472e-03,1.87883e-03
2.04720e+03,-2.13852e+00,-1.40520e+01,-1.04246e-05,1.08615e-03,1.88130e-03
2.04720e+03,-1.85273e+00,-1.28810e+01,-8.41190e-06,1.08759e-03,1.88377e-03
2.04720e+03,-1.56106e+00,-1.17100e+01,-6.40651e-06,1.08901e-03,1.88624e-03
2.04720e+03,-1.26689e+00,-1.05390e+01,-4.40422e-06,1.09044e-03,1.88870e-03
2.04720e+03,-9.68863e-01,-9.36797e+00,-2.40674e-06,1.09186e-03,1.89116e-03
2.04720e+03,-6.70192e-01,-8.19698e+00,-4.10054e-07,1.09327e-03,1.89360e-03
2.04720e+03,-3.69215e-01,-7.02598e+00,1.58376e-06,1.09468e-03,1.89604e-03
2.04720e+03,-6.82691e-02,-5.85498e+00,3.57762e-06,1.09608e-03,1.89846e-03
2.04720e+03,2.31540e-01,-4.68399e+00,5.57289e-06,1.09747e-03,1.90088e-03
2.04720e+03,5.31348e-01,-3.51299e+00,7.56816e-06,1.09885e-03,1.90329e-03
2.04720e+03,8.24058e-01,-2.34199e+00,9.57226e-06,1.10023e-03,1.90568e-03
2.04720e+03,1.11544e+00,-1.17100e+00,1.15780e-05,1.10161e-03,1.90807e-03
2.05000e+03,1.47450e+01,0.00000e+00,0.00000e+00,0.00000e+00,0.00000e+00
2.05000e+03,1.46708e+01,-1.12047e+00,0.00000e+00,0.00000e+00,0.00000e+00
2.05000e+03,1.45720e+01,-2.24093e+00,0.00000e+00,0.00000e+00,0.00000e+00
2.05000e+03,1.44722e+01,-3.36140e+00,0.00000e+00,0.00000e+00,0.00000e+00
2.05000e+03,1.43508e+01,-4.48186e+00,0.00000e+00,0.00000e+00,0.00000e+00
2.05000e+03,1.42243e+01,-5.60233e+00,0.00000e+00,0.00000e+00,0.00000e+00
2.05000e+03,1.40812e+01,-6.72279e+00,0.00000e+00,0.00000e+00,0.00000e+00
2.05000e+03,1.39301e+01,-7.84326e+00,0.00000e+00,0.00000e+00,0.00000e+00
2.05000e+03,1.37656e+01,-8.96372e+00,0.00000e+00,0.00000e+00,0.00000e+00
2.05000e+03,1.35901e+01,-1.00842e+01,0.00000e+00,0.00000e+00,0.00000e+00
2.05000e+03,1.34025e+01,-1.12047e+01,0.00000e+00,0.00000e+00,0.00000e+00
2.05000e+03,1.32004e+01,-1.23251e+01,0.00000e+00,0.00000e+00,0.00000e+00
2.05000e+03,1.29833e+01,-1.34456e+01,0.00000e+00,0.00000e+00,0.00000e+00
2.05000e+03,1.27450e+01,-1.45661e+01,0.00000e+00,0.00000e+00,0.00000e+00
2.05000e+03,1.24860e+01,-1.56865e+01,0.00000e+00,0.00000e+00,0.00000e+00
2.05000e+03,1.22024e+01,-1.68070e+01,0.00000e+00,0.00000e+00,0.00000e+00
2.05000e+03,1.18854e+01,-1.79274e+01,0.00000e+00,0.00000e+00,0.00000e+00
2.05000e+03,1.15452e+01,-1.90479e+01,0.00000e+00,0.00000e+00,0.00000e+00
2.05000e+03,1.11526e+01,-2.01684e+01,0.00000e+00,0.00000e+00,0.00000e+00
2.05000e+03,1.07384e+01,-2.12888e+01,0.00000e+00,0.00000e+00,0.00000e+00
2.05000e+03,1.02638e+01,-2.24093e+01,0.00000e+00,0.00000e+00,0.00000e+00
2.05000e+03,9.74076e+00,-2.35298e+01,0.00000e+00,0.00000e+00,0.00000e+00
2.05000e+03,9.16848e+00,-2.46502e+01,0.00000e+00,0.00000e+00,0.00000e+00
2.05000e+03,8.51353e+00,-2.57707e+01,0.00000e+00,0.00000e+00,0.00000e+00
2.05000e+03,7.76281e+00,-2.68912e+01,0.00000e+00,0.00000e+00,0.00000e+00
2.05000e+03,6.90385e+00,-2.80116e+01,0.00000e+00,0.00000e+00,0.00000e+00
2.05000e+03,5.88790e+00,-2.91321e+01,0.00000e+00,0.00000e+00,0.00000e+00
2.05000e+03,4.58384e+00,-3.02526e+01,0.00000e+00,0.00000e+00,0.00000e+00
2.05000e+03,2.82014e+00,-3.13730e+01,0.00000e+00,0.00000e+00,0.00000e+00
2.05000e+03,-1.14270e+00,-3.24935e+01,0.00000e+00,0.00000e+00,0.00000e+00
2.05000e+03,-1.42870e+00,-3.24961e+01,0.00000e+00,0.00000e+00,0.00000e+00
2.05000e+03,-4.03436e+00,-3.13355e+01,0.00000e+00,0.00000e+00,0.00000e+00
2.05000e+03,-4.34985e+00,-3.01749e+01,0.00000e+00,0.00000e+00,0.00000e+00
2.05000e+03,-4.45871e+00,-2.90144e+01,0.00000e+00,0.00000e+00,0.00000e+00
2.05000e+03,-4.47523e+00,-2.78538e+01,0.00000e+00,0.00000e+00,0.00000e+00
2.05000e+03,-4.42218e+00,-2.66932e+01,0.00000e+00,0.00000e+00,0.00000e+00
2.05000e+03,-4.32546e+00,-2.55327e+01,0.00000e+00,0.00000e+00,0.00000e+00
2.05000e+03,-4.18491e+00,-2.43721e+01,0.00000e+00,0.00000e+00,0.00000e+00
2.05000e+03,-4.01761e+00,-2.32115e+01,0.00000e+00,0.00000e+00,0.00000e+00
2.05000e+03,-3.83480e+00,-2.20509e+01,0.00000e+00,0.00000e+00,0.00000e+00
2.05000e+03,-3.62863e+00,-2.08903e+01,0.00000e+00,0.00000e+00,0.00000e+00
2.05000e+03,-3.40785e+00,-1.97298e+01,0.00000e+00,0.00000e+00,0.00000e+00
2.05000e+03,-3.17285e+00,-1.85692e+01,0.00000e+00,0.00000e+00,0.00000e+00
2.05000e+03,-2.92368e+00,-1.74086e+01,0.00000e+00,0.00000e+00,0.00000e+00
2.05000e+03,-2.66563e+00,-1.62480e+01,0.00000e+00,0.00000e+00,0.00000e+00
2.05000e+03,-2.39621e+00,-1.50875e+01,0.00000e+00,0.00000e+00,0.00000e+00
2.05000e+03,-2.11949e+00,-1.39269e+01,0.00000e+00,0.00000e+00,0.00000e+00
2.05000e+03,-1.83624e+00,-1.27663e+01,0.00000e+00,0.00000e+00,0.00000e+00
2.05000e+03,-1.54717e+00,-1.16057e+01,0.00000e+00,0.00000e+00,0.00000e+00
2.05000e+03,-1.25562e+00,-1.04452e+01,0.00000e+00,0.00000e+00,0.00000e+00
2.05000e+03,-9.60241e-01,-9.28460e+00,0.00000e+00,0.00000e+00,0.00000e+00
2.05000e+03,-6.64227e-01,-8.12402e+00,0.00000e+00,0.00000e+00,0.00000e+00
2.05000e+03,-3.65929e-01,-6.96345e+00,0.00000e+00,0.00000e+00,0.00000e+00
2.05000e+03,-6.76615e-02,-5.80287e+00,0.00000e+00,0.00000e+00,0.00000e+00
2.05000e+03,2.29479e-01,-4.64230e+00,0.00000e+00,0.00000e+00,0.00000e+00
2.05000e+03,5.26620e-01,-3.48173e+00,0.00000e+00,0.00000e+00,0.00000e+00
2.05000e+03,8.16724e-01,-2.32115e+00,0.00000e+00,0.00000e+00,0.00000e+00
2.05000e+03,1.10552e+00,-1.16058e+00,0.00000e+00,0.00000e+00,0.00000e+00
--------------------------------------------------------------------------------------------------------------------------------------------------------------------------------------------------------------------------------------------------------------------------------------------------------------------------------------------------------------------------------

LAMINADO 
--------------------------------------------------------------------------------------------------------------------------------------------------------------------------------------------------------------------------------------------------------------------------------------------------------------------------------------------------------------------------------
X,Y,Z,Sigma,Tau,Von Mises
0.00000e+00,4.31008e+01,0.00000e+00,0.00000e+00,0.00000e+00,0.00000e+00
0.00000e+00,4.28837e+01,-3.27521e+00,0.00000e+00,0.00000e+00,0.00000e+00
0.00000e+00,4.25950e+01,-6.55041e+00,0.00000e+00,0.00000e+00,0.00000e+00
0.00000e+00,4.23033e+01,-9.82562e+00,0.00000e+00,0.00000e+00,0.00000e+00
0.00000e+00,4.19484e+01,-1.31008e+01,0.00000e+00,0.00000e+00,0.00000e+00
0.00000e+00,4.15787e+01,-1.63760e+01,0.00000e+00,0.00000e+00,0.00000e+00
0.00000e+00,4.11605e+01,-1.96512e+01,0.00000e+00,0.00000e+00,0.00000e+00
0.00000e+00,4.07187e+01,-2.29264e+01,0.00000e+00,0.00000e+00,0.00000e+00
0.00000e+00,4.02378e+01,-2.62017e+01,0.00000e+00,0.00000e+00,0.00000e+00
0.00000e+00,3.97249e+01,-2.94769e+01,0.00000e+00,0.00000e+00,0.00000e+00
0.00000e+00,3.91766e+01,-3.27521e+01,0.00000e+00,0.00000e+00,0.00000e+00
0.00000e+00,3.85857e+01,-3.60273e+01,0.00000e+00,0.00000e+00,0.00000e+00
0.00000e+00,3.79511e+01,-3.93025e+01,0.00000e+00,0.00000e+00,0.00000e+00
0.00000e+00,3.72545e+01,-4.25777e+01,0.00000e+00,0.00000e+00,0.00000e+00
0.00000e+00,3.64976e+01,-4.58529e+01,0.00000e+00,0.00000e+00,0.00000e+00
0.00000e+00,3.56687e+01,-4.91281e+01,0.00000e+00,0.00000e+00,0.00000e+00
0.00000e+00,3.47420e+01,-5.24033e+01,0.00000e+00,0.00000e+00,0.00000e+00
0.00000e+00,3.37474e+01,-5.56785e+01,0.00000e+00,0.00000e+00,0.00000e+00
0.00000e+00,3.26000e+01,-5.89537e+01,0.00000e+00,0.00000e+00,0.00000e+00
0.00000e+00,3.13892e+01,-6.22289e+01,0.00000e+00,0.00000e+00,0.00000e+00
0.00000e+00,3.00018e+01,-6.55041e+01,0.00000e+00,0.00000e+00,0.00000e+00
0.00000e+00,2.84730e+01,-6.87793e+01,0.00000e+00,0.00000e+00,0.00000e+00
0.00000e+00,2.68002e+01,-7.20546e+01,0.00000e+00,0.00000e+00,0.00000e+00
0.00000e+00,2.48857e+01,-7.53298e+01,0.00000e+00,0.00000e+00,0.00000e+00
0.00000e+00,2.26913e+01,-7.86050e+01,0.00000e+00,0.00000e+00,0.00000e+00
0.00000e+00,2.01805e+01,-8.18802e+01,0.00000e+00,0.00000e+00,0.00000e+00
0.00000e+00,1.72108e+01,-8.51554e+01,0.00000e+00,0.00000e+00,0.00000e+00
0.00000e+00,1.33989e+01,-8.84306e+01,0.00000e+00,0.00000e+00,0.00000e+00
0.00000e+00,8.24350e+00,-9.17058e+01,0.00000e+00,0.00000e+00,0.00000e+00
0.00000e+00,-3.34020e+00,-9.49810e+01,0.00000e+00,0.00000e+00,0.00000e+00
0.00000e+00,-4.17620e+00,-9.49886e+01,0.00000e+00,0.00000e+00,0.00000e+00
0.00000e+00,-1.17928e+01,-9.15961e+01,0.00000e+00,0.00000e+00,0.00000e+00
0.00000e+00,-1.27149e+01,-8.82037e+01,0.00000e+00,0.00000e+00,0.00000e+00
0.00000e+00,-1.30332e+01,-8.48113e+01,0.00000e+00,0.00000e+00,0.00000e+00
0.00000e+00,-1.30814e+01,-8.14188e+01,0.00000e+00,0.00000e+00,0.00000e+00
0.00000e+00,-1.29264e+01,-7.80264e+01,0.00000e+00,0.00000e+00,0.00000e+00
0.00000e+00,-1.26437e+01,-7.46339e+01,0.00000e+00,0.00000e+00,0.00000e+00
0.00000e+00,-1.22328e+01,-7.12415e+01,0.00000e+00,0.00000e+00,0.00000e+00
0.00000e+00,-1.17438e+01,-6.78490e+01,0.00000e+00,0.00000e+00,0.00000e+00
0.00000e+00,-1.12094e+01,-6.44565e+01,0.00000e+00,0.00000e+00,0.00000e+00
0.00000e+00,-1.06068e+01,-6.10641e+01,0.00000e+00,0.00000e+00,0.00000e+00
0.00000e+00,-9.96142e+00,-5.76716e+01,0.00000e+00,0.00000e+00,0.00000e+00
0.00000e+00,-9.27449e+00,-5.42792e+01,0.00000e+00,0.00000e+00,0.00000e+00
0.00000e+00,-8.54615e+00,-5.08867e+01,0.00000e+00,0.00000e+00,0.00000e+00
0.00000e+00,-7.79185e+00,-4.74943e+01,0.00000e+00,0.00000e+00,0.00000e+00
0.00000e+00,-7.00429e+00,-4.41018e+01,0.00000e+00,0.00000e+00,0.00000e+00
0.00000e+00,-6.19544e+00,-4.07094e+01,0.00000e+00,0.00000e+00,0.00000e+00
0.00000e+00,-5.36748e+00,-3.73169e+01,0.00000e+00,0.00000e+00,0.00000e+00
0.00000e+00,-4.52248e+00,-3.39245e+01,0.00000e+00,0.00000e+00,0.00000e+00
0.00000e+00,-3.67026e+00,-3.05320e+01,0.00000e+00,0.00000e+00,0.00000e+00
0.00000e+00,-2.80686e+00,-2.71396e+01,0.00000e+00,0.00000e+00,0.00000e+00
0.00000e+00,-1.94159e+00,-2.37472e+01,0.00000e+00,0.00000e+00,0.00000e+00
0.00000e+00,-1.06964e+00,-2.03547e+01,0.00000e+00,0.00000e+00,0.00000e+00
0.00000e+00,-1.97780e-01,-1.69622e+01,0.00000e+00,0.00000e+00,0.00000e+00
0.00000e+00,6.70785e-01,-1.35698e+01,0.00000e+00,0.00000e+00,0.00000e+00
0.00000e+00,1.53935e+00,-1.01774e+01,0.00000e+00,0.00000e+00,0.00000e+00
0.00000e+00,2.38735e+00,-6.78490e+00,0.00000e+00,0.00000e+00,0.00000e+00
0.00000e+00,3.23151e+00,-3.39245e+00,0.00000e+00,0.00000e+00,0.00000e+00
1.07300e+02,4.26785e+01,0.00000e+00,0.00000e+00,0.00000e+00,0.00000e+00
1.07300e+02,4.24636e+01,-3.24312e+00,0.00000e+00,0.00000e+00,0.00000e+00
1.07300e+02,4.21777e+01,-6.48624e+00,0.00000e+00,0.00000e+00,0.00000e+00
1.07300e+02,4.18889e+01,-9.72936e+00,0.00000e+00,0.00000e+00,0.00000e+00
1.07300e+02,4.15374e+01,-1.29725e+01,0.00000e+00,0.00000e+00,0.00000e+00
1.07300e+02,4.11714e+01,-1.62156e+01,0.00000e+00,0.00000e+00,0.00000e+00
1.07300e+02,4.07572e+01,-1.94587e+01,0.00000e+00,0.00000e+00,0.00000e+00
1.07300e+02,4.03197e+01,-2.27018e+01,0.00000e+00,0.00000e+00,0.00000e+00
1.07300e+02,3.98436e+01,-2.59450e+01,0.00000e+00,0.00000e+00,0.00000e+00
1.07300e+02,3.93357e+01,-2.91881e+01,0.00000e+00,0.00000e+00,0.00000e+00
1.07300e+02,3.87928e+01,-3.24312e+01,0.00000e+00,0.00000e+00,0.00000e+00
1.07300e+02,3.82077e+01,-3.56743e+01,0.00000e+00,0.00000e+00,0.00000e+00
1.07300e+02,3.75793e+01,-3.89174e+01,0.00000e+00,0.00000e+00,0.00000e+00
1.07300e+02,3.68895e+01,-4.21606e+01,0.00000e+00,0.00000e+00,0.00000e+00
1.07300e+02,3.61401e+01,-4.54037e+01,0.00000e+00,0.00000e+00,0.00000e+00
1.07300e+02,3.53192e+01,-4.86468e+01,0.00000e+00,0.00000e+00,0.00000e+00
1.07300e+02,3.44016e+01,-5.18899e+01,0.00000e+00,0.00000e+00,0.00000e+00
1.07300e+02,3.34168e+01,-5.51330e+01,0.00000e+00,0.00000e+00,0.00000e+00
1.07300e+02,3.22806e+01,-5.83762e+01,0.00000e+00,0.00000e+00,0.00000e+00
1.07300e+02,3.10816e+01,-6.16193e+01,0.00000e+00,0.00000e+00,0.00000e+00
1.07300e+02,2.97079e+01,-6.48624e+01,0.00000e+00,0.00000e+00,0.00000e+00
1.07300e+02,2.81940e+01,-6.81055e+01,0.00000e+00,0.00000e+00,0.00000e+00
1.07300e+02,2.65376e+01,-7.13486e+01,0.00000e+00,0.00000e+00,0.00000e+00
1.07300e+02,2.46419e+01,-7.45918e+01,0.00000e+00,0.00000e+00,0.00000e+00
1.07300e+02,2.24690e+01,-7.78349e+01,0.00000e+00,0.00000e+00,0.00000e+00
1.07300e+02,1.99828e+01,-8.10780e+01,0.00000e+00,0.00000e+00,0.00000e+00
1.07300e+02,1.70422e+01,-8.43211e+01,0.00000e+00,0.00000e+00,0.00000e+00
1.07300e+02,1.32676e+01,-8.75642e+01,0.00000e+00,0.00000e+00,0.00000e+00
1.07300e+02,8.16273e+00,-9.08074e+01,0.00000e+00,0.00000e+00,0.00000e+00
1.07300e+02,-3.30748e+00,-9.40505e+01,0.00000e+00,0.00000e+00,0.00000e+00
1.07300e+02,-4.13529e+00,-9.40580e+01,0.00000e+00,0.00000e+00,0.00000e+00
1.07300e+02,-1.16772e+01,-9.06988e+01,0.00000e+00,0.00000e+00,0.00000e+00
1.07300e+02,-1.25904e+01,-8.73396e+01,0.00000e+00,0.00000e+00,0.00000e+00
1.07300e+02,-1.29055e+01,-8.39804e+01,0.00000e+00,0.00000e+00,0.00000e+00
1.07300e+02,-1.29533e+01,-8.06211e+01,0.00000e+00,0.00000e+00,0.00000e+00
1.07300e+02,-1.27997e+01,-7.72619e+01,0.00000e+00,0.00000e+00,0.00000e+00
1.07300e+02,-1.25198e+01,-7.39027e+01,0.00000e+00,0.00000e+00,0.00000e+00
1.07300e+02,-1.21130e+01,-7.05435e+01,0.00000e+00,0.00000e+00,0.00000e+00
1.07300e+02,-1.16287e+01,-6.71843e+01,0.00000e+00,0.00000e+00,0.00000e+00
1.07300e+02,-1.10996e+01,-6.38251e+01,0.00000e+00,0.00000e+00,0.00000e+00
1.07300e+02,-1.05029e+01,-6.04659e+01,0.00000e+00,0.00000e+00,0.00000e+00
1.07300e+02,-9.86382e+00,-5.71066e+01,0.00000e+00,0.00000e+00,0.00000e+00
1.07300e+02,-9.18363e+00,-5.37474e+01,0.00000e+00,0.00000e+00,0.00000e+00
1.07300e+02,-8.46243e+00,-5.03882e+01,0.00000e+00,0.00000e+00,0.00000e+00
1.07300e+02,-7.71552e+00,-4.70290e+01,0.00000e+00,0.00000e+00,0.00000e+00
1.07300e+02,-6.93567e+00,-4.36698e+01,0.00000e+00,0.00000e+00,0.00000e+00
1.07300e+02,-6.13474e+00,-4.03106e+01,0.00000e+00,0.00000e+00,0.00000e+00
1.07300e+02,-5.31490e+00,-3.69514e+01,0.00000e+00,0.00000e+00,0.00000e+00
1.07300e+02,-4.47818e+00,-3.35921e+01,0.00000e+00,0.00000e+00,0.00000e+00
1.07300e+02,-3.63431e+00,-3.02329e+01,0.00000e+00,0.00000e+00,0.00000e+00
1.07300e+02,-2.77936e+00,-2.68737e+01,0.00000e+00,0.00000e+00,0.00000e+00
1.07300e+02,-1.92257e+00,-2.35145e+01,0.00000e+00,0.00000e+00,0.00000e+00
1.07300e+02,-1.05916e+00,-2.01553e+01,0.00000e+00,0.00000e+00,0.00000e+00
1.07300e+02,-1.95842e-01,-1.67961e+01,0.00000e+00,0.00000e+00,0.00000e+00
1.07300e+02,6.64213e-01,-1.34369e+01,0.00000e+00,0.00000e+00,0.00000e+00
1.07300e+02,1.52427e+00,-1.00776e+01,0.00000e+00,0.00000e+00,0.00000e+00
1.07300e+02,2.36396e+00,-6.71843e+00,0.00000e+00,0.00000e+00,0.00000e+00
1.07300e+02,3.19985e+00,-3.35921e+00,0.00000e+00,0.00000e+00,0.00000e+00
2.14300e+02,4.22575e+01,0.00000e+00,0.00000e+00,0.00000e+00,0.00000e+00
2.14300e+02,4.20447e+01,-3.21112e+00,0.00000e+00,0.00000e+00,0.00000e+00
2.14300e+02,4.17615e+01,-6.42224e+00,0.00000e+00,0.00000e+00,0.00000e+00
2.14300e+02,4.14756e+01,-9.63337e+00,0.00000e+00,0.00000e+00,0.00000e+00
2.14300e+02,4.11276e+01,-1.28445e+01,0.00000e+00,0.00000e+00,0.00000e+00
2.14300e+02,4.07652e+01,-1.60556e+01,0.00000e+00,0.00000e+00,0.00000e+00
2.14300e+02,4.03551e+01,-1.92667e+01,0.00000e+00,0.00000e+00,0.00000e+00
2.14300e+02,3.99219e+01,-2.24779e+01,0.00000e+00,0.00000e+00,0.00000e+00
2.14300e+02,3.94505e+01,-2.56890e+01,0.00000e+00,0.00000e+00,0.00000e+00
2.14300e+02,3.89476e+01,-2.89001e+01,0.00000e+00,0.00000e+00,0.00000e+00
2.14300e+02,3.84101e+01,-3.21112e+01,0.00000e+00,0.00000e+00,0.00000e+00
2.14300e+02,3.78307e+01,-3.53223e+01,0.00000e+00,0.00000e+00,0.00000e+00
2.14300e+02,3.72085e+01,-3.85335e+01,0.00000e+00,0.00000e+00,0.00000e+00
2.14300e+02,3.65256e+01,-4.17446e+01,0.00000e+00,0.00000e+00,0.00000e+00
2.14300e+02,3.57835e+01,-4.49557e+01,0.00000e+00,0.00000e+00,0.00000e+00
2.14300e+02,3.49707e+01,-4.81668e+01,0.00000e+00,0.00000e+00,0.00000e+00
2.14300e+02,3.40622e+01,-5.13780e+01,0.00000e+00,0.00000e+00,0.00000e+00
2.14300e+02,3.30871e+01,-5.45891e+01,0.00000e+00,0.00000e+00,0.00000e+00
2.14300e+02,3.19621e+01,-5.78002e+01,0.00000e+00,0.00000e+00,0.00000e+00
2.14300e+02,3.07750e+01,-6.10113e+01,0.00000e+00,0.00000e+00,0.00000e+00
2.14300e+02,2.94148e+01,-6.42224e+01,0.00000e+00,0.00000e+00,0.00000e+00
2.14300e+02,2.79159e+01,-6.74336e+01,0.00000e+00,0.00000e+00,0.00000e+00
2.14300e+02,2.62758e+01,-7.06447e+01,0.00000e+00,0.00000e+00,0.00000e+00
2.14300e+02,2.43988e+01,-7.38558e+01,0.00000e+00,0.00000e+00,0.00000e+00
2.14300e+02,2.22473e+01,-7.70669e+01,0.00000e+00,0.00000e+00,0.00000e+00
2.14300e+02,1.97856e+01,-8.02781e+01,0.00000e+00,0.00000e+00,0.00000e+00
2.14300e+02,1.68740e+01,-8.34892e+01,0.00000e+00,0.00000e+00,0.00000e+00
2.14300e+02,1.31367e+01,-8.67003e+01,0.00000e+00,0.00000e+00,0.00000e+00
2.14300e+02,8.08220e+00,-8.99114e+01,0.00000e+00,0.00000e+00,0.00000e+00
2.14300e+02,-3.27484e+00,-9.31226e+01,0.00000e+00,0.00000e+00,0.00000e+00
2.14300e+02,-4.09449e+00,-9.31300e+01,0.00000e+00,0.00000e+00,0.00000e+00
2.14300e+02,-1.15620e+01,-8.98039e+01,0.00000e+00,0.00000e+00,0.00000e+00
2.14300e+02,-1.24661e+01,-8.64779e+01,0.00000e+00,0.00000e+00,0.00000e+00
2.14300e+02,-1.27781e+01,-8.31518e+01,0.00000e+00,0.00000e+00,0.00000e+00
2.14300e+02,-1.28255e+01,-7.98257e+01,0.00000e+00,0.00000e+00,0.00000e+00
2.14300e+02,-1.26734e+01,-7.64996e+01,0.00000e+00,0.00000e+00,0.00000e+00
2.14300e+02,-1.23963e+01,-7.31736e+01,0.00000e+00,0.00000e+00,0.00000e+00
2.14300e+02,-1.19935e+01,-6.98475e+01,0.00000e+00,0.00000e+00,0.00000e+00
2.14300e+02,-1.15140e+01,-6.65214e+01,0.00000e+00,0.00000e+00,0.00000e+00
2.14300e+02,-1.09901e+01,-6.31954e+01,0.00000e+00,0.00000e+00,0.00000e+00
2.14300e+02,-1.03992e+01,-5.98693e+01,0.00000e+00,0.00000e+00,0.00000e+00
2.14300e+02,-9.76651e+00,-5.65432e+01,0.00000e+00,0.00000e+00,0.00000e+00
2.14300e+02,-9.09302e+00,-5.32171e+01,0.00000e+00,0.00000e+00,0.00000e+00
2.14300e+02,-8.37893e+00,-4.98911e+01,0.00000e+00,0.00000e+00,0.00000e+00
2.14300e+02,-7.63939e+00,-4.65650e+01,0.00000e+00,0.00000e+00,0.00000e+00
2.14300e+02,-6.86724e+00,-4.32389e+01,0.00000e+00,0.00000e+00,0.00000e+00
2.14300e+02,-6.07421e+00,-3.99129e+01,0.00000e+00,0.00000e+00,0.00000e+00
2.14300e+02,-5.26246e+00,-3.65868e+01,0.00000e+00,0.00000e+00,0.00000e+00
2.14300e+02,-4.43399e+00,-3.32607e+01,0.00000e+00,0.00000e+00,0.00000e+00
2.14300e+02,-3.59845e+00,-2.99346e+01,0.00000e+00,0.00000e+00,0.00000e+00
2.14300e+02,-2.75194e+00,-2.66086e+01,0.00000e+00,0.00000e+00,0.00000e+00
2.14300e+02,-1.90360e+00,-2.32825e+01,0.00000e+00,0.00000e+00,0.00000e+00
2.14300e+02,-1.04871e+00,-1.99564e+01,0.00000e+00,0.00000e+00,0.00000e+00
2.14300e+02,-1.93910e-01,-1.66304e+01,0.00000e+00,0.00000e+00,0.00000e+00
2.14300e+02,6.57660e-01,-1.33043e+01,0.00000e+00,0.00000e+00,0.00000e+00
2.14300e+02,1.50923e+00,-9.97821e+00,0.00000e+00,0.00000e+00,0.00000e+00
2.14300e+02,2.34063e+00,-6.65214e+00,0.00000e+00,0.00000e+00,0.00000e+00
2.14300e+02,3.16828e+00,-3.32607e+00,0.00000e+00,0.00000e+00,0.00000e+00
3.20700e+02,4.18388e+01,0.00000e+00,0.00000e+00,0.00000e+00,0.00000e+00
3.20700e+02,4.16280e+01,-3.17930e+00,0.00000e+00,0.00000e+00,0.00000e+00
3.20700e+02,4.13477e+01,-6.35861e+00,0.00000e+00,0.00000e+00,0.00000e+00
3.20700e+02,4.10646e+01,-9.53791e+00,0.00000e+00,0.00000e+00,0.00000e+00
3.20700e+02,4.07201e+01,-1.27172e+01,0.00000e+00,0.00000e+00,0.00000e+00
3.20700e+02,4.03613e+01,-1.58965e+01,0.00000e+00,0.00000e+00,0.00000e+00
3.20700e+02,3.99553e+01,-1.90758e+01,0.00000e+00,0.00000e+00,0.00000e+00
3.20700e+02,3.95264e+01,-2.22551e+01,0.00000e+00,0.00000e+00,0.00000e+00
3.20700e+02,3.90596e+01,-2.54344e+01,0.00000e+00,0.00000e+00,0.00000e+00
3.20700e+02,3.85617e+01,-2.86137e+01,0.00000e+00,0.00000e+00,0.00000e+00
3.20700e+02,3.80295e+01,-3.17930e+01,0.00000e+00,0.00000e+00,0.00000e+00
3.20700e+02,3.74559e+01,-3.49724e+01,0.00000e+00,0.00000e+00,0.00000e+00
3.20700e+02,3.68398e+01,-3.81517e+01,0.00000e+00,0.00000e+00,0.00000e+00
3.20700e+02,3.61637e+01,-4.13310e+01,0.00000e+00,0.00000e+00,0.00000e+00
3.20700e+02,3.54289e+01,-4.45103e+01,0.00000e+00,0.00000e+00,0.00000e+00
3.20700e+02,3.46242e+01,-4.76896e+01,0.00000e+00,0.00000e+00,0.00000e+00
3.20700e+02,3.37247e+01,-5.08689e+01,0.00000e+00,0.00000e+00,0.00000e+00
3.20700e+02,3.27593e+01,-5.40482e+01,0.00000e+00,0.00000e+00,0.00000e+00
3.20700e+02,3.16454e+01,-5.72275e+01,0.00000e+00,0.00000e+00,0.00000e+00
3.20700e+02,3.04701e+01,-6.04068e+01,0.00000e+00,0.00000e+00,0.00000e+00
3.20700e+02,2.91233e+01,-6.35861e+01,0.00000e+00,0.00000e+00,0.00000e+00
3.20700e+02,2.76393e+01,-6.67654e+01,0.00000e+00,0.00000e+00,0.00000e+00
3.20700e+02,2.60154e+01,-6.99447e+01,0.00000e+00,0.00000e+00,0.00000e+00
3.20700e+02,2.41570e+01,-7.31240e+01,0.00000e+00,0.00000e+00,0.00000e+00
3.20700e+02,2.20269e+01,-7.63033e+01,0.00000e+00,0.00000e+00,0.00000e+00
3.20700e+02,1.95896e+01,-7.94826e+01,0.00000e+00,0.00000e+00,0.00000e+00
3.20700e+02,1.67068e+01,-8.26619e+01,0.00000e+00,0.00000e+00,0.00000e+00
3.20700e+02,1.30066e+01,-8.58412e+01,0.00000e+00,0.00000e+00,0.00000e+00
3.20700e+02,8.00212e+00,-8.90205e+01,0.00000e+00,0.00000e+00,0.00000e+00
3.20700e+02,-3.24239e+00,-9.21998e+01,0.00000e+00,0.00000e+00,0.00000e+00
3.20700e+02,-4.05392e+00,-9.22072e+01,0.00000e+00,0.00000e+00,0.00000e+00
3.20700e+02,-1.14474e+01,-8.89141e+01,0.00000e+00,0.00000e+00,0.00000e+00
3.20700e+02,-1.23426e+01,-8.56210e+01,0.00000e+00,0.00000e+00,0.00000e+00
3.20700e+02,-1.26515e+01,-8.23279e+01,0.00000e+00,0.00000e+00,0.00000e+00
3.20700e+02,-1.26984e+01,-7.90348e+01,0.00000e+00,0.00000e+00,0.00000e+00
3.20700e+02,-1.25479e+01,-7.57416e+01,0.00000e+00,0.00000e+00,0.00000e+00
3.20700e+02,-1.22734e+01,-7.24485e+01,0.00000e+00,0.00000e+00,0.00000e+00
3.20700e+02,-1.18746e+01,-6.91554e+01,0.00000e+00,0.00000e+00,0.00000e+00
3.20700e+02,-1.13999e+01,-6.58623e+01,0.00000e+00,0.00000e+00,0.00000e+00
3.20700e+02,-1.08812e+01,-6.25692e+01,0.00000e+00,0.00000e+00,0.00000e+00
3.20700e+02,-1.02962e+01,-5.92761e+01,0.00000e+00,0.00000e+00,0.00000e+00
3.20700e+02,-9.66973e+00,-5.59829e+01,0.00000e+00,0.00000e+00,0.00000e+00
3.20700e+02,-9.00292e+00,-5.26898e+01,0.00000e+00,0.00000e+00,0.00000e+00
3.20700e+02,-8.29591e+00,-4.93967e+01,0.00000e+00,0.00000e+00,0.00000e+00
3.20700e+02,-7.56370e+00,-4.61036e+01,0.00000e+00,0.00000e+00,0.00000e+00
3.20700e+02,-6.79920e+00,-4.28105e+01,0.00000e+00,0.00000e+00,0.00000e+00
3.20700e+02,-6.01403e+00,-3.95174e+01,0.00000e+00,0.00000e+00,0.00000e+00
3.20700e+02,-5.21032e+00,-3.62243e+01,0.00000e+00,0.00000e+00,0.00000e+00
3.20700e+02,-4.39006e+00,-3.29311e+01,0.00000e+00,0.00000e+00,0.00000e+00
3.20700e+02,-3.56279e+00,-2.96380e+01,0.00000e+00,0.00000e+00,0.00000e+00
3.20700e+02,-2.72467e+00,-2.63449e+01,0.00000e+00,0.00000e+00,0.00000e+00
3.20700e+02,-1.88474e+00,-2.30518e+01,0.00000e+00,0.00000e+00,0.00000e+00
3.20700e+02,-1.03832e+00,-1.97587e+01,0.00000e+00,0.00000e+00,0.00000e+00
3.20700e+02,-1.91989e-01,-1.64656e+01,0.00000e+00,0.00000e+00,0.00000e+00
3.20700e+02,6.51143e-01,-1.31725e+01,0.00000e+00,0.00000e+00,0.00000e+00
3.20700e+02,1.49428e+00,-9.87934e+00,0.00000e+00,0.00000e+00,0.00000e+00
3.20700e+02,2.31744e+00,-6.58623e+00,0.00000e+00,0.00000e+00,0.00000e+00
3.20700e+02,3.13689e+00,-3.29311e+00,0.00000e+00,0.00000e+00,0.00000e+00
4.26200e+02,4.14236e+01,0.00000e+00,0.00000e+00,0.00000e+00,0.00000e+00
4.26200e+02,4.12150e+01,-3.14776e+00,0.00000e+00,0.00000e+00,0.00000e+00
4.26200e+02,4.09374e+01,-6.29551e+00,0.00000e+00,0.00000e+00,0.00000e+00
4.26200e+02,4.06571e+01,-9.44327e+00,0.00000e+00,0.00000e+00,0.00000e+00
4.26200e+02,4.03160e+01,-1.25910e+01,0.00000e+00,0.00000e+00,0.00000e+00
4.26200e+02,3.99607e+01,-1.57388e+01,0.00000e+00,0.00000e+00,0.00000e+00
4.26200e+02,3.95588e+01,-1.88865e+01,0.00000e+00,0.00000e+00,0.00000e+00
4.26200e+02,3.91341e+01,-2.20343e+01,0.00000e+00,0.00000e+00,0.00000e+00
4.26200e+02,3.86720e+01,-2.51820e+01,0.00000e+00,0.00000e+00,0.00000e+00
4.26200e+02,3.81790e+01,-2.83298e+01,0.00000e+00,0.00000e+00,0.00000e+00
4.26200e+02,3.76521e+01,-3.14776e+01,0.00000e+00,0.00000e+00,0.00000e+00
4.26200e+02,3.70842e+01,-3.46253e+01,0.00000e+00,0.00000e+00,0.00000e+00
4.26200e+02,3.64743e+01,-3.77731e+01,0.00000e+00,0.00000e+00,0.00000e+00
4.26200e+02,3.58048e+01,-4.09208e+01,0.00000e+00,0.00000e+00,0.00000e+00
4.26200e+02,3.50774e+01,-4.40686e+01,0.00000e+00,0.00000e+00,0.00000e+00
4.26200e+02,3.42806e+01,-4.72163e+01,0.00000e+00,0.00000e+00,0.00000e+00
4.26200e+02,3.33901e+01,-5.03641e+01,0.00000e+00,0.00000e+00,0.00000e+00
4.26200e+02,3.24342e+01,-5.35118e+01,0.00000e+00,0.00000e+00,0.00000e+00
4.26200e+02,3.13314e+01,-5.66596e+01,0.00000e+00,0.00000e+00,0.00000e+00
4.26200e+02,3.01677e+01,-5.98074e+01,0.00000e+00,0.00000e+00,0.00000e+00
4.26200e+02,2.88343e+01,-6.29551e+01,0.00000e+00,0.00000e+00,0.00000e+00
4.26200e+02,2.73650e+01,-6.61029e+01,0.00000e+00,0.00000e+00,0.00000e+00
4.26200e+02,2.57573e+01,-6.92506e+01,0.00000e+00,0.00000e+00,0.00000e+00
4.26200e+02,2.39173e+01,-7.23984e+01,0.00000e+00,0.00000e+00,0.00000e+00
4.26200e+02,2.18083e+01,-7.55461e+01,0.00000e+00,0.00000e+00,0.00000e+00
4.26200e+02,1.93952e+01,-7.86939e+01,0.00000e+00,0.00000e+00,0.00000e+00
4.26200e+02,1.65410e+01,-8.18417e+01,0.00000e+00,0.00000e+00,0.00000e+00
4.26200e+02,1.28775e+01,-8.49894e+01,0.00000e+00,0.00000e+00,0.00000e+00
4.26200e+02,7.92271e+00,-8.81372e+01,0.00000e+00,0.00000e+00,0.00000e+00
4.26200e+02,-3.21022e+00,-9.12849e+01,0.00000e+00,0.00000e+00,0.00000e+00
4.26200e+02,-4.01369e+00,-9.12922e+01,0.00000e+00,0.00000e+00,0.00000e+00
4.26200e+02,-1.13339e+01,-8.80318e+01,0.00000e+00,0.00000e+00,0.00000e+00
4.26200e+02,-1.22201e+01,-8.47713e+01,0.00000e+00,0.00000e+00,0.00000e+00
4.26200e+02,-1.25260e+01,-8.15109e+01,0.00000e+00,0.00000e+00,0.00000e+00
4.26200e+02,-1.25724e+01,-7.82505e+01,0.00000e+00,0.00000e+00,0.00000e+00
4.26200e+02,-1.24233e+01,-7.49900e+01,0.00000e+00,0.00000e+00,0.00000e+00
4.26200e+02,-1.21516e+01,-7.17296e+01,0.00000e+00,0.00000e+00,0.00000e+00
4.26200e+02,-1.17568e+01,-6.84692e+01,0.00000e+00,0.00000e+00,0.00000e+00
4.26200e+02,-1.12868e+01,-6.52087e+01,0.00000e+00,0.00000e+00,0.00000e+00
4.26200e+02,-1.07732e+01,-6.19483e+01,0.00000e+00,0.00000e+00,0.00000e+00
4.26200e+02,-1.01940e+01,-5.86879e+01,0.00000e+00,0.00000e+00,0.00000e+00
4.26200e+02,-9.57378e+00,-5.54274e+01,0.00000e+00,0.00000e+00,0.00000e+00
4.26200e+02,-8.91358e+00,-5.21670e+01,0.00000e+00,0.00000e+00,0.00000e+00
4.26200e+02,-8.21359e+00,-4.89065e+01,0.00000e+00,0.00000e+00,0.00000e+00
4.26200e+02,-7.48864e+00,-4.56461e+01,0.00000e+00,0.00000e+00,0.00000e+00
4.26200e+02,-6.73173e+00,-4.23857e+01,0.00000e+00,0.00000e+00,0.00000e+00
4.26200e+02,-5.95435e+00,-3.91252e+01,0.00000e+00,0.00000e+00,0.00000e+00
4.26200e+02,-5.15861e+00,-3.58648e+01,0.00000e+00,0.00000e+00,0.00000e+00
4.26200e+02,-4.34650e+00,-3.26044e+01,0.00000e+00,0.00000e+00,0.00000e+00
4.26200e+02,-3.52744e+00,-2.93439e+01,0.00000e+00,0.00000e+00,0.00000e+00
4.26200e+02,-2.69763e+00,-2.60835e+01,0.00000e+00,0.00000e+00,0.00000e+00
4.26200e+02,-1.86603e+00,-2.28231e+01,0.00000e+00,0.00000e+00,0.00000e+00
4.26200e+02,-1.02802e+00,-1.95626e+01,0.00000e+00,0.00000e+00,0.00000e+00
4.26200e+02,-1.90083e-01,-1.63022e+01,0.00000e+00,0.00000e+00,0.00000e+00
4.26200e+02,6.44682e-01,-1.30417e+01,0.00000e+00,0.00000e+00,0.00000e+00
4.26200e+02,1.47945e+00,-9.78131e+00,0.00000e+00,0.00000e+00,0.00000e+00
4.26200e+02,2.29445e+00,-6.52087e+00,0.00000e+00,0.00000e+00,0.00000e+00
4.26200e+02,3.10576e+00,-3.26044e+00,0.00000e+00,0.00000e+00,0.00000e+00
5.30600e+02,4.10127e+01,0.00000e+00,0.00000e+00,0.00000e+00,0.00000e+00
5.30600e+02,4.08062e+01,-3.11654e+00,0.00000e+00,0.00000e+00,0.00000e+00
5.30600e+02,4.05314e+01,-6.23307e+00,0.00000e+00,0.00000e+00,0.00000e+00
5.30600e+02,4.02539e+01,-9.34961e+00,0.00000e+00,0.00000e+00,0.00000e+00
5.30600e+02,3.99161e+01,-1.24661e+01,0.00000e+00,0.00000e+00,0.00000e+00
5.30600e+02,3.95644e+01,-1.55827e+01,0.00000e+00,0.00000e+00,0.00000e+00
5.30600e+02,3.91664e+01,-1.86992e+01,0.00000e+00,0.00000e+00,0.00000e+00
5.30600e+02,3.87460e+01,-2.18158e+01,0.00000e+00,0.00000e+00,0.00000e+00
5.30600e+02,3.82884e+01,-2.49323e+01,0.00000e+00,0.00000e+00,0.00000e+00
5.30600e+02,3.78003e+01,-2.80488e+01,0.00000e+00,0.00000e+00,0.00000e+00
5.30600e+02,3.72787e+01,-3.11654e+01,0.00000e+00,0.00000e+00,0.00000e+00
5.30600e+02,3.67164e+01,-3.42819e+01,0.00000e+00,0.00000e+00,0.00000e+00
5.30600e+02,3.61125e+01,-3.73984e+01,0.00000e+00,0.00000e+00,0.00000e+00
5.30600e+02,3.54497e+01,-4.05150e+01,0.00000e+00,0.00000e+00,0.00000e+00
5.30600e+02,3.47295e+01,-4.36315e+01,0.00000e+00,0.00000e+00,0.00000e+00
5.30600e+02,3.39406e+01,-4.67480e+01,0.00000e+00,0.00000e+00,0.00000e+00
5.30600e+02,3.30589e+01,-4.98646e+01,0.00000e+00,0.00000e+00,0.00000e+00
5.30600e+02,3.21125e+01,-5.29811e+01,0.00000e+00,0.00000e+00,0.00000e+00
5.30600e+02,3.10206e+01,-5.60976e+01,0.00000e+00,0.00000e+00,0.00000e+00
5.30600e+02,2.98685e+01,-5.92142e+01,0.00000e+00,0.00000e+00,0.00000e+00
5.30600e+02,2.85484e+01,-6.23307e+01,0.00000e+00,0.00000e+00,0.00000e+00
5.30600e+02,2.70936e+01,-6.54473e+01,0.00000e+00,0.00000e+00,0.00000e+00
5.30600e+02,2.55018e+01,-6.85638e+01,0.00000e+00,0.00000e+00,0.00000e+00
5.30600e+02,2.36801e+01,-7.16803e+01,0.00000e+00,0.00000e+00,0.00000e+00
5.30600e+02,2.15920e+01,-7.47969e+01,0.00000e+00,0.00000e+00,0.00000e+00
5.30600e+02,1.92028e+01,-7.79134e+01,0.00000e+00,0.00000e+00,0.00000e+00
5.30600e+02,1.63770e+01,-8.10299e+01,0.00000e+00,0.00000e+00,0.00000e+00
5.30600e+02,1.27498e+01,-8.41465e+01,0.00000e+00,0.00000e+00,0.00000e+00
5.30600e+02,7.84413e+00,-8.72630e+01,0.00000e+00,0.00000e+00,0.00000e+00
5.30600e+02,-3.17838e+00,-9.03795e+01,0.00000e+00,0.00000e+00,0.00000e+00
5.30600e+02,-3.97388e+00,-9.03868e+01,0.00000e+00,0.00000e+00,0.00000e+00
5.30600e+02,-1.12214e+01,-8.71587e+01,0.00000e+00,0.00000e+00,0.00000e+00
5.30600e+02,-1.20989e+01,-8.39306e+01,0.00000e+00,0.00000e+00,0.00000e+00
5.30600e+02,-1.24018e+01,-8.07025e+01,0.00000e+00,0.00000e+00,0.00000e+00
5.30600e+02,-1.24477e+01,-7.74744e+01,0.00000e+00,0.00000e+00,0.00000e+00
5.30600e+02,-1.23001e+01,-7.42463e+01,0.00000e+00,0.00000e+00,0.00000e+00
5.30600e+02,-1.20311e+01,-7.10182e+01,0.00000e+00,0.00000e+00,0.00000e+00
5.30600e+02,-1.16402e+01,-6.77901e+01,0.00000e+00,0.00000e+00,0.00000e+00
5.30600e+02,-1.11748e+01,-6.45620e+01,0.00000e+00,0.00000e+00,0.00000e+00
5.30600e+02,-1.06664e+01,-6.13339e+01,0.00000e+00,0.00000e+00,0.00000e+00
5.30600e+02,-1.00929e+01,-5.81058e+01,0.00000e+00,0.00000e+00,0.00000e+00
5.30600e+02,-9.47882e+00,-5.48777e+01,0.00000e+00,0.00000e+00,0.00000e+00
5.30600e+02,-8.82518e+00,-5.16496e+01,0.00000e+00,0.00000e+00,0.00000e+00
5.30600e+02,-8.13212e+00,-4.84215e+01,0.00000e+00,0.00000e+00,0.00000e+00
5.30600e+02,-7.41437e+00,-4.51934e+01,0.00000e+00,0.00000e+00,0.00000e+00
5.30600e+02,-6.66496e+00,-4.19653e+01,0.00000e+00,0.00000e+00,0.00000e+00
5.30600e+02,-5.89529e+00,-3.87372e+01,0.00000e+00,0.00000e+00,0.00000e+00
5.30600e+02,-5.10745e+00,-3.55091e+01,0.00000e+00,0.00000e+00,0.00000e+00
5.30600e+02,-4.30339e+00,-3.22810e+01,0.00000e+00,0.00000e+00,0.00000e+00
5.30600e+02,-3.49245e+00,-2.90529e+01,0.00000e+00,0.00000e+00,0.00000e+00
5.30600e+02,-2.67088e+00,-2.58248e+01,0.00000e+00,0.00000e+00,0.00000e+00
5.30600e+02,-1.84753e+00,-2.25967e+01,0.00000e+00,0.00000e+00,0.00000e+00
5.30600e+02,-1.01782e+00,-1.93686e+01,0.00000e+00,0.00000e+00,0.00000e+00
5.30600e+02,-1.88198e-01,-1.61405e+01,0.00000e+00,0.00000e+00,0.00000e+00
5.30600e+02,6.38288e-01,-1.29124e+01,0.00000e+00,0.00000e+00,0.00000e+00
5.30600e+02,1.46477e+00,-9.68430e+00,0.00000e+00,0.00000e+00,0.00000e+00
5.30600e+02,2.27169e+00,-6.45620e+00,0.00000e+00,0.00000e+00,0.00000e+00
5.30600e+02,3.07496e+00,-3.22810e+00,0.00000e+00,0.00000e+00,0.00000e+00
6.33500e+02,4.06078e+01,0.00000e+00,0.00000e+00,0.00000e+00,0.00000e+00
6.33500e+02,4.04033e+01,-3.08576e+00,0.00000e+00,0.00000e+00,0.00000e+00
6.33500e+02,4.01312e+01,-6.17153e+00,0.00000e+00,0.00000e+00,0.00000e+00
6.33500e+02,3.98564e+01,-9.25729e+00,0.00000e+00,0.00000e+00,0.00000e+00
6.33500e+02,3.95220e+01,-1.23431e+01,0.00000e+00,0.00000e+00,0.00000e+00
6.33500e+02,3.91738e+01,-1.54288e+01,0.00000e+00,0.00000e+00,0.00000e+00
6.33500e+02,3.87797e+01,-1.85146e+01,0.00000e+00,0.00000e+00,0.00000e+00
6.33500e+02,3.83634e+01,-2.16004e+01,0.00000e+00,0.00000e+00,0.00000e+00
6.33500e+02,3.79104e+01,-2.46861e+01,0.00000e+00,0.00000e+00,0.00000e+00
6.33500e+02,3.74271e+01,-2.77719e+01,0.00000e+00,0.00000e+00,0.00000e+00
6.33500e+02,3.69106e+01,-3.08576e+01,0.00000e+00,0.00000e+00,0.00000e+00
6.33500e+02,3.63539e+01,-3.39434e+01,0.00000e+00,0.00000e+00,0.00000e+00
6.33500e+02,3.57559e+01,-3.70292e+01,0.00000e+00,0.00000e+00,0.00000e+00
6.33500e+02,3.50997e+01,-4.01149e+01,0.00000e+00,0.00000e+00,0.00000e+00
6.33500e+02,3.43866e+01,-4.32007e+01,0.00000e+00,0.00000e+00,0.00000e+00
6.33500e+02,3.36055e+01,-4.62865e+01,0.00000e+00,0.00000e+00,0.00000e+00
6.33500e+02,3.27325e+01,-4.93722e+01,0.00000e+00,0.00000e+00,0.00000e+00
6.33500e+02,3.17954e+01,-5.24580e+01,0.00000e+00,0.00000e+00,0.00000e+00
6.33500e+02,3.07144e+01,-5.55438e+01,0.00000e+00,0.00000e+00,0.00000e+00
6.33500e+02,2.95736e+01,-5.86295e+01,0.00000e+00,0.00000e+00,0.00000e+00
6.33500e+02,2.82665e+01,-6.17153e+01,0.00000e+00,0.00000e+00,0.00000e+00
6.33500e+02,2.68261e+01,-6.48011e+01,0.00000e+00,0.00000e+00,0.00000e+00
6.33500e+02,2.52500e+01,-6.78868e+01,0.00000e+00,0.00000e+00,0.00000e+00
6.33500e+02,2.34463e+01,-7.09726e+01,0.00000e+00,0.00000e+00,0.00000e+00
6.33500e+02,2.13788e+01,-7.40584e+01,0.00000e+00,0.00000e+00,0.00000e+00
6.33500e+02,1.90132e+01,-7.71441e+01,0.00000e+00,0.00000e+00,0.00000e+00
6.33500e+02,1.62153e+01,-8.02299e+01,0.00000e+00,0.00000e+00,0.00000e+00
6.33500e+02,1.26239e+01,-8.33156e+01,0.00000e+00,0.00000e+00,0.00000e+00
6.33500e+02,7.76668e+00,-8.64014e+01,0.00000e+00,0.00000e+00,0.00000e+00
6.33500e+02,-3.14700e+00,-8.94872e+01,0.00000e+00,0.00000e+00,0.00000e+00
6.33500e+02,-3.93464e+00,-8.94943e+01,0.00000e+00,0.00000e+00,0.00000e+00
6.33500e+02,-1.11106e+01,-8.62981e+01,0.00000e+00,0.00000e+00,0.00000e+00
6.33500e+02,-1.19795e+01,-8.31019e+01,0.00000e+00,0.00000e+00,0.00000e+00
6.33500e+02,-1.22793e+01,-7.99057e+01,0.00000e+00,0.00000e+00,0.00000e+00
6.33500e+02,-1.23248e+01,-7.67094e+01,0.00000e+00,0.00000e+00,0.00000e+00
6.33500e+02,-1.21787e+01,-7.35132e+01,0.00000e+00,0.00000e+00,0.00000e+00
6.33500e+02,-1.19123e+01,-7.03170e+01,0.00000e+00,0.00000e+00,0.00000e+00
6.33500e+02,-1.15252e+01,-6.71208e+01,0.00000e+00,0.00000e+00,0.00000e+00
6.33500e+02,-1.10645e+01,-6.39245e+01,0.00000e+00,0.00000e+00,0.00000e+00
6.33500e+02,-1.05611e+01,-6.07283e+01,0.00000e+00,0.00000e+00,0.00000e+00
6.33500e+02,-9.99326e+00,-5.75321e+01,0.00000e+00,0.00000e+00,0.00000e+00
6.33500e+02,-9.38524e+00,-5.43358e+01,0.00000e+00,0.00000e+00,0.00000e+00
6.33500e+02,-8.73804e+00,-5.11396e+01,0.00000e+00,0.00000e+00,0.00000e+00
6.33500e+02,-8.05183e+00,-4.79434e+01,0.00000e+00,0.00000e+00,0.00000e+00
6.33500e+02,-7.34116e+00,-4.47472e+01,0.00000e+00,0.00000e+00,0.00000e+00
6.33500e+02,-6.59916e+00,-4.15509e+01,0.00000e+00,0.00000e+00,0.00000e+00
6.33500e+02,-5.83709e+00,-3.83547e+01,0.00000e+00,0.00000e+00,0.00000e+00
6.33500e+02,-5.05702e+00,-3.51585e+01,0.00000e+00,0.00000e+00,0.00000e+00
6.33500e+02,-4.26090e+00,-3.19623e+01,0.00000e+00,0.00000e+00,0.00000e+00
6.33500e+02,-3.45797e+00,-2.87660e+01,0.00000e+00,0.00000e+00,0.00000e+00
6.33500e+02,-2.64450e+00,-2.55698e+01,0.00000e+00,0.00000e+00,0.00000e+00
6.33500e+02,-1.82928e+00,-2.23736e+01,0.00000e+00,0.00000e+00,0.00000e+00
6.33500e+02,-1.00777e+00,-1.91774e+01,0.00000e+00,0.00000e+00,0.00000e+00
6.33500e+02,-1.86340e-01,-1.59811e+01,0.00000e+00,0.00000e+00,0.00000e+00
6.33500e+02,6.31986e-01,-1.27849e+01,0.00000e+00,0.00000e+00,0.00000e+00
6.33500e+02,1.45031e+00,-9.58868e+00,0.00000e+00,0.00000e+00,0.00000e+00
6.33500e+02,2.24926e+00,-6.39245e+00,0.00000e+00,0.00000e+00,0.00000e+00
6.33500e+02,3.04460e+00,-3.19623e+00,0.00000e+00,0.00000e+00,0.00000e+00
7.34700e+02,4.02095e+01,0.00000e+00,0.00000e+00,0.00000e+00,0.00000e+00
7.34700e+02,4.00070e+01,-3.05550e+00,0.00000e+00,0.00000e+00,0.00000e+00
7.34700e+02,3.97376e+01,-6.11100e+00,0.00000e+00,0.00000e+00,0.00000e+00
7.34700e+02,3.94656e+01,-9.16651e+00,0.00000e+00,0.00000e+00,0.00000e+00
7.34700e+02,3.91344e+01,-1.22220e+01,0.00000e+00,0.00000e+00,0.00000e+00
7.34700e+02,3.87896e+01,-1.52775e+01,0.00000e+00,0.00000e+00,0.00000e+00
7.34700e+02,3.83994e+01,-1.83330e+01,0.00000e+00,0.00000e+00,0.00000e+00
7.34700e+02,3.79872e+01,-2.13885e+01,0.00000e+00,0.00000e+00,0.00000e+00
7.34700e+02,3.75386e+01,-2.44440e+01,0.00000e+00,0.00000e+00,0.00000e+00
7.34700e+02,3.70601e+01,-2.74995e+01,0.00000e+00,0.00000e+00,0.00000e+00
7.34700e+02,3.65486e+01,-3.05550e+01,0.00000e+00,0.00000e+00,0.00000e+00
7.34700e+02,3.59973e+01,-3.36105e+01,0.00000e+00,0.00000e+00,0.00000e+00
7.34700e+02,3.54053e+01,-3.66660e+01,0.00000e+00,0.00000e+00,0.00000e+00
7.34700e+02,3.47554e+01,-3.97215e+01,0.00000e+00,0.00000e+00,0.00000e+00
7.34700e+02,3.40493e+01,-4.27770e+01,0.00000e+00,0.00000e+00,0.00000e+00
7.34700e+02,3.32760e+01,-4.58325e+01,0.00000e+00,0.00000e+00,0.00000e+00
7.34700e+02,3.24115e+01,-4.88880e+01,0.00000e+00,0.00000e+00,0.00000e+00
7.34700e+02,3.14836e+01,-5.19435e+01,0.00000e+00,0.00000e+00,0.00000e+00
7.34700e+02,3.04131e+01,-5.49990e+01,0.00000e+00,0.00000e+00,0.00000e+00
7.34700e+02,2.92835e+01,-5.80545e+01,0.00000e+00,0.00000e+00,0.00000e+00
7.34700e+02,2.79893e+01,-6.11100e+01,0.00000e+00,0.00000e+00,0.00000e+00
7.34700e+02,2.65630e+01,-6.41655e+01,0.00000e+00,0.00000e+00,0.00000e+00
7.34700e+02,2.50024e+01,-6.72210e+01,0.00000e+00,0.00000e+00,0.00000e+00
7.34700e+02,2.32164e+01,-7.02765e+01,0.00000e+00,0.00000e+00,0.00000e+00
7.34700e+02,2.11691e+01,-7.33320e+01,0.00000e+00,0.00000e+00,0.00000e+00
7.34700e+02,1.88268e+01,-7.63875e+01,0.00000e+00,0.00000e+00,0.00000e+00
7.34700e+02,1.60563e+01,-7.94430e+01,0.00000e+00,0.00000e+00,0.00000e+00
7.34700e+02,1.25001e+01,-8.24985e+01,0.00000e+00,0.00000e+00,0.00000e+00
7.34700e+02,7.69051e+00,-8.55540e+01,0.00000e+00,0.00000e+00,0.00000e+00
7.34700e+02,-3.11614e+00,-8.86096e+01,0.00000e+00,0.00000e+00,0.00000e+00
7.34700e+02,-3.89606e+00,-8.86166e+01,0.00000e+00,0.00000e+00,0.00000e+00
7.34700e+02,-1.10017e+01,-8.54518e+01,0.00000e+00,0.00000e+00,0.00000e+00
7.34700e+02,-1.18620e+01,-8.22869e+01,0.00000e+00,0.00000e+00,0.00000e+00
7.34700e+02,-1.21589e+01,-7.91220e+01,0.00000e+00,0.00000e+00,0.00000e+00
7.34700e+02,-1.22039e+01,-7.59571e+01,0.00000e+00,0.00000e+00,0.00000e+00
7.34700e+02,-1.20592e+01,-7.27922e+01,0.00000e+00,0.00000e+00,0.00000e+00
7.34700e+02,-1.17955e+01,-6.96274e+01,0.00000e+00,0.00000e+00,0.00000e+00
7.34700e+02,-1.14122e+01,-6.64625e+01,0.00000e+00,0.00000e+00,0.00000e+00
7.34700e+02,-1.09560e+01,-6.32976e+01,0.00000e+00,0.00000e+00,0.00000e+00
7.34700e+02,-1.04575e+01,-6.01327e+01,0.00000e+00,0.00000e+00,0.00000e+00
7.34700e+02,-9.89525e+00,-5.69678e+01,0.00000e+00,0.00000e+00,0.00000e+00
7.34700e+02,-9.29319e+00,-5.38030e+01,0.00000e+00,0.00000e+00,0.00000e+00
7.34700e+02,-8.65235e+00,-5.06381e+01,0.00000e+00,0.00000e+00,0.00000e+00
7.34700e+02,-7.97287e+00,-4.74732e+01,0.00000e+00,0.00000e+00,0.00000e+00
7.34700e+02,-7.26917e+00,-4.43083e+01,0.00000e+00,0.00000e+00,0.00000e+00
7.34700e+02,-6.53444e+00,-4.11434e+01,0.00000e+00,0.00000e+00,0.00000e+00
7.34700e+02,-5.77984e+00,-3.79786e+01,0.00000e+00,0.00000e+00,0.00000e+00
7.34700e+02,-5.00742e+00,-3.48137e+01,0.00000e+00,0.00000e+00,0.00000e+00
7.34700e+02,-4.21911e+00,-3.16488e+01,0.00000e+00,0.00000e+00,0.00000e+00
7.34700e+02,-3.42406e+00,-2.84839e+01,0.00000e+00,0.00000e+00,0.00000e+00
7.34700e+02,-2.61857e+00,-2.53190e+01,0.00000e+00,0.00000e+00,0.00000e+00
7.34700e+02,-1.81134e+00,-2.21542e+01,0.00000e+00,0.00000e+00,0.00000e+00
7.34700e+02,-9.97887e-01,-1.89893e+01,0.00000e+00,0.00000e+00,0.00000e+00
7.34700e+02,-1.84513e-01,-1.58244e+01,0.00000e+00,0.00000e+00,0.00000e+00
7.34700e+02,6.25788e-01,-1.26595e+01,0.00000e+00,0.00000e+00,0.00000e+00
7.34700e+02,1.43609e+00,-9.49464e+00,0.00000e+00,0.00000e+00,0.00000e+00
7.34700e+02,2.22720e+00,-6.32976e+00,0.00000e+00,0.00000e+00,0.00000e+00
7.34700e+02,3.01474e+00,-3.16488e+00,0.00000e+00,0.00000e+00,0.00000e+00
8.33800e+02,3.98196e+01,0.00000e+00,0.00000e+00,0.00000e+00,0.00000e+00
8.33800e+02,3.96190e+01,-3.02587e+00,0.00000e+00,0.00000e+00,0.00000e+00
8.33800e+02,3.93522e+01,-6.05173e+00,0.00000e+00,0.00000e+00,0.00000e+00
8.33800e+02,3.90828e+01,-9.07760e+00,0.00000e+00,0.00000e+00,0.00000e+00
8.33800e+02,3.87549e+01,-1.21035e+01,0.00000e+00,0.00000e+00,0.00000e+00
8.33800e+02,3.84134e+01,-1.51293e+01,0.00000e+00,0.00000e+00,0.00000e+00
8.33800e+02,3.80270e+01,-1.81552e+01,0.00000e+00,0.00000e+00,0.00000e+00
8.33800e+02,3.76188e+01,-2.11811e+01,0.00000e+00,0.00000e+00,0.00000e+00
8.33800e+02,3.71745e+01,-2.42069e+01,0.00000e+00,0.00000e+00,0.00000e+00
8.33800e+02,3.67006e+01,-2.72328e+01,0.00000e+00,0.00000e+00,0.00000e+00
8.33800e+02,3.61941e+01,-3.02587e+01,0.00000e+00,0.00000e+00,0.00000e+00
8.33800e+02,3.56482e+01,-3.32845e+01,0.00000e+00,0.00000e+00,0.00000e+00
8.33800e+02,3.50619e+01,-3.63104e+01,0.00000e+00,0.00000e+00,0.00000e+00
8.33800e+02,3.44183e+01,-3.93363e+01,0.00000e+00,0.00000e+00,0.00000e+00
8.33800e+02,3.37191e+01,-4.23621e+01,0.00000e+00,0.00000e+00,0.00000e+00
8.33800e+02,3.29532e+01,-4.53880e+01,0.00000e+00,0.00000e+00,0.00000e+00
8.33800e+02,3.20971e+01,-4.84139e+01,0.00000e+00,0.00000e+00,0.00000e+00
8.33800e+02,3.11783e+01,-5.14397e+01,0.00000e+00,0.00000e+00,0.00000e+00
8.33800e+02,3.01182e+01,-5.44656e+01,0.00000e+00,0.00000e+00,0.00000e+00
8.33800e+02,2.89995e+01,-5.74915e+01,0.00000e+00,0.00000e+00,0.00000e+00
8.33800e+02,2.77178e+01,-6.05173e+01,0.00000e+00,0.00000e+00,0.00000e+00
8.33800e+02,2.63054e+01,-6.35432e+01,0.00000e+00,0.00000e+00,0.00000e+00
8.33800e+02,2.47599e+01,-6.65691e+01,0.00000e+00,0.00000e+00,0.00000e+00
8.33800e+02,2.29912e+01,-6.95949e+01,0.00000e+00,0.00000e+00,0.00000e+00
8.33800e+02,2.09638e+01,-7.26208e+01,0.00000e+00,0.00000e+00,0.00000e+00
8.33800e+02,1.86442e+01,-7.56467e+01,0.00000e+00,0.00000e+00,0.00000e+00
8.33800e+02,1.59005e+01,-7.86725e+01,0.00000e+00,0.00000e+00,0.00000e+00
8.33800e+02,1.23789e+01,-8.16984e+01,0.00000e+00,0.00000e+00,0.00000e+00
8.33800e+02,7.61592e+00,-8.47243e+01,0.00000e+00,0.00000e+00,0.00000e+00
8.33800e+02,-3.08591e+00,-8.77501e+01,0.00000e+00,0.00000e+00,0.00000e+00
8.33800e+02,-3.85827e+00,-8.77572e+01,0.00000e+00,0.00000e+00,0.00000e+00
8.33800e+02,-1.08950e+01,-8.46230e+01,0.00000e+00,0.00000e+00,0.00000e+00
8.33800e+02,-1.17470e+01,-8.14888e+01,0.00000e+00,0.00000e+00,0.00000e+00
8.33800e+02,-1.20409e+01,-7.83546e+01,0.00000e+00,0.00000e+00,0.00000e+00
8.33800e+02,-1.20856e+01,-7.52204e+01,0.00000e+00,0.00000e+00,0.00000e+00
8.33800e+02,-1.19423e+01,-7.20862e+01,0.00000e+00,0.00000e+00,0.00000e+00
8.33800e+02,-1.16811e+01,-6.89521e+01,0.00000e+00,0.00000e+00,0.00000e+00
8.33800e+02,-1.13015e+01,-6.58179e+01,0.00000e+00,0.00000e+00,0.00000e+00
8.33800e+02,-1.08497e+01,-6.26837e+01,0.00000e+00,0.00000e+00,0.00000e+00
8.33800e+02,-1.03561e+01,-5.95495e+01,0.00000e+00,0.00000e+00,0.00000e+00
8.33800e+02,-9.79928e+00,-5.64153e+01,0.00000e+00,0.00000e+00,0.00000e+00
8.33800e+02,-9.20306e+00,-5.32811e+01,0.00000e+00,0.00000e+00,0.00000e+00
8.33800e+02,-8.56843e+00,-5.01469e+01,0.00000e+00,0.00000e+00,0.00000e+00
8.33800e+02,-7.89554e+00,-4.70128e+01,0.00000e+00,0.00000e+00,0.00000e+00
8.33800e+02,-7.19866e+00,-4.38786e+01,0.00000e+00,0.00000e+00,0.00000e+00
8.33800e+02,-6.47106e+00,-4.07444e+01,0.00000e+00,0.00000e+00,0.00000e+00
8.33800e+02,-5.72378e+00,-3.76102e+01,0.00000e+00,0.00000e+00,0.00000e+00
8.33800e+02,-4.95886e+00,-3.44760e+01,0.00000e+00,0.00000e+00,0.00000e+00
8.33800e+02,-4.17819e+00,-3.13418e+01,0.00000e+00,0.00000e+00,0.00000e+00
8.33800e+02,-3.39085e+00,-2.82077e+01,0.00000e+00,0.00000e+00,0.00000e+00
8.33800e+02,-2.59317e+00,-2.50735e+01,0.00000e+00,0.00000e+00,0.00000e+00
8.33800e+02,-1.79378e+00,-2.19393e+01,0.00000e+00,0.00000e+00,0.00000e+00
8.33800e+02,-9.88209e-01,-1.88051e+01,0.00000e+00,0.00000e+00,0.00000e+00
8.33800e+02,-1.82723e-01,-1.56709e+01,0.00000e+00,0.00000e+00,0.00000e+00
8.33800e+02,6.19718e-01,-1.25367e+01,0.00000e+00,0.00000e+00,0.00000e+00
8.33800e+02,1.42216e+00,-9.40255e+00,0.00000e+00,0.00000e+00,0.00000e+00
8.33800e+02,2.20560e+00,-6.26837e+00,0.00000e+00,0.00000e+00,0.00000e+00
8.33800e+02,2.98550e+00,-3.13418e+00,0.00000e+00,0.00000e+00,0.00000e+00
9.30700e+02,3.94382e+01,0.00000e+00,0.00000e+00,0.00000e+00,0.00000e+00
9.30700e+02,3.92396e+01,-2.99689e+00,0.00000e+00,0.00000e+00,0.00000e+00
9.30700e+02,3.89754e+01,-5.99378e+00,0.00000e+00,0.00000e+00,0.00000e+00
9.30700e+02,3.87085e+01,-8.99067e+00,0.00000e+00,0.00000e+00,0.00000e+00
9.30700e+02,3.83837e+01,-1.19876e+01,0.00000e+00,0.00000e+00,0.00000e+00
9.30700e+02,3.80455e+01,-1.49844e+01,0.00000e+00,0.00000e+00,0.00000e+00
9.30700e+02,3.76628e+01,-1.79813e+01,0.00000e+00,0.00000e+00,0.00000e+00
9.30700e+02,3.72585e+01,-2.09782e+01,0.00000e+00,0.00000e+00,0.00000e+00
9.30700e+02,3.68185e+01,-2.39751e+01,0.00000e+00,0.00000e+00,0.00000e+00
9.30700e+02,3.63492e+01,-2.69720e+01,0.00000e+00,0.00000e+00,0.00000e+00
9.30700e+02,3.58475e+01,-2.99689e+01,0.00000e+00,0.00000e+00,0.00000e+00
9.30700e+02,3.53068e+01,-3.29658e+01,0.00000e+00,0.00000e+00,0.00000e+00
9.30700e+02,3.47261e+01,-3.59627e+01,0.00000e+00,0.00000e+00,0.00000e+00
9.30700e+02,3.40887e+01,-3.89596e+01,0.00000e+00,0.00000e+00,0.00000e+00
9.30700e+02,3.33962e+01,-4.19565e+01,0.00000e+00,0.00000e+00,0.00000e+00
9.30700e+02,3.26376e+01,-4.49533e+01,0.00000e+00,0.00000e+00,0.00000e+00
9.30700e+02,3.17897e+01,-4.79502e+01,0.00000e+00,0.00000e+00,0.00000e+00
9.30700e+02,3.08797e+01,-5.09471e+01,0.00000e+00,0.00000e+00,0.00000e+00
9.30700e+02,2.98297e+01,-5.39440e+01,0.00000e+00,0.00000e+00,0.00000e+00
9.30700e+02,2.87218e+01,-5.69409e+01,0.00000e+00,0.00000e+00,0.00000e+00
9.30700e+02,2.74524e+01,-5.99378e+01,0.00000e+00,0.00000e+00,0.00000e+00
9.30700e+02,2.60534e+01,-6.29347e+01,0.00000e+00,0.00000e+00,0.00000e+00
9.30700e+02,2.45228e+01,-6.59316e+01,0.00000e+00,0.00000e+00,0.00000e+00
9.30700e+02,2.27710e+01,-6.89285e+01,0.00000e+00,0.00000e+00,0.00000e+00
9.30700e+02,2.07631e+01,-7.19254e+01,0.00000e+00,0.00000e+00,0.00000e+00
9.30700e+02,1.84656e+01,-7.49222e+01,0.00000e+00,0.00000e+00,0.00000e+00
9.30700e+02,1.57483e+01,-7.79191e+01,0.00000e+00,0.00000e+00,0.00000e+00
9.30700e+02,1.22603e+01,-8.09160e+01,0.00000e+00,0.00000e+00,0.00000e+00
9.30700e+02,7.54299e+00,-8.39129e+01,0.00000e+00,0.00000e+00,0.00000e+00
9.30700e+02,-3.05636e+00,-8.69098e+01,0.00000e+00,0.00000e+00,0.00000e+00
9.30700e+02,-3.82132e+00,-8.69168e+01,0.00000e+00,0.00000e+00,0.00000e+00
9.30700e+02,-1.07906e+01,-8.38126e+01,0.00000e+00,0.00000e+00,0.00000e+00
9.30700e+02,-1.16345e+01,-8.07084e+01,0.00000e+00,0.00000e+00,0.00000e+00
9.30700e+02,-1.19256e+01,-7.76042e+01,0.00000e+00,0.00000e+00,0.00000e+00
9.30700e+02,-1.19698e+01,-7.45001e+01,0.00000e+00,0.00000e+00,0.00000e+00
9.30700e+02,-1.18279e+01,-7.13959e+01,0.00000e+00,0.00000e+00,0.00000e+00
9.30700e+02,-1.15692e+01,-6.82917e+01,0.00000e+00,0.00000e+00,0.00000e+00
9.30700e+02,-1.11933e+01,-6.51876e+01,0.00000e+00,0.00000e+00,0.00000e+00
9.30700e+02,-1.07458e+01,-6.20834e+01,0.00000e+00,0.00000e+00,0.00000e+00
9.30700e+02,-1.02569e+01,-5.89792e+01,0.00000e+00,0.00000e+00,0.00000e+00
9.30700e+02,-9.70544e+00,-5.58751e+01,0.00000e+00,0.00000e+00,0.00000e+00
9.30700e+02,-9.11493e+00,-5.27709e+01,0.00000e+00,0.00000e+00,0.00000e+00
9.30700e+02,-8.48637e+00,-4.96667e+01,0.00000e+00,0.00000e+00,0.00000e+00
9.30700e+02,-7.81993e+00,-4.65625e+01,0.00000e+00,0.00000e+00,0.00000e+00
9.30700e+02,-7.12973e+00,-4.34584e+01,0.00000e+00,0.00000e+00,0.00000e+00
9.30700e+02,-6.40909e+00,-4.03542e+01,0.00000e+00,0.00000e+00,0.00000e+00
9.30700e+02,-5.66897e+00,-3.72500e+01,0.00000e+00,0.00000e+00,0.00000e+00
9.30700e+02,-4.91137e+00,-3.41459e+01,0.00000e+00,0.00000e+00,0.00000e+00
9.30700e+02,-4.13818e+00,-3.10417e+01,0.00000e+00,0.00000e+00,0.00000e+00
9.30700e+02,-3.35837e+00,-2.79375e+01,0.00000e+00,0.00000e+00,0.00000e+00
9.30700e+02,-2.56834e+00,-2.48334e+01,0.00000e+00,0.00000e+00,0.00000e+00
9.30700e+02,-1.77660e+00,-2.17292e+01,0.00000e+00,0.00000e+00,0.00000e+00
9.30700e+02,-9.78745e-01,-1.86250e+01,0.00000e+00,0.00000e+00,0.00000e+00
9.30700e+02,-1.80973e-01,-1.55208e+01,0.00000e+00,0.00000e+00,0.00000e+00
9.30700e+02,6.13784e-01,-1.24167e+01,0.00000e+00,0.00000e+00,0.00000e+00
9.30700e+02,1.40854e+00,-9.31251e+00,0.00000e+00,0.00000e+00,0.00000e+00
9.30700e+02,2.18448e+00,-6.20834e+00,0.00000e+00,0.00000e+00,0.00000e+00
9.30700e+02,2.95691e+00,-3.10417e+00,0.00000e+00,0.00000e+00,0.00000e+00
1.02500e+03,3.90671e+01,0.00000e+00,0.00000e+00,0.00000e+00,0.00000e+00
1.02500e+03,3.88704e+01,-2.96869e+00,0.00000e+00,0.00000e+00,0.00000e+00
1.02500e+03,3.86086e+01,-5.93738e+00,0.00000e+00,0.00000e+00,0.00000e+00
1.02500e+03,3.83443e+01,-8.90607e+00,0.00000e+00,0.00000e+00,0.00000e+00
1.02500e+03,3.80226e+01,-1.18748e+01,0.00000e+00,0.00000e+00,0.00000e+00
1.02500e+03,3.76875e+01,-1.48435e+01,0.00000e+00,0.00000e+00,0.00000e+00
1.02500e+03,3.73084e+01,-1.78121e+01,0.00000e+00,0.00000e+00,0.00000e+00
1.02500e+03,3.69079e+01,-2.07808e+01,0.00000e+00,0.00000e+00,0.00000e+00
1.02500e+03,3.64721e+01,-2.37495e+01,0.00000e+00,0.00000e+00,0.00000e+00
1.02500e+03,3.60071e+01,-2.67182e+01,0.00000e+00,0.00000e+00,0.00000e+00
1.02500e+03,3.55102e+01,-2.96869e+01,0.00000e+00,0.00000e+00,0.00000e+00
1.02500e+03,3.49746e+01,-3.26556e+01,0.00000e+00,0.00000e+00,0.00000e+00
1.02500e+03,3.43994e+01,-3.56243e+01,0.00000e+00,0.00000e+00,0.00000e+00
1.02500e+03,3.37680e+01,-3.85930e+01,0.00000e+00,0.00000e+00,0.00000e+00
1.02500e+03,3.30819e+01,-4.15617e+01,0.00000e+00,0.00000e+00,0.00000e+00
1.02500e+03,3.23305e+01,-4.45304e+01,0.00000e+00,0.00000e+00,0.00000e+00
1.02500e+03,3.14906e+01,-4.74990e+01,0.00000e+00,0.00000e+00,0.00000e+00
1.02500e+03,3.05891e+01,-5.04677e+01,0.00000e+00,0.00000e+00,0.00000e+00
1.02500e+03,2.95491e+01,-5.34364e+01,0.00000e+00,0.00000e+00,0.00000e+00
1.02500e+03,2.84516e+01,-5.64051e+01,0.00000e+00,0.00000e+00,0.00000e+00
1.02500e+03,2.71940e+01,-5.93738e+01,0.00000e+00,0.00000e+00,0.00000e+00
1.02500e+03,2.58083e+01,-6.23425e+01,0.00000e+00,0.00000e+00,0.00000e+00
1.02500e+03,2.42920e+01,-6.53112e+01,0.00000e+00,0.00000e+00,0.00000e+00
1.02500e+03,2.25567e+01,-6.82799e+01,0.00000e+00,0.00000e+00,0.00000e+00
1.02500e+03,2.05677e+01,-7.12486e+01,0.00000e+00,0.00000e+00,0.00000e+00
1.02500e+03,1.82919e+01,-7.42173e+01,0.00000e+00,0.00000e+00,0.00000e+00
1.02500e+03,1.56001e+01,-7.71859e+01,0.00000e+00,0.00000e+00,0.00000e+00
1.02500e+03,1.21450e+01,-8.01546e+01,0.00000e+00,0.00000e+00,0.00000e+00
1.02500e+03,7.47201e+00,-8.31233e+01,0.00000e+00,0.00000e+00,0.00000e+00
1.02500e+03,-3.02760e+00,-8.60920e+01,0.00000e+00,0.00000e+00,0.00000e+00
1.02500e+03,-3.78536e+00,-8.60989e+01,0.00000e+00,0.00000e+00,0.00000e+00
1.02500e+03,-1.06891e+01,-8.30239e+01,0.00000e+00,0.00000e+00,0.00000e+00
1.02500e+03,-1.15250e+01,-7.99490e+01,0.00000e+00,0.00000e+00,0.00000e+00
1.02500e+03,-1.18134e+01,-7.68740e+01,0.00000e+00,0.00000e+00,0.00000e+00
1.02500e+03,-1.18572e+01,-7.37991e+01,0.00000e+00,0.00000e+00,0.00000e+00
1.02500e+03,-1.17166e+01,-7.07241e+01,0.00000e+00,0.00000e+00,0.00000e+00
1.02500e+03,-1.14604e+01,-6.76491e+01,0.00000e+00,0.00000e+00,0.00000e+00
1.02500e+03,-1.10880e+01,-6.45742e+01,0.00000e+00,0.00000e+00,0.00000e+00
1.02500e+03,-1.06447e+01,-6.14992e+01,0.00000e+00,0.00000e+00,0.00000e+00
1.02500e+03,-1.01604e+01,-5.84243e+01,0.00000e+00,0.00000e+00,0.00000e+00
1.02500e+03,-9.61411e+00,-5.53493e+01,0.00000e+00,0.00000e+00,0.00000e+00
1.02500e+03,-9.02916e+00,-5.22743e+01,0.00000e+00,0.00000e+00,0.00000e+00
1.02500e+03,-8.40652e+00,-4.91994e+01,0.00000e+00,0.00000e+00,0.00000e+00
1.02500e+03,-7.74634e+00,-4.61244e+01,0.00000e+00,0.00000e+00,0.00000e+00
1.02500e+03,-7.06264e+00,-4.30495e+01,0.00000e+00,0.00000e+00,0.00000e+00
1.02500e+03,-6.34878e+00,-3.99745e+01,0.00000e+00,0.00000e+00,0.00000e+00
1.02500e+03,-5.61563e+00,-3.68995e+01,0.00000e+00,0.00000e+00,0.00000e+00
1.02500e+03,-4.86516e+00,-3.38246e+01,0.00000e+00,0.00000e+00,0.00000e+00
1.02500e+03,-4.09924e+00,-3.07496e+01,0.00000e+00,0.00000e+00,0.00000e+00
1.02500e+03,-3.32677e+00,-2.76746e+01,0.00000e+00,0.00000e+00,0.00000e+00
1.02500e+03,-2.54417e+00,-2.45997e+01,0.00000e+00,0.00000e+00,0.00000e+00
1.02500e+03,-1.75988e+00,-2.15247e+01,0.00000e+00,0.00000e+00,0.00000e+00
1.02500e+03,-9.69535e-01,-1.84498e+01,0.00000e+00,0.00000e+00,0.00000e+00
1.02500e+03,-1.79270e-01,-1.53748e+01,0.00000e+00,0.00000e+00,0.00000e+00
1.02500e+03,6.08008e-01,-1.22998e+01,0.00000e+00,0.00000e+00,0.00000e+00
1.02500e+03,1.39529e+00,-9.22488e+00,0.00000e+00,0.00000e+00,0.00000e+00
1.02500e+03,2.16392e+00,-6.14992e+00,0.00000e+00,0.00000e+00,0.00000e+00
1.02500e+03,2.92908e+00,-3.07496e+00,0.00000e+00,0.00000e+00,0.00000e+00
1.11650e+03,3.87070e+01,0.00000e+00,0.00000e+00,0.00000e+00,0.00000e+00
1.11650e+03,3.85121e+01,-2.94133e+00,0.00000e+00,0.00000e+00,0.00000e+00
1.11650e+03,3.82528e+01,-5.88266e+00,0.00000e+00,0.00000e+00,0.00000e+00
1.11650e+03,3.79909e+01,-8.82398e+00,0.00000e+00,0.00000e+00,0.00000e+00
1.11650e+03,3.76721e+01,-1.17653e+01,0.00000e+00,0.00000e+00,0.00000e+00
1.11650e+03,3.73401e+01,-1.47066e+01,0.00000e+00,0.00000e+00,0.00000e+00
1.11650e+03,3.69645e+01,-1.76480e+01,0.00000e+00,0.00000e+00,0.00000e+00
1.11650e+03,3.65678e+01,-2.05893e+01,0.00000e+00,0.00000e+00,0.00000e+00
1.11650e+03,3.61359e+01,-2.35306e+01,0.00000e+00,0.00000e+00,0.00000e+00
1.11650e+03,3.56753e+01,-2.64720e+01,0.00000e+00,0.00000e+00,0.00000e+00
1.11650e+03,3.51829e+01,-2.94133e+01,0.00000e+00,0.00000e+00,0.00000e+00
1.11650e+03,3.46522e+01,-3.23546e+01,0.00000e+00,0.00000e+00,0.00000e+00
1.11650e+03,3.40823e+01,-3.52959e+01,0.00000e+00,0.00000e+00,0.00000e+00
1.11650e+03,3.34567e+01,-3.82373e+01,0.00000e+00,0.00000e+00,0.00000e+00
1.11650e+03,3.27770e+01,-4.11786e+01,0.00000e+00,0.00000e+00,0.00000e+00
1.11650e+03,3.20325e+01,-4.41199e+01,0.00000e+00,0.00000e+00,0.00000e+00
1.11650e+03,3.12004e+01,-4.70612e+01,0.00000e+00,0.00000e+00,0.00000e+00
1.11650e+03,3.03072e+01,-5.00026e+01,0.00000e+00,0.00000e+00,0.00000e+00
1.11650e+03,2.92767e+01,-5.29439e+01,0.00000e+00,0.00000e+00,0.00000e+00
1.11650e+03,2.81893e+01,-5.58852e+01,0.00000e+00,0.00000e+00,0.00000e+00
1.11650e+03,2.69434e+01,-5.88266e+01,0.00000e+00,0.00000e+00,0.00000e+00
1.11650e+03,2.55704e+01,-6.17679e+01,0.00000e+00,0.00000e+00,0.00000e+00
1.11650e+03,2.40681e+01,-6.47092e+01,0.00000e+00,0.00000e+00,0.00000e+00
1.11650e+03,2.23488e+01,-6.76505e+01,0.00000e+00,0.00000e+00,0.00000e+00
1.11650e+03,2.03781e+01,-7.05919e+01,0.00000e+00,0.00000e+00,0.00000e+00
1.11650e+03,1.81233e+01,-7.35332e+01,0.00000e+00,0.00000e+00,0.00000e+00
1.11650e+03,1.54563e+01,-7.64745e+01,0.00000e+00,0.00000e+00,0.00000e+00
1.11650e+03,1.20330e+01,-7.94159e+01,0.00000e+00,0.00000e+00,0.00000e+00
1.11650e+03,7.40314e+00,-8.23572e+01,0.00000e+00,0.00000e+00,0.00000e+00
1.11650e+03,-2.99970e+00,-8.52985e+01,0.00000e+00,0.00000e+00,0.00000e+00
1.11650e+03,-3.75047e+00,-8.53053e+01,0.00000e+00,0.00000e+00,0.00000e+00
1.11650e+03,-1.05906e+01,-8.22587e+01,0.00000e+00,0.00000e+00,0.00000e+00
1.11650e+03,-1.14188e+01,-7.92121e+01,0.00000e+00,0.00000e+00,0.00000e+00
1.11650e+03,-1.17045e+01,-7.61655e+01,0.00000e+00,0.00000e+00,0.00000e+00
1.11650e+03,-1.17479e+01,-7.31189e+01,0.00000e+00,0.00000e+00,0.00000e+00
1.11650e+03,-1.16086e+01,-7.00722e+01,0.00000e+00,0.00000e+00,0.00000e+00
1.11650e+03,-1.13547e+01,-6.70256e+01,0.00000e+00,0.00000e+00,0.00000e+00
1.11650e+03,-1.09858e+01,-6.39790e+01,0.00000e+00,0.00000e+00,0.00000e+00
1.11650e+03,-1.05466e+01,-6.09324e+01,0.00000e+00,0.00000e+00,0.00000e+00
1.11650e+03,-1.00667e+01,-5.78858e+01,0.00000e+00,0.00000e+00,0.00000e+00
1.11650e+03,-9.52550e+00,-5.48391e+01,0.00000e+00,0.00000e+00,0.00000e+00
1.11650e+03,-8.94594e+00,-5.17925e+01,0.00000e+00,0.00000e+00,0.00000e+00
1.11650e+03,-8.32904e+00,-4.87459e+01,0.00000e+00,0.00000e+00,0.00000e+00
1.11650e+03,-7.67495e+00,-4.56993e+01,0.00000e+00,0.00000e+00,0.00000e+00
1.11650e+03,-6.99754e+00,-4.26527e+01,0.00000e+00,0.00000e+00,0.00000e+00
1.11650e+03,-6.29027e+00,-3.96060e+01,0.00000e+00,0.00000e+00,0.00000e+00
1.11650e+03,-5.56387e+00,-3.65594e+01,0.00000e+00,0.00000e+00,0.00000e+00
1.11650e+03,-4.82031e+00,-3.35128e+01,0.00000e+00,0.00000e+00,0.00000e+00
1.11650e+03,-4.06146e+00,-3.04662e+01,0.00000e+00,0.00000e+00,0.00000e+00
1.11650e+03,-3.29611e+00,-2.74196e+01,0.00000e+00,0.00000e+00,0.00000e+00
1.11650e+03,-2.52072e+00,-2.43730e+01,0.00000e+00,0.00000e+00,0.00000e+00
1.11650e+03,-1.74366e+00,-2.13263e+01,0.00000e+00,0.00000e+00,0.00000e+00
1.11650e+03,-9.60599e-01,-1.82797e+01,0.00000e+00,0.00000e+00,0.00000e+00
1.11650e+03,-1.77618e-01,-1.52331e+01,0.00000e+00,0.00000e+00,0.00000e+00
1.11650e+03,6.02404e-01,-1.21865e+01,0.00000e+00,0.00000e+00,0.00000e+00
1.11650e+03,1.38243e+00,-9.13986e+00,0.00000e+00,0.00000e+00,0.00000e+00
1.11650e+03,2.14398e+00,-6.09324e+00,0.00000e+00,0.00000e+00,0.00000e+00
1.11650e+03,2.90209e+00,-3.04662e+00,0.00000e+00,0.00000e+00,0.00000e+00
1.20500e+03,3.76912e+01,0.00000e+00,0.00000e+00,0.00000e+00,0.00000e+00
1.20500e+03,3.75014e+01,-2.86413e+00,0.00000e+00,0.00000e+00,0.00000e+00
1.20500e+03,3.72488e+01,-5.72827e+00,0.00000e+00,0.00000e+00,0.00000e+00
1.20500e+03,3.69938e+01,-8.59240e+00,0.00000e+00,0.00000e+00,0.00000e+00
1.20500e+03,3.66834e+01,-1.14565e+01,0.00000e+00,0.00000e+00,0.00000e+00
1.20500e+03,3.63602e+01,-1.43207e+01,0.00000e+00,0.00000e+00,0.00000e+00
1.20500e+03,3.59944e+01,-1.71848e+01,0.00000e+00,0.00000e+00,0.00000e+00
1.20500e+03,3.56080e+01,-2.00489e+01,0.00000e+00,0.00000e+00,0.00000e+00
1.20500e+03,3.51875e+01,-2.29131e+01,0.00000e+00,0.00000e+00,0.00000e+00
1.20500e+03,3.47390e+01,-2.57772e+01,0.00000e+00,0.00000e+00,0.00000e+00
1.20500e+03,3.42596e+01,-2.86413e+01,0.00000e+00,0.00000e+00,0.00000e+00
1.20500e+03,3.37428e+01,-3.15055e+01,0.00000e+00,0.00000e+00,0.00000e+00
1.20500e+03,3.31878e+01,-3.43696e+01,0.00000e+00,0.00000e+00,0.00000e+00
1.20500e+03,3.25787e+01,-3.72337e+01,0.00000e+00,0.00000e+00,0.00000e+00
1.20500e+03,3.19168e+01,-4.00979e+01,0.00000e+00,0.00000e+00,0.00000e+00
1.20500e+03,3.11919e+01,-4.29620e+01,0.00000e+00,0.00000e+00,0.00000e+00
1.20500e+03,3.03815e+01,-4.58261e+01,0.00000e+00,0.00000e+00,0.00000e+00
1.20500e+03,2.95118e+01,-4.86903e+01,0.00000e+00,0.00000e+00,0.00000e+00
1.20500e+03,2.85084e+01,-5.15544e+01,0.00000e+00,0.00000e+00,0.00000e+00
1.20500e+03,2.74495e+01,-5.44186e+01,0.00000e+00,0.00000e+00,0.00000e+00
1.20500e+03,2.62363e+01,-5.72827e+01,0.00000e+00,0.00000e+00,0.00000e+00
1.20500e+03,2.48993e+01,-6.01468e+01,0.00000e+00,0.00000e+00,0.00000e+00
1.20500e+03,2.34365e+01,-6.30110e+01,0.00000e+00,0.00000e+00,0.00000e+00
1.20500e+03,2.17623e+01,-6.58751e+01,0.00000e+00,0.00000e+00,0.00000e+00
1.20500e+03,1.98433e+01,-6.87392e+01,0.00000e+00,0.00000e+00,0.00000e+00
1.20500e+03,1.76476e+01,-7.16034e+01,0.00000e+00,0.00000e+00,0.00000e+00
1.20500e+03,1.50506e+01,-7.44675e+01,0.00000e+00,0.00000e+00,0.00000e+00
1.20500e+03,1.17172e+01,-7.73316e+01,0.00000e+00,0.00000e+00,0.00000e+00
1.20500e+03,7.20885e+00,-8.01958e+01,0.00000e+00,0.00000e+00,0.00000e+00
1.20500e+03,-2.92097e+00,-8.30599e+01,0.00000e+00,0.00000e+00,0.00000e+00
1.20500e+03,-3.65204e+00,-8.30665e+01,0.00000e+00,0.00000e+00,0.00000e+00
1.20500e+03,-1.03126e+01,-8.00999e+01,0.00000e+00,0.00000e+00,0.00000e+00
1.20500e+03,-1.11191e+01,-7.71332e+01,0.00000e+00,0.00000e+00,0.00000e+00
1.20500e+03,-1.13974e+01,-7.41666e+01,0.00000e+00,0.00000e+00,0.00000e+00
1.20500e+03,-1.14396e+01,-7.11999e+01,0.00000e+00,0.00000e+00,0.00000e+00
1.20500e+03,-1.13040e+01,-6.82332e+01,0.00000e+00,0.00000e+00,0.00000e+00
1.20500e+03,-1.10567e+01,-6.52666e+01,0.00000e+00,0.00000e+00,0.00000e+00
1.20500e+03,-1.06975e+01,-6.22999e+01,0.00000e+00,0.00000e+00,0.00000e+00
1.20500e+03,-1.02698e+01,-5.93332e+01,0.00000e+00,0.00000e+00,0.00000e+00
1.20500e+03,-9.80253e+00,-5.63666e+01,0.00000e+00,0.00000e+00,0.00000e+00
1.20500e+03,-9.27551e+00,-5.33999e+01,0.00000e+00,0.00000e+00,0.00000e+00
1.20500e+03,-8.71115e+00,-5.04333e+01,0.00000e+00,0.00000e+00,0.00000e+00
1.20500e+03,-8.11045e+00,-4.74666e+01,0.00000e+00,0.00000e+00,0.00000e+00
1.20500e+03,-7.47352e+00,-4.44999e+01,0.00000e+00,0.00000e+00,0.00000e+00
1.20500e+03,-6.81389e+00,-4.15333e+01,0.00000e+00,0.00000e+00,0.00000e+00
1.20500e+03,-6.12518e+00,-3.85666e+01,0.00000e+00,0.00000e+00,0.00000e+00
1.20500e+03,-5.41785e+00,-3.55999e+01,0.00000e+00,0.00000e+00,0.00000e+00
1.20500e+03,-4.69381e+00,-3.26333e+01,0.00000e+00,0.00000e+00,0.00000e+00
1.20500e+03,-3.95486e+00,-2.96666e+01,0.00000e+00,0.00000e+00,0.00000e+00
1.20500e+03,-3.20961e+00,-2.67000e+01,0.00000e+00,0.00000e+00,0.00000e+00
1.20500e+03,-2.45457e+00,-2.37333e+01,0.00000e+00,0.00000e+00,0.00000e+00
1.20500e+03,-1.69790e+00,-2.07666e+01,0.00000e+00,0.00000e+00,0.00000e+00
1.20500e+03,-9.35389e-01,-1.78000e+01,0.00000e+00,0.00000e+00,0.00000e+00
1.20500e+03,-1.72956e-01,-1.48333e+01,0.00000e+00,0.00000e+00,0.00000e+00
1.20500e+03,5.86594e-01,-1.18666e+01,0.00000e+00,0.00000e+00,0.00000e+00
1.20500e+03,1.34615e+00,-8.89999e+00,0.00000e+00,0.00000e+00,0.00000e+00
1.20500e+03,2.08771e+00,-5.93332e+00,0.00000e+00,0.00000e+00,0.00000e+00
1.20500e+03,2.82592e+00,-2.96666e+00,0.00000e+00,0.00000e+00,0.00000e+00
1.29010e+03,3.63234e+01,0.00000e+00,0.00000e+00,0.00000e+00,0.00000e+00
1.29010e+03,3.61405e+01,-2.76019e+00,0.00000e+00,0.00000e+00,0.00000e+00
1.29010e+03,3.58971e+01,-5.52039e+00,0.00000e+00,0.00000e+00,0.00000e+00
1.29010e+03,3.56513e+01,-8.28058e+00,0.00000e+00,0.00000e+00,0.00000e+00
1.29010e+03,3.53522e+01,-1.10408e+01,0.00000e+00,0.00000e+00,0.00000e+00
1.29010e+03,3.50407e+01,-1.38010e+01,0.00000e+00,0.00000e+00,0.00000e+00
1.29010e+03,3.46882e+01,-1.65612e+01,0.00000e+00,0.00000e+00,0.00000e+00
1.29010e+03,3.43158e+01,-1.93214e+01,0.00000e+00,0.00000e+00,0.00000e+00
1.29010e+03,3.39106e+01,-2.20816e+01,0.00000e+00,0.00000e+00,0.00000e+00
1.29010e+03,3.34783e+01,-2.48418e+01,0.00000e+00,0.00000e+00,0.00000e+00
1.29010e+03,3.30163e+01,-2.76019e+01,0.00000e+00,0.00000e+00,0.00000e+00
1.29010e+03,3.25183e+01,-3.03621e+01,0.00000e+00,0.00000e+00,0.00000e+00
1.29010e+03,3.19834e+01,-3.31223e+01,0.00000e+00,0.00000e+00,0.00000e+00
1.29010e+03,3.13964e+01,-3.58825e+01,0.00000e+00,0.00000e+00,0.00000e+00
1.29010e+03,3.07585e+01,-3.86427e+01,0.00000e+00,0.00000e+00,0.00000e+00
1.29010e+03,3.00599e+01,-4.14029e+01,0.00000e+00,0.00000e+00,0.00000e+00
1.29010e+03,2.92790e+01,-4.41631e+01,0.00000e+00,0.00000e+00,0.00000e+00
1.29010e+03,2.84408e+01,-4.69233e+01,0.00000e+00,0.00000e+00,0.00000e+00
1.29010e+03,2.74738e+01,-4.96835e+01,0.00000e+00,0.00000e+00,0.00000e+00
1.29010e+03,2.64534e+01,-5.24437e+01,0.00000e+00,0.00000e+00,0.00000e+00
1.29010e+03,2.52842e+01,-5.52039e+01,0.00000e+00,0.00000e+00,0.00000e+00
1.29010e+03,2.39957e+01,-5.79641e+01,0.00000e+00,0.00000e+00,0.00000e+00
1.29010e+03,2.25860e+01,-6.07243e+01,0.00000e+00,0.00000e+00,0.00000e+00
1.29010e+03,2.09725e+01,-6.34845e+01,0.00000e+00,0.00000e+00,0.00000e+00
1.29010e+03,1.91232e+01,-6.62447e+01,0.00000e+00,0.00000e+00,0.00000e+00
1.29010e+03,1.70072e+01,-6.90049e+01,0.00000e+00,0.00000e+00,0.00000e+00
1.29010e+03,1.45045e+01,-7.17651e+01,0.00000e+00,0.00000e+00,0.00000e+00
1.29010e+03,1.12920e+01,-7.45253e+01,0.00000e+00,0.00000e+00,0.00000e+00
1.29010e+03,6.94724e+00,-7.72855e+01,0.00000e+00,0.00000e+00,0.00000e+00
1.29010e+03,-2.81497e+00,-8.00457e+01,0.00000e+00,0.00000e+00,0.00000e+00
1.29010e+03,-3.51951e+00,-8.00521e+01,0.00000e+00,0.00000e+00,0.00000e+00
1.29010e+03,-9.93839e+00,-7.71931e+01,0.00000e+00,0.00000e+00,0.00000e+00
1.29010e+03,-1.07156e+01,-7.43341e+01,0.00000e+00,0.00000e+00,0.00000e+00
1.29010e+03,-1.09838e+01,-7.14751e+01,0.00000e+00,0.00000e+00,0.00000e+00
1.29010e+03,-1.10244e+01,-6.86160e+01,0.00000e+00,0.00000e+00,0.00000e+00
1.29010e+03,-1.08937e+01,-6.57570e+01,0.00000e+00,0.00000e+00,0.00000e+00
1.29010e+03,-1.06555e+01,-6.28980e+01,0.00000e+00,0.00000e+00,0.00000e+00
1.29010e+03,-1.03093e+01,-6.00390e+01,0.00000e+00,0.00000e+00,0.00000e+00
1.29010e+03,-9.89713e+00,-5.71800e+01,0.00000e+00,0.00000e+00,0.00000e+00
1.29010e+03,-9.44680e+00,-5.43210e+01,0.00000e+00,0.00000e+00,0.00000e+00
1.29010e+03,-8.93890e+00,-5.14620e+01,0.00000e+00,0.00000e+00,0.00000e+00
1.29010e+03,-8.39503e+00,-4.86030e+01,0.00000e+00,0.00000e+00,0.00000e+00
1.29010e+03,-7.81612e+00,-4.57440e+01,0.00000e+00,0.00000e+00,0.00000e+00
1.29010e+03,-7.20231e+00,-4.28850e+01,0.00000e+00,0.00000e+00,0.00000e+00
1.29010e+03,-6.56662e+00,-4.00260e+01,0.00000e+00,0.00000e+00,0.00000e+00
1.29010e+03,-5.90290e+00,-3.71670e+01,0.00000e+00,0.00000e+00,0.00000e+00
1.29010e+03,-5.22123e+00,-3.43080e+01,0.00000e+00,0.00000e+00,0.00000e+00
1.29010e+03,-4.52347e+00,-3.14490e+01,0.00000e+00,0.00000e+00,0.00000e+00
1.29010e+03,-3.81134e+00,-2.85900e+01,0.00000e+00,0.00000e+00,0.00000e+00
1.29010e+03,-3.09313e+00,-2.57310e+01,0.00000e+00,0.00000e+00,0.00000e+00
1.29010e+03,-2.36549e+00,-2.28720e+01,0.00000e+00,0.00000e+00,0.00000e+00
1.29010e+03,-1.63628e+00,-2.00130e+01,0.00000e+00,0.00000e+00,0.00000e+00
1.29010e+03,-9.01444e-01,-1.71540e+01,0.00000e+00,0.00000e+00,0.00000e+00
1.29010e+03,-1.66680e-01,-1.42950e+01,0.00000e+00,0.00000e+00,0.00000e+00
1.29010e+03,5.65307e-01,-1.14360e+01,0.00000e+00,0.00000e+00,0.00000e+00
1.29010e+03,1.29729e+00,-8.57701e+00,0.00000e+00,0.00000e+00,0.00000e+00
1.29010e+03,2.01195e+00,-5.71800e+00,0.00000e+00,0.00000e+00,0.00000e+00
1.29010e+03,2.72337e+00,-2.85900e+00,0.00000e+00,0.00000e+00,0.00000e+00
1.37170e+03,3.50118e+01,0.00000e+00,0.00000e+00,0.00000e+00,0.00000e+00
1.37170e+03,3.48355e+01,-2.66053e+00,0.00000e+00,0.00000e+00,0.00000e+00
1.37170e+03,3.46009e+01,-5.32106e+00,0.00000e+00,0.00000e+00,0.00000e+00
1.37170e+03,3.43640e+01,-7.98159e+00,0.00000e+00,0.00000e+00,0.00000e+00
1.37170e+03,3.40757e+01,-1.06421e+01,0.00000e+00,0.00000e+00,0.00000e+00
1.37170e+03,3.37754e+01,-1.33027e+01,0.00000e+00,0.00000e+00,0.00000e+00
1.37170e+03,3.34357e+01,-1.59632e+01,0.00000e+00,0.00000e+00,0.00000e+00
1.37170e+03,3.30768e+01,-1.86237e+01,0.00000e+00,0.00000e+00,0.00000e+00
1.37170e+03,3.26861e+01,-2.12842e+01,0.00000e+00,0.00000e+00,0.00000e+00
1.37170e+03,3.22695e+01,-2.39448e+01,0.00000e+00,0.00000e+00,0.00000e+00
1.37170e+03,3.18241e+01,-2.66053e+01,0.00000e+00,0.00000e+00,0.00000e+00
1.37170e+03,3.13441e+01,-2.92658e+01,0.00000e+00,0.00000e+00,0.00000e+00
1.37170e+03,3.08286e+01,-3.19264e+01,0.00000e+00,0.00000e+00,0.00000e+00
1.37170e+03,3.02627e+01,-3.45869e+01,0.00000e+00,0.00000e+00,0.00000e+00
1.37170e+03,2.96479e+01,-3.72474e+01,0.00000e+00,0.00000e+00,0.00000e+00
1.37170e+03,2.89745e+01,-3.99080e+01,0.00000e+00,0.00000e+00,0.00000e+00
1.37170e+03,2.82218e+01,-4.25685e+01,0.00000e+00,0.00000e+00,0.00000e+00
1.37170e+03,2.74139e+01,-4.52290e+01,0.00000e+00,0.00000e+00,0.00000e+00
1.37170e+03,2.64818e+01,-4.78895e+01,0.00000e+00,0.00000e+00,0.00000e+00
1.37170e+03,2.54982e+01,-5.05501e+01,0.00000e+00,0.00000e+00,0.00000e+00
1.37170e+03,2.43712e+01,-5.32106e+01,0.00000e+00,0.00000e+00,0.00000e+00
1.37170e+03,2.31293e+01,-5.58711e+01,0.00000e+00,0.00000e+00,0.00000e+00
1.37170e+03,2.17704e+01,-5.85317e+01,0.00000e+00,0.00000e+00,0.00000e+00
1.37170e+03,2.02153e+01,-6.11922e+01,0.00000e+00,0.00000e+00,0.00000e+00
1.37170e+03,1.84327e+01,-6.38527e+01,0.00000e+00,0.00000e+00,0.00000e+00
1.37170e+03,1.63931e+01,-6.65133e+01,0.00000e+00,0.00000e+00,0.00000e+00
1.37170e+03,1.39807e+01,-6.91738e+01,0.00000e+00,0.00000e+00,0.00000e+00
1.37170e+03,1.08843e+01,-7.18343e+01,0.00000e+00,0.00000e+00,0.00000e+00
1.37170e+03,6.69639e+00,-7.44949e+01,0.00000e+00,0.00000e+00,0.00000e+00
1.37170e+03,-2.71333e+00,-7.71554e+01,0.00000e+00,0.00000e+00,0.00000e+00
1.37170e+03,-3.39243e+00,-7.71616e+01,0.00000e+00,0.00000e+00,0.00000e+00
1.37170e+03,-9.57954e+00,-7.44058e+01,0.00000e+00,0.00000e+00,0.00000e+00
1.37170e+03,-1.03287e+01,-7.16500e+01,0.00000e+00,0.00000e+00,0.00000e+00
1.37170e+03,-1.05872e+01,-6.88942e+01,0.00000e+00,0.00000e+00,0.00000e+00
1.37170e+03,-1.06264e+01,-6.61385e+01,0.00000e+00,0.00000e+00,0.00000e+00
1.37170e+03,-1.05004e+01,-6.33827e+01,0.00000e+00,0.00000e+00,0.00000e+00
1.37170e+03,-1.02708e+01,-6.06269e+01,0.00000e+00,0.00000e+00,0.00000e+00
1.37170e+03,-9.93701e+00,-5.78712e+01,0.00000e+00,0.00000e+00,0.00000e+00
1.37170e+03,-9.53977e+00,-5.51154e+01,0.00000e+00,0.00000e+00,0.00000e+00
1.37170e+03,-9.10569e+00,-5.23596e+01,0.00000e+00,0.00000e+00,0.00000e+00
1.37170e+03,-8.61613e+00,-4.96039e+01,0.00000e+00,0.00000e+00,0.00000e+00
1.37170e+03,-8.09190e+00,-4.68481e+01,0.00000e+00,0.00000e+00,0.00000e+00
1.37170e+03,-7.53389e+00,-4.40923e+01,0.00000e+00,0.00000e+00,0.00000e+00
1.37170e+03,-6.94225e+00,-4.13365e+01,0.00000e+00,0.00000e+00,0.00000e+00
1.37170e+03,-6.32951e+00,-3.85808e+01,0.00000e+00,0.00000e+00,0.00000e+00
1.37170e+03,-5.68976e+00,-3.58250e+01,0.00000e+00,0.00000e+00,0.00000e+00
1.37170e+03,-5.03271e+00,-3.30692e+01,0.00000e+00,0.00000e+00,0.00000e+00
1.37170e+03,-4.36014e+00,-3.03135e+01,0.00000e+00,0.00000e+00,0.00000e+00
1.37170e+03,-3.67372e+00,-2.75577e+01,0.00000e+00,0.00000e+00,0.00000e+00
1.37170e+03,-2.98144e+00,-2.48019e+01,0.00000e+00,0.00000e+00,0.00000e+00
1.37170e+03,-2.28008e+00,-2.20462e+01,0.00000e+00,0.00000e+00,0.00000e+00
1.37170e+03,-1.57720e+00,-1.92904e+01,0.00000e+00,0.00000e+00,0.00000e+00
1.37170e+03,-8.68894e-01,-1.65346e+01,0.00000e+00,0.00000e+00,0.00000e+00
1.37170e+03,-1.60661e-01,-1.37788e+01,0.00000e+00,0.00000e+00,0.00000e+00
1.37170e+03,5.44895e-01,-1.10231e+01,0.00000e+00,0.00000e+00,0.00000e+00
1.37170e+03,1.25045e+00,-8.26731e+00,0.00000e+00,0.00000e+00,0.00000e+00
1.37170e+03,1.93930e+00,-5.51154e+00,0.00000e+00,0.00000e+00,0.00000e+00
1.37170e+03,2.62503e+00,-2.75577e+00,0.00000e+00,0.00000e+00,0.00000e+00
1.44960e+03,3.37597e+01,0.00000e+00,0.00000e+00,0.00000e+00,0.00000e+00
1.44960e+03,3.35897e+01,-2.56538e+00,0.00000e+00,0.00000e+00,0.00000e+00
1.44960e+03,3.33635e+01,-5.13077e+00,0.00000e+00,0.00000e+00,0.00000e+00
1.44960e+03,3.31351e+01,-7.69615e+00,0.00000e+00,0.00000e+00,0.00000e+00
1.44960e+03,3.28571e+01,-1.02615e+01,0.00000e+00,0.00000e+00,0.00000e+00
1.44960e+03,3.25675e+01,-1.28269e+01,0.00000e+00,0.00000e+00,0.00000e+00
1.44960e+03,3.22399e+01,-1.53923e+01,0.00000e+00,0.00000e+00,0.00000e+00
1.44960e+03,3.18939e+01,-1.79577e+01,0.00000e+00,0.00000e+00,0.00000e+00
1.44960e+03,3.15172e+01,-2.05231e+01,0.00000e+00,0.00000e+00,0.00000e+00
1.44960e+03,3.11155e+01,-2.30885e+01,0.00000e+00,0.00000e+00,0.00000e+00
1.44960e+03,3.06860e+01,-2.56538e+01,0.00000e+00,0.00000e+00,0.00000e+00
1.44960e+03,3.02232e+01,-2.82192e+01,0.00000e+00,0.00000e+00,0.00000e+00
1.44960e+03,2.97261e+01,-3.07846e+01,0.00000e+00,0.00000e+00,0.00000e+00
1.44960e+03,2.91805e+01,-3.33500e+01,0.00000e+00,0.00000e+00,0.00000e+00
1.44960e+03,2.85877e+01,-3.59154e+01,0.00000e+00,0.00000e+00,0.00000e+00
1.44960e+03,2.79383e+01,-3.84808e+01,0.00000e+00,0.00000e+00,0.00000e+00
1.44960e+03,2.72125e+01,-4.10462e+01,0.00000e+00,0.00000e+00,0.00000e+00
1.44960e+03,2.64335e+01,-4.36115e+01,0.00000e+00,0.00000e+00,0.00000e+00
1.44960e+03,2.55347e+01,-4.61769e+01,0.00000e+00,0.00000e+00,0.00000e+00
1.44960e+03,2.45863e+01,-4.87423e+01,0.00000e+00,0.00000e+00,0.00000e+00
1.44960e+03,2.34997e+01,-5.13077e+01,0.00000e+00,0.00000e+00,0.00000e+00
1.44960e+03,2.23022e+01,-5.38731e+01,0.00000e+00,0.00000e+00,0.00000e+00
1.44960e+03,2.09919e+01,-5.64385e+01,0.00000e+00,0.00000e+00,0.00000e+00
1.44960e+03,1.94923e+01,-5.90039e+01,0.00000e+00,0.00000e+00,0.00000e+00
1.44960e+03,1.77735e+01,-6.15692e+01,0.00000e+00,0.00000e+00,0.00000e+00
1.44960e+03,1.58069e+01,-6.41346e+01,0.00000e+00,0.00000e+00,0.00000e+00
1.44960e+03,1.34808e+01,-6.67000e+01,0.00000e+00,0.00000e+00,0.00000e+00
1.44960e+03,1.04950e+01,-6.92654e+01,0.00000e+00,0.00000e+00,0.00000e+00
1.44960e+03,6.45692e+00,-7.18308e+01,0.00000e+00,0.00000e+00,0.00000e+00
1.44960e+03,-2.61629e+00,-7.43962e+01,0.00000e+00,0.00000e+00,0.00000e+00
1.44960e+03,-3.27111e+00,-7.44021e+01,0.00000e+00,0.00000e+00,0.00000e+00
1.44960e+03,-9.23696e+00,-7.17449e+01,0.00000e+00,0.00000e+00,0.00000e+00
1.44960e+03,-9.95928e+00,-6.90877e+01,0.00000e+00,0.00000e+00,0.00000e+00
1.44960e+03,-1.02085e+01,-6.64305e+01,0.00000e+00,0.00000e+00,0.00000e+00
1.44960e+03,-1.02464e+01,-6.37732e+01,0.00000e+00,0.00000e+00,0.00000e+00
1.44960e+03,-1.01249e+01,-6.11160e+01,0.00000e+00,0.00000e+00,0.00000e+00
1.44960e+03,-9.90345e+00,-5.84588e+01,0.00000e+00,0.00000e+00,0.00000e+00
1.44960e+03,-9.58164e+00,-5.58016e+01,0.00000e+00,0.00000e+00,0.00000e+00
1.44960e+03,-9.19861e+00,-5.31444e+01,0.00000e+00,0.00000e+00,0.00000e+00
1.44960e+03,-8.78006e+00,-5.04872e+01,0.00000e+00,0.00000e+00,0.00000e+00
1.44960e+03,-8.30801e+00,-4.78299e+01,0.00000e+00,0.00000e+00,0.00000e+00
1.44960e+03,-7.80252e+00,-4.51727e+01,0.00000e+00,0.00000e+00,0.00000e+00
1.44960e+03,-7.26447e+00,-4.25155e+01,0.00000e+00,0.00000e+00,0.00000e+00
1.44960e+03,-6.69398e+00,-3.98583e+01,0.00000e+00,0.00000e+00,0.00000e+00
1.44960e+03,-6.10316e+00,-3.72011e+01,0.00000e+00,0.00000e+00,0.00000e+00
1.44960e+03,-5.48628e+00,-3.45438e+01,0.00000e+00,0.00000e+00,0.00000e+00
1.44960e+03,-4.85273e+00,-3.18866e+01,0.00000e+00,0.00000e+00,0.00000e+00
1.44960e+03,-4.20421e+00,-2.92294e+01,0.00000e+00,0.00000e+00,0.00000e+00
1.44960e+03,-3.54234e+00,-2.65722e+01,0.00000e+00,0.00000e+00,0.00000e+00
1.44960e+03,-2.87482e+00,-2.39150e+01,0.00000e+00,0.00000e+00,0.00000e+00
1.44960e+03,-2.19854e+00,-2.12577e+01,0.00000e+00,0.00000e+00,0.00000e+00
1.44960e+03,-1.52080e+00,-1.86005e+01,0.00000e+00,0.00000e+00,0.00000e+00
1.44960e+03,-8.37821e-01,-1.59433e+01,0.00000e+00,0.00000e+00,0.00000e+00
1.44960e+03,-1.54916e-01,-1.32861e+01,0.00000e+00,0.00000e+00,0.00000e+00
1.44960e+03,5.25408e-01,-1.06289e+01,0.00000e+00,0.00000e+00,0.00000e+00
1.44960e+03,1.20573e+00,-7.97166e+00,0.00000e+00,0.00000e+00,0.00000e+00
1.44960e+03,1.86995e+00,-5.31444e+00,0.00000e+00,0.00000e+00,0.00000e+00
1.44960e+03,2.53116e+00,-2.65722e+00,0.00000e+00,0.00000e+00,0.00000e+00
1.52340e+03,3.25736e+01,0.00000e+00,0.00000e+00,0.00000e+00,0.00000e+00
1.52340e+03,3.24095e+01,-2.47525e+00,0.00000e+00,0.00000e+00,0.00000e+00
1.52340e+03,3.21913e+01,-4.95049e+00,0.00000e+00,0.00000e+00,0.00000e+00
1.52340e+03,3.19709e+01,-7.42574e+00,0.00000e+00,0.00000e+00,0.00000e+00
1.52340e+03,3.17026e+01,-9.90099e+00,0.00000e+00,0.00000e+00,0.00000e+00
1.52340e+03,3.14232e+01,-1.23762e+01,0.00000e+00,0.00000e+00,0.00000e+00
1.52340e+03,3.11072e+01,-1.48515e+01,0.00000e+00,0.00000e+00,0.00000e+00
1.52340e+03,3.07733e+01,-1.73267e+01,0.00000e+00,0.00000e+00,0.00000e+00
1.52340e+03,3.04098e+01,-1.98020e+01,0.00000e+00,0.00000e+00,0.00000e+00
1.52340e+03,3.00222e+01,-2.22772e+01,0.00000e+00,0.00000e+00,0.00000e+00
1.52340e+03,2.96079e+01,-2.47525e+01,0.00000e+00,0.00000e+00,0.00000e+00
1.52340e+03,2.91613e+01,-2.72277e+01,0.00000e+00,0.00000e+00,0.00000e+00
1.52340e+03,2.86816e+01,-2.97030e+01,0.00000e+00,0.00000e+00,0.00000e+00
1.52340e+03,2.81552e+01,-3.21782e+01,0.00000e+00,0.00000e+00,0.00000e+00
1.52340e+03,2.75832e+01,-3.46535e+01,0.00000e+00,0.00000e+00,0.00000e+00
1.52340e+03,2.69567e+01,-3.71287e+01,0.00000e+00,0.00000e+00,0.00000e+00
1.52340e+03,2.62564e+01,-3.96040e+01,0.00000e+00,0.00000e+00,0.00000e+00
1.52340e+03,2.55047e+01,-4.20792e+01,0.00000e+00,0.00000e+00,0.00000e+00
1.52340e+03,2.46375e+01,-4.45544e+01,0.00000e+00,0.00000e+00,0.00000e+00
1.52340e+03,2.37225e+01,-4.70297e+01,0.00000e+00,0.00000e+00,0.00000e+00
1.52340e+03,2.26740e+01,-4.95049e+01,0.00000e+00,0.00000e+00,0.00000e+00
1.52340e+03,2.15185e+01,-5.19802e+01,0.00000e+00,0.00000e+00,0.00000e+00
1.52340e+03,2.02543e+01,-5.44554e+01,0.00000e+00,0.00000e+00,0.00000e+00
1.52340e+03,1.88075e+01,-5.69307e+01,0.00000e+00,0.00000e+00,0.00000e+00
1.52340e+03,1.71490e+01,-5.94059e+01,0.00000e+00,0.00000e+00,0.00000e+00
1.52340e+03,1.52515e+01,-6.18812e+01,0.00000e+00,0.00000e+00,0.00000e+00
1.52340e+03,1.30071e+01,-6.43564e+01,0.00000e+00,0.00000e+00,0.00000e+00
1.52340e+03,1.01263e+01,-6.68317e+01,0.00000e+00,0.00000e+00,0.00000e+00
1.52340e+03,6.23005e+00,-6.93069e+01,0.00000e+00,0.00000e+00,0.00000e+00
1.52340e+03,-2.52437e+00,-7.17822e+01,0.00000e+00,0.00000e+00,0.00000e+00
1.52340e+03,-3.15618e+00,-7.17879e+01,0.00000e+00,0.00000e+00,0.00000e+00
1.52340e+03,-8.91241e+00,-6.92241e+01,0.00000e+00,0.00000e+00,0.00000e+00
1.52340e+03,-9.60935e+00,-6.66602e+01,0.00000e+00,0.00000e+00,0.00000e+00
1.52340e+03,-9.84985e+00,-6.40963e+01,0.00000e+00,0.00000e+00,0.00000e+00
1.52340e+03,-9.88634e+00,-6.15325e+01,0.00000e+00,0.00000e+00,0.00000e+00
1.52340e+03,-9.76914e+00,-5.89686e+01,0.00000e+00,0.00000e+00,0.00000e+00
1.52340e+03,-9.55548e+00,-5.64048e+01,0.00000e+00,0.00000e+00,0.00000e+00
1.52340e+03,-9.24498e+00,-5.38409e+01,0.00000e+00,0.00000e+00,0.00000e+00
1.52340e+03,-8.87540e+00,-5.12771e+01,0.00000e+00,0.00000e+00,0.00000e+00
1.52340e+03,-8.47156e+00,-4.87132e+01,0.00000e+00,0.00000e+00,0.00000e+00
1.52340e+03,-8.01609e+00,-4.61494e+01,0.00000e+00,0.00000e+00,0.00000e+00
1.52340e+03,-7.52837e+00,-4.35855e+01,0.00000e+00,0.00000e+00,0.00000e+00
1.52340e+03,-7.00922e+00,-4.10217e+01,0.00000e+00,0.00000e+00,0.00000e+00
1.52340e+03,-6.45878e+00,-3.84578e+01,0.00000e+00,0.00000e+00,0.00000e+00
1.52340e+03,-5.88872e+00,-3.58940e+01,0.00000e+00,0.00000e+00,0.00000e+00
1.52340e+03,-5.29352e+00,-3.33301e+01,0.00000e+00,0.00000e+00,0.00000e+00
1.52340e+03,-4.68222e+00,-3.07662e+01,0.00000e+00,0.00000e+00,0.00000e+00
1.52340e+03,-4.05649e+00,-2.82024e+01,0.00000e+00,0.00000e+00,0.00000e+00
1.52340e+03,-3.41788e+00,-2.56385e+01,0.00000e+00,0.00000e+00,0.00000e+00
1.52340e+03,-2.77381e+00,-2.30747e+01,0.00000e+00,0.00000e+00,0.00000e+00
1.52340e+03,-2.12129e+00,-2.05108e+01,0.00000e+00,0.00000e+00,0.00000e+00
1.52340e+03,-1.46736e+00,-1.79470e+01,0.00000e+00,0.00000e+00,0.00000e+00
1.52340e+03,-8.08383e-01,-1.53831e+01,0.00000e+00,0.00000e+00,0.00000e+00
1.52340e+03,-1.49473e-01,-1.28193e+01,0.00000e+00,0.00000e+00,0.00000e+00
1.52340e+03,5.06948e-01,-1.02554e+01,0.00000e+00,0.00000e+00,0.00000e+00
1.52340e+03,1.16337e+00,-7.69156e+00,0.00000e+00,0.00000e+00,0.00000e+00
1.52340e+03,1.80424e+00,-5.12771e+00,0.00000e+00,0.00000e+00,0.00000e+00
1.52340e+03,2.44222e+00,-2.56385e+00,0.00000e+00,0.00000e+00,0.00000e+00
1.59310e+03,3.14533e+01,0.00000e+00,0.00000e+00,0.00000e+00,0.00000e+00
1.59310e+03,3.12949e+01,-2.39012e+00,0.00000e+00,0.00000e+00,0.00000e+00
1.59310e+03,3.10841e+01,-4.78023e+00,0.00000e+00,0.00000e+00,0.00000e+00
1.59310e+03,3.08713e+01,-7.17035e+00,0.00000e+00,0.00000e+00,0.00000e+00
1.59310e+03,3.06123e+01,-9.56047e+00,0.00000e+00,0.00000e+00,0.00000e+00
1.59310e+03,3.03425e+01,-1.19506e+01,0.00000e+00,0.00000e+00,0.00000e+00
1.59310e+03,3.00373e+01,-1.43407e+01,0.00000e+00,0.00000e+00,0.00000e+00
1.59310e+03,2.97149e+01,-1.67308e+01,0.00000e+00,0.00000e+00,0.00000e+00
1.59310e+03,2.93640e+01,-1.91209e+01,0.00000e+00,0.00000e+00,0.00000e+00
1.59310e+03,2.89896e+01,-2.15111e+01,0.00000e+00,0.00000e+00,0.00000e+00
1.59310e+03,2.85896e+01,-2.39012e+01,0.00000e+00,0.00000e+00,0.00000e+00
1.59310e+03,2.81583e+01,-2.62913e+01,0.00000e+00,0.00000e+00,0.00000e+00
1.59310e+03,2.76952e+01,-2.86814e+01,0.00000e+00,0.00000e+00,0.00000e+00
1.59310e+03,2.71869e+01,-3.10715e+01,0.00000e+00,0.00000e+00,0.00000e+00
1.59310e+03,2.66345e+01,-3.34616e+01,0.00000e+00,0.00000e+00,0.00000e+00
1.59310e+03,2.60296e+01,-3.58518e+01,0.00000e+00,0.00000e+00,0.00000e+00
1.59310e+03,2.53533e+01,-3.82419e+01,0.00000e+00,0.00000e+00,0.00000e+00
1.59310e+03,2.46276e+01,-4.06320e+01,0.00000e+00,0.00000e+00,0.00000e+00
1.59310e+03,2.37902e+01,-4.30221e+01,0.00000e+00,0.00000e+00,0.00000e+00
1.59310e+03,2.29066e+01,-4.54122e+01,0.00000e+00,0.00000e+00,0.00000e+00
1.59310e+03,2.18941e+01,-4.78023e+01,0.00000e+00,0.00000e+00,0.00000e+00
1.59310e+03,2.07785e+01,-5.01925e+01,0.00000e+00,0.00000e+00,0.00000e+00
1.59310e+03,1.95577e+01,-5.25826e+01,0.00000e+00,0.00000e+00,0.00000e+00
1.59310e+03,1.81606e+01,-5.49727e+01,0.00000e+00,0.00000e+00,0.00000e+00
1.59310e+03,1.65592e+01,-5.73628e+01,0.00000e+00,0.00000e+00,0.00000e+00
1.59310e+03,1.47269e+01,-5.97529e+01,0.00000e+00,0.00000e+00,0.00000e+00
1.59310e+03,1.25597e+01,-6.21430e+01,0.00000e+00,0.00000e+00,0.00000e+00
1.59310e+03,9.77800e+00,-6.45332e+01,0.00000e+00,0.00000e+00,0.00000e+00
1.59310e+03,6.01578e+00,-6.69233e+01,0.00000e+00,0.00000e+00,0.00000e+00
1.59310e+03,-2.43755e+00,-6.93134e+01,0.00000e+00,0.00000e+00,0.00000e+00
1.59310e+03,-3.04763e+00,-6.93189e+01,0.00000e+00,0.00000e+00,0.00000e+00
1.59310e+03,-8.60589e+00,-6.68433e+01,0.00000e+00,0.00000e+00,0.00000e+00
1.59310e+03,-9.27886e+00,-6.43676e+01,0.00000e+00,0.00000e+00,0.00000e+00
1.59310e+03,-9.51109e+00,-6.18919e+01,0.00000e+00,0.00000e+00,0.00000e+00
1.59310e+03,-9.54632e+00,-5.94162e+01,0.00000e+00,0.00000e+00,0.00000e+00
1.59310e+03,-9.43315e+00,-5.69406e+01,0.00000e+00,0.00000e+00,0.00000e+00
1.59310e+03,-9.22684e+00,-5.44649e+01,0.00000e+00,0.00000e+00,0.00000e+00
1.59310e+03,-8.92702e+00,-5.19892e+01,0.00000e+00,0.00000e+00,0.00000e+00
1.59310e+03,-8.57016e+00,-4.95135e+01,0.00000e+00,0.00000e+00,0.00000e+00
1.59310e+03,-8.18020e+00,-4.70379e+01,0.00000e+00,0.00000e+00,0.00000e+00
1.59310e+03,-7.74040e+00,-4.45622e+01,0.00000e+00,0.00000e+00,0.00000e+00
1.59310e+03,-7.26945e+00,-4.20865e+01,0.00000e+00,0.00000e+00,0.00000e+00
1.59310e+03,-6.76816e+00,-3.96108e+01,0.00000e+00,0.00000e+00,0.00000e+00
1.59310e+03,-6.23665e+00,-3.71351e+01,0.00000e+00,0.00000e+00,0.00000e+00
1.59310e+03,-5.68619e+00,-3.46595e+01,0.00000e+00,0.00000e+00,0.00000e+00
1.59310e+03,-5.11146e+00,-3.21838e+01,0.00000e+00,0.00000e+00,0.00000e+00
1.59310e+03,-4.52119e+00,-2.97081e+01,0.00000e+00,0.00000e+00,0.00000e+00
1.59310e+03,-3.91698e+00,-2.72324e+01,0.00000e+00,0.00000e+00,0.00000e+00
1.59310e+03,-3.30033e+00,-2.47568e+01,0.00000e+00,0.00000e+00,0.00000e+00
1.59310e+03,-2.67841e+00,-2.22811e+01,0.00000e+00,0.00000e+00,0.00000e+00
1.59310e+03,-2.04833e+00,-1.98054e+01,0.00000e+00,0.00000e+00,0.00000e+00
1.59310e+03,-1.41689e+00,-1.73297e+01,0.00000e+00,0.00000e+00,0.00000e+00
1.59310e+03,-7.80581e-01,-1.48541e+01,0.00000e+00,0.00000e+00,0.00000e+00
1.59310e+03,-1.44332e-01,-1.23784e+01,0.00000e+00,0.00000e+00,0.00000e+00
1.59310e+03,4.89512e-01,-9.90271e+00,0.00000e+00,0.00000e+00,0.00000e+00
1.59310e+03,1.12336e+00,-7.42703e+00,0.00000e+00,0.00000e+00,0.00000e+00
1.59310e+03,1.74219e+00,-4.95135e+00,0.00000e+00,0.00000e+00,0.00000e+00
1.59310e+03,2.35823e+00,-2.47568e+00,0.00000e+00,0.00000e+00,0.00000e+00
1.65850e+03,3.04021e+01,0.00000e+00,0.00000e+00,0.00000e+00,0.00000e+00
1.65850e+03,3.02490e+01,-2.31024e+00,0.00000e+00,0.00000e+00,0.00000e+00
1.65850e+03,3.00453e+01,-4.62048e+00,0.00000e+00,0.00000e+00,0.00000e+00
1.65850e+03,2.98396e+01,-6.93072e+00,0.00000e+00,0.00000e+00,0.00000e+00
1.65850e+03,2.95892e+01,-9.24096e+00,0.00000e+00,0.00000e+00,0.00000e+00
1.65850e+03,2.93285e+01,-1.15512e+01,0.00000e+00,0.00000e+00,0.00000e+00
1.65850e+03,2.90335e+01,-1.38614e+01,0.00000e+00,0.00000e+00,0.00000e+00
1.65850e+03,2.87218e+01,-1.61717e+01,0.00000e+00,0.00000e+00,0.00000e+00
1.65850e+03,2.83826e+01,-1.84819e+01,0.00000e+00,0.00000e+00,0.00000e+00
1.65850e+03,2.80208e+01,-2.07921e+01,0.00000e+00,0.00000e+00,0.00000e+00
1.65850e+03,2.76341e+01,-2.31024e+01,0.00000e+00,0.00000e+00,0.00000e+00
1.65850e+03,2.72173e+01,-2.54126e+01,0.00000e+00,0.00000e+00,0.00000e+00
1.65850e+03,2.67696e+01,-2.77229e+01,0.00000e+00,0.00000e+00,0.00000e+00
1.65850e+03,2.62783e+01,-3.00331e+01,0.00000e+00,0.00000e+00,0.00000e+00
1.65850e+03,2.57444e+01,-3.23433e+01,0.00000e+00,0.00000e+00,0.00000e+00
1.65850e+03,2.51597e+01,-3.46536e+01,0.00000e+00,0.00000e+00,0.00000e+00
1.65850e+03,2.45060e+01,-3.69638e+01,0.00000e+00,0.00000e+00,0.00000e+00
1.65850e+03,2.38045e+01,-3.92741e+01,0.00000e+00,0.00000e+00,0.00000e+00
1.65850e+03,2.29951e+01,-4.15843e+01,0.00000e+00,0.00000e+00,0.00000e+00
1.65850e+03,2.21410e+01,-4.38945e+01,0.00000e+00,0.00000e+00,0.00000e+00
1.65850e+03,2.11624e+01,-4.62048e+01,0.00000e+00,0.00000e+00,0.00000e+00
1.65850e+03,2.00840e+01,-4.85150e+01,0.00000e+00,0.00000e+00,0.00000e+00
1.65850e+03,1.89041e+01,-5.08253e+01,0.00000e+00,0.00000e+00,0.00000e+00
1.65850e+03,1.75537e+01,-5.31355e+01,0.00000e+00,0.00000e+00,0.00000e+00
1.65850e+03,1.60058e+01,-5.54457e+01,0.00000e+00,0.00000e+00,0.00000e+00
1.65850e+03,1.42348e+01,-5.77560e+01,0.00000e+00,0.00000e+00,0.00000e+00
1.65850e+03,1.21400e+01,-6.00662e+01,0.00000e+00,0.00000e+00,0.00000e+00
1.65850e+03,9.45122e+00,-6.23764e+01,0.00000e+00,0.00000e+00,0.00000e+00
1.65850e+03,5.81473e+00,-6.46867e+01,0.00000e+00,0.00000e+00,0.00000e+00
1.65850e+03,-2.35608e+00,-6.69969e+01,0.00000e+00,0.00000e+00,0.00000e+00
1.65850e+03,-2.94577e+00,-6.70023e+01,0.00000e+00,0.00000e+00,0.00000e+00
1.65850e+03,-8.31828e+00,-6.46093e+01,0.00000e+00,0.00000e+00,0.00000e+00
1.65850e+03,-8.96876e+00,-6.22164e+01,0.00000e+00,0.00000e+00,0.00000e+00
1.65850e+03,-9.19322e+00,-5.98235e+01,0.00000e+00,0.00000e+00,0.00000e+00
1.65850e+03,-9.22728e+00,-5.74305e+01,0.00000e+00,0.00000e+00,0.00000e+00
1.65850e+03,-9.11789e+00,-5.50376e+01,0.00000e+00,0.00000e+00,0.00000e+00
1.65850e+03,-8.91848e+00,-5.26447e+01,0.00000e+00,0.00000e+00,0.00000e+00
1.65850e+03,-8.62868e+00,-5.02517e+01,0.00000e+00,0.00000e+00,0.00000e+00
1.65850e+03,-8.28374e+00,-4.78588e+01,0.00000e+00,0.00000e+00,0.00000e+00
1.65850e+03,-7.90682e+00,-4.54658e+01,0.00000e+00,0.00000e+00,0.00000e+00
1.65850e+03,-7.48171e+00,-4.30729e+01,0.00000e+00,0.00000e+00,0.00000e+00
1.65850e+03,-7.02650e+00,-4.06800e+01,0.00000e+00,0.00000e+00,0.00000e+00
1.65850e+03,-6.54196e+00,-3.82870e+01,0.00000e+00,0.00000e+00,0.00000e+00
1.65850e+03,-6.02822e+00,-3.58941e+01,0.00000e+00,0.00000e+00,0.00000e+00
1.65850e+03,-5.49615e+00,-3.35011e+01,0.00000e+00,0.00000e+00,0.00000e+00
1.65850e+03,-4.94063e+00,-3.11082e+01,0.00000e+00,0.00000e+00,0.00000e+00
1.65850e+03,-4.37009e+00,-2.87153e+01,0.00000e+00,0.00000e+00,0.00000e+00
1.65850e+03,-3.78607e+00,-2.63223e+01,0.00000e+00,0.00000e+00,0.00000e+00
1.65850e+03,-3.19003e+00,-2.39294e+01,0.00000e+00,0.00000e+00,0.00000e+00
1.65850e+03,-2.58890e+00,-2.15364e+01,0.00000e+00,0.00000e+00,0.00000e+00
1.65850e+03,-1.97988e+00,-1.91435e+01,0.00000e+00,0.00000e+00,0.00000e+00
1.65850e+03,-1.36954e+00,-1.67506e+01,0.00000e+00,0.00000e+00,0.00000e+00
1.65850e+03,-7.54494e-01,-1.43576e+01,0.00000e+00,0.00000e+00,0.00000e+00
1.65850e+03,-1.39508e-01,-1.19647e+01,0.00000e+00,0.00000e+00,0.00000e+00
1.65850e+03,4.73153e-01,-9.57176e+00,0.00000e+00,0.00000e+00,0.00000e+00
1.65850e+03,1.08581e+00,-7.17882e+00,0.00000e+00,0.00000e+00,0.00000e+00
1.65850e+03,1.68397e+00,-4.78588e+00,0.00000e+00,0.00000e+00,0.00000e+00
1.65850e+03,2.27942e+00,-2.39294e+00,0.00000e+00,0.00000e+00,0.00000e+00
1.71930e+03,2.94249e+01,0.00000e+00,0.00000e+00,0.00000e+00,0.00000e+00
1.71930e+03,2.92767e+01,-2.23598e+00,0.00000e+00,0.00000e+00,0.00000e+00
1.71930e+03,2.90795e+01,-4.47196e+00,0.00000e+00,0.00000e+00,0.00000e+00
1.71930e+03,2.88804e+01,-6.70794e+00,0.00000e+00,0.00000e+00,0.00000e+00
1.71930e+03,2.86381e+01,-8.94392e+00,0.00000e+00,0.00000e+00,0.00000e+00
1.71930e+03,2.83857e+01,-1.11799e+01,0.00000e+00,0.00000e+00,0.00000e+00
1.71930e+03,2.81002e+01,-1.34159e+01,0.00000e+00,0.00000e+00,0.00000e+00
1.71930e+03,2.77986e+01,-1.56519e+01,0.00000e+00,0.00000e+00,0.00000e+00
1.71930e+03,2.74703e+01,-1.78878e+01,0.00000e+00,0.00000e+00,0.00000e+00
1.71930e+03,2.71201e+01,-2.01238e+01,0.00000e+00,0.00000e+00,0.00000e+00
1.71930e+03,2.67458e+01,-2.23598e+01,0.00000e+00,0.00000e+00,0.00000e+00
1.71930e+03,2.63424e+01,-2.45958e+01,0.00000e+00,0.00000e+00,0.00000e+00
1.71930e+03,2.59091e+01,-2.68317e+01,0.00000e+00,0.00000e+00,0.00000e+00
1.71930e+03,2.54336e+01,-2.90677e+01,0.00000e+00,0.00000e+00,0.00000e+00
1.71930e+03,2.49169e+01,-3.13037e+01,0.00000e+00,0.00000e+00,0.00000e+00
1.71930e+03,2.43509e+01,-3.35397e+01,0.00000e+00,0.00000e+00,0.00000e+00
1.71930e+03,2.37183e+01,-3.57757e+01,0.00000e+00,0.00000e+00,0.00000e+00
1.71930e+03,2.30393e+01,-3.80116e+01,0.00000e+00,0.00000e+00,0.00000e+00
1.71930e+03,2.22560e+01,-4.02476e+01,0.00000e+00,0.00000e+00,0.00000e+00
1.71930e+03,2.14293e+01,-4.24836e+01,0.00000e+00,0.00000e+00,0.00000e+00
1.71930e+03,2.04822e+01,-4.47196e+01,0.00000e+00,0.00000e+00,0.00000e+00
1.71930e+03,1.94385e+01,-4.69556e+01,0.00000e+00,0.00000e+00,0.00000e+00
1.71930e+03,1.82964e+01,-4.91915e+01,0.00000e+00,0.00000e+00,0.00000e+00
1.71930e+03,1.69894e+01,-5.14275e+01,0.00000e+00,0.00000e+00,0.00000e+00
1.71930e+03,1.54913e+01,-5.36635e+01,0.00000e+00,0.00000e+00,0.00000e+00
1.71930e+03,1.37772e+01,-5.58995e+01,0.00000e+00,0.00000e+00,0.00000e+00
1.71930e+03,1.17498e+01,-5.81355e+01,0.00000e+00,0.00000e+00,0.00000e+00
1.71930e+03,9.14742e+00,-6.03714e+01,0.00000e+00,0.00000e+00,0.00000e+00
1.71930e+03,5.62782e+00,-6.26074e+01,0.00000e+00,0.00000e+00,0.00000e+00
1.71930e+03,-2.28035e+00,-6.48434e+01,0.00000e+00,0.00000e+00,0.00000e+00
1.71930e+03,-2.85109e+00,-6.48486e+01,0.00000e+00,0.00000e+00,0.00000e+00
1.71930e+03,-8.05090e+00,-6.25326e+01,0.00000e+00,0.00000e+00,0.00000e+00
1.71930e+03,-8.68047e+00,-6.02165e+01,0.00000e+00,0.00000e+00,0.00000e+00
1.71930e+03,-8.89772e+00,-5.79005e+01,0.00000e+00,0.00000e+00,0.00000e+00
1.71930e+03,-8.93068e+00,-5.55845e+01,0.00000e+00,0.00000e+00,0.00000e+00
1.71930e+03,-8.82481e+00,-5.32685e+01,0.00000e+00,0.00000e+00,0.00000e+00
1.71930e+03,-8.63181e+00,-5.09525e+01,0.00000e+00,0.00000e+00,0.00000e+00
1.71930e+03,-8.35132e+00,-4.86364e+01,0.00000e+00,0.00000e+00,0.00000e+00
1.71930e+03,-8.01747e+00,-4.63204e+01,0.00000e+00,0.00000e+00,0.00000e+00
1.71930e+03,-7.65266e+00,-4.40044e+01,0.00000e+00,0.00000e+00,0.00000e+00
1.71930e+03,-7.24122e+00,-4.16884e+01,0.00000e+00,0.00000e+00,0.00000e+00
1.71930e+03,-6.80064e+00,-3.93724e+01,0.00000e+00,0.00000e+00,0.00000e+00
1.71930e+03,-6.33168e+00,-3.70563e+01,0.00000e+00,0.00000e+00,0.00000e+00
1.71930e+03,-5.83445e+00,-3.47403e+01,0.00000e+00,0.00000e+00,0.00000e+00
1.71930e+03,-5.31949e+00,-3.24243e+01,0.00000e+00,0.00000e+00,0.00000e+00
1.71930e+03,-4.78182e+00,-3.01083e+01,0.00000e+00,0.00000e+00,0.00000e+00
1.71930e+03,-4.22962e+00,-2.77922e+01,0.00000e+00,0.00000e+00,0.00000e+00
1.71930e+03,-3.66437e+00,-2.54762e+01,0.00000e+00,0.00000e+00,0.00000e+00
1.71930e+03,-3.08749e+00,-2.31602e+01,0.00000e+00,0.00000e+00,0.00000e+00
1.71930e+03,-2.50568e+00,-2.08442e+01,0.00000e+00,0.00000e+00,0.00000e+00
1.71930e+03,-1.91624e+00,-1.85282e+01,0.00000e+00,0.00000e+00,0.00000e+00
1.71930e+03,-1.32552e+00,-1.62121e+01,0.00000e+00,0.00000e+00,0.00000e+00
1.71930e+03,-7.30242e-01,-1.38961e+01,0.00000e+00,0.00000e+00,0.00000e+00
1.71930e+03,-1.35024e-01,-1.15801e+01,0.00000e+00,0.00000e+00,0.00000e+00
1.71930e+03,4.57944e-01,-9.26408e+00,0.00000e+00,0.00000e+00,0.00000e+00
1.71930e+03,1.05091e+00,-6.94806e+00,0.00000e+00,0.00000e+00,0.00000e+00
1.71930e+03,1.62984e+00,-4.63204e+00,0.00000e+00,0.00000e+00,0.00000e+00
1.71930e+03,2.20615e+00,-2.31602e+00,0.00000e+00,0.00000e+00,0.00000e+00
1.77540e+03,2.77303e+01,0.00000e+00,0.00000e+00,0.00000e+00,0.00000e+00
1.77540e+03,2.75906e+01,-2.10721e+00,0.00000e+00,0.00000e+00,0.00000e+00
1.77540e+03,2.74048e+01,-4.21442e+00,0.00000e+00,0.00000e+00,0.00000e+00
1.77540e+03,2.72172e+01,-6.32163e+00,0.00000e+00,0.00000e+00,0.00000e+00
1.77540e+03,2.69888e+01,-8.42884e+00,0.00000e+00,0.00000e+00,0.00000e+00
1.77540e+03,2.67510e+01,-1.05361e+01,0.00000e+00,0.00000e+00,0.00000e+00
1.77540e+03,2.64819e+01,-1.26433e+01,0.00000e+00,0.00000e+00,0.00000e+00
1.77540e+03,2.61977e+01,-1.47505e+01,0.00000e+00,0.00000e+00,0.00000e+00
1.77540e+03,2.58883e+01,-1.68577e+01,0.00000e+00,0.00000e+00,0.00000e+00
1.77540e+03,2.55583e+01,-1.89649e+01,0.00000e+00,0.00000e+00,0.00000e+00
1.77540e+03,2.52056e+01,-2.10721e+01,0.00000e+00,0.00000e+00,0.00000e+00
1.77540e+03,2.48254e+01,-2.31793e+01,0.00000e+00,0.00000e+00,0.00000e+00
1.77540e+03,2.44171e+01,-2.52865e+01,0.00000e+00,0.00000e+00,0.00000e+00
1.77540e+03,2.39689e+01,-2.73937e+01,0.00000e+00,0.00000e+00,0.00000e+00
1.77540e+03,2.34819e+01,-2.95009e+01,0.00000e+00,0.00000e+00,0.00000e+00
1.77540e+03,2.29486e+01,-3.16082e+01,0.00000e+00,0.00000e+00,0.00000e+00
1.77540e+03,2.23524e+01,-3.37154e+01,0.00000e+00,0.00000e+00,0.00000e+00
1.77540e+03,2.17125e+01,-3.58226e+01,0.00000e+00,0.00000e+00,0.00000e+00
1.77540e+03,2.09743e+01,-3.79298e+01,0.00000e+00,0.00000e+00,0.00000e+00
1.77540e+03,2.01952e+01,-4.00370e+01,0.00000e+00,0.00000e+00,0.00000e+00
1.77540e+03,1.93026e+01,-4.21442e+01,0.00000e+00,0.00000e+00,0.00000e+00
1.77540e+03,1.83190e+01,-4.42514e+01,0.00000e+00,0.00000e+00,0.00000e+00
1.77540e+03,1.72428e+01,-4.63586e+01,0.00000e+00,0.00000e+00,0.00000e+00
1.77540e+03,1.60110e+01,-4.84658e+01,0.00000e+00,0.00000e+00,0.00000e+00
1.77540e+03,1.45992e+01,-5.05731e+01,0.00000e+00,0.00000e+00,0.00000e+00
1.77540e+03,1.29838e+01,-5.26803e+01,0.00000e+00,0.00000e+00,0.00000e+00
1.77540e+03,1.10731e+01,-5.47875e+01,0.00000e+00,0.00000e+00,0.00000e+00
1.77540e+03,8.62063e+00,-5.68947e+01,0.00000e+00,0.00000e+00,0.00000e+00
1.77540e+03,5.30372e+00,-5.90019e+01,0.00000e+00,0.00000e+00,0.00000e+00
1.77540e+03,-2.14903e+00,-6.11091e+01,0.00000e+00,0.00000e+00,0.00000e+00
1.77540e+03,-2.68689e+00,-6.11140e+01,0.00000e+00,0.00000e+00,0.00000e+00
1.77540e+03,-7.58725e+00,-5.89314e+01,0.00000e+00,0.00000e+00,0.00000e+00
1.77540e+03,-8.18057e+00,-5.67487e+01,0.00000e+00,0.00000e+00,0.00000e+00
1.77540e+03,-8.38530e+00,-5.45661e+01,0.00000e+00,0.00000e+00,0.00000e+00
1.77540e+03,-8.41637e+00,-5.23834e+01,0.00000e+00,0.00000e+00,0.00000e+00
1.77540e+03,-8.31659e+00,-5.02008e+01,0.00000e+00,0.00000e+00,0.00000e+00
1.77540e+03,-8.13471e+00,-4.80181e+01,0.00000e+00,0.00000e+00,0.00000e+00
1.77540e+03,-7.87037e+00,-4.58355e+01,0.00000e+00,0.00000e+00,0.00000e+00
1.77540e+03,-7.55575e+00,-4.36529e+01,0.00000e+00,0.00000e+00,0.00000e+00
1.77540e+03,-7.21195e+00,-4.14702e+01,0.00000e+00,0.00000e+00,0.00000e+00
1.77540e+03,-6.82421e+00,-3.92876e+01,0.00000e+00,0.00000e+00,0.00000e+00
1.77540e+03,-6.40900e+00,-3.71049e+01,0.00000e+00,0.00000e+00,0.00000e+00
1.77540e+03,-5.96704e+00,-3.49223e+01,0.00000e+00,0.00000e+00,0.00000e+00
1.77540e+03,-5.49844e+00,-3.27396e+01,0.00000e+00,0.00000e+00,0.00000e+00
1.77540e+03,-5.01314e+00,-3.05570e+01,0.00000e+00,0.00000e+00,0.00000e+00
1.77540e+03,-4.50644e+00,-2.83744e+01,0.00000e+00,0.00000e+00,0.00000e+00
1.77540e+03,-3.98604e+00,-2.61917e+01,0.00000e+00,0.00000e+00,0.00000e+00
1.77540e+03,-3.45334e+00,-2.40091e+01,0.00000e+00,0.00000e+00,0.00000e+00
1.77540e+03,-2.90969e+00,-2.18264e+01,0.00000e+00,0.00000e+00,0.00000e+00
1.77540e+03,-2.36138e+00,-1.96438e+01,0.00000e+00,0.00000e+00,0.00000e+00
1.77540e+03,-1.80588e+00,-1.74611e+01,0.00000e+00,0.00000e+00,0.00000e+00
1.77540e+03,-1.24918e+00,-1.52785e+01,0.00000e+00,0.00000e+00,0.00000e+00
1.77540e+03,-6.88187e-01,-1.30959e+01,0.00000e+00,0.00000e+00,0.00000e+00
1.77540e+03,-1.27248e-01,-1.09132e+01,0.00000e+00,0.00000e+00,0.00000e+00
1.77540e+03,4.31571e-01,-8.73057e+00,0.00000e+00,0.00000e+00,0.00000e+00
1.77540e+03,9.90390e-01,-6.54793e+00,0.00000e+00,0.00000e+00,0.00000e+00
1.77540e+03,1.53598e+00,-4.36529e+00,0.00000e+00,0.00000e+00,0.00000e+00
1.77540e+03,2.07910e+00,-2.18264e+00,0.00000e+00,0.00000e+00,0.00000e+00
1.82660e+03,2.53092e+01,0.00000e+00,0.00000e+00,0.00000e+00,0.00000e+00
1.82660e+03,2.51817e+01,-1.92323e+00,0.00000e+00,0.00000e+00,0.00000e+00
1.82660e+03,2.50121e+01,-3.84646e+00,0.00000e+00,0.00000e+00,0.00000e+00
1.82660e+03,2.48409e+01,-5.76969e+00,0.00000e+00,0.00000e+00,0.00000e+00
1.82660e+03,2.46324e+01,-7.69292e+00,0.00000e+00,0.00000e+00,0.00000e+00
1.82660e+03,2.44154e+01,-9.61614e+00,0.00000e+00,0.00000e+00,0.00000e+00
1.82660e+03,2.41698e+01,-1.15394e+01,0.00000e+00,0.00000e+00,0.00000e+00
1.82660e+03,2.39103e+01,-1.34626e+01,0.00000e+00,0.00000e+00,0.00000e+00
1.82660e+03,2.36280e+01,-1.53858e+01,0.00000e+00,0.00000e+00,0.00000e+00
1.82660e+03,2.33268e+01,-1.73091e+01,0.00000e+00,0.00000e+00,0.00000e+00
1.82660e+03,2.30049e+01,-1.92323e+01,0.00000e+00,0.00000e+00,0.00000e+00
1.82660e+03,2.26579e+01,-2.11555e+01,0.00000e+00,0.00000e+00,0.00000e+00
1.82660e+03,2.22852e+01,-2.30787e+01,0.00000e+00,0.00000e+00,0.00000e+00
1.82660e+03,2.18762e+01,-2.50020e+01,0.00000e+00,0.00000e+00,0.00000e+00
1.82660e+03,2.14317e+01,-2.69252e+01,0.00000e+00,0.00000e+00,0.00000e+00
1.82660e+03,2.09449e+01,-2.88484e+01,0.00000e+00,0.00000e+00,0.00000e+00
1.82660e+03,2.04008e+01,-3.07717e+01,0.00000e+00,0.00000e+00,0.00000e+00
1.82660e+03,1.98168e+01,-3.26949e+01,0.00000e+00,0.00000e+00,0.00000e+00
1.82660e+03,1.91430e+01,-3.46181e+01,0.00000e+00,0.00000e+00,0.00000e+00
1.82660e+03,1.84320e+01,-3.65413e+01,0.00000e+00,0.00000e+00,0.00000e+00
1.82660e+03,1.76173e+01,-3.84646e+01,0.00000e+00,0.00000e+00,0.00000e+00
1.82660e+03,1.67196e+01,-4.03878e+01,0.00000e+00,0.00000e+00,0.00000e+00
1.82660e+03,1.57373e+01,-4.23110e+01,0.00000e+00,0.00000e+00,0.00000e+00
1.82660e+03,1.46131e+01,-4.42343e+01,0.00000e+00,0.00000e+00,0.00000e+00
1.82660e+03,1.33245e+01,-4.61575e+01,0.00000e+00,0.00000e+00,0.00000e+00
1.82660e+03,1.18502e+01,-4.80807e+01,0.00000e+00,0.00000e+00,0.00000e+00
1.82660e+03,1.01063e+01,-5.00040e+01,0.00000e+00,0.00000e+00,0.00000e+00
1.82660e+03,7.86795e+00,-5.19272e+01,0.00000e+00,0.00000e+00,0.00000e+00
1.82660e+03,4.84065e+00,-5.38504e+01,0.00000e+00,0.00000e+00,0.00000e+00
1.82660e+03,-1.96139e+00,-5.57736e+01,0.00000e+00,0.00000e+00,0.00000e+00
1.82660e+03,-2.45230e+00,-5.57781e+01,0.00000e+00,0.00000e+00,0.00000e+00
1.82660e+03,-6.92480e+00,-5.37860e+01,0.00000e+00,0.00000e+00,0.00000e+00
1.82660e+03,-7.46632e+00,-5.17940e+01,0.00000e+00,0.00000e+00,0.00000e+00
1.82660e+03,-7.65318e+00,-4.98019e+01,0.00000e+00,0.00000e+00,0.00000e+00
1.82660e+03,-7.68153e+00,-4.78098e+01,0.00000e+00,0.00000e+00,0.00000e+00
1.82660e+03,-7.59047e+00,-4.58177e+01,0.00000e+00,0.00000e+00,0.00000e+00
1.82660e+03,-7.42446e+00,-4.38257e+01,0.00000e+00,0.00000e+00,0.00000e+00
1.82660e+03,-7.18321e+00,-4.18336e+01,0.00000e+00,0.00000e+00,0.00000e+00
1.82660e+03,-6.89605e+00,-3.98415e+01,0.00000e+00,0.00000e+00,0.00000e+00
1.82660e+03,-6.58227e+00,-3.78494e+01,0.00000e+00,0.00000e+00,0.00000e+00
1.82660e+03,-6.22838e+00,-3.58574e+01,0.00000e+00,0.00000e+00,0.00000e+00
1.82660e+03,-5.84943e+00,-3.38653e+01,0.00000e+00,0.00000e+00,0.00000e+00
1.82660e+03,-5.44606e+00,-3.18732e+01,0.00000e+00,0.00000e+00,0.00000e+00
1.82660e+03,-5.01837e+00,-2.98811e+01,0.00000e+00,0.00000e+00,0.00000e+00
1.82660e+03,-4.57544e+00,-2.78891e+01,0.00000e+00,0.00000e+00,0.00000e+00
1.82660e+03,-4.11298e+00,-2.58970e+01,0.00000e+00,0.00000e+00,0.00000e+00
1.82660e+03,-3.63801e+00,-2.39049e+01,0.00000e+00,0.00000e+00,0.00000e+00
1.82660e+03,-3.15183e+00,-2.19128e+01,0.00000e+00,0.00000e+00,0.00000e+00
1.82660e+03,-2.65564e+00,-1.99208e+01,0.00000e+00,0.00000e+00,0.00000e+00
1.82660e+03,-2.15521e+00,-1.79287e+01,0.00000e+00,0.00000e+00,0.00000e+00
1.82660e+03,-1.64821e+00,-1.59366e+01,0.00000e+00,0.00000e+00,0.00000e+00
1.82660e+03,-1.14012e+00,-1.39445e+01,0.00000e+00,0.00000e+00,0.00000e+00
1.82660e+03,-6.28101e-01,-1.19525e+01,0.00000e+00,0.00000e+00,0.00000e+00
1.82660e+03,-1.16138e-01,-9.96038e+00,0.00000e+00,0.00000e+00,0.00000e+00
1.82660e+03,3.93890e-01,-7.96830e+00,0.00000e+00,0.00000e+00,0.00000e+00
1.82660e+03,9.03919e-01,-5.97623e+00,0.00000e+00,0.00000e+00,0.00000e+00
1.82660e+03,1.40187e+00,-3.98415e+00,0.00000e+00,0.00000e+00,0.00000e+00
1.82660e+03,1.89757e+00,-1.99208e+00,0.00000e+00,0.00000e+00,0.00000e+00
1.87280e+03,2.31244e+01,0.00000e+00,0.00000e+00,0.00000e+00,0.00000e+00
1.87280e+03,2.30080e+01,-1.75721e+00,0.00000e+00,0.00000e+00,0.00000e+00
1.87280e+03,2.28531e+01,-3.51443e+00,0.00000e+00,0.00000e+00,0.00000e+00
1.87280e+03,2.26966e+01,-5.27164e+00,0.00000e+00,0.00000e+00,0.00000e+00
1.87280e+03,2.25061e+01,-7.02886e+00,0.00000e+00,0.00000e+00,0.00000e+00
1.87280e+03,2.23078e+01,-8.78607e+00,0.00000e+00,0.00000e+00,0.00000e+00
1.87280e+03,2.20834e+01,-1.05433e+01,0.00000e+00,0.00000e+00,0.00000e+00
1.87280e+03,2.18464e+01,-1.23005e+01,0.00000e+00,0.00000e+00,0.00000e+00
1.87280e+03,2.15884e+01,-1.40577e+01,0.00000e+00,0.00000e+00,0.00000e+00
1.87280e+03,2.13132e+01,-1.58149e+01,0.00000e+00,0.00000e+00,0.00000e+00
1.87280e+03,2.10191e+01,-1.75721e+01,0.00000e+00,0.00000e+00,0.00000e+00
1.87280e+03,2.07020e+01,-1.93294e+01,0.00000e+00,0.00000e+00,0.00000e+00
1.87280e+03,2.03615e+01,-2.10866e+01,0.00000e+00,0.00000e+00,0.00000e+00
1.87280e+03,1.99878e+01,-2.28438e+01,0.00000e+00,0.00000e+00,0.00000e+00
1.87280e+03,1.95817e+01,-2.46010e+01,0.00000e+00,0.00000e+00,0.00000e+00
1.87280e+03,1.91369e+01,-2.63582e+01,0.00000e+00,0.00000e+00,0.00000e+00
1.87280e+03,1.86398e+01,-2.81154e+01,0.00000e+00,0.00000e+00,0.00000e+00
1.87280e+03,1.81062e+01,-2.98726e+01,0.00000e+00,0.00000e+00,0.00000e+00
1.87280e+03,1.74905e+01,-3.16299e+01,0.00000e+00,0.00000e+00,0.00000e+00
1.87280e+03,1.68409e+01,-3.33871e+01,0.00000e+00,0.00000e+00,0.00000e+00
1.87280e+03,1.60966e+01,-3.51443e+01,0.00000e+00,0.00000e+00,0.00000e+00
1.87280e+03,1.52763e+01,-3.69015e+01,0.00000e+00,0.00000e+00,0.00000e+00
1.87280e+03,1.43788e+01,-3.86587e+01,0.00000e+00,0.00000e+00,0.00000e+00
1.87280e+03,1.33517e+01,-4.04159e+01,0.00000e+00,0.00000e+00,0.00000e+00
1.87280e+03,1.21743e+01,-4.21731e+01,0.00000e+00,0.00000e+00,0.00000e+00
1.87280e+03,1.08272e+01,-4.39304e+01,0.00000e+00,0.00000e+00,0.00000e+00
1.87280e+03,9.23393e+00,-4.56876e+01,0.00000e+00,0.00000e+00,0.00000e+00
1.87280e+03,7.18879e+00,-4.74448e+01,0.00000e+00,0.00000e+00,0.00000e+00
1.87280e+03,4.42280e+00,-4.92020e+01,0.00000e+00,0.00000e+00,0.00000e+00
1.87280e+03,-1.79208e+00,-5.09592e+01,0.00000e+00,0.00000e+00,0.00000e+00
1.87280e+03,-2.24062e+00,-5.09633e+01,0.00000e+00,0.00000e+00,0.00000e+00
1.87280e+03,-6.32705e+00,-4.91432e+01,0.00000e+00,0.00000e+00,0.00000e+00
1.87280e+03,-6.82182e+00,-4.73231e+01,0.00000e+00,0.00000e+00,0.00000e+00
1.87280e+03,-6.99255e+00,-4.55029e+01,0.00000e+00,0.00000e+00,0.00000e+00
1.87280e+03,-7.01846e+00,-4.36828e+01,0.00000e+00,0.00000e+00,0.00000e+00
1.87280e+03,-6.93525e+00,-4.18627e+01,0.00000e+00,0.00000e+00,0.00000e+00
1.87280e+03,-6.78358e+00,-4.00426e+01,0.00000e+00,0.00000e+00,0.00000e+00
1.87280e+03,-6.56315e+00,-3.82225e+01,0.00000e+00,0.00000e+00,0.00000e+00
1.87280e+03,-6.30078e+00,-3.64024e+01,0.00000e+00,0.00000e+00,0.00000e+00
1.87280e+03,-6.01408e+00,-3.45822e+01,0.00000e+00,0.00000e+00,0.00000e+00
1.87280e+03,-5.69074e+00,-3.27621e+01,0.00000e+00,0.00000e+00,0.00000e+00
1.87280e+03,-5.34450e+00,-3.09420e+01,0.00000e+00,0.00000e+00,0.00000e+00
1.87280e+03,-4.97595e+00,-2.91219e+01,0.00000e+00,0.00000e+00,0.00000e+00
1.87280e+03,-4.58518e+00,-2.73018e+01,0.00000e+00,0.00000e+00,0.00000e+00
1.87280e+03,-4.18049e+00,-2.54816e+01,0.00000e+00,0.00000e+00,0.00000e+00
1.87280e+03,-3.75794e+00,-2.36615e+01,0.00000e+00,0.00000e+00,0.00000e+00
1.87280e+03,-3.32398e+00,-2.18414e+01,0.00000e+00,0.00000e+00,0.00000e+00
1.87280e+03,-2.87976e+00,-2.00213e+01,0.00000e+00,0.00000e+00,0.00000e+00
1.87280e+03,-2.42640e+00,-1.82012e+01,0.00000e+00,0.00000e+00,0.00000e+00
1.87280e+03,-1.96917e+00,-1.63811e+01,0.00000e+00,0.00000e+00,0.00000e+00
1.87280e+03,-1.50594e+00,-1.45609e+01,0.00000e+00,0.00000e+00,0.00000e+00
1.87280e+03,-1.04170e+00,-1.27408e+01,0.00000e+00,0.00000e+00,0.00000e+00
1.87280e+03,-5.73883e-01,-1.09207e+01,0.00000e+00,0.00000e+00,0.00000e+00
1.87280e+03,-1.06113e-01,-9.10059e+00,0.00000e+00,0.00000e+00,0.00000e+00
1.87280e+03,3.59890e-01,-7.28047e+00,0.00000e+00,0.00000e+00,0.00000e+00
1.87280e+03,8.25892e-01,-5.46035e+00,0.00000e+00,0.00000e+00,0.00000e+00
1.87280e+03,1.28086e+00,-3.64024e+00,0.00000e+00,0.00000e+00,0.00000e+00
1.87280e+03,1.73377e+00,-1.82012e+00,0.00000e+00,0.00000e+00,0.00000e+00
1.91380e+03,2.11856e+01,0.00000e+00,0.00000e+00,0.00000e+00,0.00000e+00
1.91380e+03,2.10789e+01,-1.60989e+00,0.00000e+00,0.00000e+00,0.00000e+00
1.91380e+03,2.09370e+01,-3.21977e+00,0.00000e+00,0.00000e+00,0.00000e+00
1.91380e+03,2.07936e+01,-4.82966e+00,0.00000e+00,0.00000e+00,0.00000e+00
1.91380e+03,2.06192e+01,-6.43954e+00,0.00000e+00,0.00000e+00,0.00000e+00
1.91380e+03,2.04375e+01,-8.04943e+00,0.00000e+00,0.00000e+00,0.00000e+00
1.91380e+03,2.02319e+01,-9.65931e+00,0.00000e+00,0.00000e+00,0.00000e+00
1.91380e+03,2.00147e+01,-1.12692e+01,0.00000e+00,0.00000e+00,0.00000e+00
1.91380e+03,1.97784e+01,-1.28791e+01,0.00000e+00,0.00000e+00,0.00000e+00
1.91380e+03,1.95262e+01,-1.44890e+01,0.00000e+00,0.00000e+00,0.00000e+00
1.91380e+03,1.92568e+01,-1.60989e+01,0.00000e+00,0.00000e+00,0.00000e+00
1.91380e+03,1.89663e+01,-1.77087e+01,0.00000e+00,0.00000e+00,0.00000e+00
1.91380e+03,1.86544e+01,-1.93186e+01,0.00000e+00,0.00000e+00,0.00000e+00
1.91380e+03,1.83120e+01,-2.09285e+01,0.00000e+00,0.00000e+00,0.00000e+00
1.91380e+03,1.79399e+01,-2.25384e+01,0.00000e+00,0.00000e+00,0.00000e+00
1.91380e+03,1.75325e+01,-2.41483e+01,0.00000e+00,0.00000e+00,0.00000e+00
1.91380e+03,1.70770e+01,-2.57582e+01,0.00000e+00,0.00000e+00,0.00000e+00
1.91380e+03,1.65881e+01,-2.73680e+01,0.00000e+00,0.00000e+00,0.00000e+00
1.91380e+03,1.60241e+01,-2.89779e+01,0.00000e+00,0.00000e+00,0.00000e+00
1.91380e+03,1.54289e+01,-3.05878e+01,0.00000e+00,0.00000e+00,0.00000e+00
1.91380e+03,1.47470e+01,-3.21977e+01,0.00000e+00,0.00000e+00,0.00000e+00
1.91380e+03,1.39955e+01,-3.38076e+01,0.00000e+00,0.00000e+00,0.00000e+00
1.91380e+03,1.31733e+01,-3.54175e+01,0.00000e+00,0.00000e+00,0.00000e+00
1.91380e+03,1.22322e+01,-3.70274e+01,0.00000e+00,0.00000e+00,0.00000e+00
1.91380e+03,1.11536e+01,-3.86372e+01,0.00000e+00,0.00000e+00,0.00000e+00
1.91380e+03,9.91946e+00,-4.02471e+01,0.00000e+00,0.00000e+00,0.00000e+00
1.91380e+03,8.45973e+00,-4.18570e+01,0.00000e+00,0.00000e+00,0.00000e+00
1.91380e+03,6.58606e+00,-4.34669e+01,0.00000e+00,0.00000e+00,0.00000e+00
1.91380e+03,4.05198e+00,-4.50768e+01,0.00000e+00,0.00000e+00,0.00000e+00
1.91380e+03,-1.64183e+00,-4.66867e+01,0.00000e+00,0.00000e+00,0.00000e+00
1.91380e+03,-2.05276e+00,-4.66904e+01,0.00000e+00,0.00000e+00,0.00000e+00
1.91380e+03,-5.79657e+00,-4.50229e+01,0.00000e+00,0.00000e+00,0.00000e+00
1.91380e+03,-6.24986e+00,-4.33554e+01,0.00000e+00,0.00000e+00,0.00000e+00
1.91380e+03,-6.40628e+00,-4.16879e+01,0.00000e+00,0.00000e+00,0.00000e+00
1.91380e+03,-6.43001e+00,-4.00204e+01,0.00000e+00,0.00000e+00,0.00000e+00
1.91380e+03,-6.35378e+00,-3.83528e+01,0.00000e+00,0.00000e+00,0.00000e+00
1.91380e+03,-6.21483e+00,-3.66853e+01,0.00000e+00,0.00000e+00,0.00000e+00
1.91380e+03,-6.01288e+00,-3.50178e+01,0.00000e+00,0.00000e+00,0.00000e+00
1.91380e+03,-5.77251e+00,-3.33503e+01,0.00000e+00,0.00000e+00,0.00000e+00
1.91380e+03,-5.50985e+00,-3.16828e+01,0.00000e+00,0.00000e+00,0.00000e+00
1.91380e+03,-5.21362e+00,-3.00153e+01,0.00000e+00,0.00000e+00,0.00000e+00
1.91380e+03,-4.89640e+00,-2.83477e+01,0.00000e+00,0.00000e+00,0.00000e+00
1.91380e+03,-4.55876e+00,-2.66802e+01,0.00000e+00,0.00000e+00,0.00000e+00
1.91380e+03,-4.20075e+00,-2.50127e+01,0.00000e+00,0.00000e+00,0.00000e+00
1.91380e+03,-3.82998e+00,-2.33452e+01,0.00000e+00,0.00000e+00,0.00000e+00
1.91380e+03,-3.44287e+00,-2.16777e+01,0.00000e+00,0.00000e+00,0.00000e+00
1.91380e+03,-3.04529e+00,-2.00102e+01,0.00000e+00,0.00000e+00,0.00000e+00
1.91380e+03,-2.63832e+00,-1.83427e+01,0.00000e+00,0.00000e+00,0.00000e+00
1.91380e+03,-2.22297e+00,-1.66751e+01,0.00000e+00,0.00000e+00,0.00000e+00
1.91380e+03,-1.80407e+00,-1.50076e+01,0.00000e+00,0.00000e+00,0.00000e+00
1.91380e+03,-1.37967e+00,-1.33401e+01,0.00000e+00,0.00000e+00,0.00000e+00
1.91380e+03,-9.54362e-01,-1.16726e+01,0.00000e+00,0.00000e+00,0.00000e+00
1.91380e+03,-5.25768e-01,-1.00051e+01,0.00000e+00,0.00000e+00,0.00000e+00
1.91380e+03,-9.72161e-02,-8.33757e+00,0.00000e+00,0.00000e+00,0.00000e+00
1.91380e+03,3.29716e-01,-6.67006e+00,0.00000e+00,0.00000e+00,0.00000e+00
1.91380e+03,7.56647e-01,-5.00254e+00,0.00000e+00,0.00000e+00,0.00000e+00
1.91380e+03,1.17347e+00,-3.33503e+00,0.00000e+00,0.00000e+00,0.00000e+00
1.91380e+03,1.58841e+00,-1.66751e+00,0.00000e+00,0.00000e+00,0.00000e+00
1.94970e+03,1.94880e+01,0.00000e+00,0.00000e+00,0.00000e+00,0.00000e+00
1.94970e+03,1.93899e+01,-1.48088e+00,0.00000e+00,0.00000e+00,0.00000e+00
1.94970e+03,1.92593e+01,-2.96177e+00,0.00000e+00,0.00000e+00,0.00000e+00
1.94970e+03,1.91274e+01,-4.44265e+00,0.00000e+00,0.00000e+00,0.00000e+00
1.94970e+03,1.89669e+01,-5.92353e+00,0.00000e+00,0.00000e+00,0.00000e+00
1.94970e+03,1.87998e+01,-7.40441e+00,0.00000e+00,0.00000e+00,0.00000e+00
1.94970e+03,1.86107e+01,-8.88530e+00,0.00000e+00,0.00000e+00,0.00000e+00
1.94970e+03,1.84109e+01,-1.03662e+01,0.00000e+00,0.00000e+00,0.00000e+00
1.94970e+03,1.81935e+01,-1.18471e+01,0.00000e+00,0.00000e+00,0.00000e+00
1.94970e+03,1.79616e+01,-1.33279e+01,0.00000e+00,0.00000e+00,0.00000e+00
1.94970e+03,1.77137e+01,-1.48088e+01,0.00000e+00,0.00000e+00,0.00000e+00
1.94970e+03,1.74465e+01,-1.62897e+01,0.00000e+00,0.00000e+00,0.00000e+00
1.94970e+03,1.71596e+01,-1.77706e+01,0.00000e+00,0.00000e+00,0.00000e+00
1.94970e+03,1.68446e+01,-1.92515e+01,0.00000e+00,0.00000e+00,0.00000e+00
1.94970e+03,1.65024e+01,-2.07324e+01,0.00000e+00,0.00000e+00,0.00000e+00
1.94970e+03,1.61276e+01,-2.22132e+01,0.00000e+00,0.00000e+00,0.00000e+00
1.94970e+03,1.57086e+01,-2.36941e+01,0.00000e+00,0.00000e+00,0.00000e+00
1.94970e+03,1.52589e+01,-2.51750e+01,0.00000e+00,0.00000e+00,0.00000e+00
1.94970e+03,1.47401e+01,-2.66559e+01,0.00000e+00,0.00000e+00,0.00000e+00
1.94970e+03,1.41926e+01,-2.81368e+01,0.00000e+00,0.00000e+00,0.00000e+00
1.94970e+03,1.35653e+01,-2.96177e+01,0.00000e+00,0.00000e+00,0.00000e+00
1.94970e+03,1.28740e+01,-3.10985e+01,0.00000e+00,0.00000e+00,0.00000e+00
1.94970e+03,1.21177e+01,-3.25794e+01,0.00000e+00,0.00000e+00,0.00000e+00
1.94970e+03,1.12521e+01,-3.40603e+01,0.00000e+00,0.00000e+00,0.00000e+00
1.94970e+03,1.02599e+01,-3.55412e+01,0.00000e+00,0.00000e+00,0.00000e+00
1.94970e+03,9.12460e+00,-3.70221e+01,0.00000e+00,0.00000e+00,0.00000e+00
1.94970e+03,7.78184e+00,-3.85029e+01,0.00000e+00,0.00000e+00,0.00000e+00
1.94970e+03,6.05831e+00,-3.99838e+01,0.00000e+00,0.00000e+00,0.00000e+00
1.94970e+03,3.72729e+00,-4.14647e+01,0.00000e+00,0.00000e+00,0.00000e+00
1.94970e+03,-1.51027e+00,-4.29456e+01,0.00000e+00,0.00000e+00,0.00000e+00
1.94970e+03,-1.88827e+00,-4.29490e+01,0.00000e+00,0.00000e+00,0.00000e+00
1.94970e+03,-5.33209e+00,-4.14151e+01,0.00000e+00,0.00000e+00,0.00000e+00
1.94970e+03,-5.74905e+00,-3.98812e+01,0.00000e+00,0.00000e+00,0.00000e+00
1.94970e+03,-5.89293e+00,-3.83473e+01,0.00000e+00,0.00000e+00,0.00000e+00
1.94970e+03,-5.91477e+00,-3.68135e+01,0.00000e+00,0.00000e+00,0.00000e+00
1.94970e+03,-5.84465e+00,-3.52796e+01,0.00000e+00,0.00000e+00,0.00000e+00
1.94970e+03,-5.71682e+00,-3.37457e+01,0.00000e+00,0.00000e+00,0.00000e+00
1.94970e+03,-5.53106e+00,-3.22118e+01,0.00000e+00,0.00000e+00,0.00000e+00
1.94970e+03,-5.30995e+00,-3.06779e+01,0.00000e+00,0.00000e+00,0.00000e+00
1.94970e+03,-5.06834e+00,-2.91440e+01,0.00000e+00,0.00000e+00,0.00000e+00
1.94970e+03,-4.79584e+00,-2.76101e+01,0.00000e+00,0.00000e+00,0.00000e+00
1.94970e+03,-4.50405e+00,-2.60762e+01,0.00000e+00,0.00000e+00,0.00000e+00
1.94970e+03,-4.19345e+00,-2.45423e+01,0.00000e+00,0.00000e+00,0.00000e+00
1.94970e+03,-3.86414e+00,-2.30084e+01,0.00000e+00,0.00000e+00,0.00000e+00
1.94970e+03,-3.52308e+00,-2.14745e+01,0.00000e+00,0.00000e+00,0.00000e+00
1.94970e+03,-3.16699e+00,-1.99406e+01,0.00000e+00,0.00000e+00,0.00000e+00
1.94970e+03,-2.80126e+00,-1.84067e+01,0.00000e+00,0.00000e+00,0.00000e+00
1.94970e+03,-2.42690e+00,-1.68728e+01,0.00000e+00,0.00000e+00,0.00000e+00
1.94970e+03,-2.04484e+00,-1.53389e+01,0.00000e+00,0.00000e+00,0.00000e+00
1.94970e+03,-1.65951e+00,-1.38050e+01,0.00000e+00,0.00000e+00,0.00000e+00
1.94970e+03,-1.26912e+00,-1.22712e+01,0.00000e+00,0.00000e+00,0.00000e+00
1.94970e+03,-8.77888e-01,-1.07373e+01,0.00000e+00,0.00000e+00,0.00000e+00
1.94970e+03,-4.83637e-01,-9.20336e+00,0.00000e+00,0.00000e+00,0.00000e+00
1.94970e+03,-8.94260e-02,-7.66947e+00,0.00000e+00,0.00000e+00,0.00000e+00
1.94970e+03,3.03295e-01,-6.13558e+00,0.00000e+00,0.00000e+00,0.00000e+00
1.94970e+03,6.96016e-01,-4.60168e+00,0.00000e+00,0.00000e+00,0.00000e+00
1.94970e+03,1.07944e+00,-3.06779e+00,0.00000e+00,0.00000e+00,0.00000e+00
1.94970e+03,1.46113e+00,-1.53389e+00,0.00000e+00,0.00000e+00,0.00000e+00
1.98010e+03,1.80504e+01,0.00000e+00,0.00000e+00,0.00000e+00,0.00000e+00
1.98010e+03,1.79595e+01,-1.37164e+00,0.00000e+00,0.00000e+00,0.00000e+00
1.98010e+03,1.78386e+01,-2.74329e+00,0.00000e+00,0.00000e+00,0.00000e+00
1.98010e+03,1.77165e+01,-4.11493e+00,0.00000e+00,0.00000e+00,0.00000e+00
1.98010e+03,1.75678e+01,-5.48657e+00,0.00000e+00,0.00000e+00,0.00000e+00
1.98010e+03,1.74130e+01,-6.85822e+00,0.00000e+00,0.00000e+00,0.00000e+00
1.98010e+03,1.72378e+01,-8.22986e+00,0.00000e+00,0.00000e+00,0.00000e+00
1.98010e+03,1.70528e+01,-9.60150e+00,0.00000e+00,0.00000e+00,0.00000e+00
1.98010e+03,1.68514e+01,-1.09731e+01,0.00000e+00,0.00000e+00,0.00000e+00
1.98010e+03,1.66366e+01,-1.23448e+01,0.00000e+00,0.00000e+00,0.00000e+00
1.98010e+03,1.64070e+01,-1.37164e+01,0.00000e+00,0.00000e+00,0.00000e+00
1.98010e+03,1.61595e+01,-1.50881e+01,0.00000e+00,0.00000e+00,0.00000e+00
1.98010e+03,1.58938e+01,-1.64597e+01,0.00000e+00,0.00000e+00,0.00000e+00
1.98010e+03,1.56020e+01,-1.78314e+01,0.00000e+00,0.00000e+00,0.00000e+00
1.98010e+03,1.52851e+01,-1.92030e+01,0.00000e+00,0.00000e+00,0.00000e+00
1.98010e+03,1.49379e+01,-2.05747e+01,0.00000e+00,0.00000e+00,0.00000e+00
1.98010e+03,1.45498e+01,-2.19463e+01,0.00000e+00,0.00000e+00,0.00000e+00
1.98010e+03,1.41333e+01,-2.33179e+01,0.00000e+00,0.00000e+00,0.00000e+00
1.98010e+03,1.36527e+01,-2.46896e+01,0.00000e+00,0.00000e+00,0.00000e+00
1.98010e+03,1.31457e+01,-2.60612e+01,0.00000e+00,0.00000e+00,0.00000e+00
1.98010e+03,1.25646e+01,-2.74329e+01,0.00000e+00,0.00000e+00,0.00000e+00
1.98010e+03,1.19244e+01,-2.88045e+01,0.00000e+00,0.00000e+00,0.00000e+00
1.98010e+03,1.12238e+01,-3.01762e+01,0.00000e+00,0.00000e+00,0.00000e+00
1.98010e+03,1.04220e+01,-3.15478e+01,0.00000e+00,0.00000e+00,0.00000e+00
1.98010e+03,9.50303e+00,-3.29194e+01,0.00000e+00,0.00000e+00,0.00000e+00
1.98010e+03,8.45151e+00,-3.42911e+01,0.00000e+00,0.00000e+00,0.00000e+00
1.98010e+03,7.20780e+00,-3.56627e+01,0.00000e+00,0.00000e+00,0.00000e+00
1.98010e+03,5.61141e+00,-3.70344e+01,0.00000e+00,0.00000e+00,0.00000e+00
1.98010e+03,3.45234e+00,-3.84060e+01,0.00000e+00,0.00000e+00,0.00000e+00
1.98010e+03,-1.39886e+00,-3.97777e+01,0.00000e+00,0.00000e+00,0.00000e+00
1.98010e+03,-1.74898e+00,-3.97808e+01,0.00000e+00,0.00000e+00,0.00000e+00
1.98010e+03,-4.93876e+00,-3.83601e+01,0.00000e+00,0.00000e+00,0.00000e+00
1.98010e+03,-5.32496e+00,-3.69394e+01,0.00000e+00,0.00000e+00,0.00000e+00
1.98010e+03,-5.45823e+00,-3.55186e+01,0.00000e+00,0.00000e+00,0.00000e+00
1.98010e+03,-5.47846e+00,-3.40979e+01,0.00000e+00,0.00000e+00,0.00000e+00
1.98010e+03,-5.41351e+00,-3.26771e+01,0.00000e+00,0.00000e+00,0.00000e+00
1.98010e+03,-5.29511e+00,-3.12564e+01,0.00000e+00,0.00000e+00,0.00000e+00
1.98010e+03,-5.12305e+00,-2.98356e+01,0.00000e+00,0.00000e+00,0.00000e+00
1.98010e+03,-4.91825e+00,-2.84149e+01,0.00000e+00,0.00000e+00,0.00000e+00
1.98010e+03,-4.69446e+00,-2.69941e+01,0.00000e+00,0.00000e+00,0.00000e+00
1.98010e+03,-4.44207e+00,-2.55734e+01,0.00000e+00,0.00000e+00,0.00000e+00
1.98010e+03,-4.17180e+00,-2.41527e+01,0.00000e+00,0.00000e+00,0.00000e+00
1.98010e+03,-3.88412e+00,-2.27319e+01,0.00000e+00,0.00000e+00,0.00000e+00
1.98010e+03,-3.57909e+00,-2.13112e+01,0.00000e+00,0.00000e+00,0.00000e+00
1.98010e+03,-3.26320e+00,-1.98904e+01,0.00000e+00,0.00000e+00,0.00000e+00
1.98010e+03,-2.93337e+00,-1.84697e+01,0.00000e+00,0.00000e+00,0.00000e+00
1.98010e+03,-2.59462e+00,-1.70489e+01,0.00000e+00,0.00000e+00,0.00000e+00
1.98010e+03,-2.24788e+00,-1.56282e+01,0.00000e+00,0.00000e+00,0.00000e+00
1.98010e+03,-1.89400e+00,-1.42074e+01,0.00000e+00,0.00000e+00,0.00000e+00
1.98010e+03,-1.53709e+00,-1.27867e+01,0.00000e+00,0.00000e+00,0.00000e+00
1.98010e+03,-1.17550e+00,-1.13660e+01,0.00000e+00,0.00000e+00,0.00000e+00
1.98010e+03,-8.13129e-01,-9.94521e+00,0.00000e+00,0.00000e+00,0.00000e+00
1.98010e+03,-4.47961e-01,-8.52447e+00,0.00000e+00,0.00000e+00,0.00000e+00
1.98010e+03,-8.28294e-02,-7.10372e+00,0.00000e+00,0.00000e+00,0.00000e+00
1.98010e+03,2.80922e-01,-5.68298e+00,0.00000e+00,0.00000e+00,0.00000e+00
1.98010e+03,6.44673e-01,-4.26223e+00,0.00000e+00,0.00000e+00,0.00000e+00
1.98010e+03,9.99811e-01,-2.84149e+00,0.00000e+00,0.00000e+00,0.00000e+00
1.98010e+03,1.35334e+00,-1.42074e+00,0.00000e+00,0.00000e+00,0.00000e+00
2.00520e+03,1.68635e+01,0.00000e+00,0.00000e+00,0.00000e+00,0.00000e+00
2.00520e+03,1.67786e+01,-1.28145e+00,0.00000e+00,0.00000e+00,0.00000e+00
2.00520e+03,1.66656e+01,-2.56290e+00,0.00000e+00,0.00000e+00,0.00000e+00
2.00520e+03,1.65515e+01,-3.84435e+00,0.00000e+00,0.00000e+00,0.00000e+00
2.00520e+03,1.64126e+01,-5.12580e+00,0.00000e+00,0.00000e+00,0.00000e+00
2.00520e+03,1.62680e+01,-6.40725e+00,0.00000e+00,0.00000e+00,0.00000e+00
2.00520e+03,1.61044e+01,-7.68870e+00,0.00000e+00,0.00000e+00,0.00000e+00
2.00520e+03,1.59315e+01,-8.97015e+00,0.00000e+00,0.00000e+00,0.00000e+00
2.00520e+03,1.57433e+01,-1.02516e+01,0.00000e+00,0.00000e+00,0.00000e+00
2.00520e+03,1.55427e+01,-1.15330e+01,0.00000e+00,0.00000e+00,0.00000e+00
2.00520e+03,1.53282e+01,-1.28145e+01,0.00000e+00,0.00000e+00,0.00000e+00
2.00520e+03,1.50970e+01,-1.40959e+01,0.00000e+00,0.00000e+00,0.00000e+00
2.00520e+03,1.48486e+01,-1.53774e+01,0.00000e+00,0.00000e+00,0.00000e+00
2.00520e+03,1.45761e+01,-1.66588e+01,0.00000e+00,0.00000e+00,0.00000e+00
2.00520e+03,1.42800e+01,-1.79403e+01,0.00000e+00,0.00000e+00,0.00000e+00
2.00520e+03,1.39556e+01,-1.92217e+01,0.00000e+00,0.00000e+00,0.00000e+00
2.00520e+03,1.35931e+01,-2.05032e+01,0.00000e+00,0.00000e+00,0.00000e+00
2.00520e+03,1.32039e+01,-2.17846e+01,0.00000e+00,0.00000e+00,0.00000e+00
2.00520e+03,1.27550e+01,-2.30661e+01,0.00000e+00,0.00000e+00,0.00000e+00
2.00520e+03,1.22812e+01,-2.43475e+01,0.00000e+00,0.00000e+00,0.00000e+00
2.00520e+03,1.17384e+01,-2.56290e+01,0.00000e+00,0.00000e+00,0.00000e+00
2.00520e+03,1.11403e+01,-2.69104e+01,0.00000e+00,0.00000e+00,0.00000e+00
2.00520e+03,1.04858e+01,-2.81919e+01,0.00000e+00,0.00000e+00,0.00000e+00
2.00520e+03,9.73672e+00,-2.94733e+01,0.00000e+00,0.00000e+00,0.00000e+00
2.00520e+03,8.87814e+00,-3.07548e+01,0.00000e+00,0.00000e+00,0.00000e+00
2.00520e+03,7.89577e+00,-3.20362e+01,0.00000e+00,0.00000e+00,0.00000e+00
2.00520e+03,6.73385e+00,-3.33177e+01,0.00000e+00,0.00000e+00,0.00000e+00
2.00520e+03,5.24243e+00,-3.45991e+01,0.00000e+00,0.00000e+00,0.00000e+00
2.00520e+03,3.22533e+00,-3.58806e+01,0.00000e+00,0.00000e+00,0.00000e+00
2.00520e+03,-1.30688e+00,-3.71620e+01,0.00000e+00,0.00000e+00,0.00000e+00
2.00520e+03,-1.63397e+00,-3.71650e+01,0.00000e+00,0.00000e+00,0.00000e+00
2.00520e+03,-4.61400e+00,-3.58377e+01,0.00000e+00,0.00000e+00,0.00000e+00
2.00520e+03,-4.97481e+00,-3.45104e+01,0.00000e+00,0.00000e+00,0.00000e+00
2.00520e+03,-5.09932e+00,-3.31830e+01,0.00000e+00,0.00000e+00,0.00000e+00
2.00520e+03,-5.11821e+00,-3.18557e+01,0.00000e+00,0.00000e+00,0.00000e+00
2.00520e+03,-5.05754e+00,-3.05284e+01,0.00000e+00,0.00000e+00,0.00000e+00
2.00520e+03,-4.94693e+00,-2.92011e+01,0.00000e+00,0.00000e+00,0.00000e+00
2.00520e+03,-4.78618e+00,-2.78738e+01,0.00000e+00,0.00000e+00,0.00000e+00
2.00520e+03,-4.59485e+00,-2.65464e+01,0.00000e+00,0.00000e+00,0.00000e+00
2.00520e+03,-4.38577e+00,-2.52191e+01,0.00000e+00,0.00000e+00,0.00000e+00
2.00520e+03,-4.14998e+00,-2.38918e+01,0.00000e+00,0.00000e+00,0.00000e+00
2.00520e+03,-3.89748e+00,-2.25645e+01,0.00000e+00,0.00000e+00,0.00000e+00
2.00520e+03,-3.62871e+00,-2.12371e+01,0.00000e+00,0.00000e+00,0.00000e+00
2.00520e+03,-3.34375e+00,-1.99098e+01,0.00000e+00,0.00000e+00,0.00000e+00
2.00520e+03,-3.04862e+00,-1.85825e+01,0.00000e+00,0.00000e+00,0.00000e+00
2.00520e+03,-2.74048e+00,-1.72552e+01,0.00000e+00,0.00000e+00,0.00000e+00
2.00520e+03,-2.42401e+00,-1.59279e+01,0.00000e+00,0.00000e+00,0.00000e+00
2.00520e+03,-2.10007e+00,-1.46005e+01,0.00000e+00,0.00000e+00,0.00000e+00
2.00520e+03,-1.76946e+00,-1.32732e+01,0.00000e+00,0.00000e+00,0.00000e+00
2.00520e+03,-1.43602e+00,-1.19459e+01,0.00000e+00,0.00000e+00,0.00000e+00
2.00520e+03,-1.09820e+00,-1.06186e+01,0.00000e+00,0.00000e+00,0.00000e+00
2.00520e+03,-7.59661e-01,-9.29125e+00,0.00000e+00,0.00000e+00,0.00000e+00
2.00520e+03,-4.18505e-01,-7.96393e+00,0.00000e+00,0.00000e+00,0.00000e+00
2.00520e+03,-7.73829e-02,-6.63661e+00,0.00000e+00,0.00000e+00,0.00000e+00
2.00520e+03,2.62450e-01,-5.30929e+00,0.00000e+00,0.00000e+00,0.00000e+00
2.00520e+03,6.02282e-01,-3.98196e+00,0.00000e+00,0.00000e+00,0.00000e+00
2.00520e+03,9.34067e-01,-2.65464e+00,0.00000e+00,0.00000e+00,0.00000e+00
2.00520e+03,1.26435e+00,-1.32732e+00,0.00000e+00,0.00000e+00,0.00000e+00
2.02480e+03,1.59367e+01,0.00000e+00,0.00000e+00,0.00000e+00,0.00000e+00
2.02480e+03,1.58564e+01,-1.21102e+00,0.00000e+00,0.00000e+00,0.00000e+00
2.02480e+03,1.57496e+01,-2.42204e+00,0.00000e+00,0.00000e+00,0.00000e+00
2.02480e+03,1.56418e+01,-3.63306e+00,0.00000e+00,0.00000e+00,0.00000e+00
2.02480e+03,1.55106e+01,-4.84408e+00,0.00000e+00,0.00000e+00,0.00000e+00
2.02480e+03,1.53739e+01,-6.05509e+00,0.00000e+00,0.00000e+00,0.00000e+00
2.02480e+03,1.52192e+01,-7.26611e+00,0.00000e+00,0.00000e+00,0.00000e+00
2.02480e+03,1.50559e+01,-8.47713e+00,0.00000e+00,0.00000e+00,0.00000e+00
2.02480e+03,1.48781e+01,-9.68815e+00,0.00000e+00,0.00000e+00,0.00000e+00
2.02480e+03,1.46884e+01,-1.08992e+01,0.00000e+00,0.00000e+00,0.00000e+00
2.02480e+03,1.44857e+01,-1.21102e+01,0.00000e+00,0.00000e+00,0.00000e+00
2.02480e+03,1.42672e+01,-1.33212e+01,0.00000e+00,0.00000e+00,0.00000e+00
2.02480e+03,1.40325e+01,-1.45322e+01,0.00000e+00,0.00000e+00,0.00000e+00
2.02480e+03,1.37750e+01,-1.57432e+01,0.00000e+00,0.00000e+00,0.00000e+00
2.02480e+03,1.34951e+01,-1.69543e+01,0.00000e+00,0.00000e+00,0.00000e+00
2.02480e+03,1.31886e+01,-1.81653e+01,0.00000e+00,0.00000e+00,0.00000e+00
2.02480e+03,1.28460e+01,-1.93763e+01,0.00000e+00,0.00000e+00,0.00000e+00
2.02480e+03,1.24782e+01,-2.05873e+01,0.00000e+00,0.00000e+00,0.00000e+00
2.02480e+03,1.20540e+01,-2.17983e+01,0.00000e+00,0.00000e+00,0.00000e+00
2.02480e+03,1.16063e+01,-2.30094e+01,0.00000e+00,0.00000e+00,0.00000e+00
2.02480e+03,1.10933e+01,-2.42204e+01,0.00000e+00,0.00000e+00,0.00000e+00
2.02480e+03,1.05280e+01,-2.54314e+01,0.00000e+00,0.00000e+00,0.00000e+00
2.02480e+03,9.90946e+00,-2.66424e+01,0.00000e+00,0.00000e+00,0.00000e+00
2.02480e+03,9.20158e+00,-2.78534e+01,0.00000e+00,0.00000e+00,0.00000e+00
2.02480e+03,8.39019e+00,-2.90645e+01,0.00000e+00,0.00000e+00,0.00000e+00
2.02480e+03,7.46181e+00,-3.02755e+01,0.00000e+00,0.00000e+00,0.00000e+00
2.02480e+03,6.36374e+00,-3.14865e+01,0.00000e+00,0.00000e+00,0.00000e+00
2.02480e+03,4.95429e+00,-3.26975e+01,0.00000e+00,0.00000e+00,0.00000e+00
2.02480e+03,3.04806e+00,-3.39085e+01,0.00000e+00,0.00000e+00,0.00000e+00
2.02480e+03,-1.23505e+00,-3.51195e+01,0.00000e+00,0.00000e+00,0.00000e+00
2.02480e+03,-1.54416e+00,-3.51224e+01,0.00000e+00,0.00000e+00,0.00000e+00
2.02480e+03,-4.36041e+00,-3.38680e+01,0.00000e+00,0.00000e+00,0.00000e+00
2.02480e+03,-4.70139e+00,-3.26136e+01,0.00000e+00,0.00000e+00,0.00000e+00
2.02480e+03,-4.81905e+00,-3.13592e+01,0.00000e+00,0.00000e+00,0.00000e+00
2.02480e+03,-4.83691e+00,-3.01049e+01,0.00000e+00,0.00000e+00,0.00000e+00
2.02480e+03,-4.77957e+00,-2.88505e+01,0.00000e+00,0.00000e+00,0.00000e+00
2.02480e+03,-4.67504e+00,-2.75961e+01,0.00000e+00,0.00000e+00,0.00000e+00
2.02480e+03,-4.52312e+00,-2.63418e+01,0.00000e+00,0.00000e+00,0.00000e+00
2.02480e+03,-4.34231e+00,-2.50874e+01,0.00000e+00,0.00000e+00,0.00000e+00
2.02480e+03,-4.14473e+00,-2.38330e+01,0.00000e+00,0.00000e+00,0.00000e+00
2.02480e+03,-3.92189e+00,-2.25787e+01,0.00000e+00,0.00000e+00,0.00000e+00
2.02480e+03,-3.68327e+00,-2.13243e+01,0.00000e+00,0.00000e+00,0.00000e+00
2.02480e+03,-3.42927e+00,-2.00699e+01,0.00000e+00,0.00000e+00,0.00000e+00
2.02480e+03,-3.15997e+00,-1.88155e+01,0.00000e+00,0.00000e+00,0.00000e+00
2.02480e+03,-2.88106e+00,-1.75612e+01,0.00000e+00,0.00000e+00,0.00000e+00
2.02480e+03,-2.58986e+00,-1.63068e+01,0.00000e+00,0.00000e+00,0.00000e+00
2.02480e+03,-2.29078e+00,-1.50524e+01,0.00000e+00,0.00000e+00,0.00000e+00
2.02480e+03,-1.98465e+00,-1.37981e+01,0.00000e+00,0.00000e+00,0.00000e+00
2.02480e+03,-1.67220e+00,-1.25437e+01,0.00000e+00,0.00000e+00,0.00000e+00
2.02480e+03,-1.35709e+00,-1.12893e+01,0.00000e+00,0.00000e+00,0.00000e+00
2.02480e+03,-1.03784e+00,-1.00350e+01,0.00000e+00,0.00000e+00,0.00000e+00
2.02480e+03,-7.17909e-01,-8.78059e+00,0.00000e+00,0.00000e+00,0.00000e+00
2.02480e+03,-3.95503e-01,-7.52622e+00,0.00000e+00,0.00000e+00,0.00000e+00
2.02480e+03,-7.31298e-02,-6.27185e+00,0.00000e+00,0.00000e+00,0.00000e+00
2.02480e+03,2.48025e-01,-5.01748e+00,0.00000e+00,0.00000e+00,0.00000e+00
2.02480e+03,5.69180e-01,-3.76311e+00,0.00000e+00,0.00000e+00,0.00000e+00
2.02480e+03,8.82730e-01,-2.50874e+00,0.00000e+00,0.00000e+00,0.00000e+00
2.02480e+03,1.19486e+00,-1.25437e+00,0.00000e+00,0.00000e+00,0.00000e+00
2.03880e+03,1.52746e+01,0.00000e+00,0.00000e+00,0.00000e+00,0.00000e+00
2.03880e+03,1.51977e+01,-1.16071e+00,0.00000e+00,0.00000e+00,0.00000e+00
2.03880e+03,1.50954e+01,-2.32142e+00,0.00000e+00,0.00000e+00,0.00000e+00
2.03880e+03,1.49920e+01,-3.48213e+00,0.00000e+00,0.00000e+00,0.00000e+00
2.03880e+03,1.48662e+01,-4.64285e+00,0.00000e+00,0.00000e+00,0.00000e+00
2.03880e+03,1.47352e+01,-5.80356e+00,0.00000e+00,0.00000e+00,0.00000e+00
2.03880e+03,1.45870e+01,-6.96427e+00,0.00000e+00,0.00000e+00,0.00000e+00
2.03880e+03,1.44304e+01,-8.12498e+00,0.00000e+00,0.00000e+00,0.00000e+00
2.03880e+03,1.42600e+01,-9.28569e+00,0.00000e+00,0.00000e+00,0.00000e+00
2.03880e+03,1.40782e+01,-1.04464e+01,0.00000e+00,0.00000e+00,0.00000e+00
2.03880e+03,1.38839e+01,-1.16071e+01,0.00000e+00,0.00000e+00,0.00000e+00
2.03880e+03,1.36745e+01,-1.27678e+01,0.00000e+00,0.00000e+00,0.00000e+00
2.03880e+03,1.34496e+01,-1.39285e+01,0.00000e+00,0.00000e+00,0.00000e+00
2.03880e+03,1.32028e+01,-1.50892e+01,0.00000e+00,0.00000e+00,0.00000e+00
2.03880e+03,1.29345e+01,-1.62500e+01,0.00000e+00,0.00000e+00,0.00000e+00
2.03880e+03,1.26407e+01,-1.74107e+01,0.00000e+00,0.00000e+00,0.00000e+00
2.03880e+03,1.23123e+01,-1.85714e+01,0.00000e+00,0.00000e+00,0.00000e+00
2.03880e+03,1.19599e+01,-1.97321e+01,0.00000e+00,0.00000e+00,0.00000e+00
2.03880e+03,1.15532e+01,-2.08928e+01,0.00000e+00,0.00000e+00,0.00000e+00
2.03880e+03,1.11241e+01,-2.20535e+01,0.00000e+00,0.00000e+00,0.00000e+00
2.03880e+03,1.06324e+01,-2.32142e+01,0.00000e+00,0.00000e+00,0.00000e+00
2.03880e+03,1.00906e+01,-2.43749e+01,0.00000e+00,0.00000e+00,0.00000e+00
2.03880e+03,9.49781e+00,-2.55357e+01,0.00000e+00,0.00000e+00,0.00000e+00
2.03880e+03,8.81933e+00,-2.66964e+01,0.00000e+00,0.00000e+00,0.00000e+00
2.03880e+03,8.04165e+00,-2.78571e+01,0.00000e+00,0.00000e+00,0.00000e+00
2.03880e+03,7.15183e+00,-2.90178e+01,0.00000e+00,0.00000e+00,0.00000e+00
2.03880e+03,6.09938e+00,-3.01785e+01,0.00000e+00,0.00000e+00,0.00000e+00
2.03880e+03,4.74849e+00,-3.13392e+01,0.00000e+00,0.00000e+00,0.00000e+00
2.03880e+03,2.92144e+00,-3.24999e+01,0.00000e+00,0.00000e+00,0.00000e+00
2.03880e+03,-1.18374e+00,-3.36606e+01,0.00000e+00,0.00000e+00,0.00000e+00
2.03880e+03,-1.48002e+00,-3.36633e+01,0.00000e+00,0.00000e+00,0.00000e+00
2.03880e+03,-4.17927e+00,-3.24611e+01,0.00000e+00,0.00000e+00,0.00000e+00
2.03880e+03,-4.50609e+00,-3.12588e+01,0.00000e+00,0.00000e+00,0.00000e+00
2.03880e+03,-4.61886e+00,-3.00565e+01,0.00000e+00,0.00000e+00,0.00000e+00
2.03880e+03,-4.63598e+00,-2.88543e+01,0.00000e+00,0.00000e+00,0.00000e+00
2.03880e+03,-4.58102e+00,-2.76520e+01,0.00000e+00,0.00000e+00,0.00000e+00
2.03880e+03,-4.48083e+00,-2.64498e+01,0.00000e+00,0.00000e+00,0.00000e+00
2.03880e+03,-4.33523e+00,-2.52475e+01,0.00000e+00,0.00000e+00,0.00000e+00
2.03880e+03,-4.16192e+00,-2.40452e+01,0.00000e+00,0.00000e+00,0.00000e+00
2.03880e+03,-3.97255e+00,-2.28430e+01,0.00000e+00,0.00000e+00,0.00000e+00
2.03880e+03,-3.75897e+00,-2.16407e+01,0.00000e+00,0.00000e+00,0.00000e+00
2.03880e+03,-3.53026e+00,-2.04384e+01,0.00000e+00,0.00000e+00,0.00000e+00
2.03880e+03,-3.28682e+00,-1.92362e+01,0.00000e+00,0.00000e+00,0.00000e+00
2.03880e+03,-3.02870e+00,-1.80339e+01,0.00000e+00,0.00000e+00,0.00000e+00
2.03880e+03,-2.76138e+00,-1.68317e+01,0.00000e+00,0.00000e+00,0.00000e+00
2.03880e+03,-2.48228e+00,-1.56294e+01,0.00000e+00,0.00000e+00,0.00000e+00
2.03880e+03,-2.19562e+00,-1.44271e+01,0.00000e+00,0.00000e+00,0.00000e+00
2.03880e+03,-1.90220e+00,-1.32249e+01,0.00000e+00,0.00000e+00,0.00000e+00
2.03880e+03,-1.60274e+00,-1.20226e+01,0.00000e+00,0.00000e+00,0.00000e+00
2.03880e+03,-1.30072e+00,-1.08204e+01,0.00000e+00,0.00000e+00,0.00000e+00
2.03880e+03,-9.94731e-01,-9.61809e+00,0.00000e+00,0.00000e+00,0.00000e+00
2.03880e+03,-6.88086e-01,-8.41583e+00,0.00000e+00,0.00000e+00,0.00000e+00
2.03880e+03,-3.79073e-01,-7.21357e+00,0.00000e+00,0.00000e+00,0.00000e+00
2.03880e+03,-7.00919e-02,-6.01131e+00,0.00000e+00,0.00000e+00,0.00000e+00
2.03880e+03,2.37722e-01,-4.80905e+00,0.00000e+00,0.00000e+00,0.00000e+00
2.03880e+03,5.45535e-01,-3.60678e+00,0.00000e+00,0.00000e+00,0.00000e+00
2.03880e+03,8.46060e-01,-2.40452e+00,0.00000e+00,0.00000e+00,0.00000e+00
2.03880e+03,1.14523e+00,-1.20226e+00,0.00000e+00,0.00000e+00,0.00000e+00
2.04720e+03,1.48774e+01,0.00000e+00,0.00000e+00,0.00000e+00,0.00000e+00
2.04720e+03,1.48025e+01,-1.13053e+00,0.00000e+00,0.00000e+00,0.00000e+00
2.04720e+03,1.47028e+01,-2.26105e+00,0.00000e+00,0.00000e+00,0.00000e+00
2.04720e+03,1.46021e+01,-3.39158e+00,0.00000e+00,0.00000e+00,0.00000e+00
2.04720e+03,1.44796e+01,-4.52211e+00,0.00000e+00,0.00000e+00,0.00000e+00
2.04720e+03,1.43520e+01,-5.65264e+00,0.00000e+00,0.00000e+00,0.00000e+00
2.04720e+03,1.42077e+01,-6.78316e+00,0.00000e+00,0.00000e+00,0.00000e+00
2.04720e+03,1.40552e+01,-7.91369e+00,0.00000e+00,0.00000e+00,0.00000e+00
2.04720e+03,1.38892e+01,-9.04422e+00,0.00000e+00,0.00000e+00,0.00000e+00
2.04720e+03,1.37121e+01,-1.01747e+01,0.00000e+00,0.00000e+00,0.00000e+00
2.04720e+03,1.35229e+01,-1.13053e+01,0.00000e+00,0.00000e+00,0.00000e+00
2.04720e+03,1.33189e+01,-1.24358e+01,0.00000e+00,0.00000e+00,0.00000e+00
2.04720e+03,1.30998e+01,-1.35663e+01,0.00000e+00,0.00000e+00,0.00000e+00
2.04720e+03,1.28594e+01,-1.46969e+01,0.00000e+00,0.00000e+00,0.00000e+00
2.04720e+03,1.25982e+01,-1.58274e+01,0.00000e+00,0.00000e+00,0.00000e+00
2.04720e+03,1.23120e+01,-1.69579e+01,0.00000e+00,0.00000e+00,0.00000e+00
2.04720e+03,1.19922e+01,-1.80884e+01,0.00000e+00,0.00000e+00,0.00000e+00
2.04720e+03,1.16489e+01,-1.92190e+01,0.00000e+00,0.00000e+00,0.00000e+00
2.04720e+03,1.12528e+01,-2.03495e+01,0.00000e+00,0.00000e+00,0.00000e+00
2.04720e+03,1.08348e+01,-2.14800e+01,0.00000e+00,0.00000e+00,0.00000e+00
2.04720e+03,1.03559e+01,-2.26105e+01,0.00000e+00,0.00000e+00,0.00000e+00
2.04720e+03,9.82823e+00,-2.37411e+01,0.00000e+00,0.00000e+00,0.00000e+00
2.04720e+03,9.25081e+00,-2.48716e+01,0.00000e+00,0.00000e+00,0.00000e+00
2.04720e+03,8.58998e+00,-2.60021e+01,0.00000e+00,0.00000e+00,0.00000e+00
2.04720e+03,7.83252e+00,-2.71326e+01,0.00000e+00,0.00000e+00,0.00000e+00
2.04720e+03,6.96585e+00,-2.82632e+01,0.00000e+00,0.00000e+00,0.00000e+00
2.04720e+03,5.94077e+00,-2.93937e+01,0.00000e+00,0.00000e+00,0.00000e+00
2.04720e+03,4.62500e+00,-3.05242e+01,0.00000e+00,0.00000e+00,0.00000e+00
2.04720e+03,2.84547e+00,-3.16548e+01,0.00000e+00,0.00000e+00,0.00000e+00
2.04720e+03,-1.15296e+00,-3.27853e+01,0.00000e+00,0.00000e+00,0.00000e+00
2.04720e+03,-1.44153e+00,-3.27879e+01,0.00000e+00,0.00000e+00,0.00000e+00
2.04720e+03,-4.07059e+00,-3.16169e+01,0.00000e+00,0.00000e+00,0.00000e+00
2.04720e+03,-4.38891e+00,-3.04459e+01,0.00000e+00,0.00000e+00,0.00000e+00
2.04720e+03,-4.49875e+00,-2.92749e+01,0.00000e+00,0.00000e+00,0.00000e+00
2.04720e+03,-4.51542e+00,-2.81039e+01,0.00000e+00,0.00000e+00,0.00000e+00
2.04720e+03,-4.46189e+00,-2.69329e+01,0.00000e+00,0.00000e+00,0.00000e+00
2.04720e+03,-4.36430e+00,-2.57619e+01,0.00000e+00,0.00000e+00,0.00000e+00
2.04720e+03,-4.22249e+00,-2.45909e+01,0.00000e+00,0.00000e+00,0.00000e+00
2.04720e+03,-4.05369e+00,-2.34199e+01,0.00000e+00,0.00000e+00,0.00000e+00
2.04720e+03,-3.86924e+00,-2.22489e+01,0.00000e+00,0.00000e+00,0.00000e+00
2.04720e+03,-3.66121e+00,-2.10779e+01,0.00000e+00,0.00000e+00,0.00000e+00
2.04720e+03,-3.43845e+00,-1.99069e+01,0.00000e+00,0.00000e+00,0.00000e+00
2.04720e+03,-3.20134e+00,-1.87359e+01,0.00000e+00,0.00000e+00,0.00000e+00
2.04720e+03,-2.94994e+00,-1.75649e+01,0.00000e+00,0.00000e+00,0.00000e+00
2.04720e+03,-2.68957e+00,-1.63940e+01,0.00000e+00,0.00000e+00,0.00000e+00
2.04720e+03,-2.41772e+00,-1.52230e+01,0.00000e+00,0.00000e+00,0.00000e+00
2.04720e+03,-2.13852e+00,-1.40520e+01,0.00000e+00,0.00000e+00,0.00000e+00
2.04720e+03,-1.85273e+00,-1.28810e+01,0.00000e+00,0.00000e+00,0.00000e+00
2.04720e+03,-1.56106e+00,-1.17100e+01,0.00000e+00,0.00000e+00,0.00000e+00
2.04720e+03,-1.26689e+00,-1.05390e+01,0.00000e+00,0.00000e+00,0.00000e+00
2.04720e+03,-9.68863e-01,-9.36797e+00,0.00000e+00,0.00000e+00,0.00000e+00
2.04720e+03,-6.70192e-01,-8.19698e+00,0.00000e+00,0.00000e+00,0.00000e+00
2.04720e+03,-3.69215e-01,-7.02598e+00,0.00000e+00,0.00000e+00,0.00000e+00
2.04720e+03,-6.82691e-02,-5.85498e+00,0.00000e+00,0.00000e+00,0.00000e+00
2.04720e+03,2.31540e-01,-4.68399e+00,0.00000e+00,0.00000e+00,0.00000e+00
2.04720e+03,5.31348e-01,-3.51299e+00,0.00000e+00,0.00000e+00,0.00000e+00
2.04720e+03,8.24058e-01,-2.34199e+00,0.00000e+00,0.00000e+00,0.00000e+00
2.04720e+03,1.11544e+00,-1.17100e+00,0.00000e+00,0.00000e+00,0.00000e+00
2.05000e+03,1.47450e+01,0.00000e+00,0.00000e+00,0.00000e+00,0.00000e+00
2.05000e+03,1.46708e+01,-1.12047e+00,0.00000e+00,0.00000e+00,0.00000e+00
2.05000e+03,1.45720e+01,-2.24093e+00,0.00000e+00,0.00000e+00,0.00000e+00
2.05000e+03,1.44722e+01,-3.36140e+00,0.00000e+00,0.00000e+00,0.00000e+00
2.05000e+03,1.43508e+01,-4.48186e+00,0.00000e+00,0.00000e+00,0.00000e+00
2.05000e+03,1.42243e+01,-5.60233e+00,0.00000e+00,0.00000e+00,0.00000e+00
2.05000e+03,1.40812e+01,-6.72279e+00,0.00000e+00,0.00000e+00,0.00000e+00
2.05000e+03,1.39301e+01,-7.84326e+00,0.00000e+00,0.00000e+00,0.00000e+00
2.05000e+03,1.37656e+01,-8.96372e+00,0.00000e+00,0.00000e+00,0.00000e+00
2.05000e+03,1.35901e+01,-1.00842e+01,0.00000e+00,0.00000e+00,0.00000e+00
2.05000e+03,1.34025e+01,-1.12047e+01,0.00000e+00,0.00000e+00,0.00000e+00
2.05000e+03,1.32004e+01,-1.23251e+01,0.00000e+00,0.00000e+00,0.00000e+00
2.05000e+03,1.29833e+01,-1.34456e+01,0.00000e+00,0.00000e+00,0.00000e+00
2.05000e+03,1.27450e+01,-1.45661e+01,0.00000e+00,0.00000e+00,0.00000e+00
2.05000e+03,1.24860e+01,-1.56865e+01,0.00000e+00,0.00000e+00,0.00000e+00
2.05000e+03,1.22024e+01,-1.68070e+01,0.00000e+00,0.00000e+00,0.00000e+00
2.05000e+03,1.18854e+01,-1.79274e+01,0.00000e+00,0.00000e+00,0.00000e+00
2.05000e+03,1.15452e+01,-1.90479e+01,0.00000e+00,0.00000e+00,0.00000e+00
2.05000e+03,1.11526e+01,-2.01684e+01,0.00000e+00,0.00000e+00,0.00000e+00
2.05000e+03,1.07384e+01,-2.12888e+01,0.00000e+00,0.00000e+00,0.00000e+00
2.05000e+03,1.02638e+01,-2.24093e+01,0.00000e+00,0.00000e+00,0.00000e+00
2.05000e+03,9.74076e+00,-2.35298e+01,0.00000e+00,0.00000e+00,0.00000e+00
2.05000e+03,9.16848e+00,-2.46502e+01,0.00000e+00,0.00000e+00,0.00000e+00
2.05000e+03,8.51353e+00,-2.57707e+01,0.00000e+00,0.00000e+00,0.00000e+00
2.05000e+03,7.76281e+00,-2.68912e+01,0.00000e+00,0.00000e+00,0.00000e+00
2.05000e+03,6.90385e+00,-2.80116e+01,0.00000e+00,0.00000e+00,0.00000e+00
2.05000e+03,5.88790e+00,-2.91321e+01,0.00000e+00,0.00000e+00,0.00000e+00
2.05000e+03,4.58384e+00,-3.02526e+01,0.00000e+00,0.00000e+00,0.00000e+00
2.05000e+03,2.82014e+00,-3.13730e+01,0.00000e+00,0.00000e+00,0.00000e+00
2.05000e+03,-1.14270e+00,-3.24935e+01,0.00000e+00,0.00000e+00,0.00000e+00
2.05000e+03,-1.42870e+00,-3.24961e+01,0.00000e+00,0.00000e+00,0.00000e+00
2.05000e+03,-4.03436e+00,-3.13355e+01,0.00000e+00,0.00000e+00,0.00000e+00
2.05000e+03,-4.34985e+00,-3.01749e+01,0.00000e+00,0.00000e+00,0.00000e+00
2.05000e+03,-4.45871e+00,-2.90144e+01,0.00000e+00,0.00000e+00,0.00000e+00
2.05000e+03,-4.47523e+00,-2.78538e+01,0.00000e+00,0.00000e+00,0.00000e+00
2.05000e+03,-4.42218e+00,-2.66932e+01,0.00000e+00,0.00000e+00,0.00000e+00
2.05000e+03,-4.32546e+00,-2.55327e+01,0.00000e+00,0.00000e+00,0.00000e+00
2.05000e+03,-4.18491e+00,-2.43721e+01,0.00000e+00,0.00000e+00,0.00000e+00
2.05000e+03,-4.01761e+00,-2.32115e+01,0.00000e+00,0.00000e+00,0.00000e+00
2.05000e+03,-3.83480e+00,-2.20509e+01,0.00000e+00,0.00000e+00,0.00000e+00
2.05000e+03,-3.62863e+00,-2.08903e+01,0.00000e+00,0.00000e+00,0.00000e+00
2.05000e+03,-3.40785e+00,-1.97298e+01,0.00000e+00,0.00000e+00,0.00000e+00
2.05000e+03,-3.17285e+00,-1.85692e+01,0.00000e+00,0.00000e+00,0.00000e+00
2.05000e+03,-2.92368e+00,-1.74086e+01,0.00000e+00,0.00000e+00,0.00000e+00
2.05000e+03,-2.66563e+00,-1.62480e+01,0.00000e+00,0.00000e+00,0.00000e+00
2.05000e+03,-2.39621e+00,-1.50875e+01,0.00000e+00,0.00000e+00,0.00000e+00
2.05000e+03,-2.11949e+00,-1.39269e+01,0.00000e+00,0.00000e+00,0.00000e+00
2.05000e+03,-1.83624e+00,-1.27663e+01,0.00000e+00,0.00000e+00,0.00000e+00
2.05000e+03,-1.54717e+00,-1.16057e+01,0.00000e+00,0.00000e+00,0.00000e+00
2.05000e+03,-1.25562e+00,-1.04452e+01,0.00000e+00,0.00000e+00,0.00000e+00
2.05000e+03,-9.60241e-01,-9.28460e+00,0.00000e+00,0.00000e+00,0.00000e+00
2.05000e+03,-6.64227e-01,-8.12402e+00,0.00000e+00,0.00000e+00,0.00000e+00
2.05000e+03,-3.65929e-01,-6.96345e+00,0.00000e+00,0.00000e+00,0.00000e+00
2.05000e+03,-6.76615e-02,-5.80287e+00,0.00000e+00,0.00000e+00,0.00000e+00
2.05000e+03,2.29479e-01,-4.64230e+00,0.00000e+00,0.00000e+00,0.00000e+00
2.05000e+03,5.26620e-01,-3.48173e+00,0.00000e+00,0.00000e+00,0.00000e+00
2.05000e+03,8.16724e-01,-2.32115e+00,0.00000e+00,0.00000e+00,0.00000e+00
2.05000e+03,1.10552e+00,-1.16058e+00,0.00000e+00,0.00000e+00,0.00000e+00
--------------------------------------------------------------------------------------------------------------------------------------------------------------------------------------------------------------------------------------------------------------------------------------------------------------------------------------------------------------------------------

ALMA 
--------------------------------------------------------------------------------------------------------------------------------------------------------------------------------------------------------------------------------------------------------------------------------------------------------------------------------------------------------------------------------
X,Y,Z,Sigma,Tau,Von Mises
0.00000e+00,4.05613e+00,0.00000e+00,1.92075e-01,7.78586e-01,1.36216e+00
0.00000e+00,1.70710e+01,0.00000e+00,7.75053e-02,7.79336e-01,1.35207e+00
0.00000e+00,3.00859e+01,0.00000e+00,-3.70645e-02,7.79336e-01,1.35036e+00
0.00000e+00,4.31008e+01,0.00000e+00,-1.51634e-01,7.78601e-01,1.35708e+00
1.07300e+02,4.01639e+00,0.00000e+00,1.72412e-01,7.38436e-01,1.29058e+00
1.07300e+02,1.69038e+01,0.00000e+00,6.95749e-02,7.39141e-01,1.28212e+00
1.07300e+02,2.97912e+01,0.00000e+00,-3.32626e-02,7.39141e-01,1.28066e+00
1.07300e+02,4.26785e+01,0.00000e+00,-1.36100e-01,7.38450e-01,1.28625e+00
2.14300e+02,3.97676e+00,0.00000e+00,1.53724e-01,6.98151e-01,1.21897e+00
2.14300e+02,1.67370e+01,0.00000e+00,6.20401e-02,6.98813e-01,1.21197e+00
2.14300e+02,2.94972e+01,0.00000e+00,-2.96437e-02,6.98813e-01,1.21074e+00
2.14300e+02,4.22575e+01,0.00000e+00,-1.21327e-01,6.98165e-01,1.21533e+00
3.20700e+02,3.93736e+00,0.00000e+00,1.36075e-01,6.56988e-01,1.14604e+00
3.20700e+02,1.65712e+01,0.00000e+00,5.49263e-02,6.57606e-01,1.14033e+00
3.20700e+02,2.92050e+01,0.00000e+00,-2.62222e-02,6.57606e-01,1.13931e+00
3.20700e+02,4.18388e+01,0.00000e+00,-1.07371e-01,6.57000e-01,1.14301e+00
4.26200e+02,3.89829e+00,0.00000e+00,1.19529e-01,6.15600e-01,1.07293e+00
4.26200e+02,1.64067e+01,0.00000e+00,4.82581e-02,6.16174e-01,1.06834e+00
4.26200e+02,2.89151e+01,0.00000e+00,-2.30124e-02,6.16174e-01,1.06749e+00
4.26200e+02,4.14236e+01,0.00000e+00,-9.42829e-02,6.15612e-01,1.07043e+00
5.30600e+02,3.85963e+00,0.00000e+00,1.04111e-01,5.74077e-01,9.99766e-01
5.30600e+02,1.62440e+01,0.00000e+00,4.20455e-02,5.74608e-01,9.96138e-01
5.30600e+02,2.86284e+01,0.00000e+00,-2.00201e-02,5.74608e-01,9.95452e-01
5.30600e+02,4.10127e+01,0.00000e+00,-8.20858e-02,5.74087e-01,9.97731e-01
6.33500e+02,3.82152e+00,0.00000e+00,8.98683e-02,5.32595e-01,9.26849e-01
6.33500e+02,1.60836e+01,0.00000e+00,3.63065e-02,5.33084e-01,9.24042e-01
6.33500e+02,2.83457e+01,0.00000e+00,-1.72553e-02,5.33084e-01,9.23490e-01
6.33500e+02,4.06078e+01,0.00000e+00,-7.08171e-02,5.32605e-01,9.25212e-01
7.34700e+02,3.78404e+00,0.00000e+00,7.68067e-02,4.91232e-01,8.54298e-01
7.34700e+02,1.59259e+01,0.00000e+00,3.10435e-02,4.91679e-01,8.52179e-01
7.34700e+02,2.80677e+01,0.00000e+00,-1.47198e-02,4.91679e-01,8.51741e-01
7.34700e+02,4.02095e+01,0.00000e+00,-6.04830e-02,4.91240e-01,8.53000e-01
8.33800e+02,3.74734e+00,0.00000e+00,6.49471e-02,4.50218e-01,7.82500e-01
8.33800e+02,1.57714e+01,0.00000e+00,2.62644e-02,4.50626e-01,7.80948e-01
8.33800e+02,2.77955e+01,0.00000e+00,-1.24183e-02,4.50626e-01,7.80605e-01
8.33800e+02,3.98196e+01,0.00000e+00,-5.11010e-02,4.50226e-01,7.81486e-01
9.30700e+02,3.71145e+00,0.00000e+00,5.42618e-02,4.09590e-01,7.11502e-01
9.30700e+02,1.56204e+01,0.00000e+00,2.19579e-02,4.09958e-01,7.10408e-01
9.30700e+02,2.75293e+01,0.00000e+00,-1.03460e-02,4.09958e-01,7.10144e-01
9.30700e+02,3.94382e+01,0.00000e+00,-4.26499e-02,4.09597e-01,7.10723e-01
1.02500e+03,3.67653e+00,0.00000e+00,4.47407e-02,3.69909e-01,6.42262e-01
1.02500e+03,1.54734e+01,0.00000e+00,1.81201e-02,3.70241e-01,6.41532e-01
1.02500e+03,2.72703e+01,0.00000e+00,-8.50052e-03,3.70241e-01,6.41332e-01
1.02500e+03,3.90671e+01,0.00000e+00,-3.51211e-02,3.69916e-01,6.41674e-01
1.11650e+03,3.64264e+00,0.00000e+00,3.63469e-02,3.30614e-01,5.73792e-01
1.11650e+03,1.53308e+01,0.00000e+00,1.47360e-02,3.30909e-01,5.73341e-01
1.11650e+03,2.70189e+01,0.00000e+00,-6.87482e-03,3.30909e-01,5.73193e-01
1.11650e+03,3.87070e+01,0.00000e+00,-2.84857e-02,3.30619e-01,5.73358e-01
1.20500e+03,3.54704e+00,0.00000e+00,4.17622e-02,2.96703e-01,5.15599e-01
1.20500e+03,1.49284e+01,0.00000e+00,1.71024e-02,2.97071e-01,5.14827e-01
1.20500e+03,2.63098e+01,0.00000e+00,-7.55738e-03,2.97071e-01,5.14598e-01
1.20500e+03,3.76912e+01,0.00000e+00,-3.22172e-02,2.96713e-01,5.14931e-01
1.29010e+03,3.41832e+00,0.00000e+00,3.38627e-02,2.70329e-01,4.69447e-01
1.29010e+03,1.43867e+01,0.00000e+00,1.38806e-02,2.70653e-01,4.68990e-01
1.29010e+03,2.53550e+01,0.00000e+00,-6.10145e-03,2.70653e-01,4.68824e-01
1.29010e+03,3.63234e+01,0.00000e+00,-2.60835e-02,2.70338e-01,4.68964e-01
1.37170e+03,3.29489e+00,0.00000e+00,2.68606e-02,2.43171e-01,4.22040e-01
1.37170e+03,1.38672e+01,0.00000e+00,1.10263e-02,2.43452e-01,4.21816e-01
1.37170e+03,2.44395e+01,0.00000e+00,-4.80801e-03,2.43452e-01,4.21699e-01
1.37170e+03,3.50118e+01,0.00000e+00,-2.06423e-02,2.43178e-01,4.21702e-01
1.44960e+03,3.17706e+00,0.00000e+00,2.07653e-02,2.15633e-01,3.74063e-01
1.44960e+03,1.33713e+01,0.00000e+00,8.54159e-03,2.15873e-01,3.74001e-01
1.44960e+03,2.35655e+01,0.00000e+00,-3.68211e-03,2.15873e-01,3.73921e-01
1.44960e+03,3.37597e+01,0.00000e+00,-1.59058e-02,2.15638e-01,3.73835e-01
1.52340e+03,3.06543e+00,0.00000e+00,1.55919e-02,1.87239e-01,3.24683e-01
1.52340e+03,1.29015e+01,0.00000e+00,6.43144e-03,1.87441e-01,3.24721e-01
1.52340e+03,2.27375e+01,0.00000e+00,-2.72905e-03,1.87441e-01,3.24669e-01
1.52340e+03,3.25736e+01,0.00000e+00,-1.18895e-02,1.87244e-01,3.24534e-01
1.59310e+03,2.96000e+00,0.00000e+00,1.13134e-02,1.58783e-01,2.75252e-01
1.59310e+03,1.24578e+01,0.00000e+00,4.68372e-03,1.58948e-01,2.75345e-01
1.59310e+03,2.19555e+01,0.00000e+00,-1.94591e-03,1.58948e-01,2.75312e-01
1.59310e+03,3.14533e+01,0.00000e+00,-8.57554e-03,1.58787e-01,2.75160e-01
1.65850e+03,2.86108e+00,0.00000e+00,7.89002e-03,1.30722e-01,2.26554e-01
1.65850e+03,1.20414e+01,0.00000e+00,3.28182e-03,1.30853e-01,2.26667e-01
1.65850e+03,2.12218e+01,0.00000e+00,-1.32638e-03,1.30853e-01,2.26647e-01
1.65850e+03,3.04021e+01,0.00000e+00,-5.93459e-03,1.30724e-01,2.26499e-01
1.71930e+03,2.76911e+00,0.00000e+00,5.26653e-03,1.03365e-01,1.79111e-01
1.71930e+03,1.16544e+01,0.00000e+00,2.20352e-03,1.03465e-01,1.79221e-01
1.71930e+03,2.05396e+01,0.00000e+00,-8.59487e-04,1.03465e-01,1.79209e-01
1.71930e+03,2.94249e+01,0.00000e+00,-3.92249e-03,1.03367e-01,1.79080e-01
1.77540e+03,2.60964e+00,0.00000e+00,6.11187e-03,1.32289e-01,2.29213e-01
1.77540e+03,1.09832e+01,0.00000e+00,2.63086e-03,1.32418e-01,2.29371e-01
1.77540e+03,1.93567e+01,0.00000e+00,-8.50153e-04,1.32418e-01,2.29357e-01
1.77540e+03,2.77303e+01,0.00000e+00,-4.33117e-03,1.32294e-01,2.29181e-01
1.82660e+03,2.38179e+00,0.00000e+00,4.00984e-03,1.04582e-01,1.81186e-01
1.82660e+03,1.00242e+01,0.00000e+00,1.73934e-03,1.04675e-01,1.81310e-01
1.82660e+03,1.76667e+01,0.00000e+00,-5.31161e-04,1.04675e-01,1.81302e-01
1.82660e+03,2.53092e+01,0.00000e+00,-2.80166e-03,1.04585e-01,1.81169e-01
1.87280e+03,2.17619e+00,0.00000e+00,2.48488e-03,8.03641e-02,1.39217e-01
1.87280e+03,9.15894e+00,0.00000e+00,1.08968e-03,8.04277e-02,1.39309e-01
1.87280e+03,1.61417e+01,0.00000e+00,-3.05524e-04,8.04277e-02,1.39305e-01
1.87280e+03,2.31244e+01,0.00000e+00,-1.70073e-03,8.03662e-02,1.39209e-01
1.91380e+03,1.99374e+00,0.00000e+00,1.43464e-03,5.96468e-02,1.03321e-01
1.91380e+03,8.39104e+00,0.00000e+00,6.38211e-04,5.96888e-02,1.03386e-01
1.91380e+03,1.47883e+01,0.00000e+00,-1.58214e-04,5.96888e-02,1.03384e-01
1.91380e+03,2.11856e+01,0.00000e+00,-9.54639e-04,5.96481e-02,1.03318e-01
1.94970e+03,1.83398e+00,0.00000e+00,7.52012e-04,4.21597e-02,7.30267e-02
1.94970e+03,7.71865e+00,0.00000e+00,3.40833e-04,4.21859e-02,7.30689e-02
1.94970e+03,1.36033e+01,0.00000e+00,-7.03464e-05,4.21859e-02,7.30681e-02
1.94970e+03,1.94880e+01,0.00000e+00,-4.81526e-04,4.21605e-02,7.30256e-02
1.98010e+03,1.69869e+00,0.00000e+00,3.47892e-04,2.79300e-02,4.83775e-02
1.98010e+03,7.14927e+00,0.00000e+00,1.61515e-04,2.79452e-02,4.84027e-02
1.98010e+03,1.25999e+01,0.00000e+00,-2.48623e-05,2.79452e-02,4.84024e-02
1.98010e+03,1.80504e+01,0.00000e+00,-2.11239e-04,2.79304e-02,4.83774e-02
2.00520e+03,1.58699e+00,0.00000e+00,1.33372e-04,1.67381e-02,2.89916e-02
2.00520e+03,6.67917e+00,0.00000e+00,6.39382e-05,1.67459e-02,2.90049e-02
2.00520e+03,1.17713e+01,0.00000e+00,-5.49543e-06,1.67459e-02,2.90048e-02
2.00520e+03,1.68635e+01,0.00000e+00,-7.49290e-05,1.67383e-02,2.89917e-02
2.02480e+03,1.49977e+00,0.00000e+00,3.84789e-05,8.56653e-03,1.48377e-02
2.02480e+03,6.31207e+00,0.00000e+00,1.92904e-05,8.56989e-03,1.48435e-02
2.02480e+03,1.11244e+01,0.00000e+00,1.01969e-07,8.56989e-03,1.48435e-02
2.02480e+03,1.59367e+01,0.00000e+00,-1.90865e-05,8.56661e-03,1.48378e-02
2.03880e+03,1.43746e+00,0.00000e+00,7.05161e-06,3.31530e-03,5.74228e-03
2.03880e+03,6.04986e+00,0.00000e+00,3.78618e-06,3.31632e-03,5.74404e-03
2.03880e+03,1.06622e+01,0.00000e+00,5.20740e-07,3.31632e-03,5.74404e-03
2.03880e+03,1.52746e+01,0.00000e+00,-2.74470e-06,3.31533e-03,5.74231e-03
2.04720e+03,1.40008e+00,0.00000e+00,9.51450e-07,6.57123e-04,1.13817e-03
2.04720e+03,5.89253e+00,0.00000e+00,5.60342e-07,6.57242e-04,1.13838e-03
2.04720e+03,1.03850e+01,0.00000e+00,1.69234e-07,6.57242e-04,1.13838e-03
2.04720e+03,1.48774e+01,0.00000e+00,-2.21873e-07,6.57125e-04,1.13817e-03
2.05000e+03,1.38762e+00,0.00000e+00,0.00000e+00,0.00000e+00,0.00000e+00
2.05000e+03,5.84009e+00,0.00000e+00,0.00000e+00,0.00000e+00,0.00000e+00
2.05000e+03,1.02925e+01,0.00000e+00,0.00000e+00,0.00000e+00,0.00000e+00
2.05000e+03,1.47450e+01,0.00000e+00,0.00000e+00,0.00000e+00,0.00000e+00
MESA INFERIOR 
--------------------------------------------------------------------------------------------------------------------------------------------------------------------------------------------------------------------------------------------------------------------------------------------------------------------------------------------------------------------------------
X,Y,Z,Sigma,Von Mises
0.00000e+00,4.05613e+00,0.00000e+00,0.00000e+00,0.00000e+00
1.07300e+02,4.01639e+00,0.00000e+00,0.00000e+00,0.00000e+00
2.14300e+02,3.97676e+00,0.00000e+00,0.00000e+00,0.00000e+00
3.20700e+02,3.93736e+00,0.00000e+00,0.00000e+00,0.00000e+00
4.26200e+02,3.89829e+00,0.00000e+00,0.00000e+00,0.00000e+00
5.30600e+02,3.85963e+00,0.00000e+00,0.00000e+00,0.00000e+00
6.33500e+02,3.82152e+00,0.00000e+00,0.00000e+00,0.00000e+00
7.34700e+02,3.78404e+00,0.00000e+00,0.00000e+00,0.00000e+00
8.33800e+02,3.74734e+00,0.00000e+00,0.00000e+00,0.00000e+00
9.30700e+02,3.71145e+00,0.00000e+00,0.00000e+00,0.00000e+00
1.02500e+03,3.67653e+00,0.00000e+00,0.00000e+00,0.00000e+00
1.11650e+03,3.64264e+00,0.00000e+00,0.00000e+00,0.00000e+00
1.20500e+03,3.54704e+00,0.00000e+00,0.00000e+00,0.00000e+00
1.29010e+03,3.41832e+00,0.00000e+00,0.00000e+00,0.00000e+00
1.37170e+03,3.29489e+00,0.00000e+00,0.00000e+00,0.00000e+00
1.44960e+03,3.17706e+00,0.00000e+00,0.00000e+00,0.00000e+00
1.52340e+03,3.06543e+00,0.00000e+00,0.00000e+00,0.00000e+00
1.59310e+03,2.96000e+00,0.00000e+00,0.00000e+00,0.00000e+00
1.65850e+03,2.86108e+00,0.00000e+00,0.00000e+00,0.00000e+00
1.71930e+03,2.76911e+00,0.00000e+00,0.00000e+00,0.00000e+00
1.77540e+03,2.60964e+00,0.00000e+00,0.00000e+00,0.00000e+00
1.82660e+03,2.38179e+00,0.00000e+00,0.00000e+00,0.00000e+00
1.87280e+03,2.17619e+00,0.00000e+00,0.00000e+00,0.00000e+00
1.91380e+03,1.99374e+00,0.00000e+00,0.00000e+00,0.00000e+00
1.94970e+03,1.83398e+00,0.00000e+00,0.00000e+00,0.00000e+00
1.98010e+03,1.69869e+00,0.00000e+00,0.00000e+00,0.00000e+00
2.00520e+03,1.58699e+00,0.00000e+00,0.00000e+00,0.00000e+00
2.02480e+03,1.49977e+00,0.00000e+00,0.00000e+00,0.00000e+00
2.03880e+03,1.43746e+00,0.00000e+00,0.00000e+00,0.00000e+00
2.04720e+03,1.40008e+00,0.00000e+00,0.00000e+00,0.00000e+00
2.05000e+03,1.38762e+00,0.00000e+00,0.00000e+00,0.00000e+00
--------------------------------------------------------------------------------------------------------------------------------------------------------------------------------------------------------------------------------------------------------------------------------------------------------------------------------------------------------------------------------

MESA SUPERIOR 
--------------------------------------------------------------------------------------------------------------------------------------------------------------------------------------------------------------------------------------------------------------------------------------------------------------------------------------------------------------------------------
X,Y,Z,Sigma,Von Mises
0.00000e+00,4.31008e+01,0.00000e+00,0.00000e+00,0.00000e+00
1.07300e+02,4.26785e+01,0.00000e+00,0.00000e+00,0.00000e+00
2.14300e+02,4.22575e+01,0.00000e+00,0.00000e+00,0.00000e+00
3.20700e+02,4.18388e+01,0.00000e+00,0.00000e+00,0.00000e+00
4.26200e+02,4.14236e+01,0.00000e+00,0.00000e+00,0.00000e+00
5.30600e+02,4.10127e+01,0.00000e+00,0.00000e+00,0.00000e+00
6.33500e+02,4.06078e+01,0.00000e+00,0.00000e+00,0.00000e+00
7.34700e+02,4.02095e+01,0.00000e+00,0.00000e+00,0.00000e+00
8.33800e+02,3.98196e+01,0.00000e+00,0.00000e+00,0.00000e+00
9.30700e+02,3.94382e+01,0.00000e+00,0.00000e+00,0.00000e+00
1.02500e+03,3.90671e+01,0.00000e+00,0.00000e+00,0.00000e+00
1.11650e+03,3.87070e+01,0.00000e+00,0.00000e+00,0.00000e+00
1.20500e+03,3.76912e+01,0.00000e+00,0.00000e+00,0.00000e+00
1.29010e+03,3.63234e+01,0.00000e+00,0.00000e+00,0.00000e+00
1.37170e+03,3.50118e+01,0.00000e+00,0.00000e+00,0.00000e+00
1.44960e+03,3.37597e+01,0.00000e+00,0.00000e+00,0.00000e+00
1.52340e+03,3.25736e+01,0.00000e+00,0.00000e+00,0.00000e+00
1.59310e+03,3.14533e+01,0.00000e+00,0.00000e+00,0.00000e+00
1.65850e+03,3.04021e+01,0.00000e+00,0.00000e+00,0.00000e+00
1.71930e+03,2.94249e+01,0.00000e+00,0.00000e+00,0.00000e+00
1.77540e+03,2.77303e+01,0.00000e+00,0.00000e+00,0.00000e+00
1.82660e+03,2.53092e+01,0.00000e+00,0.00000e+00,0.00000e+00
1.87280e+03,2.31244e+01,0.00000e+00,0.00000e+00,0.00000e+00
1.91380e+03,2.11856e+01,0.00000e+00,0.00000e+00,0.00000e+00
1.94970e+03,1.94880e+01,0.00000e+00,0.00000e+00,0.00000e+00
1.98010e+03,1.80504e+01,0.00000e+00,0.00000e+00,0.00000e+00
2.00520e+03,1.68635e+01,0.00000e+00,0.00000e+00,0.00000e+00
2.02480e+03,1.59367e+01,0.00000e+00,0.00000e+00,0.00000e+00
2.03880e+03,1.52746e+01,0.00000e+00,0.00000e+00,0.00000e+00
2.04720e+03,1.48774e+01,0.00000e+00,0.00000e+00,0.00000e+00
2.05000e+03,1.47450e+01,0.00000e+00,0.00000e+00,0.00000e+00
--------------------------------------------------------------------------------------------------------------------------------------------------------------------------------------------------------------------------------------------------------------------------------------------------------------------------------------------------------------------------------

