----------------------------------------------
LOG MATLAB Estruturas Copyright Charles 2020
----------------------------------------------

VISÃO GERAL POR SEÇÃO
--------------------------------------------------------------------------------------------------------------------------------------------------------------------------------------------------------------------------------------------------------------------------------------------------------------------------------------------------------------------------------
SEÇÃO,POSIÇÃO .25c,, ESFORÇOS,,,,,INÉRCIAS,,,,CENTROS GEOMÉTRICOS,,,DEFLEXÇOES,,,,,TENSÕES NORMAIS,,,,,,,,TENSÕES CISALHAMENTO,,,TENSÕES DE VON MISES
NUMERO,X,Y,MFz,MFy,MTx,Vz,Vy,EIzz,EIyy,EIzy,GJ,Zcg,Ycg,Zcc,Z,Y,Z´,Y´,Theta,Sigma_Chap+,Sigma_Chap-,Sigma_Lam+,Sigma_Lam-,Sigma_Mesa+,Sigma_Mesa-,Sigma_Alma+,Sigma_Alma-,  Tau_Alma,  Tau_Chap,  Tau_Lam, Von Mises_Alma,  Von Mises_Chap,  Von Mises_Lam
--------------------------------------------------------------------------------------------------------------------------------------------------------------------------------------------------------------------------------------------------------------------------------------------------------------------------------------------------------------------------------
01,0.00000e+00,0.00000e+00,1.03771e+05,9.90489e+03,-9.14879e+03,1.06085e+01,1.17232e+02,2.43720e+09,3.02407e+09,6.88619e+08,4.37174e+07,8.66395e+01,2.17434e+01,7.43235e+01,0.00000e+00,0.00000e+00,0.00000e+00,0.00000e+00,0.00000e+00,1.39437e+00,-1.82239e+00,0.00000e+00,0.00000e+00,7.87524e+01,-7.36192e+01,9.85179e-02,-9.20964e-02,4.10018e-01,5.21555e-01,0.00000e+00,7.16181e-01,1.96962e+00,0.00000e+00
02,1.07300e+02,0.00000e+00,9.16020e+04,8.80119e+03,-8.46051e+03,9.96365e+00,1.09589e+02,2.38487e+09,2.93941e+09,6.69313e+08,4.24485e+07,8.58583e+01,2.15452e+01,7.36225e+01,-3.74358e-02,2.43652e-01,-6.97778e-04,4.54151e-03,-2.19205e-02,1.24509e+00,-1.63031e+00,0.00000e+00,0.00000e+00,7.03328e+01,-6.57313e+01,8.79852e-02,-8.22287e-02,3.87074e-01,4.91149e-01,0.00000e+00,6.75438e-01,1.77612e+00,0.00000e+00
03,2.14300e+02,0.00000e+00,8.02774e+04,7.76923e+03,-7.78549e+03,9.32532e+00,1.02085e+02,2.33333e+09,2.85653e+09,6.50412e+08,4.11960e+07,8.50782e+01,2.13473e+01,7.29231e+01,-1.45314e-01,9.47299e-01,-1.31864e-03,8.61077e-03,-4.26945e-02,1.10389e+00,-1.44824e+00,0.00000e+00,0.00000e+00,6.23673e+01,-5.82693e+01,7.80204e-02,-7.28939e-02,3.64012e-01,4.60431e-01,0.00000e+00,6.34603e-01,1.59223e+00,0.00000e+00
04,3.20700e+02,0.00000e+00,6.98174e+04,6.81109e+03,-7.13357e+03,8.68493e+00,9.45320e+01,2.28273e+09,2.77562e+09,6.31961e+08,3.99894e+07,8.43013e+01,2.11503e+01,7.22271e+01,-3.14694e-01,2.05550e+00,-1.86520e-03,1.22201e-02,-6.22388e-02,9.71313e-01,-1.27694e+00,0.00000e+00,0.00000e+00,5.48871e+01,-5.12627e+01,6.86628e-02,-6.41287e-02,3.40483e-01,4.29666e-01,0.00000e+00,5.93073e-01,1.41886e+00,0.00000e+00
05,4.26200e+02,0.00000e+00,6.02364e+04,5.92848e+03,-6.50687e+03,8.04694e+00,8.70992e+01,2.23318e+09,2.69686e+09,6.14002e+08,3.88207e+07,8.35299e+01,2.09548e+01,7.15366e+01,-5.36570e-01,3.51181e+00,-2.34097e-03,1.53876e-02,-8.04903e-02,8.47878e-01,-1.11711e+00,0.00000e+00,0.00000e+00,4.79215e+01,-4.47389e+01,5.99489e-02,-5.59676e-02,3.16933e-01,3.99125e-01,0.00000e+00,5.51614e-01,1.25669e+00,0.00000e+00
06,5.30600e+02,0.00000e+00,5.15229e+04,5.12131e+03,-5.90533e+03,7.41605e+00,7.98248e+01,2.18477e+09,2.62035e+09,5.96558e+08,3.76888e+07,8.27655e+01,2.07610e+01,7.08528e+01,-8.02348e-01,5.26189e+00,-2.75058e-03,1.81389e-02,-9.74187e-02,7.33778e-01,-9.69038e-01,0.00000e+00,0.00000e+00,4.14815e+01,-3.87083e+01,5.18926e-02,-4.84234e-02,2.93468e-01,3.68866e-01,0.00000e+00,5.10398e-01,1.10595e+00,0.00000e+00
07,6.33500e+02,0.00000e+00,4.36723e+04,4.38908e+03,-5.32339e+03,6.81592e+00,7.27629e+01,2.13765e+09,2.54632e+09,5.79679e+08,3.65843e+07,8.20110e+01,2.05698e+01,7.01785e+01,-1.10328e+00,7.24975e+00,-3.09841e-03,2.04980e-02,-1.12967e-01,6.29292e-01,-8.33270e-01,0.00000e+00,0.00000e+00,3.55829e+01,-3.31858e+01,4.45136e-02,-4.15149e-02,2.70149e-01,3.38681e-01,0.00000e+00,4.69526e-01,9.66643e-01,0.00000e+00
08,7.34700e+02,0.00000e+00,3.66540e+04,3.72821e+03,-4.76239e+03,6.24473e+00,6.59385e+01,2.09189e+09,2.47483e+09,5.63383e+08,3.55056e+07,8.12680e+01,2.03815e+01,6.95148e+01,-1.43160e+00,9.42531e+00,-3.39009e-03,2.24972e-02,-1.27117e-01,5.34353e-01,-7.09557e-01,0.00000e+00,0.00000e+00,3.02222e+01,-2.81688e+01,3.78074e-02,-3.52387e-02,2.47079e-01,3.08686e-01,0.00000e+00,4.29167e-01,8.38620e-01,0.00000e+00
09,8.33800e+02,0.00000e+00,3.04441e+04,3.13623e+03,-4.22473e+03,5.70249e+00,5.93880e+01,2.04762e+09,2.40610e+09,5.47713e+08,3.44524e+07,8.05393e+01,2.01969e+01,6.88645e+01,-1.77949e+00,1.17375e+01,-3.63092e-03,2.41668e-02,-1.39839e-01,4.48978e-01,-5.97950e-01,0.00000e+00,0.00000e+00,2.54001e+01,-2.36584e+01,3.17751e-02,-2.95962e-02,2.24408e-01,2.79063e-01,0.00000e+00,3.89575e-01,7.21854e-01,0.00000e+00
10,9.30700e+02,0.00000e+00,2.49937e+04,2.60908e+03,-3.71257e+03,5.17774e+00,5.31078e+01,2.00486e+09,2.34009e+09,5.32666e+08,3.34257e+07,7.98259e+01,2.00162e+01,6.82283e+01,-2.14083e+00,1.41460e+01,-3.82713e-03,2.55435e-02,-1.51161e-01,3.72831e-01,-4.98055e-01,0.00000e+00,0.00000e+00,2.10979e+01,-1.96371e+01,2.63932e-02,-2.45657e-02,2.02198e-01,2.49980e-01,0.00000e+00,3.50845e-01,6.16046e-01,0.00000e+00
11,1.02500e+03,0.00000e+00,2.02642e+04,2.14473e+03,-3.22826e+03,4.67054e+00,4.71993e+01,1.96375e+09,2.27699e+09,5.18282e+08,3.24141e+07,7.91308e+01,1.98401e+01,6.76088e+01,-2.50913e+00,1.66073e+01,-3.98416e-03,2.66594e-02,-1.61094e-01,3.05699e-01,-4.09666e-01,0.00000e+00,0.00000e+00,1.73039e+01,-1.60935e+01,2.16469e-02,-2.01327e-02,1.80795e-01,2.21713e-01,0.00000e+00,3.13567e-01,5.21064e-01,0.00000e+00
12,1.11650e+03,0.00000e+00,1.62052e+04,1.73996e+03,-2.77208e+03,4.17688e+00,4.15222e+01,1.92432e+09,2.21681e+09,5.04566e+08,3.14334e+07,7.84554e+01,1.96691e+01,6.70073e+01,-2.87934e+00,1.90874e+01,-4.10771e-03,2.75493e-02,-1.69685e-01,2.47180e-01,-3.32329e-01,0.00000e+00,0.00000e+00,1.39956e+01,-1.30060e+01,1.75083e-02,-1.62703e-02,1.59870e-01,1.94220e-01,0.00000e+00,2.77169e-01,4.36055e-01,0.00000e+00
13,1.20500e+03,0.00000e+00,1.27648e+04,1.39126e+03,-2.34809e+03,3.70335e+00,3.62254e+01,1.32148e+09,1.95268e+09,4.45208e+08,2.86643e+07,7.39632e+01,1.86188e+01,6.42675e+01,-3.24839e+00,2.15626e+01,-4.23238e-03,2.83874e-02,-1.77212e-01,2.83137e-01,-3.63075e-01,0.00000e+00,0.00000e+00,1.59804e+01,-1.47508e+01,1.99912e-02,-1.84531e-02,1.41487e-01,1.86710e-01,0.00000e+00,2.45523e-01,4.46639e-01,0.00000e+00
14,1.29010e+03,0.00000e+00,9.89114e+03,1.09497e+03,-1.96777e+03,3.26006e+00,3.13114e+01,1.21619e+09,1.75686e+09,4.00479e+08,2.57229e+07,7.15330e+01,1.79989e+01,6.20379e+01,-3.61389e+00,2.40124e+01,-4.35767e-03,2.91863e-02,-1.83953e-01,2.29335e-01,-2.95686e-01,0.00000e+00,0.00000e+00,1.29495e+01,-1.19481e+01,1.61996e-02,-1.49468e-02,1.27282e-01,1.66933e-01,0.00000e+00,2.20746e-01,3.77668e-01,0.00000e+00
15,1.37170e+03,0.00000e+00,7.52197e+03,8.45894e+02,-1.63044e+03,2.84469e+00,2.67567e+01,1.12002e+09,1.58132e+09,3.60391e+08,2.30947e+07,6.91884e+01,1.74013e+01,5.98941e+01,-3.97348e+00,2.64200e+01,-4.45579e-03,2.98241e-02,-1.89954e-01,1.82227e-01,-2.36284e-01,0.00000e+00,0.00000e+00,1.02943e+01,-9.49374e+00,1.28780e-02,-1.18765e-02,1.13175e-01,1.47549e-01,0.00000e+00,1.96183e-01,3.16206e-01,0.00000e+00
16,1.44960e+03,0.00000e+00,5.59881e+03,6.39346e+02,-1.33455e+03,2.45822e+00,2.26183e+01,1.03251e+09,1.42458e+09,3.24609e+08,2.07483e+07,6.69366e+01,1.68278e+01,5.78421e+01,-4.32350e+00,2.87626e+01,-4.53065e-03,3.03207e-02,-1.95210e-01,1.41629e-01,-1.84719e-01,0.00000e+00,0.00000e+00,8.00475e+00,-7.37871e+00,1.00138e-02,-9.23064e-03,9.94579e-02,1.28829e-01,0.00000e+00,1.72332e-01,2.62398e-01,0.00000e+00
17,1.52340e+03,0.00000e+00,4.07037e+03,4.71567e+02,-1.07439e+03,2.08864e+00,1.88030e+01,9.53418e+08,1.28561e+09,2.92889e+08,1.86734e+07,6.47909e+01,1.62818e+01,5.58929e+01,-4.65991e+00,3.10141e+01,-4.58596e-03,3.06955e-02,-1.99706e-01,1.07407e-01,-1.40953e-01,0.00000e+00,0.00000e+00,6.07353e+00,-5.59602e+00,7.59788e-03,-7.00053e-03,8.58807e-02,1.10535e-01,0.00000e+00,1.48775e-01,2.17359e-01,0.00000e+00
18,1.59310e+03,0.00000e+00,2.88055e+03,3.39299e+02,-8.50534e+02,1.70673e+00,1.53382e+01,8.82075e+08,1.16263e+09,2.64824e+08,1.68489e+07,6.27531e+01,1.57637e+01,5.40474e+01,-4.98093e+00,3.31632e+01,-4.62557e-03,3.09702e-02,-2.03470e-01,7.92121e-02,-1.04651e-01,0.00000e+00,0.00000e+00,4.48159e+00,-4.12661e+00,5.60640e-03,-5.16232e-03,7.27362e-02,9.31134e-02,0.00000e+00,1.25999e-01,1.77850e-01,0.00000e+00
19,1.65850e+03,0.00000e+00,1.97716e+03,2.37627e+02,-6.61218e+02,1.40252e+00,1.22883e+01,8.18049e+08,1.05434e+09,2.40117e+08,1.52439e+07,6.08309e+01,1.52752e+01,5.23116e+01,-5.28433e+00,3.51950e+01,-4.65283e-03,3.11641e-02,-2.06540e-01,5.65941e-02,-7.53159e-02,0.00000e+00,0.00000e+00,3.20385e+00,-2.94729e+00,4.00796e-03,-3.68701e-03,6.04189e-02,7.69195e-02,0.00000e+00,1.04659e-01,1.43262e-01,0.00000e+00
20,1.71930e+03,0.00000e+00,1.31105e+03,1.60715e+02,-5.00291e+02,1.12747e+00,9.62341e+00,7.61023e+08,9.59670e+08,2.18523e+08,1.38288e+07,5.90349e+01,1.48192e+01,5.06943e+01,-5.56777e+00,3.70937e+01,-4.67073e-03,3.12952e-02,-2.08958e-01,3.89964e-02,-5.22806e-02,0.00000e+00,0.00000e+00,2.20898e+00,-2.03011e+00,2.76339e-03,-2.53964e-03,4.89083e-02,6.17796e-02,0.00000e+00,8.47175e-02,1.12989e-01,0.00000e+00
21,1.77540e+03,0.00000e+00,8.34951e+02,1.04680e+02,-3.65647e+02,8.70208e-01,7.34969e+00,3.98519e+08,7.29057e+08,1.66652e+08,9.84702e+06,5.21005e+01,1.31900e+01,4.07358e+01,-5.83028e+00,3.88526e+01,-4.68788e-03,3.14085e-02,-2.11014e-01,4.67752e-02,-5.82464e-02,0.00000e+00,0.00000e+00,2.63733e+00,-2.38709e+00,3.29926e-03,-2.98622e-03,6.48544e-02,5.77900e-02,0.00000e+00,1.12338e-01,1.08961e-01,0.00000e+00
22,1.82660e+03,0.00000e+00,5.07039e+02,6.58548e+01,-2.57765e+02,6.46408e-01,5.45937e+00,3.22692e+08,5.63581e+08,1.28741e+08,7.59042e+06,4.80842e+01,1.21552e+01,3.73499e+01,-6.07071e+00,4.04633e+01,-4.70419e-03,3.15091e-02,-2.12834e-01,3.18725e-02,-4.01335e-02,0.00000e+00,0.00000e+00,1.79864e+00,-1.62702e+00,2.25007e-03,-2.03537e-03,5.36278e-02,4.73575e-02,0.00000e+00,9.28898e-02,8.70267e-02,0.00000e+00
23,1.87280e+03,0.00000e+00,2.90377e+02,3.98867e+01,-1.77963e+02,4.77749e-01,3.91991e+00,2.62353e+08,4.36581e+08,9.96683e+07,5.88559e+06,4.43938e+01,1.12070e+01,3.42731e+01,-6.28828e+00,4.19205e+01,-4.71442e-03,3.15750e-02,-2.14317e-01,2.04486e-02,-2.61072e-02,0.00000e+00,0.00000e+00,1.15536e+00,-1.04237e+00,1.44533e-03,-1.30398e-03,4.29849e-02,3.78850e-02,0.00000e+00,7.44539e-02,6.82117e-02,0.00000e+00
24,1.91380e+03,0.00000e+00,1.54629e+02,2.29206e+01,-1.18975e+02,3.49869e-01,2.70196e+00,2.14932e+08,3.40501e+08,7.76906e+07,4.60397e+06,4.10625e+01,1.03532e+01,3.15244e+01,-6.48169e+00,4.32159e+01,-4.72020e-03,3.16146e-02,-2.15467e-01,1.21581e-02,-1.58057e-02,0.00000e+00,0.00000e+00,6.88046e-01,-6.17739e-01,8.60733e-04,-7.72781e-04,3.30580e-02,2.92328e-02,0.00000e+00,5.72589e-02,5.18222e-02,0.00000e+00
25,1.94970e+03,0.00000e+00,7.45544e+01,1.22067e+01,-7.58295e+01,2.47006e-01,1.75900e+00,1.77937e+08,2.68420e+08,6.12136e+07,3.64655e+06,3.80992e+01,9.59536e+00,2.91026e+01,-6.65120e+00,4.43512e+01,-4.72307e-03,3.16360e-02,-2.16304e-01,6.51699e-03,-8.67121e-03,0.00000e+00,0.00000e+00,3.69608e-01,-3.29255e-01,4.62373e-04,-4.11893e-04,2.39665e-02,2.13764e-02,0.00000e+00,4.15116e-02,3.74896e-02,0.00000e+00
26,1.98010e+03,0.00000e+00,3.16426e+01,5.89658e+00,-4.56943e+01,1.68132e-01,1.06415e+00,1.49784e+08,2.15653e+08,4.91590e+07,2.95237e+06,3.55543e+01,8.94582e+00,2.70403e+01,-6.79480e+00,4.53131e+01,-4.72424e-03,3.16460e-02,-2.16855e-01,3.05497e-03,-4.18855e-03,0.00000e+00,0.00000e+00,1.73775e-01,-1.52923e-01,2.17390e-04,-1.91304e-04,1.61027e-02,1.46004e-02,0.00000e+00,2.78908e-02,2.54360e-02,0.00000e+00
27,2.00520e+03,0.00000e+00,1.10704e+01,2.44588e+00,-2.50444e+01,1.06825e-01,5.75069e-01,1.28656e+08,1.77484e+08,4.04436e+07,2.45463e+06,3.34272e+01,8.40385e+00,2.53292e+01,-6.91338e+00,4.61075e+01,-4.72460e-03,3.16498e-02,-2.17178e-01,1.17286e-03,-1.67786e-03,0.00000e+00,0.00000e+00,6.69987e-02,-5.78291e-02,8.38142e-05,-7.23433e-05,9.62324e-03,8.93573e-03,0.00000e+00,1.66680e-02,1.55116e-02,0.00000e+00
28,2.02480e+03,0.00000e+00,2.88258e+00,8.02283e-01,-1.19147e+01,6.08890e-02,2.60427e-01,1.13447e+08,1.50904e+08,3.43767e+07,2.11906e+06,3.17493e+01,7.97693e+00,2.39876e+01,-7.00598e+00,4.67278e+01,-4.72467e-03,3.16510e-02,-2.17333e-01,3.33243e-04,-5.09267e-04,0.00000e+00,0.00000e+00,1.91600e-02,-1.60091e-02,2.39688e-05,-2.00271e-05,4.81539e-03,4.64112e-03,0.00000e+00,8.34051e-03,8.04375e-03,0.00000e+00
29,2.03880e+03,0.00000e+00,4.61848e-01,1.80061e-01,-4.42427e+00,2.79999e-02,8.53923e-02,1.03260e+08,1.33576e+08,3.04229e+07,1.92475e+06,3.05414e+01,7.66993e+00,2.30264e+01,-7.07213e+00,4.71709e+01,-4.72467e-03,3.16512e-02,-2.17388e-01,5.84097e-05,-9.98152e-05,0.00000e+00,0.00000e+00,3.39634e-03,-2.66634e-03,4.24876e-06,-3.33554e-06,1.77085e-03,1.82260e-03,0.00000e+00,3.06721e-03,3.15719e-03,0.00000e+00
30,2.04720e+03,0.00000e+00,5.16001e-02,3.12306e-02,-8.77312e-01,7.43585e-03,1.22857e-02,9.74134e+07,1.23821e+08,2.81976e+07,1.87250e+06,2.98129e+01,7.48488e+00,2.24484e+01,-7.11182e+00,4.74368e+01,-4.72467e-03,3.16512e-02,-2.17400e-01,7.24731e-06,-1.48547e-05,0.00000e+00,0.00000e+00,4.29348e-04,-3.00559e-04,5.37106e-07,-3.75994e-07,3.10302e-04,3.65580e-04,0.00000e+00,5.37460e-04,6.33225e-04,0.00000e+00
31,2.05000e+03,0.00000e+00,0.00000e+00,0.00000e+00,0.00000e+00,0.00000e+00,0.00000e+00,5.74754e+07,1.08343e+08,2.47732e+07,NaN,2.74871e+01,6.96602e+00,2.15905e+01,-7.12505e+00,4.75254e+01,-4.72467e-03,3.16512e-02,-2.17400e-01,0.00000e+00,0.00000e+00,0.00000e+00,0.00000e+00,0.00000e+00,0.00000e+00,0.00000e+00,0.00000e+00,0.00000e+00,0.00000e+00,0.00000e+00,0.00000e+00,0.00000e+00,0.00000e+00
--------------------------------------------------------------------------------------------------------------------------------------------------------------------------------------------------------------------------------------------------------------------------------------------------------------------------------------------------------------------------------

CHAPEADO 
--------------------------------------------------------------------------------------------------------------------------------------------------------------------------------------------------------------------------------------------------------------------------------------------------------------------------------------------------------------------------------
X,Y,Z,Sigma,Tau,Von Mises
0.00000e+00,4.31008e+01,0.00000e+00,-1.31566e+00,5.21555e-01,1.59594e+00
0.00000e+00,4.28837e+01,-3.27521e+00,-1.36863e+00,5.16496e-01,1.63507e+00
0.00000e+00,4.25950e+01,-6.55041e+00,-1.41659e+00,5.11313e-01,1.67065e+00
0.00000e+00,4.23033e+01,-9.82562e+00,-1.46436e+00,5.06013e-01,1.70660e+00
0.00000e+00,4.19484e+01,-1.31008e+01,-1.50771e+00,5.00605e-01,1.73926e+00
0.00000e+00,4.15787e+01,-1.63760e+01,-1.55004e+00,4.95097e-01,1.77143e+00
0.00000e+00,4.11605e+01,-1.96512e+01,-1.58897e+00,4.89497e-01,1.80102e+00
0.00000e+00,4.07187e+01,-2.29264e+01,-1.62626e+00,4.83813e-01,1.82947e+00
0.00000e+00,4.02378e+01,-2.62017e+01,-1.66083e+00,4.78052e-01,1.85579e+00
0.00000e+00,3.97249e+01,-2.94769e+01,-1.69317e+00,4.72223e-01,1.88037e+00
0.00000e+00,3.91766e+01,-3.27521e+01,-1.72304e+00,4.66331e-01,1.90296e+00
0.00000e+00,3.85857e+01,-3.60273e+01,-1.74993e+00,4.60387e-01,1.92305e+00
0.00000e+00,3.79511e+01,-3.93025e+01,-1.77377e+00,4.54396e-01,1.94054e+00
0.00000e+00,3.72545e+01,-4.25777e+01,-1.79330e+00,4.48370e-01,1.95423e+00
0.00000e+00,3.64976e+01,-4.58529e+01,-1.80862e+00,4.42320e-01,1.96419e+00
0.00000e+00,3.56687e+01,-4.91281e+01,-1.81891e+00,4.36256e-01,1.96962e+00
0.00000e+00,3.47420e+01,-5.24033e+01,-1.82239e+00,4.30198e-01,1.96883e+00
0.00000e+00,3.37474e+01,-5.56785e+01,-1.82113e+00,4.24150e-01,1.96373e+00
0.00000e+00,3.26000e+01,-5.89537e+01,-1.80921e+00,4.18146e-01,1.94879e+00
0.00000e+00,3.13892e+01,-6.22289e+01,-1.79287e+00,4.12200e-01,1.92979e+00
0.00000e+00,3.00018e+01,-6.55041e+01,-1.76422e+00,4.06325e-01,1.89941e+00
0.00000e+00,2.84730e+01,-6.87793e+01,-1.72570e+00,4.00572e-01,1.85995e+00
0.00000e+00,2.68002e+01,-7.20546e+01,-1.67714e+00,3.94951e-01,1.81129e+00
0.00000e+00,2.48857e+01,-7.53298e+01,-1.61173e+00,3.89481e-01,1.74721e+00
0.00000e+00,2.26913e+01,-7.86050e+01,-1.52679e+00,3.84230e-01,1.66553e+00
0.00000e+00,2.01805e+01,-8.18802e+01,-1.41978e+00,3.79260e-01,1.56439e+00
0.00000e+00,1.72108e+01,-8.51554e+01,-1.28077e+00,3.74613e-01,1.43575e+00
0.00000e+00,1.33989e+01,-8.84306e+01,-1.08303e+00,3.70516e-01,1.25889e+00
0.00000e+00,8.24350e+00,-9.17058e+01,-7.91588e-01,3.68014e-01,1.01632e+00
0.00000e+00,-3.34020e+00,-9.49810e+01,-5.18213e-02,3.69006e-01,6.41235e-01
0.00000e+00,-4.17620e+00,-9.49886e+01,6.32510e-03,3.72087e-01,6.44504e-01
0.00000e+00,-1.17928e+01,-9.15961e+01,6.08063e-01,3.77929e-01,8.93438e-01
0.00000e+00,-1.27149e+01,-8.82037e+01,7.42922e-01,3.82245e-01,9.95121e-01
0.00000e+00,-1.30332e+01,-8.48113e+01,8.35659e-01,3.86786e-01,1.07104e+00
0.00000e+00,-1.30814e+01,-8.14188e+01,9.09570e-01,3.91539e-01,1.13456e+00
0.00000e+00,-1.29264e+01,-7.80264e+01,9.69297e-01,3.96464e-01,1.18789e+00
0.00000e+00,-1.26437e+01,-7.46339e+01,1.02012e+00,4.01533e-01,1.23464e+00
0.00000e+00,-1.22328e+01,-7.12415e+01,1.06201e+00,4.06718e-01,1.27441e+00
0.00000e+00,-1.17438e+01,-6.78490e+01,1.09845e+00,4.11991e-01,1.30989e+00
0.00000e+00,-1.12094e+01,-6.44565e+01,1.13173e+00,4.17341e-01,1.34288e+00
0.00000e+00,-1.06068e+01,-6.10641e+01,1.16024e+00,4.22752e-01,1.37197e+00
0.00000e+00,-9.96142e+00,-5.76716e+01,1.18578e+00,4.28209e-01,1.39863e+00
0.00000e+00,-9.27449e+00,-5.42792e+01,1.20841e+00,4.33702e-01,1.42287e+00
0.00000e+00,-8.54615e+00,-5.08867e+01,1.22816e+00,4.39219e-01,1.44468e+00
0.00000e+00,-7.79185e+00,-4.74943e+01,1.24610e+00,4.44750e-01,1.46498e+00
0.00000e+00,-7.00429e+00,-4.41018e+01,1.26171e+00,4.50288e-01,1.48331e+00
0.00000e+00,-6.19544e+00,-4.07094e+01,1.27584e+00,4.55823e-01,1.50037e+00
0.00000e+00,-5.36748e+00,-3.73169e+01,1.28864e+00,4.61350e-01,1.51629e+00
0.00000e+00,-4.52248e+00,-3.39245e+01,1.30026e+00,4.66863e-01,1.53119e+00
0.00000e+00,-3.67026e+00,-3.05320e+01,1.31136e+00,4.72358e-01,1.54565e+00
0.00000e+00,-2.80686e+00,-2.71396e+01,1.32169e+00,4.77831e-01,1.55943e+00
0.00000e+00,-1.94159e+00,-2.37472e+01,1.33189e+00,4.83280e-01,1.57309e+00
0.00000e+00,-1.06964e+00,-2.03547e+01,1.34162e+00,4.88704e-01,1.58633e+00
0.00000e+00,-1.97780e-01,-1.69622e+01,1.35136e+00,4.94101e-01,1.59956e+00
0.00000e+00,6.70785e-01,-1.35698e+01,1.36133e+00,4.99471e-01,1.61295e+00
0.00000e+00,1.53935e+00,-1.01774e+01,1.37129e+00,5.04813e-01,1.62633e+00
0.00000e+00,2.38735e+00,-6.78490e+00,1.38270e+00,5.10128e-01,1.64090e+00
0.00000e+00,3.23151e+00,-3.39245e+00,1.39437e+00,5.15421e-01,1.65567e+00
1.07300e+02,4.26785e+01,0.00000e+00,-1.17470e+00,4.91149e-01,1.45038e+00
1.07300e+02,4.24636e+01,-3.24312e+00,-1.22219e+00,4.86412e-01,1.48443e+00
1.07300e+02,4.21777e+01,-6.48624e+00,-1.26522e+00,4.81560e-01,1.51541e+00
1.07300e+02,4.18889e+01,-9.72936e+00,-1.30806e+00,4.76598e-01,1.54676e+00
1.07300e+02,4.15374e+01,-1.29725e+01,-1.34697e+00,4.71535e-01,1.57523e+00
1.07300e+02,4.11714e+01,-1.62156e+01,-1.38496e+00,4.66377e-01,1.60332e+00
1.07300e+02,4.07572e+01,-1.94587e+01,-1.41992e+00,4.61134e-01,1.62915e+00
1.07300e+02,4.03197e+01,-2.27018e+01,-1.45342e+00,4.55812e-01,1.65400e+00
1.07300e+02,3.98436e+01,-2.59450e+01,-1.48448e+00,4.50419e-01,1.67700e+00
1.07300e+02,3.93357e+01,-2.91881e+01,-1.51355e+00,4.44961e-01,1.69847e+00
1.07300e+02,3.87928e+01,-3.24312e+01,-1.54042e+00,4.39445e-01,1.71820e+00
1.07300e+02,3.82077e+01,-3.56743e+01,-1.56463e+00,4.33879e-01,1.73575e+00
1.07300e+02,3.75793e+01,-3.89174e+01,-1.58612e+00,4.28270e-01,1.75100e+00
1.07300e+02,3.68895e+01,-4.21606e+01,-1.60375e+00,4.22628e-01,1.76291e+00
1.07300e+02,3.61401e+01,-4.54037e+01,-1.61762e+00,4.16964e-01,1.77152e+00
1.07300e+02,3.53192e+01,-4.86468e+01,-1.62700e+00,4.11286e-01,1.77612e+00
1.07300e+02,3.44016e+01,-5.18899e+01,-1.63031e+00,4.05614e-01,1.77524e+00
1.07300e+02,3.34168e+01,-5.51330e+01,-1.62938e+00,3.99952e-01,1.77052e+00
1.07300e+02,3.22806e+01,-5.83762e+01,-1.61893e+00,3.94331e-01,1.75710e+00
1.07300e+02,3.10816e+01,-6.16193e+01,-1.60453e+00,3.88763e-01,1.74009e+00
1.07300e+02,2.97079e+01,-6.48624e+01,-1.57914e+00,3.83263e-01,1.71300e+00
1.07300e+02,2.81940e+01,-6.81055e+01,-1.54494e+00,3.77877e-01,1.67786e+00
1.07300e+02,2.65376e+01,-7.13486e+01,-1.50177e+00,3.72614e-01,1.63458e+00
1.07300e+02,2.46419e+01,-7.45918e+01,-1.44355e+00,3.67493e-01,1.57766e+00
1.07300e+02,2.24690e+01,-7.78349e+01,-1.36790e+00,3.62577e-01,1.50517e+00
1.07300e+02,1.99828e+01,-8.10780e+01,-1.27254e+00,3.57924e-01,1.41552e+00
1.07300e+02,1.70422e+01,-8.43211e+01,-1.14861e+00,3.53573e-01,1.30167e+00
1.07300e+02,1.32676e+01,-8.75642e+01,-9.72222e-01,3.49738e-01,1.14550e+00
1.07300e+02,8.16273e+00,-9.08074e+01,-7.12164e-01,3.47395e-01,9.32323e-01
1.07300e+02,-3.30748e+00,-9.40505e+01,-5.17644e-02,3.48324e-01,6.05531e-01
1.07300e+02,-4.13529e+00,-9.40580e+01,1.58476e-04,3.51208e-01,6.08311e-01
1.07300e+02,-1.16772e+01,-9.06988e+01,5.37698e-01,3.56678e-01,8.19010e-01
1.07300e+02,-1.25904e+01,-8.73396e+01,6.58325e-01,3.60719e-01,9.07605e-01
1.07300e+02,-1.29055e+01,-8.39804e+01,7.41339e-01,3.64971e-01,9.74266e-01
1.07300e+02,-1.29533e+01,-8.06211e+01,8.07541e-01,3.69420e-01,1.03031e+00
1.07300e+02,-1.27997e+01,-7.72619e+01,8.61078e-01,3.74032e-01,1.07757e+00
1.07300e+02,-1.25198e+01,-7.39027e+01,9.06667e-01,3.78778e-01,1.11913e+00
1.07300e+02,-1.21130e+01,-7.05435e+01,9.44275e-01,3.83632e-01,1.15463e+00
1.07300e+02,-1.16287e+01,-6.71843e+01,9.77015e-01,3.88569e-01,1.18639e+00
1.07300e+02,-1.10996e+01,-6.38251e+01,1.00693e+00,3.93578e-01,1.21599e+00
1.07300e+02,-1.05029e+01,-6.04659e+01,1.03259e+00,3.98644e-01,1.24218e+00
1.07300e+02,-9.86382e+00,-5.71066e+01,1.05560e+00,4.03753e-01,1.26623e+00
1.07300e+02,-9.18363e+00,-5.37474e+01,1.07601e+00,4.08896e-01,1.28817e+00
1.07300e+02,-8.46243e+00,-5.03882e+01,1.09385e+00,4.14061e-01,1.30799e+00
1.07300e+02,-7.71552e+00,-4.70290e+01,1.11007e+00,4.19240e-01,1.32647e+00
1.07300e+02,-6.93567e+00,-4.36698e+01,1.12422e+00,4.24424e-01,1.34323e+00
1.07300e+02,-6.13474e+00,-4.03106e+01,1.13704e+00,4.29607e-01,1.35887e+00
1.07300e+02,-5.31490e+00,-3.69514e+01,1.14867e+00,4.34782e-01,1.37352e+00
1.07300e+02,-4.47818e+00,-3.35921e+01,1.15924e+00,4.39943e-01,1.38726e+00
1.07300e+02,-3.63431e+00,-3.02329e+01,1.16936e+00,4.45087e-01,1.40061e+00
1.07300e+02,-2.77936e+00,-2.68737e+01,1.17878e+00,4.50211e-01,1.41336e+00
1.07300e+02,-1.92257e+00,-2.35145e+01,1.18809e+00,4.55313e-01,1.42601e+00
1.07300e+02,-1.05916e+00,-2.01553e+01,1.19698e+00,4.60392e-01,1.43828e+00
1.07300e+02,-1.95842e-01,-1.67961e+01,1.20588e+00,4.65444e-01,1.45054e+00
1.07300e+02,6.64213e-01,-1.34369e+01,1.21498e+00,4.70472e-01,1.46295e+00
1.07300e+02,1.52427e+00,-1.00776e+01,1.22409e+00,4.75473e-01,1.47533e+00
1.07300e+02,2.36396e+00,-6.71843e+00,1.23447e+00,4.80449e-01,1.48876e+00
1.07300e+02,3.19985e+00,-3.35921e+00,1.24509e+00,4.85404e-01,1.50237e+00
2.14300e+02,4.22575e+01,0.00000e+00,-1.04134e+00,4.60431e-01,1.31163e+00
2.14300e+02,4.20447e+01,-3.21112e+00,-1.08363e+00,4.56012e-01,1.34093e+00
2.14300e+02,4.17615e+01,-6.42224e+00,-1.12197e+00,4.51485e-01,1.36760e+00
2.14300e+02,4.14756e+01,-9.63337e+00,-1.16014e+00,4.46855e-01,1.39462e+00
2.14300e+02,4.11276e+01,-1.28445e+01,-1.19482e+00,4.42131e-01,1.41917e+00
2.14300e+02,4.07652e+01,-1.60556e+01,-1.22869e+00,4.37319e-01,1.44340e+00
2.14300e+02,4.03551e+01,-1.92667e+01,-1.25987e+00,4.32428e-01,1.46569e+00
2.14300e+02,3.99219e+01,-2.24779e+01,-1.28975e+00,4.27462e-01,1.48716e+00
2.14300e+02,3.94505e+01,-2.56890e+01,-1.31748e+00,4.22430e-01,1.50701e+00
2.14300e+02,3.89476e+01,-2.89001e+01,-1.34343e+00,4.17338e-01,1.52556e+00
2.14300e+02,3.84101e+01,-3.21112e+01,-1.36744e+00,4.12191e-01,1.54259e+00
2.14300e+02,3.78307e+01,-3.53223e+01,-1.38909e+00,4.06999e-01,1.55773e+00
2.14300e+02,3.72085e+01,-3.85335e+01,-1.40832e+00,4.01766e-01,1.57087e+00
2.14300e+02,3.65256e+01,-4.17446e+01,-1.42414e+00,3.96502e-01,1.58108e+00
2.14300e+02,3.57835e+01,-4.49557e+01,-1.43663e+00,3.91217e-01,1.58841e+00
2.14300e+02,3.49707e+01,-4.81668e+01,-1.44513e+00,3.85920e-01,1.59223e+00
2.14300e+02,3.40622e+01,-5.13780e+01,-1.44824e+00,3.80628e-01,1.59124e+00
2.14300e+02,3.30871e+01,-5.45891e+01,-1.44760e+00,3.75346e-01,1.58689e+00
2.14300e+02,3.19621e+01,-5.78002e+01,-1.43852e+00,3.70101e-01,1.57489e+00
2.14300e+02,3.07750e+01,-6.10113e+01,-1.42594e+00,3.64906e-01,1.55974e+00
2.14300e+02,2.94148e+01,-6.42224e+01,-1.40362e+00,3.59775e-01,1.53573e+00
2.14300e+02,2.79159e+01,-6.74336e+01,-1.37348e+00,3.54750e-01,1.50465e+00
2.14300e+02,2.62758e+01,-7.06447e+01,-1.33539e+00,3.49840e-01,1.46643e+00
2.14300e+02,2.43988e+01,-7.38558e+01,-1.28396e+00,3.45062e-01,1.41624e+00
2.14300e+02,2.22473e+01,-7.70669e+01,-1.21706e+00,3.40475e-01,1.35241e+00
2.14300e+02,1.97856e+01,-8.02781e+01,-1.13270e+00,3.36134e-01,1.27357e+00
2.14300e+02,1.68740e+01,-8.34892e+01,-1.02300e+00,3.32075e-01,1.17361e+00
2.14300e+02,1.31367e+01,-8.67003e+01,-8.66803e-01,3.28497e-01,1.03686e+00
2.14300e+02,8.08220e+00,-8.99114e+01,-6.36416e-01,3.26311e-01,8.51153e-01
2.14300e+02,-3.27484e+00,-9.31226e+01,-5.10805e-02,3.27178e-01,5.68987e-01
2.14300e+02,-4.09449e+00,-9.31300e+01,-5.04525e-03,3.29869e-01,5.71373e-01
2.14300e+02,-1.15620e+01,-8.98039e+01,4.71737e-01,3.34973e-01,7.47767e-01
2.14300e+02,-1.24661e+01,-8.64779e+01,5.78877e-01,3.38743e-01,8.24220e-01
2.14300e+02,-1.27781e+01,-8.31518e+01,6.52669e-01,3.42710e-01,8.82229e-01
2.14300e+02,-1.28255e+01,-7.98257e+01,7.11557e-01,3.46861e-01,9.31263e-01
2.14300e+02,-1.26734e+01,-7.64996e+01,7.59214e-01,3.51163e-01,9.72807e-01
2.14300e+02,-1.23963e+01,-7.31736e+01,7.99825e-01,3.55591e-01,1.00948e+00
2.14300e+02,-1.19935e+01,-6.98475e+01,8.33360e-01,3.60120e-01,1.04094e+00
2.14300e+02,-1.15140e+01,-6.65214e+01,8.62579e-01,3.64727e-01,1.06917e+00
2.14300e+02,-1.09901e+01,-6.31954e+01,8.89294e-01,3.69400e-01,1.09554e+00
2.14300e+02,-1.03992e+01,-5.98693e+01,9.12238e-01,3.74126e-01,1.11897e+00
2.14300e+02,-9.76651e+00,-5.65432e+01,9.32825e-01,3.78893e-01,1.14054e+00
2.14300e+02,-9.09302e+00,-5.32171e+01,9.51116e-01,3.83691e-01,1.16029e+00
2.14300e+02,-8.37893e+00,-4.98911e+01,9.67120e-01,3.88509e-01,1.17819e+00
2.14300e+02,-7.63939e+00,-4.65650e+01,9.81691e-01,3.93341e-01,1.19494e+00
2.14300e+02,-6.86724e+00,-4.32389e+01,9.94426e-01,3.98178e-01,1.21017e+00
2.14300e+02,-6.07421e+00,-3.99129e+01,1.00598e+00,4.03013e-01,1.22444e+00
2.14300e+02,-5.26246e+00,-3.65868e+01,1.01649e+00,4.07841e-01,1.23784e+00
2.14300e+02,-4.43399e+00,-3.32607e+01,1.02605e+00,4.12656e-01,1.25045e+00
2.14300e+02,-3.59845e+00,-2.99346e+01,1.03522e+00,4.17456e-01,1.26273e+00
2.14300e+02,-2.75194e+00,-2.66086e+01,1.04376e+00,4.22236e-01,1.27448e+00
2.14300e+02,-1.90360e+00,-2.32825e+01,1.05221e+00,4.26996e-01,1.28612e+00
2.14300e+02,-1.04871e+00,-1.99564e+01,1.06028e+00,4.31734e-01,1.29745e+00
2.14300e+02,-1.93910e-01,-1.66304e+01,1.06836e+00,4.36448e-01,1.30876e+00
2.14300e+02,6.57660e-01,-1.33043e+01,1.07662e+00,4.41139e-01,1.32020e+00
2.14300e+02,1.50923e+00,-9.97821e+00,1.08488e+00,4.45804e-01,1.33161e+00
2.14300e+02,2.34063e+00,-6.65214e+00,1.09428e+00,4.50447e-01,1.34393e+00
2.14300e+02,3.16828e+00,-3.32607e+00,1.10389e+00,4.55070e-01,1.35641e+00
3.20700e+02,4.18388e+01,0.00000e+00,-9.16125e-01,4.29666e-01,1.18031e+00
3.20700e+02,4.16280e+01,-3.17930e+00,-9.53512e-01,4.25567e-01,1.20520e+00
3.20700e+02,4.13477e+01,-6.35861e+00,-9.87415e-01,4.21369e-01,1.22786e+00
3.20700e+02,4.10646e+01,-9.53791e+00,-1.02118e+00,4.17075e-01,1.25086e+00
3.20700e+02,4.07201e+01,-1.27172e+01,-1.05187e+00,4.12693e-01,1.27176e+00
3.20700e+02,4.03613e+01,-1.58965e+01,-1.08184e+00,4.08231e-01,1.29242e+00
3.20700e+02,3.99553e+01,-1.90758e+01,-1.10945e+00,4.03694e-01,1.31141e+00
3.20700e+02,3.95264e+01,-2.22551e+01,-1.13592e+00,3.99089e-01,1.32971e+00
3.20700e+02,3.90596e+01,-2.54344e+01,-1.16049e+00,3.94421e-01,1.34664e+00
3.20700e+02,3.85617e+01,-2.86137e+01,-1.18350e+00,3.89698e-01,1.36245e+00
3.20700e+02,3.80295e+01,-3.17930e+01,-1.20480e+00,3.84926e-01,1.37697e+00
3.20700e+02,3.74559e+01,-3.49724e+01,-1.22402e+00,3.80110e-01,1.38985e+00
3.20700e+02,3.68398e+01,-3.81517e+01,-1.24112e+00,3.75256e-01,1.40101e+00
3.20700e+02,3.61637e+01,-4.13310e+01,-1.25521e+00,3.70374e-01,1.40964e+00
3.20700e+02,3.54289e+01,-4.45103e+01,-1.26637e+00,3.65473e-01,1.41577e+00
3.20700e+02,3.46242e+01,-4.76896e+01,-1.27403e+00,3.60560e-01,1.41886e+00
3.20700e+02,3.37247e+01,-5.08689e+01,-1.27694e+00,3.55652e-01,1.41776e+00
3.20700e+02,3.27593e+01,-5.40482e+01,-1.27655e+00,3.50753e-01,1.41374e+00
3.20700e+02,3.16454e+01,-5.72275e+01,-1.26874e+00,3.45889e-01,1.40307e+00
3.20700e+02,3.04701e+01,-6.04068e+01,-1.25784e+00,3.41071e-01,1.38966e+00
3.20700e+02,2.91233e+01,-6.35861e+01,-1.23837e+00,3.36312e-01,1.36853e+00
3.20700e+02,2.76393e+01,-6.67654e+01,-1.21202e+00,3.31652e-01,1.34126e+00
3.20700e+02,2.60154e+01,-6.99447e+01,-1.17868e+00,3.27098e-01,1.30777e+00
3.20700e+02,2.41570e+01,-7.31240e+01,-1.13360e+00,3.22667e-01,1.26388e+00
3.20700e+02,2.20269e+01,-7.63033e+01,-1.07491e+00,3.18413e-01,1.20814e+00
3.20700e+02,1.95896e+01,-7.94826e+01,-1.00086e+00,3.14387e-01,1.13940e+00
3.20700e+02,1.67068e+01,-8.26619e+01,-9.04505e-01,3.10622e-01,1.05242e+00
3.20700e+02,1.30066e+01,-8.58412e+01,-7.67236e-01,3.07304e-01,9.33787e-01
3.20700e+02,8.00212e+00,-8.90205e+01,-5.64689e-01,3.05277e-01,7.73599e-01
3.20700e+02,-3.24239e+00,-9.21998e+01,-4.98177e-02,3.06081e-01,5.32483e-01
3.20700e+02,-4.05392e+00,-9.22072e+01,-9.31110e-03,3.08577e-01,5.34552e-01
3.20700e+02,-1.14474e+01,-8.89141e+01,4.10396e-01,3.13310e-01,6.80378e-01
3.20700e+02,-1.23426e+01,-8.56210e+01,5.04850e-01,3.16807e-01,7.45636e-01
3.20700e+02,-1.26515e+01,-8.23279e+01,5.69961e-01,3.20486e-01,7.95606e-01
3.20700e+02,-1.26984e+01,-7.90348e+01,6.21956e-01,3.24336e-01,8.38100e-01
3.20700e+02,-1.25479e+01,-7.57416e+01,6.64071e-01,3.28326e-01,8.74290e-01
3.20700e+02,-1.22734e+01,-7.24485e+01,6.99985e-01,3.32433e-01,9.06374e-01
3.20700e+02,-1.18746e+01,-6.91554e+01,7.29673e-01,3.36633e-01,9.34017e-01
3.20700e+02,-1.13999e+01,-6.58623e+01,7.55563e-01,3.40905e-01,9.58918e-01
3.20700e+02,-1.08812e+01,-6.25692e+01,7.79250e-01,3.45239e-01,9.82243e-01
3.20700e+02,-1.02962e+01,-5.92761e+01,7.99618e-01,3.49623e-01,1.00304e+00
3.20700e+02,-9.66973e+00,-5.59829e+01,8.17913e-01,3.54044e-01,1.02226e+00
3.20700e+02,-9.00292e+00,-5.26898e+01,8.34187e-01,3.58494e-01,1.03991e+00
3.20700e+02,-8.29591e+00,-4.93967e+01,8.48450e-01,3.62963e-01,1.05598e+00
3.20700e+02,-7.56370e+00,-4.61036e+01,8.61451e-01,3.67444e-01,1.07105e+00
3.20700e+02,-6.79920e+00,-4.28105e+01,8.72836e-01,3.71930e-01,1.08482e+00
3.20700e+02,-6.01403e+00,-3.95174e+01,8.83186e-01,3.76414e-01,1.09776e+00
3.20700e+02,-5.21032e+00,-3.62243e+01,8.92609e-01,3.80891e-01,1.10995e+00
3.20700e+02,-4.39006e+00,-3.29311e+01,9.01203e-01,3.85357e-01,1.12146e+00
3.20700e+02,-3.56279e+00,-2.96380e+01,9.09446e-01,3.89808e-01,1.13267e+00
3.20700e+02,-2.72467e+00,-2.63449e+01,9.17146e-01,3.94242e-01,1.14343e+00
3.20700e+02,-1.88474e+00,-2.30518e+01,9.24756e-01,3.98656e-01,1.15410e+00
3.20700e+02,-1.03832e+00,-1.97587e+01,9.32041e-01,4.03050e-01,1.16450e+00
3.20700e+02,-1.91989e-01,-1.64656e+01,9.39330e-01,4.07422e-01,1.17487e+00
3.20700e+02,6.51143e-01,-1.31725e+01,9.46780e-01,4.11772e-01,1.18535e+00
3.20700e+02,1.49428e+00,-9.87934e+00,9.54229e-01,4.16099e-01,1.19581e+00
3.20700e+02,2.31744e+00,-6.58623e+00,9.62678e-01,4.20405e-01,1.20705e+00
3.20700e+02,3.13689e+00,-3.29311e+00,9.71313e-01,4.24692e-01,1.21842e+00
4.26200e+02,4.14236e+01,0.00000e+00,-7.99538e-01,3.99125e-01,1.05696e+00
4.26200e+02,4.12150e+01,-3.14776e+00,-8.32337e-01,3.95342e-01,1.07781e+00
4.26200e+02,4.09374e+01,-6.29551e+00,-8.62094e-01,3.91467e-01,1.09679e+00
4.26200e+02,4.06571e+01,-9.44327e+00,-8.91730e-01,3.87505e-01,1.11609e+00
4.26200e+02,4.03160e+01,-1.25910e+01,-9.18681e-01,3.83462e-01,1.13362e+00
4.26200e+02,3.99607e+01,-1.57388e+01,-9.45009e-01,3.79344e-01,1.15098e+00
4.26200e+02,3.95588e+01,-1.88865e+01,-9.69276e-01,3.75157e-01,1.16693e+00
4.26200e+02,3.91341e+01,-2.20343e+01,-9.92542e-01,3.70907e-01,1.18231e+00
4.26200e+02,3.86720e+01,-2.51820e+01,-1.01415e+00,3.66600e-01,1.19653e+00
4.26200e+02,3.81790e+01,-2.83298e+01,-1.03440e+00,3.62242e-01,1.20981e+00
4.26200e+02,3.76521e+01,-3.14776e+01,-1.05316e+00,3.57838e-01,1.22200e+00
4.26200e+02,3.70842e+01,-3.46253e+01,-1.07010e+00,3.53394e-01,1.23279e+00
4.26200e+02,3.64743e+01,-3.77731e+01,-1.08519e+00,3.48915e-01,1.24212e+00
4.26200e+02,3.58048e+01,-4.09208e+01,-1.09765e+00,3.44410e-01,1.24928e+00
4.26200e+02,3.50774e+01,-4.40686e+01,-1.10756e+00,3.39887e-01,1.25429e+00
4.26200e+02,3.42806e+01,-4.72163e+01,-1.11440e+00,3.35353e-01,1.25669e+00
4.26200e+02,3.33901e+01,-5.03641e+01,-1.11711e+00,3.30824e-01,1.25549e+00
4.26200e+02,3.24342e+01,-5.35118e+01,-1.11693e+00,3.26303e-01,1.25178e+00
4.26200e+02,3.13314e+01,-5.66596e+01,-1.11027e+00,3.21815e-01,1.24233e+00
4.26200e+02,3.01677e+01,-5.98074e+01,-1.10092e+00,3.17369e-01,1.23053e+00
4.26200e+02,2.88343e+01,-6.29551e+01,-1.08409e+00,3.12978e-01,1.21207e+00
4.26200e+02,2.73650e+01,-6.61029e+01,-1.06125e+00,3.08677e-01,1.18832e+00
4.26200e+02,2.57573e+01,-6.92506e+01,-1.03231e+00,3.04475e-01,1.15921e+00
4.26200e+02,2.39173e+01,-7.23984e+01,-9.93120e-01,3.00386e-01,1.12115e+00
4.26200e+02,2.18083e+01,-7.55461e+01,-9.42056e-01,2.96460e-01,1.07291e+00
4.26200e+02,1.93952e+01,-7.86939e+01,-8.77573e-01,2.92745e-01,1.01353e+00
4.26200e+02,1.65410e+01,-8.18417e+01,-7.93627e-01,2.89272e-01,9.38551e-01
4.26200e+02,1.28775e+01,-8.49894e+01,-6.73965e-01,2.86209e-01,8.36645e-01
4.26200e+02,7.92271e+00,-8.81372e+01,-4.97320e-01,2.84339e-01,6.99909e-01
4.26200e+02,-3.21022e+00,-9.12849e+01,-4.80403e-02,2.85081e-01,4.96107e-01
4.26200e+02,-4.01369e+00,-9.12922e+01,-1.26816e-02,2.87384e-01,4.97926e-01
4.26200e+02,-1.13339e+01,-8.80318e+01,3.53858e-01,2.91752e-01,6.16906e-01
4.26200e+02,-1.22201e+01,-8.47713e+01,4.36478e-01,2.94979e-01,6.71975e-01
4.26200e+02,-1.25260e+01,-8.15109e+01,4.93483e-01,2.98374e-01,7.14568e-01
4.26200e+02,-1.25724e+01,-7.82505e+01,5.39040e-01,3.01927e-01,7.51028e-01
4.26200e+02,-1.24233e+01,-7.49900e+01,5.75971e-01,3.05609e-01,7.82261e-01
4.26200e+02,-1.21516e+01,-7.17296e+01,6.07490e-01,3.09399e-01,8.10078e-01
4.26200e+02,-1.17568e+01,-6.84692e+01,6.33573e-01,3.13274e-01,8.34169e-01
4.26200e+02,-1.12868e+01,-6.52087e+01,6.56342e-01,3.17217e-01,8.55958e-01
4.26200e+02,-1.07732e+01,-6.19483e+01,6.77187e-01,3.21216e-01,8.76426e-01
4.26200e+02,-1.01940e+01,-5.86879e+01,6.95136e-01,3.25261e-01,8.94762e-01
4.26200e+02,-9.57378e+00,-5.54274e+01,7.11274e-01,3.29341e-01,9.11760e-01
4.26200e+02,-8.91358e+00,-5.21670e+01,7.25649e-01,3.33447e-01,9.27431e-01
4.26200e+02,-8.21359e+00,-4.89065e+01,7.38268e-01,3.37571e-01,9.41755e-01
4.26200e+02,-7.48864e+00,-4.56461e+01,7.49785e-01,3.41706e-01,9.55231e-01
4.26200e+02,-6.73173e+00,-4.23857e+01,7.59892e-01,3.45846e-01,9.67607e-01
4.26200e+02,-5.95435e+00,-3.91252e+01,7.69096e-01,3.49983e-01,9.79272e-01
4.26200e+02,-5.15861e+00,-3.58648e+01,7.77490e-01,3.54115e-01,9.90294e-01
4.26200e+02,-4.34650e+00,-3.26044e+01,7.85160e-01,3.58236e-01,1.00074e+00
4.26200e+02,-3.52744e+00,-2.93439e+01,7.92525e-01,3.62344e-01,1.01093e+00
4.26200e+02,-2.69763e+00,-2.60835e+01,7.99415e-01,3.66435e-01,1.02073e+00
4.26200e+02,-1.86603e+00,-2.28231e+01,8.06226e-01,3.70508e-01,1.03045e+00
4.26200e+02,-1.02802e+00,-1.95626e+01,8.12754e-01,3.74563e-01,1.03993e+00
4.26200e+02,-1.90083e-01,-1.63022e+01,8.19286e-01,3.78597e-01,1.04940e+00
4.26200e+02,6.44682e-01,-1.30417e+01,8.25957e-01,3.82611e-01,1.05895e+00
4.26200e+02,1.47945e+00,-9.78131e+00,8.32628e-01,3.86604e-01,1.06848e+00
4.26200e+02,2.29445e+00,-6.52087e+00,8.40172e-01,3.90577e-01,1.07868e+00
4.26200e+02,3.10576e+00,-3.26044e+00,8.47878e-01,3.94533e-01,1.08898e+00
5.30600e+02,4.10127e+01,0.00000e+00,-6.91763e-01,3.68866e-01,9.41660e-01
5.30600e+02,4.08062e+01,-3.11654e+00,-7.20301e-01,3.65394e-01,9.58839e-01
5.30600e+02,4.05314e+01,-6.23307e+00,-7.46206e-01,3.61838e-01,9.74476e-01
5.30600e+02,4.02539e+01,-9.34961e+00,-7.72007e-01,3.58200e-01,9.90412e-01
5.30600e+02,3.99161e+01,-1.24661e+01,-7.95483e-01,3.54489e-01,1.00488e+00
5.30600e+02,3.95644e+01,-1.55827e+01,-8.18421e-01,3.50709e-01,1.01922e+00
5.30600e+02,3.91664e+01,-1.86992e+01,-8.39574e-01,3.46866e-01,1.03239e+00
5.30600e+02,3.87460e+01,-2.18158e+01,-8.59862e-01,3.42966e-01,1.04510e+00
5.30600e+02,3.82884e+01,-2.49323e+01,-8.78717e-01,3.39012e-01,1.05685e+00
5.30600e+02,3.78003e+01,-2.80488e+01,-8.96395e-01,3.35012e-01,1.06781e+00
5.30600e+02,3.72787e+01,-3.11654e+01,-9.12778e-01,3.30969e-01,1.07786e+00
5.30600e+02,3.67164e+01,-3.42819e+01,-9.27594e-01,3.26890e-01,1.08674e+00
5.30600e+02,3.61125e+01,-3.73984e+01,-9.40804e-01,3.22779e-01,1.09438e+00
5.30600e+02,3.54497e+01,-4.05150e+01,-9.51743e-01,3.18644e-01,1.10019e+00
5.30600e+02,3.47295e+01,-4.36315e+01,-9.60467e-01,3.14493e-01,1.10418e+00
5.30600e+02,3.39406e+01,-4.67480e+01,-9.66545e-01,3.10331e-01,1.10595e+00
5.30600e+02,3.30589e+01,-4.98646e+01,-9.69038e-01,3.06174e-01,1.10465e+00
5.30600e+02,3.21125e+01,-5.29811e+01,-9.69038e-01,3.02024e-01,1.10122e+00
5.30600e+02,3.10206e+01,-5.60976e+01,-9.63427e-01,2.97905e-01,1.09290e+00
5.30600e+02,2.98685e+01,-5.92142e+01,-9.55490e-01,2.93824e-01,1.08257e+00
5.30600e+02,2.85484e+01,-6.23307e+01,-9.41074e-01,2.89793e-01,1.06656e+00
5.30600e+02,2.70936e+01,-6.54473e+01,-9.21465e-01,2.85846e-01,1.04605e+00
5.30600e+02,2.55018e+01,-6.85638e+01,-8.96571e-01,2.81988e-01,1.02098e+00
5.30600e+02,2.36801e+01,-7.16803e+01,-8.62807e-01,2.78235e-01,9.88272e-01
5.30600e+02,2.15920e+01,-7.47969e+01,-8.18769e-01,2.74632e-01,9.46917e-01
5.30600e+02,1.92028e+01,-7.79134e+01,-7.63117e-01,2.71222e-01,8.96121e-01
5.30600e+02,1.63770e+01,-8.10299e+01,-6.90622e-01,2.68034e-01,8.32157e-01
5.30600e+02,1.27498e+01,-8.41465e+01,-5.87217e-01,2.65223e-01,7.45556e-01
5.30600e+02,7.84413e+00,-8.72630e+01,-4.34498e-01,2.63507e-01,6.30156e-01
5.30600e+02,-3.17838e+00,-9.03795e+01,-4.58379e-02,2.64188e-01,4.59877e-01
5.30600e+02,-3.97388e+00,-9.03868e+01,-1.52383e-02,2.66302e-01,4.61501e-01
5.30600e+02,-1.12214e+01,-8.71587e+01,3.02129e-01,2.70311e-01,5.57213e-01
5.30600e+02,-1.20989e+01,-8.39306e+01,3.73788e-01,2.73273e-01,6.03119e-01
5.30600e+02,-1.24018e+01,-8.07025e+01,4.23280e-01,2.76390e-01,6.39014e-01
5.30600e+02,-1.24477e+01,-7.74744e+01,4.62863e-01,2.79650e-01,6.69967e-01
5.30600e+02,-1.23001e+01,-7.42463e+01,4.94982e-01,2.83030e-01,6.96653e-01
5.30600e+02,-1.20311e+01,-7.10182e+01,5.22418e-01,2.86509e-01,7.20543e-01
5.30600e+02,-1.16402e+01,-6.77901e+01,5.45149e-01,2.90066e-01,7.41352e-01
5.30600e+02,-1.11748e+01,-6.45620e+01,5.65012e-01,2.93685e-01,7.60257e-01
5.30600e+02,-1.06664e+01,-6.13339e+01,5.83210e-01,2.97356e-01,7.78072e-01
5.30600e+02,-1.00929e+01,-5.81058e+01,5.98902e-01,3.01069e-01,7.94110e-01
5.30600e+02,-9.47882e+00,-5.48777e+01,6.13026e-01,3.04813e-01,8.09033e-01
5.30600e+02,-8.82518e+00,-5.16496e+01,6.25625e-01,3.08582e-01,8.22846e-01
5.30600e+02,-8.13212e+00,-4.84215e+01,6.36703e-01,3.12367e-01,8.35531e-01
5.30600e+02,-7.41437e+00,-4.51934e+01,6.46829e-01,3.16163e-01,8.47505e-01
5.30600e+02,-6.66496e+00,-4.19653e+01,6.55734e-01,3.19962e-01,8.58554e-01
5.30600e+02,-5.89529e+00,-3.87372e+01,6.63858e-01,3.23760e-01,8.69005e-01
5.30600e+02,-5.10745e+00,-3.55091e+01,6.71280e-01,3.27553e-01,8.78914e-01
5.30600e+02,-4.30339e+00,-3.22810e+01,6.78077e-01,3.31335e-01,8.88334e-01
5.30600e+02,-3.49245e+00,-2.90529e+01,6.84608e-01,3.35105e-01,8.97538e-01
5.30600e+02,-2.67088e+00,-2.58248e+01,6.90729e-01,3.38860e-01,9.06414e-01
5.30600e+02,-1.84753e+00,-2.25967e+01,6.96782e-01,3.42599e-01,9.15220e-01
5.30600e+02,-1.01782e+00,-1.93686e+01,7.02590e-01,3.46321e-01,9.23822e-01
5.30600e+02,-1.88198e-01,-1.61405e+01,7.08401e-01,3.50024e-01,9.32406e-01
5.30600e+02,6.38288e-01,-1.29124e+01,7.14332e-01,3.53708e-01,9.41063e-01
5.30600e+02,1.46477e+00,-9.68430e+00,7.20264e-01,3.57373e-01,9.49698e-01
5.30600e+02,2.27169e+00,-6.45620e+00,7.26951e-01,3.61019e-01,9.58886e-01
5.30600e+02,3.07496e+00,-3.22810e+00,7.33778e-01,3.64651e-01,9.68164e-01
6.33500e+02,4.06078e+01,0.00000e+00,-5.93070e-01,3.38681e-01,8.34175e-01
6.33500e+02,4.04033e+01,-3.08576e+00,-6.17686e-01,3.35512e-01,8.48080e-01
6.33500e+02,4.01312e+01,-6.17153e+00,-6.40043e-01,3.32265e-01,8.60730e-01
6.33500e+02,3.98564e+01,-9.25729e+00,-6.62311e-01,3.28944e-01,8.73653e-01
6.33500e+02,3.95220e+01,-1.23431e+01,-6.82586e-01,3.25556e-01,8.85373e-01
6.33500e+02,3.91738e+01,-1.54288e+01,-7.02399e-01,3.22106e-01,8.97006e-01
6.33500e+02,3.87797e+01,-1.85146e+01,-7.20682e-01,3.18597e-01,9.07686e-01
6.33500e+02,3.83634e+01,-2.16004e+01,-7.38222e-01,3.15036e-01,9.17995e-01
6.33500e+02,3.79104e+01,-2.46861e+01,-7.54534e-01,3.11427e-01,9.27514e-01
6.33500e+02,3.74271e+01,-2.77719e+01,-7.69836e-01,3.07775e-01,9.36389e-01
6.33500e+02,3.69106e+01,-3.08576e+01,-7.84028e-01,3.04085e-01,9.44511e-01
6.33500e+02,3.63539e+01,-3.39434e+01,-7.96875e-01,3.00361e-01,9.51662e-01
6.33500e+02,3.57559e+01,-3.70292e+01,-8.08347e-01,2.96608e-01,9.57785e-01
6.33500e+02,3.50997e+01,-4.01149e+01,-8.17869e-01,2.92833e-01,9.62373e-01
6.33500e+02,3.43866e+01,-4.32007e+01,-8.25493e-01,2.89043e-01,9.65441e-01
6.33500e+02,3.36055e+01,-4.62865e+01,-8.30847e-01,2.85244e-01,9.66643e-01
6.33500e+02,3.27325e+01,-4.93722e+01,-8.33127e-01,2.81449e-01,9.65267e-01
6.33500e+02,3.17954e+01,-5.24580e+01,-8.33270e-01,2.77661e-01,9.62094e-01
6.33500e+02,3.07144e+01,-5.55438e+01,-8.28600e-01,2.73900e-01,9.54798e-01
6.33500e+02,2.95736e+01,-5.86295e+01,-8.21935e-01,2.70174e-01,9.45812e-01
6.33500e+02,2.82665e+01,-6.17153e+01,-8.09714e-01,2.66495e-01,9.32038e-01
6.33500e+02,2.68261e+01,-6.48011e+01,-7.93040e-01,2.62891e-01,9.14465e-01
6.33500e+02,2.52500e+01,-6.78868e+01,-7.71833e-01,2.59370e-01,8.93054e-01
6.33500e+02,2.34463e+01,-7.09726e+01,-7.43021e-01,2.55944e-01,8.65217e-01
6.33500e+02,2.13788e+01,-7.40584e+01,-7.05397e-01,2.52654e-01,8.30112e-01
6.33500e+02,1.90132e+01,-7.71441e+01,-6.57813e-01,2.49541e-01,7.87103e-01
6.33500e+02,1.62153e+01,-8.02299e+01,-5.95785e-01,2.46631e-01,7.33103e-01
6.33500e+02,1.26239e+01,-8.33156e+01,-5.07250e-01,2.44065e-01,6.60307e-01
6.33500e+02,7.76668e+00,-8.64014e+01,-3.76424e-01,2.42498e-01,5.64013e-01
6.33500e+02,-3.14700e+00,-8.94872e+01,-4.32602e-02,2.43120e-01,4.23313e-01
6.33500e+02,-3.93464e+00,-8.94943e+01,-1.70190e-02,2.45050e-01,4.24780e-01
6.33500e+02,-1.11106e+01,-8.62981e+01,2.55295e-01,2.48710e-01,5.00745e-01
6.33500e+02,-1.19795e+01,-8.31019e+01,3.16895e-01,2.51414e-01,5.38562e-01
6.33500e+02,-1.22793e+01,-7.99057e+01,3.59484e-01,2.54259e-01,5.68482e-01
6.33500e+02,-1.23248e+01,-7.67094e+01,3.93578e-01,2.57236e-01,5.94487e-01
6.33500e+02,-1.21787e+01,-7.35132e+01,4.21269e-01,2.60321e-01,6.17065e-01
6.33500e+02,-1.19123e+01,-7.03170e+01,4.44944e-01,2.63497e-01,6.37391e-01
6.33500e+02,-1.15252e+01,-6.71208e+01,4.64585e-01,2.66745e-01,6.55208e-01
6.33500e+02,-1.10645e+01,-6.39245e+01,4.81766e-01,2.70048e-01,6.71474e-01
6.33500e+02,-1.05611e+01,-6.07283e+01,4.97520e-01,2.73399e-01,6.86853e-01
6.33500e+02,-9.99326e+00,-5.75321e+01,5.11123e-01,2.76789e-01,7.00773e-01
6.33500e+02,-9.38524e+00,-5.43358e+01,5.23384e-01,2.80207e-01,7.13777e-01
6.33500e+02,-8.73804e+00,-5.11396e+01,5.34335e-01,2.83648e-01,7.25866e-01
6.33500e+02,-8.05183e+00,-4.79434e+01,5.43983e-01,2.87103e-01,7.37022e-01
6.33500e+02,-7.34116e+00,-4.47472e+01,5.52814e-01,2.90568e-01,7.47591e-01
6.33500e+02,-6.59916e+00,-4.15509e+01,5.60597e-01,2.94037e-01,7.57392e-01
6.33500e+02,-5.83709e+00,-3.83547e+01,5.67711e-01,2.97504e-01,7.66695e-01
6.33500e+02,-5.05702e+00,-3.51585e+01,5.74223e-01,3.00966e-01,7.75547e-01
6.33500e+02,-4.26090e+00,-3.19623e+01,5.80199e-01,3.04419e-01,7.83992e-01
6.33500e+02,-3.45797e+00,-2.87660e+01,5.85948e-01,3.07860e-01,7.92256e-01
6.33500e+02,-2.64450e+00,-2.55698e+01,5.91344e-01,3.11288e-01,8.00243e-01
6.33500e+02,-1.82928e+00,-2.23736e+01,5.96682e-01,3.14702e-01,8.08171e-01
6.33500e+02,-1.00777e+00,-1.91774e+01,6.01810e-01,3.18099e-01,8.15926e-01
6.33500e+02,-1.86340e-01,-1.59811e+01,6.06940e-01,3.21479e-01,8.23664e-01
6.33500e+02,6.31986e-01,-1.27849e+01,6.12174e-01,3.24843e-01,8.31460e-01
6.33500e+02,1.45031e+00,-9.58868e+00,6.17408e-01,3.28188e-01,8.39234e-01
6.33500e+02,2.24926e+00,-6.39245e+00,6.23290e-01,3.31517e-01,8.47467e-01
6.33500e+02,3.04460e+00,-3.19623e+00,6.29292e-01,3.34832e-01,8.55772e-01
7.34700e+02,4.02095e+01,0.00000e+00,-5.03409e-01,3.08686e-01,7.34358e-01
7.34700e+02,4.00070e+01,-3.05550e+00,-5.24439e-01,3.05809e-01,7.45382e-01
7.34700e+02,3.97376e+01,-6.11100e+00,-5.43552e-01,3.02862e-01,7.55398e-01
7.34700e+02,3.94656e+01,-9.16651e+00,-5.62589e-01,2.99849e-01,7.65659e-01
7.34700e+02,3.91344e+01,-1.22220e+01,-5.79933e-01,2.96774e-01,7.74949e-01
7.34700e+02,3.87896e+01,-1.52775e+01,-5.96885e-01,2.93642e-01,7.84187e-01
7.34700e+02,3.83994e+01,-1.83330e+01,-6.12538e-01,2.90458e-01,7.92654e-01
7.34700e+02,3.79872e+01,-2.13885e+01,-6.27561e-01,2.87226e-01,8.00830e-01
7.34700e+02,3.75386e+01,-2.44440e+01,-6.41541e-01,2.83950e-01,8.08367e-01
7.34700e+02,3.70601e+01,-2.74995e+01,-6.54663e-01,2.80636e-01,8.15385e-01
7.34700e+02,3.65486e+01,-3.05550e+01,-6.66842e-01,2.77287e-01,8.21792e-01
7.34700e+02,3.59973e+01,-3.36105e+01,-6.77880e-01,2.73907e-01,8.27403e-01
7.34700e+02,3.54053e+01,-3.66660e+01,-6.87749e-01,2.70501e-01,8.32173e-01
7.34700e+02,3.47554e+01,-3.97215e+01,-6.95964e-01,2.67075e-01,8.35675e-01
7.34700e+02,3.40493e+01,-4.27770e+01,-7.02566e-01,2.63635e-01,8.37920e-01
7.34700e+02,3.32760e+01,-4.58325e+01,-7.07242e-01,2.60187e-01,8.38620e-01
7.34700e+02,3.24115e+01,-4.88880e+01,-7.09307e-01,2.56743e-01,8.37179e-01
7.34700e+02,3.14836e+01,-5.19435e+01,-7.09557e-01,2.53305e-01,8.34243e-01
7.34700e+02,3.04131e+01,-5.49990e+01,-7.05721e-01,2.49892e-01,8.27877e-01
7.34700e+02,2.92835e+01,-5.80545e+01,-7.00192e-01,2.46511e-01,8.20105e-01
7.34700e+02,2.79893e+01,-6.11100e+01,-6.89944e-01,2.43172e-01,8.08344e-01
7.34700e+02,2.65630e+01,-6.41655e+01,-6.75915e-01,2.39901e-01,7.93422e-01
7.34700e+02,2.50024e+01,-6.72210e+01,-6.58039e-01,2.36705e-01,7.75308e-01
7.34700e+02,2.32164e+01,-7.02765e+01,-6.33703e-01,2.33596e-01,7.51852e-01
7.34700e+02,2.11691e+01,-7.33320e+01,-6.01886e-01,2.30611e-01,7.22365e-01
7.34700e+02,1.88268e+01,-7.63875e+01,-5.61613e-01,2.27786e-01,6.86344e-01
7.34700e+02,1.60563e+01,-7.94430e+01,-5.09074e-01,2.25144e-01,6.41270e-01
7.34700e+02,1.25001e+01,-8.24985e+01,-4.34029e-01,2.22816e-01,5.80794e-01
7.34700e+02,7.69051e+00,-8.55540e+01,-3.23075e-01,2.21394e-01,5.01421e-01
7.34700e+02,-3.11614e+00,-8.86096e+01,-4.03183e-02,2.21958e-01,3.86552e-01
7.34700e+02,-3.89606e+00,-8.86166e+01,-1.80375e-02,2.23710e-01,3.87897e-01
7.34700e+02,-1.10017e+01,-8.54518e+01,2.13315e-01,2.27032e-01,4.47363e-01
7.34700e+02,-1.18620e+01,-8.22869e+01,2.65753e-01,2.29486e-01,4.78138e-01
7.34700e+02,-1.21589e+01,-7.91220e+01,3.02050e-01,2.32068e-01,5.02793e-01
7.34700e+02,-1.22039e+01,-7.59571e+01,3.31132e-01,2.34770e-01,5.24403e-01
7.34700e+02,-1.20592e+01,-7.27922e+01,3.54778e-01,2.37570e-01,5.43310e-01
7.34700e+02,-1.17955e+01,-6.96274e+01,3.75014e-01,2.40452e-01,5.60435e-01
7.34700e+02,-1.14122e+01,-6.64625e+01,3.91825e-01,2.43399e-01,5.75549e-01
7.34700e+02,-1.09560e+01,-6.32976e+01,4.06547e-01,2.46397e-01,5.89420e-01
7.34700e+02,-1.04575e+01,-6.01327e+01,4.20057e-01,2.49439e-01,6.02584e-01
7.34700e+02,-9.89525e+00,-5.69678e+01,4.31742e-01,2.52515e-01,6.14567e-01
7.34700e+02,-9.29319e+00,-5.38030e+01,4.42286e-01,2.55617e-01,6.25809e-01
7.34700e+02,-8.65235e+00,-5.06381e+01,4.51718e-01,2.58740e-01,6.36308e-01
7.34700e+02,-7.97287e+00,-4.74732e+01,4.60044e-01,2.61876e-01,6.46047e-01
7.34700e+02,-7.26917e+00,-4.43083e+01,4.67676e-01,2.65020e-01,6.55307e-01
7.34700e+02,-6.53444e+00,-4.11434e+01,4.74419e-01,2.68168e-01,6.63940e-01
7.34700e+02,-5.77984e+00,-3.79786e+01,4.80593e-01,2.71315e-01,6.72164e-01
7.34700e+02,-5.00742e+00,-3.48137e+01,4.86256e-01,2.74457e-01,6.80018e-01
7.34700e+02,-4.21911e+00,-3.16488e+01,4.91464e-01,2.77590e-01,6.87536e-01
7.34700e+02,-3.42406e+00,-2.84839e+01,4.96479e-01,2.80714e-01,6.94904e-01
7.34700e+02,-2.61857e+00,-2.53190e+01,5.01195e-01,2.83825e-01,7.02044e-01
7.34700e+02,-1.81134e+00,-2.21542e+01,5.05861e-01,2.86922e-01,7.09132e-01
7.34700e+02,-9.97887e-01,-1.89893e+01,5.10349e-01,2.90005e-01,7.16076e-01
7.34700e+02,-1.84513e-01,-1.58244e+01,5.14839e-01,2.93073e-01,7.23004e-01
7.34700e+02,6.25788e-01,-1.26595e+01,5.19417e-01,2.96125e-01,7.29976e-01
7.34700e+02,1.43609e+00,-9.49464e+00,5.23995e-01,2.99161e-01,7.36928e-01
7.34700e+02,2.22720e+00,-6.32976e+00,5.29123e-01,3.02183e-01,7.44254e-01
7.34700e+02,3.01474e+00,-3.16488e+00,5.34353e-01,3.05191e-01,7.51637e-01
8.33800e+02,3.98196e+01,0.00000e+00,-4.22804e-01,2.79063e-01,6.42177e-01
8.33800e+02,3.96190e+01,-3.02587e+00,-4.40587e-01,2.76469e-01,6.50708e-01
8.33800e+02,3.93522e+01,-6.05173e+00,-4.56759e-01,2.73811e-01,6.58442e-01
8.33800e+02,3.90828e+01,-9.07760e+00,-4.72868e-01,2.71092e-01,6.66391e-01
8.33800e+02,3.87549e+01,-1.21035e+01,-4.87555e-01,2.68319e-01,6.73569e-01
8.33800e+02,3.84134e+01,-1.51293e+01,-5.01912e-01,2.65494e-01,6.80718e-01
8.33800e+02,3.80270e+01,-1.81552e+01,-5.15178e-01,2.62622e-01,6.87255e-01
8.33800e+02,3.76188e+01,-2.11811e+01,-5.27914e-01,2.59707e-01,6.93568e-01
8.33800e+02,3.71745e+01,-2.42069e+01,-5.39773e-01,2.56753e-01,6.99372e-01
8.33800e+02,3.67006e+01,-2.72328e+01,-5.50913e-01,2.53763e-01,7.04764e-01
8.33800e+02,3.61941e+01,-3.02587e+01,-5.61260e-01,2.50742e-01,7.09667e-01
8.33800e+02,3.56482e+01,-3.32845e+01,-5.70648e-01,2.47694e-01,7.13930e-01
8.33800e+02,3.50619e+01,-3.63104e+01,-5.79055e-01,2.44622e-01,7.17512e-01
8.33800e+02,3.44183e+01,-3.93363e+01,-5.86071e-01,2.41531e-01,7.20063e-01
8.33800e+02,3.37191e+01,-4.23621e+01,-5.91733e-01,2.38429e-01,7.21590e-01
8.33800e+02,3.29532e+01,-4.53880e+01,-5.95775e-01,2.35319e-01,7.21854e-01
8.33800e+02,3.20971e+01,-4.84139e+01,-5.97625e-01,2.32213e-01,7.20364e-01
8.33800e+02,3.11783e+01,-5.14397e+01,-5.97950e-01,2.29112e-01,7.17649e-01
8.33800e+02,3.01182e+01,-5.44656e+01,-5.94841e-01,2.26033e-01,7.12116e-01
8.33800e+02,2.89995e+01,-5.74915e+01,-5.90310e-01,2.22984e-01,7.05429e-01
8.33800e+02,2.77178e+01,-6.05173e+01,-5.81815e-01,2.19971e-01,6.95464e-01
8.33800e+02,2.63054e+01,-6.35432e+01,-5.70143e-01,2.17022e-01,6.82904e-01
8.33800e+02,2.47599e+01,-6.65691e+01,-5.55237e-01,2.14139e-01,6.67724e-01
8.33800e+02,2.29912e+01,-6.95949e+01,-5.34906e-01,2.11335e-01,6.48160e-01
8.33800e+02,2.09638e+01,-7.26208e+01,-5.08289e-01,2.08642e-01,6.23660e-01
8.33800e+02,1.86442e+01,-7.56467e+01,-4.74566e-01,2.06094e-01,5.93833e-01
8.33800e+02,1.59005e+01,-7.86725e+01,-4.30540e-01,2.03712e-01,5.56650e-01
8.33800e+02,1.23789e+01,-8.16984e+01,-3.67603e-01,2.01611e-01,5.07024e-01
8.33800e+02,7.61592e+00,-8.47243e+01,-2.74497e-01,2.00329e-01,4.42429e-01
8.33800e+02,-3.08591e+00,-8.77501e+01,-3.70470e-02,2.00838e-01,3.49829e-01
8.33800e+02,-3.85827e+00,-8.77572e+01,-1.83275e-02,2.02418e-01,3.51077e-01
8.33800e+02,-1.08950e+01,-8.46230e+01,1.76168e-01,2.05414e-01,3.97014e-01
8.33800e+02,-1.17470e+01,-8.14888e+01,2.20343e-01,2.07628e-01,4.21757e-01
8.33800e+02,-1.20409e+01,-7.83546e+01,2.50957e-01,2.09957e-01,4.41843e-01
8.33800e+02,-1.20856e+01,-7.52204e+01,2.75509e-01,2.12394e-01,4.59607e-01
8.33800e+02,-1.19423e+01,-7.20862e+01,2.95495e-01,2.14919e-01,4.75277e-01
8.33800e+02,-1.16811e+01,-6.89521e+01,3.12616e-01,2.17519e-01,4.89563e-01
8.33800e+02,-1.13015e+01,-6.58179e+01,3.26858e-01,2.20177e-01,5.02265e-01
8.33800e+02,-1.08497e+01,-6.26837e+01,3.39346e-01,2.22881e-01,5.13988e-01
8.33800e+02,-1.03561e+01,-5.95495e+01,3.50815e-01,2.25625e-01,5.25158e-01
8.33800e+02,-9.79928e+00,-5.64153e+01,3.60751e-01,2.28399e-01,5.35387e-01
8.33800e+02,-9.20306e+00,-5.32811e+01,3.69728e-01,2.31197e-01,5.45028e-01
8.33800e+02,-8.56843e+00,-5.01469e+01,3.77772e-01,2.34014e-01,5.54075e-01
8.33800e+02,-7.89554e+00,-4.70128e+01,3.84885e-01,2.36842e-01,5.62512e-01
8.33800e+02,-7.19866e+00,-4.38786e+01,3.91416e-01,2.39678e-01,5.70564e-01
8.33800e+02,-6.47106e+00,-4.07444e+01,3.97200e-01,2.42518e-01,5.78111e-01
8.33800e+02,-5.72378e+00,-3.76102e+01,4.02506e-01,2.45356e-01,5.85328e-01
8.33800e+02,-4.95886e+00,-3.44760e+01,4.07383e-01,2.48190e-01,5.92246e-01
8.33800e+02,-4.17819e+00,-3.13418e+01,4.11877e-01,2.51016e-01,5.98890e-01
8.33800e+02,-3.39085e+00,-2.82077e+01,4.16209e-01,2.53833e-01,6.05412e-01
8.33800e+02,-2.59317e+00,-2.50735e+01,4.20289e-01,2.56639e-01,6.11747e-01
8.33800e+02,-1.79378e+00,-2.19393e+01,4.24328e-01,2.59433e-01,6.18038e-01
8.33800e+02,-9.88209e-01,-1.88051e+01,4.28217e-01,2.62214e-01,6.24210e-01
8.33800e+02,-1.82723e-01,-1.56709e+01,4.32108e-01,2.64981e-01,6.30367e-01
8.33800e+02,6.19718e-01,-1.25367e+01,4.36073e-01,2.67734e-01,6.36556e-01
8.33800e+02,1.42216e+00,-9.40255e+00,4.40038e-01,2.70472e-01,6.42728e-01
8.33800e+02,2.20560e+00,-6.26837e+00,4.44465e-01,2.73197e-01,6.49199e-01
8.33800e+02,2.98550e+00,-3.13418e+00,4.48978e-01,2.75910e-01,6.55714e-01
9.30700e+02,3.94382e+01,0.00000e+00,-3.50939e-01,2.49980e-01,5.57340e-01
9.30700e+02,3.92396e+01,-2.99689e+00,-3.65804e-01,2.47656e-01,5.63749e-01
9.30700e+02,3.89754e+01,-5.99378e+00,-3.79332e-01,2.45276e-01,5.69538e-01
9.30700e+02,3.87085e+01,-8.99067e+00,-3.92807e-01,2.42842e-01,5.75511e-01
9.30700e+02,3.83837e+01,-1.19876e+01,-4.05101e-01,2.40358e-01,5.80881e-01
9.30700e+02,3.80455e+01,-1.49844e+01,-4.17121e-01,2.37828e-01,5.86240e-01
9.30700e+02,3.76628e+01,-1.79813e+01,-4.28236e-01,2.35256e-01,5.91119e-01
9.30700e+02,3.72585e+01,-2.09782e+01,-4.38910e-01,2.32646e-01,5.95831e-01
9.30700e+02,3.68185e+01,-2.39751e+01,-4.48857e-01,2.30000e-01,6.00143e-01
9.30700e+02,3.63492e+01,-2.69720e+01,-4.58205e-01,2.27323e-01,6.04135e-01
9.30700e+02,3.58475e+01,-2.99689e+01,-4.66896e-01,2.24617e-01,6.07742e-01
9.30700e+02,3.53068e+01,-3.29658e+01,-4.74791e-01,2.21887e-01,6.10842e-01
9.30700e+02,3.47261e+01,-3.59627e+01,-4.81870e-01,2.19136e-01,6.13401e-01
9.30700e+02,3.40887e+01,-3.89596e+01,-4.87795e-01,2.16369e-01,6.15134e-01
9.30700e+02,3.33962e+01,-4.19565e+01,-4.92595e-01,2.13591e-01,6.16046e-01
9.30700e+02,3.26376e+01,-4.49533e+01,-4.96051e-01,2.10805e-01,6.15941e-01
9.30700e+02,3.17897e+01,-4.79502e+01,-4.97686e-01,2.08024e-01,6.14421e-01
9.30700e+02,3.08797e+01,-5.09471e+01,-4.98055e-01,2.05247e-01,6.11913e-01
9.30700e+02,2.98297e+01,-5.39440e+01,-4.95573e-01,2.02490e-01,6.07123e-01
9.30700e+02,2.87218e+01,-5.69409e+01,-4.91910e-01,1.99759e-01,6.01403e-01
9.30700e+02,2.74524e+01,-5.99378e+01,-4.84955e-01,1.97061e-01,5.93027e-01
9.30700e+02,2.60534e+01,-6.29347e+01,-4.75362e-01,1.94420e-01,5.82552e-01
9.30700e+02,2.45228e+01,-6.59316e+01,-4.63085e-01,1.91838e-01,5.69959e-01
9.30700e+02,2.27710e+01,-6.89285e+01,-4.46302e-01,1.89327e-01,5.53823e-01
9.30700e+02,2.07631e+01,-7.19254e+01,-4.24300e-01,1.86916e-01,5.33707e-01
9.30700e+02,1.84656e+01,-7.49222e+01,-3.96398e-01,1.84634e-01,5.09314e-01
9.30700e+02,1.57483e+01,-7.79191e+01,-3.59941e-01,1.82500e-01,4.79037e-01
9.30700e+02,1.22603e+01,-8.09160e+01,-3.07781e-01,1.80620e-01,4.38862e-01
9.30700e+02,7.54299e+00,-8.39129e+01,-2.30571e-01,1.79471e-01,3.87031e-01
9.30700e+02,-3.05636e+00,-8.69098e+01,-3.35065e-02,1.79927e-01,3.13440e-01
9.30700e+02,-3.82132e+00,-8.69168e+01,-1.79632e-02,1.81342e-01,3.14608e-01
9.30700e+02,-1.07906e+01,-8.38126e+01,1.43636e-01,1.84026e-01,3.49611e-01
9.30700e+02,-1.16345e+01,-8.07084e+01,1.80419e-01,1.86008e-01,3.69253e-01
9.30700e+02,-1.19256e+01,-7.76042e+01,2.05942e-01,1.88093e-01,3.85421e-01
9.30700e+02,-1.19698e+01,-7.45001e+01,2.26431e-01,1.90276e-01,3.99857e-01
9.30700e+02,-1.18279e+01,-7.13959e+01,2.43129e-01,1.92537e-01,4.12703e-01
9.30700e+02,-1.15692e+01,-6.82917e+01,2.57447e-01,1.94865e-01,4.24496e-01
9.30700e+02,-1.11933e+01,-6.51876e+01,2.69376e-01,1.97246e-01,4.35065e-01
9.30700e+02,-1.07458e+01,-6.20834e+01,2.79848e-01,1.99668e-01,4.44878e-01
9.30700e+02,-1.02569e+01,-5.89792e+01,2.89474e-01,2.02124e-01,4.54266e-01
9.30700e+02,-9.70544e+00,-5.58751e+01,2.97827e-01,2.04609e-01,4.62920e-01
9.30700e+02,-9.11493e+00,-5.27709e+01,3.05383e-01,2.07115e-01,4.71114e-01
9.30700e+02,-8.48637e+00,-4.96667e+01,3.12165e-01,2.09637e-01,4.78842e-01
9.30700e+02,-7.81993e+00,-4.65625e+01,3.18174e-01,2.12170e-01,4.86090e-01
9.30700e+02,-7.12973e+00,-4.34584e+01,3.23700e-01,2.14710e-01,4.93034e-01
9.30700e+02,-6.40909e+00,-4.03542e+01,3.28605e-01,2.17252e-01,4.99577e-01
9.30700e+02,-5.66897e+00,-3.72500e+01,3.33113e-01,2.19794e-01,5.05858e-01
9.30700e+02,-4.91137e+00,-3.41459e+01,3.37266e-01,2.22332e-01,5.11901e-01
9.30700e+02,-4.13818e+00,-3.10417e+01,3.41100e-01,2.24863e-01,5.17725e-01
9.30700e+02,-3.35837e+00,-2.79375e+01,3.44800e-01,2.27386e-01,5.23449e-01
9.30700e+02,-2.56834e+00,-2.48334e+01,3.48291e-01,2.29898e-01,5.29024e-01
9.30700e+02,-1.77660e+00,-2.17292e+01,3.51747e-01,2.32400e-01,5.34561e-01
9.30700e+02,-9.78745e-01,-1.86250e+01,3.55079e-01,2.34890e-01,5.40002e-01
9.30700e+02,-1.80973e-01,-1.55208e+01,3.58413e-01,2.37368e-01,5.45427e-01
9.30700e+02,6.13784e-01,-1.24167e+01,3.61807e-01,2.39834e-01,5.50877e-01
9.30700e+02,1.40854e+00,-9.31251e+00,3.65202e-01,2.42286e-01,5.56309e-01
9.30700e+02,2.18448e+00,-6.20834e+00,3.68981e-01,2.44726e-01,5.61978e-01
9.30700e+02,2.95691e+00,-3.10417e+00,3.72831e-01,2.47156e-01,5.67680e-01
1.02500e+03,3.90671e+01,0.00000e+00,-2.87610e-01,2.21713e-01,4.79781e-01
1.02500e+03,3.88704e+01,-2.96869e+00,-2.99883e-01,2.19645e-01,4.84419e-01
1.02500e+03,3.86086e+01,-5.93738e+00,-3.11058e-01,2.17527e-01,4.88581e-01
1.02500e+03,3.83443e+01,-8.90607e+00,-3.22191e-01,2.15360e-01,4.92896e-01
1.02500e+03,3.80226e+01,-1.18748e+01,-3.32355e-01,2.13150e-01,4.96748e-01
1.02500e+03,3.76875e+01,-1.48435e+01,-3.42295e-01,2.10898e-01,5.00600e-01
1.02500e+03,3.73084e+01,-1.78121e+01,-3.51492e-01,2.08609e-01,5.04083e-01
1.02500e+03,3.69079e+01,-2.07808e+01,-3.60328e-01,2.06286e-01,5.07442e-01
1.02500e+03,3.64721e+01,-2.37495e+01,-3.68568e-01,2.03931e-01,5.10496e-01
1.02500e+03,3.60071e+01,-2.67182e+01,-3.76317e-01,2.01548e-01,5.13303e-01
1.02500e+03,3.55102e+01,-2.96869e+01,-3.83527e-01,1.99141e-01,5.15814e-01
1.02500e+03,3.49746e+01,-3.26556e+01,-3.90084e-01,1.96711e-01,5.17930e-01
1.02500e+03,3.43994e+01,-3.56243e+01,-3.95973e-01,1.94262e-01,5.19623e-01
1.02500e+03,3.37680e+01,-3.85930e+01,-4.00916e-01,1.91800e-01,5.20667e-01
1.02500e+03,3.30819e+01,-4.15617e+01,-4.04936e-01,1.89327e-01,5.21064e-01
1.02500e+03,3.23305e+01,-4.45304e+01,-4.07854e-01,1.86848e-01,5.20655e-01
1.02500e+03,3.14906e+01,-4.74990e+01,-4.09279e-01,1.84372e-01,5.19123e-01
1.02500e+03,3.05891e+01,-5.04677e+01,-4.09666e-01,1.81901e-01,5.16808e-01
1.02500e+03,2.95491e+01,-5.34364e+01,-4.07716e-01,1.79447e-01,5.12676e-01
1.02500e+03,2.84516e+01,-5.64051e+01,-4.04797e-01,1.77017e-01,5.07805e-01
1.02500e+03,2.71940e+01,-5.93738e+01,-3.99180e-01,1.74616e-01,5.00817e-01
1.02500e+03,2.58083e+01,-6.23425e+01,-3.91400e-01,1.72265e-01,4.92159e-01
1.02500e+03,2.42920e+01,-6.53112e+01,-3.81419e-01,1.69968e-01,4.81817e-01
1.02500e+03,2.25567e+01,-6.82799e+01,-3.67744e-01,1.67733e-01,4.68656e-01
1.02500e+03,2.05677e+01,-7.12486e+01,-3.49790e-01,1.65587e-01,4.52339e-01
1.02500e+03,1.82919e+01,-7.42173e+01,-3.26999e-01,1.63556e-01,4.32643e-01
1.02500e+03,1.56001e+01,-7.71859e+01,-2.97193e-01,1.61658e-01,4.08318e-01
1.02500e+03,1.21450e+01,-8.01546e+01,-2.54514e-01,1.59984e-01,3.76247e-01
1.02500e+03,7.47201e+00,-8.31233e+01,-1.91296e-01,1.58962e-01,3.35262e-01
1.02500e+03,-3.02760e+00,-8.60920e+01,-2.98135e-02,1.59368e-01,2.77639e-01
1.02500e+03,-3.78536e+00,-8.60989e+01,-1.70703e-02,1.60627e-01,2.78738e-01
1.02500e+03,-1.06891e+01,-8.30239e+01,1.15508e-01,1.63015e-01,3.05064e-01
1.02500e+03,-1.15250e+01,-7.99490e+01,1.45753e-01,1.64779e-01,3.20469e-01
1.02500e+03,-1.18134e+01,-7.68740e+01,1.66766e-01,1.66636e-01,3.33336e-01
1.02500e+03,-1.18572e+01,-7.37991e+01,1.83652e-01,1.68578e-01,3.44940e-01
1.02500e+03,-1.17166e+01,-7.07241e+01,1.97430e-01,1.70591e-01,3.55362e-01
1.02500e+03,-1.14604e+01,-6.76491e+01,2.09257e-01,1.72662e-01,3.65001e-01
1.02500e+03,-1.10880e+01,-6.45742e+01,2.19125e-01,1.74781e-01,3.73713e-01
1.02500e+03,-1.06447e+01,-6.14992e+01,2.27798e-01,1.76936e-01,3.81853e-01
1.02500e+03,-1.01604e+01,-5.84243e+01,2.35778e-01,1.79123e-01,3.89674e-01
1.02500e+03,-9.61411e+00,-5.53493e+01,2.42714e-01,1.81334e-01,3.96933e-01
1.02500e+03,-9.02916e+00,-5.22743e+01,2.48997e-01,1.83564e-01,4.03840e-01
1.02500e+03,-8.40652e+00,-4.91994e+01,2.54645e-01,1.85809e-01,4.10388e-01
1.02500e+03,-7.74634e+00,-4.61244e+01,2.59660e-01,1.88063e-01,4.16565e-01
1.02500e+03,-7.06264e+00,-4.30495e+01,2.64277e-01,1.90323e-01,4.22506e-01
1.02500e+03,-6.34878e+00,-3.99745e+01,2.68387e-01,1.92586e-01,4.28135e-01
1.02500e+03,-5.61563e+00,-3.68995e+01,2.72171e-01,1.94848e-01,4.33560e-01
1.02500e+03,-4.86516e+00,-3.38246e+01,2.75663e-01,1.97107e-01,4.38797e-01
1.02500e+03,-4.09924e+00,-3.07496e+01,2.78894e-01,1.99359e-01,4.43863e-01
1.02500e+03,-3.32677e+00,-2.76746e+01,2.82015e-01,2.01604e-01,4.48849e-01
1.02500e+03,-2.54417e+00,-2.45997e+01,2.84965e-01,2.03841e-01,4.53716e-01
1.02500e+03,-1.75988e+00,-2.15247e+01,2.87887e-01,2.06067e-01,4.58552e-01
1.02500e+03,-9.69535e-01,-1.84498e+01,2.90706e-01,2.08284e-01,4.63310e-01
1.02500e+03,-1.79270e-01,-1.53748e+01,2.93527e-01,2.10489e-01,4.68054e-01
1.02500e+03,6.08008e-01,-1.22998e+01,2.96398e-01,2.12683e-01,4.72814e-01
1.02500e+03,1.39529e+00,-9.22488e+00,2.99269e-01,2.14865e-01,4.77559e-01
1.02500e+03,2.16392e+00,-6.14992e+00,3.02455e-01,2.17037e-01,4.82487e-01
1.02500e+03,2.92908e+00,-3.07496e+00,3.05699e-01,2.19199e-01,4.87439e-01
1.11650e+03,3.87070e+01,0.00000e+00,-2.32433e-01,1.94220e-01,4.08888e-01
1.11650e+03,3.85121e+01,-2.94133e+00,-2.42426e-01,1.92398e-01,4.12094e-01
1.11650e+03,3.82528e+01,-5.88266e+00,-2.51533e-01,1.90532e-01,4.14941e-01
1.11650e+03,3.79909e+01,-8.82398e+00,-2.60605e-01,1.88623e-01,4.17913e-01
1.11650e+03,3.76721e+01,-1.17653e+01,-2.68894e-01,1.86676e-01,4.20533e-01
1.11650e+03,3.73401e+01,-1.47066e+01,-2.77002e-01,1.84693e-01,4.23160e-01
1.11650e+03,3.69645e+01,-1.76480e+01,-2.84509e-01,1.82676e-01,4.25508e-01
1.11650e+03,3.65678e+01,-2.05893e+01,-2.91725e-01,1.80629e-01,4.27767e-01
1.11650e+03,3.61359e+01,-2.35306e+01,-2.98458e-01,1.78555e-01,4.29794e-01
1.11650e+03,3.56753e+01,-2.64720e+01,-3.04795e-01,1.76456e-01,4.31637e-01
1.11650e+03,3.51829e+01,-2.94133e+01,-3.10695e-01,1.74335e-01,4.33255e-01
1.11650e+03,3.46522e+01,-3.23546e+01,-3.16068e-01,1.72195e-01,4.34571e-01
1.11650e+03,3.40823e+01,-3.52959e+01,-3.20901e-01,1.70038e-01,4.35564e-01
1.11650e+03,3.34567e+01,-3.82373e+01,-3.24968e-01,1.67868e-01,4.36055e-01
1.11650e+03,3.27770e+01,-4.11786e+01,-3.28290e-01,1.65690e-01,4.36044e-01
1.11650e+03,3.20325e+01,-4.41199e+01,-3.30721e-01,1.63507e-01,4.35408e-01
1.11650e+03,3.12004e+01,-4.70612e+01,-3.31945e-01,1.61326e-01,4.33895e-01
1.11650e+03,3.03072e+01,-5.00026e+01,-3.32329e-01,1.59149e-01,4.31772e-01
1.11650e+03,2.92767e+01,-5.29439e+01,-3.30824e-01,1.56987e-01,4.28228e-01
1.11650e+03,2.81893e+01,-5.58852e+01,-3.28536e-01,1.54846e-01,4.24108e-01
1.11650e+03,2.69434e+01,-5.88266e+01,-3.24065e-01,1.52732e-01,4.18329e-01
1.11650e+03,2.55704e+01,-6.17679e+01,-3.17847e-01,1.50661e-01,4.11245e-01
1.11650e+03,2.40681e+01,-6.47092e+01,-3.09849e-01,1.48637e-01,4.02846e-01
1.11650e+03,2.23488e+01,-6.76505e+01,-2.98864e-01,1.46668e-01,3.92243e-01
1.11650e+03,2.03781e+01,-7.05919e+01,-2.84420e-01,1.44778e-01,3.79178e-01
1.11650e+03,1.81233e+01,-7.35332e+01,-2.66065e-01,1.42989e-01,3.63494e-01
1.11650e+03,1.54563e+01,-7.64745e+01,-2.42038e-01,1.41316e-01,3.44229e-01
1.11650e+03,1.20330e+01,-7.94159e+01,-2.07604e-01,1.39842e-01,3.19009e-01
1.11650e+03,7.40314e+00,-8.23572e+01,-1.56564e-01,1.38942e-01,2.87100e-01
1.11650e+03,-2.99970e+00,-8.52985e+01,-2.60779e-02,1.39299e-01,2.42679e-01
1.11650e+03,-3.75047e+00,-8.53053e+01,-1.57752e-02,1.40409e-01,2.43706e-01
1.11650e+03,-1.05906e+01,-8.22587e+01,9.14874e-02,1.42512e-01,2.63247e-01
1.11650e+03,-1.14188e+01,-7.92121e+01,1.16014e-01,1.44066e-01,2.75181e-01
1.11650e+03,-1.17045e+01,-7.61655e+01,1.33077e-01,1.45701e-01,2.85300e-01
1.11650e+03,-1.17479e+01,-7.31189e+01,1.46804e-01,1.47412e-01,2.94521e-01
1.11650e+03,-1.16086e+01,-7.00722e+01,1.58017e-01,1.49186e-01,3.02884e-01
1.11650e+03,-1.13547e+01,-6.70256e+01,1.67653e-01,1.51011e-01,3.10677e-01
1.11650e+03,-1.09858e+01,-6.39790e+01,1.75705e-01,1.52877e-01,3.17784e-01
1.11650e+03,-1.05466e+01,-6.09324e+01,1.82791e-01,1.54776e-01,3.24468e-01
1.11650e+03,-1.00667e+01,-5.78858e+01,1.89317e-01,1.56702e-01,3.30919e-01
1.11650e+03,-9.52550e+00,-5.48391e+01,1.94999e-01,1.58649e-01,3.36947e-01
1.11650e+03,-8.94594e+00,-5.17925e+01,2.00153e-01,1.60614e-01,3.42712e-01
1.11650e+03,-8.32904e+00,-4.87459e+01,2.04793e-01,1.62591e-01,3.48207e-01
1.11650e+03,-7.67495e+00,-4.56993e+01,2.08921e-01,1.64577e-01,3.53419e-01
1.11650e+03,-6.99754e+00,-4.26527e+01,2.12729e-01,1.66568e-01,3.58453e-01
1.11650e+03,-6.29027e+00,-3.96060e+01,2.16125e-01,1.68562e-01,3.63248e-01
1.11650e+03,-5.56387e+00,-3.65594e+01,2.19259e-01,1.70554e-01,3.67886e-01
1.11650e+03,-4.82031e+00,-3.35128e+01,2.22156e-01,1.72544e-01,3.72380e-01
1.11650e+03,-4.06146e+00,-3.04662e+01,2.24843e-01,1.74528e-01,3.76741e-01
1.11650e+03,-3.29611e+00,-2.74196e+01,2.27440e-01,1.76506e-01,3.81040e-01
1.11650e+03,-2.52072e+00,-2.43730e+01,2.29899e-01,1.78476e-01,3.85245e-01
1.11650e+03,-1.74366e+00,-2.13263e+01,2.32335e-01,1.80437e-01,3.89425e-01
1.11650e+03,-9.60599e-01,-1.82797e+01,2.34689e-01,1.82389e-01,3.93543e-01
1.11650e+03,-1.77618e-01,-1.52331e+01,2.37043e-01,1.84332e-01,3.97648e-01
1.11650e+03,6.02404e-01,-1.21865e+01,2.39438e-01,1.86264e-01,4.01764e-01
1.11650e+03,1.38243e+00,-9.13986e+00,2.41834e-01,1.88187e-01,4.05865e-01
1.11650e+03,2.14398e+00,-6.09324e+00,2.44483e-01,1.90100e-01,4.10104e-01
1.11650e+03,2.90209e+00,-3.04662e+00,2.47180e-01,1.92004e-01,4.14361e-01
1.20500e+03,3.76912e+01,0.00000e+00,-2.63615e-01,1.86710e-01,4.17223e-01
1.20500e+03,3.75014e+01,-2.86413e+00,-2.74127e-01,1.84478e-01,4.21001e-01
1.20500e+03,3.72488e+01,-5.72827e+00,-2.83629e-01,1.82191e-01,4.24295e-01
1.20500e+03,3.69938e+01,-8.59240e+00,-2.93092e-01,1.79852e-01,4.27718e-01
1.20500e+03,3.66834e+01,-1.14565e+01,-3.01664e-01,1.77465e-01,4.30676e-01
1.20500e+03,3.63602e+01,-1.43207e+01,-3.10029e-01,1.75033e-01,4.33622e-01
1.20500e+03,3.59944e+01,-1.71848e+01,-3.17711e-01,1.72561e-01,4.36202e-01
1.20500e+03,3.56080e+01,-2.00489e+01,-3.25061e-01,1.70052e-01,4.38654e-01
1.20500e+03,3.51875e+01,-2.29131e+01,-3.31861e-01,1.67509e-01,4.40806e-01
1.20500e+03,3.47390e+01,-2.57772e+01,-3.38211e-01,1.64935e-01,4.42716e-01
1.20500e+03,3.42596e+01,-2.86413e+01,-3.44064e-01,1.62334e-01,4.44339e-01
1.20500e+03,3.37428e+01,-3.15055e+01,-3.49317e-01,1.59710e-01,4.45583e-01
1.20500e+03,3.31878e+01,-3.43696e+01,-3.53955e-01,1.57064e-01,4.46421e-01
1.20500e+03,3.25787e+01,-3.72337e+01,-3.57722e-01,1.54404e-01,4.46639e-01
1.20500e+03,3.19168e+01,-4.00979e+01,-3.60640e-01,1.51732e-01,4.46239e-01
1.20500e+03,3.11919e+01,-4.29620e+01,-3.62544e-01,1.49054e-01,4.45073e-01
1.20500e+03,3.03815e+01,-4.58261e+01,-3.63075e-01,1.46379e-01,4.42836e-01
1.20500e+03,2.95118e+01,-4.86903e+01,-3.62650e-01,1.43708e-01,4.39853e-01
1.20500e+03,2.85084e+01,-5.15544e+01,-3.60074e-01,1.41056e-01,4.35137e-01
1.20500e+03,2.74495e+01,-5.44186e+01,-3.56608e-01,1.38430e-01,4.29718e-01
1.20500e+03,2.62363e+01,-5.72827e+01,-3.50658e-01,1.35835e-01,4.22273e-01
1.20500e+03,2.48993e+01,-6.01468e+01,-3.42718e-01,1.33294e-01,4.13228e-01
1.20500e+03,2.34365e+01,-6.30110e+01,-3.32753e-01,1.30811e-01,4.02565e-01
1.20500e+03,2.17623e+01,-6.58751e+01,-3.19389e-01,1.28395e-01,3.89185e-01
1.20500e+03,1.98433e+01,-6.87392e+01,-3.02087e-01,1.26075e-01,3.72748e-01
1.20500e+03,1.76476e+01,-7.16034e+01,-2.80334e-01,1.23879e-01,3.53023e-01
1.20500e+03,1.50506e+01,-7.44675e+01,-2.52127e-01,1.21826e-01,3.28774e-01
1.20500e+03,1.17172e+01,-7.73316e+01,-2.12074e-01,1.20015e-01,2.96962e-01
1.20500e+03,7.20885e+00,-8.01958e+01,-1.53122e-01,1.18908e-01,2.56639e-01
1.20500e+03,-2.92097e+00,-8.30599e+01,-3.75042e-03,1.19345e-01,2.06745e-01
1.20500e+03,-3.65204e+00,-8.30665e+01,7.97730e-03,1.20704e-01,2.09218e-01
1.20500e+03,-1.03126e+01,-8.00999e+01,1.29162e-01,1.23284e-01,2.49558e-01
1.20500e+03,-1.11191e+01,-7.71332e+01,1.56184e-01,1.25189e-01,2.67227e-01
1.20500e+03,-1.13974e+01,-7.41666e+01,1.74710e-01,1.27195e-01,2.81175e-01
1.20500e+03,-1.14396e+01,-7.11999e+01,1.89440e-01,1.29294e-01,2.93322e-01
1.20500e+03,-1.13040e+01,-6.82332e+01,2.01308e-01,1.31469e-01,3.03936e-01
1.20500e+03,-1.10567e+01,-6.52666e+01,2.11382e-01,1.33708e-01,3.13554e-01
1.20500e+03,-1.06975e+01,-6.22999e+01,2.19653e-01,1.35998e-01,3.22077e-01
1.20500e+03,-1.02698e+01,-5.93332e+01,2.26825e-01,1.38327e-01,3.29929e-01
1.20500e+03,-9.80253e+00,-5.63666e+01,2.33359e-01,1.40691e-01,3.37399e-01
1.20500e+03,-9.27551e+00,-5.33999e+01,2.38932e-01,1.43081e-01,3.44246e-01
1.20500e+03,-8.71115e+00,-5.04333e+01,2.43905e-01,1.45492e-01,3.50704e-01
1.20500e+03,-8.11045e+00,-4.74666e+01,2.48293e-01,1.47919e-01,3.56776e-01
1.20500e+03,-7.47352e+00,-4.44999e+01,2.52098e-01,1.50356e-01,3.62456e-01
1.20500e+03,-6.81389e+00,-4.15333e+01,2.55539e-01,1.52800e-01,3.67891e-01
1.20500e+03,-6.12518e+00,-3.85666e+01,2.58511e-01,1.55247e-01,3.73005e-01
1.20500e+03,-5.41785e+00,-3.55999e+01,2.61184e-01,1.57693e-01,3.77913e-01
1.20500e+03,-4.69381e+00,-3.26333e+01,2.63588e-01,1.60135e-01,3.82634e-01
1.20500e+03,-3.95486e+00,-2.96666e+01,2.65752e-01,1.62572e-01,3.87186e-01
1.20500e+03,-3.20961e+00,-2.67000e+01,2.67815e-01,1.65000e-01,3.91663e-01
1.20500e+03,-2.45457e+00,-2.37333e+01,2.69721e-01,1.67419e-01,3.96026e-01
1.20500e+03,-1.69790e+00,-2.07666e+01,2.71600e-01,1.69828e-01,4.00364e-01
1.20500e+03,-9.35389e-01,-1.78000e+01,2.73386e-01,1.72225e-01,4.04629e-01
1.20500e+03,-1.72956e-01,-1.48333e+01,2.75172e-01,1.74611e-01,4.08885e-01
1.20500e+03,5.86594e-01,-1.18666e+01,2.77005e-01,1.76985e-01,4.13162e-01
1.20500e+03,1.34615e+00,-8.89999e+00,2.78838e-01,1.79346e-01,4.17428e-01
1.20500e+03,2.08771e+00,-5.93332e+00,2.80961e-01,1.81696e-01,4.21876e-01
1.20500e+03,2.82592e+00,-2.96666e+00,2.83137e-01,1.84036e-01,4.26350e-01
1.29010e+03,3.63234e+01,0.00000e+00,-2.13526e-01,1.66933e-01,3.59435e-01
1.29010e+03,3.61405e+01,-2.76019e+00,-2.22141e-01,1.64989e-01,3.61954e-01
1.29010e+03,3.58971e+01,-5.52039e+00,-2.29939e-01,1.62998e-01,3.64111e-01
1.29010e+03,3.56513e+01,-8.28058e+00,-2.37704e-01,1.60961e-01,3.66372e-01
1.29010e+03,3.53522e+01,-1.10408e+01,-2.44747e-01,1.58883e-01,3.68283e-01
1.29010e+03,3.50407e+01,-1.38010e+01,-2.51623e-01,1.56766e-01,3.70190e-01
1.29010e+03,3.46882e+01,-1.65612e+01,-2.57945e-01,1.54614e-01,3.71823e-01
1.29010e+03,3.43158e+01,-1.93214e+01,-2.63999e-01,1.52429e-01,3.73362e-01
1.29010e+03,3.39106e+01,-2.20816e+01,-2.69608e-01,1.50215e-01,3.74675e-01
1.29010e+03,3.34783e+01,-2.48418e+01,-2.74851e-01,1.47974e-01,3.75808e-01
1.29010e+03,3.30163e+01,-2.76019e+01,-2.79692e-01,1.45709e-01,3.76724e-01
1.29010e+03,3.25183e+01,-3.03621e+01,-2.84046e-01,1.43424e-01,3.77351e-01
1.29010e+03,3.19834e+01,-3.31223e+01,-2.87902e-01,1.41121e-01,3.77668e-01
1.29010e+03,3.13964e+01,-3.58825e+01,-2.91053e-01,1.38804e-01,3.77507e-01
1.29010e+03,3.07585e+01,-3.86427e+01,-2.93516e-01,1.36479e-01,3.76870e-01
1.29010e+03,3.00599e+01,-4.14029e+01,-2.95157e-01,1.34147e-01,3.75638e-01
1.29010e+03,2.92790e+01,-4.41631e+01,-2.95686e-01,1.31818e-01,3.73574e-01
1.29010e+03,2.84408e+01,-4.69233e+01,-2.95440e-01,1.29493e-01,3.70931e-01
1.29010e+03,2.74738e+01,-4.96835e+01,-2.93453e-01,1.27184e-01,3.66936e-01
1.29010e+03,2.64534e+01,-5.24437e+01,-2.90743e-01,1.24897e-01,3.62394e-01
1.29010e+03,2.52842e+01,-5.52039e+01,-2.86021e-01,1.22639e-01,3.56271e-01
1.29010e+03,2.39957e+01,-5.79641e+01,-2.79687e-01,1.20426e-01,3.48902e-01
1.29010e+03,2.25860e+01,-6.07243e+01,-2.71713e-01,1.18264e-01,3.40275e-01
1.29010e+03,2.09725e+01,-6.34845e+01,-2.60984e-01,1.16161e-01,3.29534e-01
1.29010e+03,1.91232e+01,-6.62447e+01,-2.47065e-01,1.14141e-01,3.16427e-01
1.29010e+03,1.70072e+01,-6.90049e+01,-2.29541e-01,1.12230e-01,3.00792e-01
1.29010e+03,1.45045e+01,-7.17651e+01,-2.06787e-01,1.10442e-01,2.81697e-01
1.29010e+03,1.12920e+01,-7.45253e+01,-1.74435e-01,1.08866e-01,2.56872e-01
1.29010e+03,6.94724e+00,-7.72855e+01,-1.26773e-01,1.07903e-01,2.25833e-01
1.29010e+03,-2.81497e+00,-8.00457e+01,-5.85493e-03,1.08283e-01,1.87643e-01
1.29010e+03,-3.51951e+00,-8.00521e+01,3.64632e-03,1.09467e-01,1.89638e-01
1.29010e+03,-9.93839e+00,-7.71931e+01,1.01929e-01,1.11713e-01,2.18698e-01
1.29010e+03,-1.07156e+01,-7.43341e+01,1.23924e-01,1.13372e-01,2.32200e-01
1.29010e+03,-1.09838e+01,-7.14751e+01,1.39036e-01,1.15118e-01,2.43079e-01
1.29010e+03,-1.10244e+01,-6.86160e+01,1.51071e-01,1.16945e-01,2.52688e-01
1.29010e+03,-1.08937e+01,-6.57570e+01,1.60790e-01,1.18839e-01,2.61193e-01
1.29010e+03,-1.06555e+01,-6.28980e+01,1.69053e-01,1.20789e-01,2.68977e-01
1.29010e+03,-1.03093e+01,-6.00390e+01,1.75857e-01,1.22782e-01,2.75957e-01
1.29010e+03,-9.89713e+00,-5.71800e+01,1.81769e-01,1.24810e-01,2.82441e-01
1.29010e+03,-9.44680e+00,-5.43210e+01,1.87165e-01,1.26868e-01,2.88647e-01
1.29010e+03,-8.93890e+00,-5.14620e+01,1.91783e-01,1.28949e-01,2.94387e-01
1.29010e+03,-8.39503e+00,-4.86030e+01,1.95914e-01,1.31048e-01,2.99838e-01
1.29010e+03,-7.81612e+00,-4.57440e+01,1.99571e-01,1.33160e-01,3.04998e-01
1.29010e+03,-7.20231e+00,-4.28850e+01,2.02756e-01,1.35282e-01,3.09861e-01
1.29010e+03,-6.56662e+00,-4.00260e+01,2.05646e-01,1.37410e-01,3.14539e-01
1.29010e+03,-5.90290e+00,-3.71670e+01,2.08156e-01,1.39540e-01,3.18972e-01
1.29010e+03,-5.22123e+00,-3.43080e+01,2.10424e-01,1.41669e-01,3.23248e-01
1.29010e+03,-4.52347e+00,-3.14490e+01,2.12474e-01,1.43796e-01,3.27379e-01
1.29010e+03,-3.81134e+00,-2.85900e+01,2.14330e-01,1.45917e-01,3.31380e-01
1.29010e+03,-3.09313e+00,-2.57310e+01,2.16104e-01,1.48031e-01,3.35321e-01
1.29010e+03,-2.36549e+00,-2.28720e+01,2.17750e-01,1.50136e-01,3.39172e-01
1.29010e+03,-1.63628e+00,-2.00130e+01,2.19375e-01,1.52233e-01,3.43002e-01
1.29010e+03,-9.01444e-01,-1.71540e+01,2.20924e-01,1.54320e-01,3.46773e-01
1.29010e+03,-1.66680e-01,-1.42950e+01,2.22473e-01,1.56397e-01,3.50535e-01
1.29010e+03,5.65307e-01,-1.14360e+01,2.24061e-01,1.58463e-01,3.54310e-01
1.29010e+03,1.29729e+00,-8.57701e+00,2.25648e-01,1.60519e-01,3.58073e-01
1.29010e+03,2.01195e+00,-5.71800e+00,2.27470e-01,1.62565e-01,3.61973e-01
1.29010e+03,2.72337e+00,-2.85900e+00,2.29335e-01,1.64602e-01,3.65890e-01
1.37170e+03,3.50118e+01,0.00000e+00,-1.69664e-01,1.47549e-01,3.06754e-01
1.37170e+03,3.48355e+01,-2.66053e+00,-1.76594e-01,1.45876e-01,3.08261e-01
1.37170e+03,3.46009e+01,-5.32106e+00,-1.82874e-01,1.44162e-01,3.09501e-01
1.37170e+03,3.43640e+01,-7.98159e+00,-1.89128e-01,1.42409e-01,3.10823e-01
1.37170e+03,3.40757e+01,-1.06421e+01,-1.94808e-01,1.40621e-01,3.11886e-01
1.37170e+03,3.37754e+01,-1.33027e+01,-2.00356e-01,1.38799e-01,3.12951e-01
1.37170e+03,3.34357e+01,-1.59632e+01,-2.05463e-01,1.36947e-01,3.13813e-01
1.37170e+03,3.30768e+01,-1.86237e+01,-2.10357e-01,1.35067e-01,3.14610e-01
1.37170e+03,3.26861e+01,-2.12842e+01,-2.14897e-01,1.33161e-01,3.15240e-01
1.37170e+03,3.22695e+01,-2.39448e+01,-2.19147e-01,1.31233e-01,3.15740e-01
1.37170e+03,3.18241e+01,-2.66053e+01,-2.23077e-01,1.29284e-01,3.16080e-01
1.37170e+03,3.13441e+01,-2.92658e+01,-2.26620e-01,1.27318e-01,3.16206e-01
1.37170e+03,3.08286e+01,-3.19264e+01,-2.29768e-01,1.25336e-01,3.16102e-01
1.37170e+03,3.02627e+01,-3.45869e+01,-2.32354e-01,1.23342e-01,3.15640e-01
1.37170e+03,2.96479e+01,-3.72474e+01,-2.34395e-01,1.21341e-01,3.14820e-01
1.37170e+03,2.89745e+01,-3.99080e+01,-2.35782e-01,1.19334e-01,3.13552e-01
1.37170e+03,2.82218e+01,-4.25685e+01,-2.36284e-01,1.17330e-01,3.11655e-01
1.37170e+03,2.74139e+01,-4.52290e+01,-2.36172e-01,1.15329e-01,3.09321e-01
1.37170e+03,2.64818e+01,-4.78895e+01,-2.34675e-01,1.13342e-01,3.05960e-01
1.37170e+03,2.54982e+01,-5.05501e+01,-2.32603e-01,1.11375e-01,3.02188e-01
1.37170e+03,2.43712e+01,-5.32106e+01,-2.28933e-01,1.09431e-01,2.97214e-01
1.37170e+03,2.31293e+01,-5.58711e+01,-2.23982e-01,1.07527e-01,2.91298e-01
1.37170e+03,2.17704e+01,-5.85317e+01,-2.17726e-01,1.05667e-01,2.84432e-01
1.37170e+03,2.02153e+01,-6.11922e+01,-2.09282e-01,1.03857e-01,2.75967e-01
1.37170e+03,1.84327e+01,-6.38527e+01,-1.98302e-01,1.02119e-01,2.65723e-01
1.37170e+03,1.63931e+01,-6.65133e+01,-1.84457e-01,1.00475e-01,2.53594e-01
1.37170e+03,1.39807e+01,-6.91738e+01,-1.66455e-01,9.89366e-02,2.38899e-01
1.37170e+03,1.08843e+01,-7.18343e+01,-1.40825e-01,9.75806e-02,2.19995e-01
1.37170e+03,6.69639e+00,-7.44949e+01,-1.03027e-01,9.67515e-02,1.96716e-01
1.37170e+03,-2.71333e+00,-7.71554e+01,-7.00626e-03,9.70792e-02,1.68292e-01
1.37170e+03,-3.39243e+00,-7.71616e+01,5.44943e-04,9.80981e-02,1.69912e-01
1.37170e+03,-9.57954e+00,-7.44058e+01,7.87437e-02,1.00031e-01,1.90313e-01
1.37170e+03,-1.03287e+01,-7.16500e+01,9.63100e-02,1.01459e-01,2.00393e-01
1.37170e+03,-1.05872e+01,-6.88942e+01,1.08406e-01,1.02961e-01,2.08698e-01
1.37170e+03,-1.06264e+01,-6.61385e+01,1.18057e-01,1.04534e-01,2.16147e-01
1.37170e+03,-1.05004e+01,-6.33827e+01,1.25867e-01,1.06163e-01,2.22833e-01
1.37170e+03,-1.02708e+01,-6.06269e+01,1.32520e-01,1.07841e-01,2.29021e-01
1.37170e+03,-9.93701e+00,-5.78712e+01,1.38013e-01,1.09556e-01,2.34639e-01
1.37170e+03,-9.53977e+00,-5.51154e+01,1.42797e-01,1.11302e-01,2.39907e-01
1.37170e+03,-9.10569e+00,-5.23596e+01,1.47172e-01,1.13072e-01,2.44980e-01
1.37170e+03,-8.61613e+00,-4.96039e+01,1.50927e-01,1.14863e-01,2.49718e-01
1.37170e+03,-8.09190e+00,-4.68481e+01,1.54296e-01,1.16669e-01,2.54248e-01
1.37170e+03,-7.53389e+00,-4.40923e+01,1.57288e-01,1.18487e-01,2.58567e-01
1.37170e+03,-6.94225e+00,-4.13365e+01,1.59905e-01,1.20313e-01,2.62669e-01
1.37170e+03,-6.32951e+00,-3.85808e+01,1.62287e-01,1.22143e-01,2.66635e-01
1.37170e+03,-5.68976e+00,-3.58250e+01,1.64368e-01,1.23976e-01,2.70420e-01
1.37170e+03,-5.03271e+00,-3.30692e+01,1.66256e-01,1.25809e-01,2.74088e-01
1.37170e+03,-4.36014e+00,-3.03135e+01,1.67971e-01,1.27638e-01,2.77649e-01
1.37170e+03,-3.67372e+00,-2.75577e+01,1.69531e-01,1.29463e-01,2.81110e-01
1.37170e+03,-2.98144e+00,-2.48019e+01,1.71027e-01,1.31282e-01,2.84526e-01
1.37170e+03,-2.28008e+00,-2.20462e+01,1.72420e-01,1.33094e-01,2.87873e-01
1.37170e+03,-1.57720e+00,-1.92904e+01,1.73797e-01,1.34898e-01,2.91201e-01
1.37170e+03,-8.68894e-01,-1.65346e+01,1.75114e-01,1.36694e-01,2.94483e-01
1.37170e+03,-1.60661e-01,-1.37788e+01,1.76431e-01,1.38481e-01,2.97756e-01
1.37170e+03,5.44895e-01,-1.10231e+01,1.77778e-01,1.40259e-01,3.01036e-01
1.37170e+03,1.25045e+00,-8.26731e+00,1.79125e-01,1.42027e-01,3.04304e-01
1.37170e+03,1.93930e+00,-5.51154e+00,1.80659e-01,1.43787e-01,3.07672e-01
1.37170e+03,2.62503e+00,-2.75577e+00,1.82227e-01,1.45540e-01,3.11050e-01
1.44960e+03,3.37597e+01,0.00000e+00,-1.31866e-01,1.28829e-01,2.59189e-01
1.44960e+03,3.35897e+01,-2.56538e+00,-1.37320e-01,1.27405e-01,2.59909e-01
1.44960e+03,3.33635e+01,-5.13077e+00,-1.42268e-01,1.25946e-01,2.60437e-01
1.44960e+03,3.31351e+01,-7.69615e+00,-1.47197e-01,1.24454e-01,2.61024e-01
1.44960e+03,3.28571e+01,-1.02615e+01,-1.51679e-01,1.22932e-01,2.61426e-01
1.44960e+03,3.25675e+01,-1.28269e+01,-1.56058e-01,1.21381e-01,2.61829e-01
1.44960e+03,3.22399e+01,-1.53923e+01,-1.60095e-01,1.19805e-01,2.62088e-01
1.44960e+03,3.18939e+01,-1.79577e+01,-1.63966e-01,1.18205e-01,2.62301e-01
1.44960e+03,3.15172e+01,-2.05231e+01,-1.67562e-01,1.16583e-01,2.62396e-01
1.44960e+03,3.11155e+01,-2.30885e+01,-1.70932e-01,1.14942e-01,2.62398e-01
1.44960e+03,3.06860e+01,-2.56538e+01,-1.74054e-01,1.13283e-01,2.62286e-01
1.44960e+03,3.02232e+01,-2.82192e+01,-1.76875e-01,1.11610e-01,2.62021e-01
1.44960e+03,2.97261e+01,-3.07846e+01,-1.79388e-01,1.09923e-01,2.61590e-01
1.44960e+03,2.91805e+01,-3.33500e+01,-1.81465e-01,1.08227e-01,2.60899e-01
1.44960e+03,2.85877e+01,-3.59154e+01,-1.83117e-01,1.06523e-01,2.59949e-01
1.44960e+03,2.79383e+01,-3.84808e+01,-1.84262e-01,1.04816e-01,2.58673e-01
1.44960e+03,2.72125e+01,-4.10462e+01,-1.84719e-01,1.03110e-01,2.56936e-01
1.44960e+03,2.64335e+01,-4.36115e+01,-1.84698e-01,1.01407e-01,2.54880e-01
1.44960e+03,2.55347e+01,-4.61769e+01,-1.83601e-01,9.97167e-02,2.52070e-01
1.44960e+03,2.45863e+01,-4.87423e+01,-1.82057e-01,9.80422e-02,2.48961e-01
1.44960e+03,2.34997e+01,-5.13077e+01,-1.79270e-01,9.63880e-02,2.44969e-01
1.44960e+03,2.23022e+01,-5.38731e+01,-1.75487e-01,9.47680e-02,2.40289e-01
1.44960e+03,2.09919e+01,-5.64385e+01,-1.70690e-01,9.31850e-02,2.34916e-01
1.44960e+03,1.94923e+01,-5.90039e+01,-1.64192e-01,9.16447e-02,2.28375e-01
1.44960e+03,1.77735e+01,-6.15692e+01,-1.55723e-01,9.01659e-02,2.20543e-01
1.44960e+03,1.58069e+01,-6.41346e+01,-1.45025e-01,8.87662e-02,2.11354e-01
1.44960e+03,1.34808e+01,-6.67000e+01,-1.31097e-01,8.74575e-02,2.00332e-01
1.44960e+03,1.04950e+01,-6.92654e+01,-1.11238e-01,8.63036e-02,1.86330e-01
1.44960e+03,6.45692e+00,-7.18308e+01,-8.19200e-02,8.55983e-02,1.69388e-01
1.44960e+03,-2.61629e+00,-7.43962e+01,-7.33889e-03,8.58774e-02,1.48925e-01
1.44960e+03,-3.27111e+00,-7.44021e+01,-1.46866e-03,8.67446e-02,1.50253e-01
1.44960e+03,-9.23696e+00,-7.17449e+01,5.93926e-02,8.83895e-02,1.64212e-01
1.44960e+03,-9.95928e+00,-6.90877e+01,7.31176e-02,8.96047e-02,1.71561e-01
1.44960e+03,-1.02085e+01,-6.64305e+01,8.25900e-02,9.08835e-02,1.77765e-01
1.44960e+03,-1.02464e+01,-6.37732e+01,9.01617e-02,9.22216e-02,1.83422e-01
1.44960e+03,-1.01249e+01,-6.11160e+01,9.63015e-02,9.36086e-02,1.88578e-01
1.44960e+03,-9.90345e+00,-5.84588e+01,1.01543e-01,9.50362e-02,1.93408e-01
1.44960e+03,-9.58164e+00,-5.58016e+01,1.05882e-01,9.64962e-02,1.97852e-01
1.44960e+03,-9.19861e+00,-5.31444e+01,1.09670e-01,9.79813e-02,2.02061e-01
1.44960e+03,-8.78006e+00,-5.04872e+01,1.13139e-01,9.94880e-02,2.06141e-01
1.44960e+03,-8.30801e+00,-4.78299e+01,1.16127e-01,1.01012e-01,2.09990e-01
1.44960e+03,-7.80252e+00,-4.51727e+01,1.18815e-01,1.02549e-01,2.13696e-01
1.44960e+03,-7.26447e+00,-4.25155e+01,1.21210e-01,1.04096e-01,2.17255e-01
1.44960e+03,-6.69398e+00,-3.98583e+01,1.23313e-01,1.05650e-01,2.20662e-01
1.44960e+03,-6.10316e+00,-3.72011e+01,1.25234e-01,1.07208e-01,2.23973e-01
1.44960e+03,-5.48628e+00,-3.45438e+01,1.26920e-01,1.08767e-01,2.27156e-01
1.44960e+03,-4.85273e+00,-3.18866e+01,1.28457e-01,1.10327e-01,2.30254e-01
1.44960e+03,-4.20421e+00,-2.92294e+01,1.29859e-01,1.11884e-01,2.33275e-01
1.44960e+03,-3.54234e+00,-2.65722e+01,1.31141e-01,1.13436e-01,2.36223e-01
1.44960e+03,-2.87482e+00,-2.39150e+01,1.32372e-01,1.14984e-01,2.39137e-01
1.44960e+03,-2.19854e+00,-2.12577e+01,1.33524e-01,1.16526e-01,2.41999e-01
1.44960e+03,-1.52080e+00,-1.86005e+01,1.34663e-01,1.18061e-01,2.44846e-01
1.44960e+03,-8.37821e-01,-1.59433e+01,1.35756e-01,1.19589e-01,2.47658e-01
1.44960e+03,-1.54916e-01,-1.32861e+01,1.36848e-01,1.21110e-01,2.50460e-01
1.44960e+03,5.25408e-01,-1.06289e+01,1.37964e-01,1.22623e-01,2.53265e-01
1.44960e+03,1.20573e+00,-7.97166e+00,1.39080e-01,1.24128e-01,2.56059e-01
1.44960e+03,1.86995e+00,-5.31444e+00,1.40341e-01,1.25625e-01,2.58922e-01
1.44960e+03,2.53116e+00,-2.65722e+00,1.41629e-01,1.27116e-01,2.61791e-01
1.52340e+03,3.25736e+01,0.00000e+00,-1.00008e-01,1.10535e-01,2.15998e-01
1.52340e+03,3.24095e+01,-2.47525e+00,-1.04195e-01,1.09343e-01,2.16159e-01
1.52340e+03,3.21913e+01,-4.95049e+00,-1.08000e-01,1.08123e-01,2.16184e-01
1.52340e+03,3.19709e+01,-7.42574e+00,-1.11790e-01,1.06875e-01,2.16249e-01
1.52340e+03,3.17026e+01,-9.90099e+00,-1.15241e-01,1.05601e-01,2.16183e-01
1.52340e+03,3.14232e+01,-1.23762e+01,-1.18614e-01,1.04304e-01,2.16118e-01
1.52340e+03,3.11072e+01,-1.48515e+01,-1.21728e-01,1.02985e-01,2.15952e-01
1.52340e+03,3.07733e+01,-1.73267e+01,-1.24715e-01,1.01646e-01,2.15753e-01
1.52340e+03,3.04098e+01,-1.98020e+01,-1.27494e-01,1.00289e-01,2.15472e-01
1.52340e+03,3.00222e+01,-2.22772e+01,-1.30102e-01,9.89157e-02,2.15126e-01
1.52340e+03,2.96079e+01,-2.47525e+01,-1.32521e-01,9.75280e-02,2.14702e-01
1.52340e+03,2.91613e+01,-2.72277e+01,-1.34712e-01,9.61277e-02,2.14170e-01
1.52340e+03,2.86816e+01,-2.97030e+01,-1.36669e-01,9.47166e-02,2.13523e-01
1.52340e+03,2.81552e+01,-3.21782e+01,-1.38296e-01,9.32971e-02,2.12694e-01
1.52340e+03,2.75832e+01,-3.46535e+01,-1.39601e-01,9.18720e-02,2.11683e-01
1.52340e+03,2.69567e+01,-3.71287e+01,-1.40520e-01,9.04433e-02,2.10442e-01
1.52340e+03,2.62564e+01,-3.96040e+01,-1.40918e-01,8.90162e-02,2.08877e-01
1.52340e+03,2.55047e+01,-4.20792e+01,-1.40953e-01,8.75916e-02,2.07086e-01
1.52340e+03,2.46375e+01,-4.45544e+01,-1.40172e-01,8.61772e-02,2.04762e-01
1.52340e+03,2.37225e+01,-4.70297e+01,-1.39052e-01,8.47762e-02,2.02229e-01
1.52340e+03,2.26740e+01,-4.95049e+01,-1.36989e-01,8.33923e-02,1.99070e-01
1.52340e+03,2.15185e+01,-5.19802e+01,-1.34170e-01,8.20370e-02,1.95427e-01
1.52340e+03,2.02543e+01,-5.44554e+01,-1.30583e-01,8.07126e-02,1.91299e-01
1.52340e+03,1.88075e+01,-5.69307e+01,-1.25704e-01,7.94240e-02,1.86349e-01
1.52340e+03,1.71490e+01,-5.94059e+01,-1.19331e-01,7.81868e-02,1.80497e-01
1.52340e+03,1.52515e+01,-6.18812e+01,-1.11267e-01,7.70159e-02,1.73709e-01
1.52340e+03,1.30071e+01,-6.43564e+01,-1.00752e-01,7.59210e-02,1.65659e-01
1.52340e+03,1.01263e+01,-6.68317e+01,-8.57394e-02,7.49557e-02,1.55584e-01
1.52340e+03,6.23005e+00,-6.93069e+01,-6.35502e-02,7.43659e-02,1.43630e-01
1.52340e+03,-2.52437e+00,-7.17822e+01,-7.02569e-03,7.45995e-02,1.29401e-01
1.52340e+03,-3.15618e+00,-7.17879e+01,-2.57279e-03,7.53251e-02,1.30492e-01
1.52340e+03,-8.91241e+00,-6.92241e+01,4.36481e-02,7.67014e-02,1.39837e-01
1.52340e+03,-9.60935e+00,-6.66602e+01,5.41125e-02,7.77182e-02,1.45081e-01
1.52340e+03,-9.84985e+00,-6.40963e+01,6.13510e-02,7.87881e-02,1.49622e-01
1.52340e+03,-9.88634e+00,-6.15325e+01,6.71477e-02,7.99077e-02,1.53833e-01
1.52340e+03,-9.76914e+00,-5.89686e+01,7.18581e-02,8.10681e-02,1.57733e-01
1.52340e+03,-9.55548e+00,-5.64048e+01,7.58868e-02,8.22625e-02,1.61432e-01
1.52340e+03,-9.24498e+00,-5.38409e+01,7.92311e-02,8.34840e-02,1.64883e-01
1.52340e+03,-8.87540e+00,-5.12771e+01,8.21579e-02,8.47266e-02,1.68184e-01
1.52340e+03,-8.47156e+00,-4.87132e+01,8.48425e-02,8.59871e-02,1.71405e-01
1.52340e+03,-8.01609e+00,-4.61494e+01,8.71622e-02,8.72620e-02,1.74474e-01
1.52340e+03,-7.52837e+00,-4.35855e+01,8.92540e-02,8.85478e-02,1.77450e-01
1.52340e+03,-7.00922e+00,-4.10217e+01,9.11237e-02,8.98421e-02,1.80328e-01
1.52340e+03,-6.45878e+00,-3.84578e+01,9.27722e-02,9.11420e-02,1.83105e-01
1.52340e+03,-5.88872e+00,-3.58940e+01,9.42820e-02,9.24455e-02,1.85816e-01
1.52340e+03,-5.29352e+00,-3.33301e+01,9.56142e-02,9.37504e-02,1.88440e-01
1.52340e+03,-4.68222e+00,-3.07662e+01,9.68326e-02,9.50548e-02,1.91005e-01
1.52340e+03,-4.05649e+00,-2.82024e+01,9.79490e-02,9.63573e-02,1.93515e-01
1.52340e+03,-3.41788e+00,-2.56385e+01,9.89744e-02,9.76564e-02,1.95975e-01
1.52340e+03,-2.77381e+00,-2.30747e+01,9.99612e-02,9.89513e-02,1.98409e-01
1.52340e+03,-2.12129e+00,-2.05108e+01,1.00888e-01,1.00241e-01,2.00807e-01
1.52340e+03,-1.46736e+00,-1.79470e+01,1.01805e-01,1.01525e-01,2.03191e-01
1.52340e+03,-8.08383e-01,-1.53831e+01,1.02687e-01,1.02804e-01,2.05549e-01
1.52340e+03,-1.49473e-01,-1.28193e+01,1.03569e-01,1.04076e-01,2.07898e-01
1.52340e+03,5.06948e-01,-1.02554e+01,1.04468e-01,1.05341e-01,2.10247e-01
1.52340e+03,1.16337e+00,-7.69156e+00,1.05368e-01,1.06600e-01,2.12587e-01
1.52340e+03,1.80424e+00,-5.12771e+00,1.06377e-01,1.07853e-01,2.14972e-01
1.52340e+03,2.44222e+00,-2.56385e+00,1.07407e-01,1.09101e-01,2.17359e-01
1.59310e+03,3.14533e+01,0.00000e+00,-7.37474e-02,9.31134e-02,1.77339e-01
1.59310e+03,3.12949e+01,-2.39012e+00,-7.68778e-02,9.21355e-02,1.77136e-01
1.59310e+03,3.10841e+01,-4.78023e+00,-7.97257e-02,9.11337e-02,1.76840e-01
1.59310e+03,3.08713e+01,-7.17035e+00,-8.25623e-02,9.01092e-02,1.76566e-01
1.59310e+03,3.06123e+01,-9.56047e+00,-8.51495e-02,8.90638e-02,1.76203e-01
1.59310e+03,3.03425e+01,-1.19506e+01,-8.76788e-02,8.79990e-02,1.75838e-01
1.59310e+03,3.00373e+01,-1.43407e+01,-9.00165e-02,8.69164e-02,1.75403e-01
1.59310e+03,2.97149e+01,-1.67308e+01,-9.22614e-02,8.58176e-02,1.74946e-01
1.59310e+03,2.93640e+01,-1.91209e+01,-9.43525e-02,8.47039e-02,1.74432e-01
1.59310e+03,2.89896e+01,-2.15111e+01,-9.63171e-02,8.35769e-02,1.73874e-01
1.59310e+03,2.85896e+01,-2.39012e+01,-9.81428e-02,8.24380e-02,1.73263e-01
1.59310e+03,2.81583e+01,-2.62913e+01,-9.98002e-02,8.12887e-02,1.72579e-01
1.59310e+03,2.76952e+01,-2.86814e+01,-1.01285e-01,8.01306e-02,1.71818e-01
1.59310e+03,2.71869e+01,-3.10715e+01,-1.02527e-01,7.89655e-02,1.70934e-01
1.59310e+03,2.66345e+01,-3.34616e+01,-1.03530e-01,7.77959e-02,1.69927e-01
1.59310e+03,2.60296e+01,-3.58518e+01,-1.04250e-01,7.66234e-02,1.68764e-01
1.59310e+03,2.53533e+01,-3.82419e+01,-1.04584e-01,7.54522e-02,1.67383e-01
1.59310e+03,2.46276e+01,-4.06320e+01,-1.04651e-01,7.42830e-02,1.65849e-01
1.59310e+03,2.37902e+01,-4.30221e+01,-1.04116e-01,7.31222e-02,1.63953e-01
1.59310e+03,2.29066e+01,-4.54122e+01,-1.03331e-01,7.19725e-02,1.61918e-01
1.59310e+03,2.18941e+01,-4.78023e+01,-1.01850e-01,7.08367e-02,1.59458e-01
1.59310e+03,2.07785e+01,-5.01925e+01,-9.98122e-02,6.97244e-02,1.56675e-01
1.59310e+03,1.95577e+01,-5.25826e+01,-9.72069e-02,6.86375e-02,1.53566e-01
1.59310e+03,1.81606e+01,-5.49727e+01,-9.36495e-02,6.75800e-02,1.49905e-01
1.59310e+03,1.65592e+01,-5.73628e+01,-8.89890e-02,6.65647e-02,1.45642e-01
1.59310e+03,1.47269e+01,-5.97529e+01,-8.30820e-02,6.56037e-02,1.40763e-01
1.59310e+03,1.25597e+01,-6.21430e+01,-7.53667e-02,6.47053e-02,1.35057e-01
1.59310e+03,9.77800e+00,-6.45332e+01,-6.43334e-02,6.39131e-02,1.28037e-01
1.59310e+03,6.01578e+00,-6.69233e+01,-4.80064e-02,6.34292e-02,1.19893e-01
1.59310e+03,-2.43755e+00,-6.93134e+01,-6.35152e-03,6.36210e-02,1.10378e-01
1.59310e+03,-3.04763e+00,-6.93189e+01,-3.06687e-03,6.42167e-02,1.11269e-01
1.59310e+03,-8.60589e+00,-6.68433e+01,3.10712e-02,6.53463e-02,1.17370e-01
1.59310e+03,-9.27886e+00,-6.43676e+01,3.88331e-02,6.61808e-02,1.21028e-01
1.59310e+03,-9.51109e+00,-6.18919e+01,4.42153e-02,6.70589e-02,1.24281e-01
1.59310e+03,-9.54632e+00,-5.94162e+01,4.85339e-02,6.79778e-02,1.27352e-01
1.59310e+03,-9.43315e+00,-5.69406e+01,5.20512e-02,6.89301e-02,1.30244e-01
1.59310e+03,-9.22684e+00,-5.44649e+01,5.50657e-02,6.99104e-02,1.33021e-01
1.59310e+03,-8.92702e+00,-5.19892e+01,5.75753e-02,7.09129e-02,1.35650e-01
1.59310e+03,-8.57016e+00,-4.95135e+01,5.97769e-02,7.19327e-02,1.38189e-01
1.59310e+03,-8.18020e+00,-4.70379e+01,6.17998e-02,7.29671e-02,1.40683e-01
1.59310e+03,-7.74040e+00,-4.45622e+01,6.35537e-02,7.40135e-02,1.43084e-01
1.59310e+03,-7.26945e+00,-4.20865e+01,6.51393e-02,7.50687e-02,1.45427e-01
1.59310e+03,-6.76816e+00,-3.96108e+01,6.65611e-02,7.61309e-02,1.47710e-01
1.59310e+03,-6.23665e+00,-3.71351e+01,6.78198e-02,7.71977e-02,1.49927e-01
1.59310e+03,-5.68619e+00,-3.46595e+01,6.89762e-02,7.82674e-02,1.52102e-01
1.59310e+03,-5.11146e+00,-3.21838e+01,7.00015e-02,7.93383e-02,1.54220e-01
1.59310e+03,-4.52119e+00,-2.97081e+01,7.09429e-02,8.04087e-02,1.56300e-01
1.59310e+03,-3.91698e+00,-2.72324e+01,7.18091e-02,8.14777e-02,1.58343e-01
1.59310e+03,-3.30033e+00,-2.47568e+01,7.26081e-02,8.25438e-02,1.60351e-01
1.59310e+03,-2.67841e+00,-2.22811e+01,7.33786e-02,8.36064e-02,1.62341e-01
1.59310e+03,-2.04833e+00,-1.98054e+01,7.41051e-02,8.46649e-02,1.64305e-01
1.59310e+03,-1.41689e+00,-1.73297e+01,7.48242e-02,8.57188e-02,1.66258e-01
1.59310e+03,-7.80581e-01,-1.48541e+01,7.55171e-02,8.67678e-02,1.68193e-01
1.59310e+03,-1.44332e-01,-1.23784e+01,7.62103e-02,8.78116e-02,1.70119e-01
1.59310e+03,4.89512e-01,-9.90271e+00,7.69164e-02,8.88502e-02,1.72044e-01
1.59310e+03,1.12336e+00,-7.42703e+00,7.76226e-02,8.98832e-02,1.73960e-01
1.59310e+03,1.74219e+00,-4.95135e+00,7.84098e-02,9.09113e-02,1.75905e-01
1.59310e+03,2.35823e+00,-2.47568e+00,7.92121e-02,9.19350e-02,1.77850e-01
1.65850e+03,3.04021e+01,0.00000e+00,-5.26716e-02,7.69195e-02,1.43262e-01
1.65850e+03,3.02490e+01,-2.31024e+00,-5.49415e-02,7.61314e-02,1.42852e-01
1.65850e+03,3.00453e+01,-4.62048e+00,-5.70095e-02,7.53242e-02,1.42377e-01
1.65850e+03,2.98396e+01,-6.93072e+00,-5.90695e-02,7.44986e-02,1.41913e-01
1.65850e+03,2.95892e+01,-9.24096e+00,-6.09512e-02,7.36562e-02,1.41389e-01
1.65850e+03,2.93285e+01,-1.15512e+01,-6.27916e-02,7.27981e-02,1.40860e-01
1.65850e+03,2.90335e+01,-1.38614e+01,-6.44951e-02,7.19258e-02,1.40284e-01
1.65850e+03,2.87218e+01,-1.61717e+01,-6.61323e-02,7.10403e-02,1.39691e-01
1.65850e+03,2.83826e+01,-1.84819e+01,-6.76595e-02,7.01429e-02,1.39061e-01
1.65850e+03,2.80208e+01,-2.07921e+01,-6.90964e-02,6.92348e-02,1.38400e-01
1.65850e+03,2.76341e+01,-2.31024e+01,-7.04340e-02,6.83170e-02,1.37705e-01
1.65850e+03,2.72173e+01,-2.54126e+01,-7.16514e-02,6.73910e-02,1.36962e-01
1.65850e+03,2.67696e+01,-2.77229e+01,-7.27456e-02,6.64578e-02,1.36168e-01
1.65850e+03,2.62783e+01,-3.00331e+01,-7.36656e-02,6.55190e-02,1.35295e-01
1.65850e+03,2.57444e+01,-3.23433e+01,-7.44157e-02,6.45766e-02,1.34343e-01
1.65850e+03,2.51597e+01,-3.46536e+01,-7.49628e-02,6.36318e-02,1.33291e-01
1.65850e+03,2.45060e+01,-3.69638e+01,-7.52350e-02,6.26880e-02,1.32097e-01
1.65850e+03,2.38045e+01,-3.92741e+01,-7.53159e-02,6.17460e-02,1.30806e-01
1.65850e+03,2.29951e+01,-4.15843e+01,-7.49664e-02,6.08106e-02,1.29282e-01
1.65850e+03,2.21410e+01,-4.38945e+01,-7.44384e-02,5.98842e-02,1.27669e-01
1.65850e+03,2.11624e+01,-4.62048e+01,-7.34135e-02,5.89691e-02,1.25784e-01
1.65850e+03,2.00840e+01,-4.85150e+01,-7.19902e-02,5.80728e-02,1.23693e-01
1.65850e+03,1.89041e+01,-5.08253e+01,-7.01616e-02,5.71971e-02,1.21397e-01
1.65850e+03,1.75537e+01,-5.31355e+01,-6.76526e-02,5.63450e-02,1.18748e-01
1.65850e+03,1.60058e+01,-5.54457e+01,-6.43554e-02,5.55269e-02,1.15721e-01
1.65850e+03,1.42348e+01,-5.77560e+01,-6.01674e-02,5.47527e-02,1.12311e-01
1.65850e+03,1.21400e+01,-6.00662e+01,-5.46874e-02,5.40288e-02,1.08388e-01
1.65850e+03,9.45122e+00,-6.23764e+01,-4.68364e-02,5.33906e-02,1.03660e-01
1.65850e+03,5.81473e+00,-6.46867e+01,-3.52027e-02,5.30008e-02,9.83183e-02
1.65850e+03,-2.35608e+00,-6.69969e+01,-5.47047e-03,5.31555e-02,9.22303e-02
1.65850e+03,-2.94577e+00,-6.70023e+01,-3.12345e-03,5.36355e-02,9.29518e-02
1.65850e+03,-8.31828e+00,-6.46093e+01,2.13048e-02,5.45457e-02,9.68483e-02
1.65850e+03,-8.96876e+00,-6.22164e+01,2.68853e-02,5.52182e-02,9.93476e-02
1.65850e+03,-9.19322e+00,-5.98235e+01,3.07655e-02,5.59258e-02,1.01635e-01
1.65850e+03,-9.22728e+00,-5.74305e+01,3.38856e-02,5.66662e-02,1.03834e-01
1.65850e+03,-9.11789e+00,-5.50376e+01,3.64332e-02,5.74336e-02,1.05940e-01
1.65850e+03,-8.91848e+00,-5.26447e+01,3.86215e-02,5.82234e-02,1.07989e-01
1.65850e+03,-8.62868e+00,-5.02517e+01,4.04489e-02,5.90312e-02,1.09955e-01
1.65850e+03,-8.28374e+00,-4.78588e+01,4.20563e-02,5.98529e-02,1.11874e-01
1.65850e+03,-7.90682e+00,-4.54658e+01,4.35361e-02,6.06864e-02,1.13771e-01
1.65850e+03,-7.48171e+00,-4.30729e+01,4.48235e-02,6.15295e-02,1.15615e-01
1.65850e+03,-7.02650e+00,-4.06800e+01,4.59908e-02,6.23798e-02,1.17426e-01
1.65850e+03,-6.54196e+00,-3.82870e+01,4.70410e-02,6.32357e-02,1.19202e-01
1.65850e+03,-6.02822e+00,-3.58941e+01,4.79746e-02,6.40952e-02,1.20939e-01
1.65850e+03,-5.49615e+00,-3.35011e+01,4.88351e-02,6.49571e-02,1.22650e-01
1.65850e+03,-4.94063e+00,-3.11082e+01,4.96020e-02,6.58199e-02,1.24327e-01
1.65850e+03,-4.37009e+00,-2.87153e+01,5.03089e-02,6.66824e-02,1.25979e-01
1.65850e+03,-3.78607e+00,-2.63223e+01,5.09620e-02,6.75437e-02,1.27607e-01
1.65850e+03,-3.19003e+00,-2.39294e+01,5.15672e-02,6.84027e-02,1.29213e-01
1.65850e+03,-2.58890e+00,-2.15364e+01,5.21520e-02,6.92588e-02,1.30806e-01
1.65850e+03,-1.97988e+00,-1.91435e+01,5.27053e-02,7.01116e-02,1.32381e-01
1.65850e+03,-1.36954e+00,-1.67506e+01,5.32534e-02,7.09608e-02,1.33949e-01
1.65850e+03,-7.54494e-01,-1.43576e+01,5.37827e-02,7.18060e-02,1.35502e-01
1.65850e+03,-1.39508e-01,-1.19647e+01,5.43122e-02,7.26469e-02,1.37049e-01
1.65850e+03,4.73153e-01,-9.57176e+00,5.48510e-02,7.34837e-02,1.38594e-01
1.65850e+03,1.08581e+00,-7.17882e+00,5.53898e-02,7.43160e-02,1.40131e-01
1.65850e+03,1.68397e+00,-4.78588e+00,5.59866e-02,7.51443e-02,1.41684e-01
1.65850e+03,2.27942e+00,-2.39294e+00,5.65941e-02,7.59690e-02,1.43237e-01
1.71930e+03,2.94249e+01,0.00000e+00,-3.62805e-02,6.17796e-02,1.12989e-01
1.71930e+03,2.92767e+01,-2.23598e+00,-3.78681e-02,6.11590e-02,1.12496e-01
1.71930e+03,2.90795e+01,-4.47196e+00,-3.93165e-02,6.05234e-02,1.11960e-01
1.71930e+03,2.88804e+01,-6.70794e+00,-4.07593e-02,5.98733e-02,1.11426e-01
1.71930e+03,2.86381e+01,-8.94392e+00,-4.20794e-02,5.92100e-02,1.10852e-01
1.71930e+03,2.83857e+01,-1.11799e+01,-4.33709e-02,5.85344e-02,1.10272e-01
1.71930e+03,2.81002e+01,-1.34159e+01,-4.45681e-02,5.78475e-02,1.09660e-01
1.71930e+03,2.77986e+01,-1.56519e+01,-4.57195e-02,5.71503e-02,1.09036e-01
1.71930e+03,2.74703e+01,-1.78878e+01,-4.67952e-02,5.64437e-02,1.08386e-01
1.71930e+03,2.71201e+01,-2.01238e+01,-4.78087e-02,5.57286e-02,1.07716e-01
1.71930e+03,2.67458e+01,-2.23598e+01,-4.87537e-02,5.50060e-02,1.07023e-01
1.71930e+03,2.63424e+01,-2.45958e+01,-4.96159e-02,5.42769e-02,1.06300e-01
1.71930e+03,2.59091e+01,-2.68317e+01,-5.03932e-02,5.35421e-02,1.05545e-01
1.71930e+03,2.54336e+01,-2.90677e+01,-5.10504e-02,5.28030e-02,1.04741e-01
1.71930e+03,2.49169e+01,-3.13037e+01,-5.15906e-02,5.20609e-02,1.03887e-01
1.71930e+03,2.43509e+01,-3.35397e+01,-5.19908e-02,5.13171e-02,1.02973e-01
1.71930e+03,2.37183e+01,-3.57757e+01,-5.22016e-02,5.05740e-02,1.01972e-01
1.71930e+03,2.30393e+01,-3.80116e+01,-5.22806e-02,4.98323e-02,1.00911e-01
1.71930e+03,2.22560e+01,-4.02476e+01,-5.20629e-02,4.90958e-02,9.97083e-02
1.71930e+03,2.14293e+01,-4.24836e+01,-5.17223e-02,4.83664e-02,9.84537e-02
1.71930e+03,2.04822e+01,-4.47196e+01,-5.10392e-02,4.76459e-02,9.70330e-02
1.71930e+03,1.94385e+01,-4.69556e+01,-5.00815e-02,4.69403e-02,9.54900e-02
1.71930e+03,1.82964e+01,-4.91915e+01,-4.88445e-02,4.62508e-02,9.38253e-02
1.71930e+03,1.69894e+01,-5.14275e+01,-4.71387e-02,4.55799e-02,9.19491e-02
1.71930e+03,1.54913e+01,-5.36635e+01,-4.48896e-02,4.49359e-02,8.98486e-02
1.71930e+03,1.37772e+01,-5.58995e+01,-4.20266e-02,4.43263e-02,8.75254e-02
1.71930e+03,1.17498e+01,-5.81355e+01,-3.82733e-02,4.37564e-02,8.49041e-02
1.71930e+03,9.14742e+00,-6.03714e+01,-3.28859e-02,4.32540e-02,8.18181e-02
1.71930e+03,5.62782e+00,-6.26074e+01,-2.48917e-02,4.29472e-02,7.84409e-02
1.71930e+03,-2.28035e+00,-6.48434e+01,-4.42481e-03,4.30690e-02,7.47288e-02
1.71930e+03,-2.85109e+00,-6.48486e+01,-2.80739e-03,4.34470e-02,7.53047e-02
1.71930e+03,-8.05090e+00,-6.25326e+01,1.40515e-02,4.41637e-02,7.77736e-02
1.71930e+03,-8.68047e+00,-6.02165e+01,1.79214e-02,4.46932e-02,7.94582e-02
1.71930e+03,-8.89772e+00,-5.79005e+01,2.06194e-02,4.52503e-02,8.10428e-02
1.71930e+03,-8.93068e+00,-5.55845e+01,2.27938e-02,4.58333e-02,8.25931e-02
1.71930e+03,-8.82481e+00,-5.32685e+01,2.45735e-02,4.64375e-02,8.41022e-02
1.71930e+03,-8.63181e+00,-5.09525e+01,2.61056e-02,4.70594e-02,8.55877e-02
1.71930e+03,-8.35132e+00,-4.86364e+01,2.73890e-02,4.76954e-02,8.70328e-02
1.71930e+03,-8.01747e+00,-4.63204e+01,2.85208e-02,4.83424e-02,8.84556e-02
1.71930e+03,-7.65266e+00,-4.40044e+01,2.95646e-02,4.89986e-02,8.98703e-02
1.71930e+03,-7.24122e+00,-4.16884e+01,3.04759e-02,4.96624e-02,9.12570e-02
1.71930e+03,-6.80064e+00,-3.93724e+01,3.13044e-02,5.03319e-02,9.26275e-02
1.71930e+03,-6.33168e+00,-3.70563e+01,3.20522e-02,5.10057e-02,9.39792e-02
1.71930e+03,-5.83445e+00,-3.47403e+01,3.27196e-02,5.16825e-02,9.53090e-02
1.71930e+03,-5.31949e+00,-3.24243e+01,3.33367e-02,5.23610e-02,9.66249e-02
1.71930e+03,-4.78182e+00,-3.01083e+01,3.38892e-02,5.30404e-02,9.79200e-02
1.71930e+03,-4.22962e+00,-2.77922e+01,3.44004e-02,5.37194e-02,9.92004e-02
1.71930e+03,-3.66437e+00,-2.54762e+01,3.48746e-02,5.43975e-02,1.00466e-01
1.71930e+03,-3.08749e+00,-2.31602e+01,3.53157e-02,5.50737e-02,1.01718e-01
1.71930e+03,-2.50568e+00,-2.08442e+01,3.57428e-02,5.57478e-02,1.02961e-01
1.71930e+03,-1.91624e+00,-1.85282e+01,3.61481e-02,5.64192e-02,1.04192e-01
1.71930e+03,-1.32552e+00,-1.62121e+01,3.65499e-02,5.70877e-02,1.05418e-01
1.71930e+03,-7.30242e-01,-1.38961e+01,3.69387e-02,5.77531e-02,1.06634e-01
1.71930e+03,-1.35024e-01,-1.15801e+01,3.73277e-02,5.84152e-02,1.07844e-01
1.71930e+03,4.57944e-01,-9.26408e+00,3.77230e-02,5.90739e-02,1.09051e-01
1.71930e+03,1.05091e+00,-6.94806e+00,3.81184e-02,5.97292e-02,1.10253e-01
1.71930e+03,1.62984e+00,-4.63204e+00,3.85537e-02,6.03812e-02,1.11463e-01
1.71930e+03,2.20615e+00,-2.31602e+00,3.89964e-02,6.10305e-02,1.12672e-01
1.77540e+03,2.77303e+01,0.00000e+00,-4.26602e-02,5.77900e-02,1.08807e-01
1.77540e+03,2.75906e+01,-2.10721e+00,-4.43366e-02,5.69616e-02,1.08165e-01
1.77540e+03,2.74048e+01,-4.21442e+00,-4.58481e-02,5.61129e-02,1.07462e-01
1.77540e+03,2.72172e+01,-6.32163e+00,-4.73530e-02,5.52448e-02,1.06763e-01
1.77540e+03,2.69888e+01,-8.42884e+00,-4.87122e-02,5.43588e-02,1.06007e-01
1.77540e+03,2.67510e+01,-1.05361e+01,-5.00378e-02,5.34563e-02,1.05245e-01
1.77540e+03,2.64819e+01,-1.26433e+01,-5.12515e-02,5.25385e-02,1.04439e-01
1.77540e+03,2.61977e+01,-1.47505e+01,-5.24110e-02,5.16068e-02,1.03618e-01
1.77540e+03,2.58883e+01,-1.68577e+01,-5.34807e-02,5.06624e-02,1.02763e-01
1.77540e+03,2.55583e+01,-1.89649e+01,-5.44766e-02,4.97066e-02,1.01882e-01
1.77540e+03,2.52056e+01,-2.10721e+01,-5.53915e-02,4.87406e-02,1.00971e-01
1.77540e+03,2.48254e+01,-2.31793e+01,-5.62081e-02,4.77657e-02,1.00020e-01
1.77540e+03,2.44171e+01,-2.52865e+01,-5.69241e-02,4.67831e-02,9.90270e-02
1.77540e+03,2.39689e+01,-2.73937e+01,-5.74978e-02,4.57946e-02,9.79665e-02
1.77540e+03,2.34819e+01,-2.95009e+01,-5.79328e-02,4.48021e-02,9.68394e-02
1.77540e+03,2.29486e+01,-3.16082e+01,-5.82019e-02,4.38069e-02,9.56274e-02
1.77540e+03,2.23524e+01,-3.37154e+01,-5.82464e-02,4.28128e-02,9.42945e-02
1.77540e+03,2.17125e+01,-3.58226e+01,-5.81348e-02,4.18203e-02,9.28788e-02
1.77540e+03,2.09743e+01,-3.79298e+01,-5.76715e-02,4.08348e-02,9.12603e-02
1.77540e+03,2.01952e+01,-4.00370e+01,-5.70625e-02,3.98586e-02,8.95670e-02
1.77540e+03,1.93026e+01,-4.21442e+01,-5.60476e-02,3.88941e-02,8.76333e-02
1.77540e+03,1.83190e+01,-4.42514e+01,-5.47072e-02,3.79495e-02,8.55182e-02
1.77540e+03,1.72428e+01,-4.63586e+01,-5.30358e-02,3.70262e-02,8.32203e-02
1.77540e+03,1.60110e+01,-4.84658e+01,-5.08086e-02,3.61278e-02,8.06050e-02
1.77540e+03,1.45992e+01,-5.05731e+01,-4.79376e-02,3.52651e-02,7.76459e-02
1.77540e+03,1.29838e+01,-5.26803e+01,-4.43390e-02,3.44484e-02,7.43372e-02
1.77540e+03,1.10731e+01,-5.47875e+01,-3.96850e-02,3.36845e-02,7.05608e-02
1.77540e+03,8.62063e+00,-5.68947e+01,-3.30943e-02,3.30105e-02,6.60629e-02
1.77540e+03,5.30372e+00,-5.90019e+01,-2.34137e-02,3.25971e-02,6.11222e-02
1.77540e+03,-2.14903e+00,-6.11091e+01,1.05014e-03,3.27581e-02,5.67485e-02
1.77540e+03,-2.68689e+00,-6.11140e+01,2.96768e-03,3.32626e-02,5.76889e-02
1.77540e+03,-7.58725e+00,-5.89314e+01,2.27372e-02,3.42202e-02,6.34827e-02
1.77540e+03,-8.18057e+00,-5.67487e+01,2.71114e-02,3.49281e-02,6.62943e-02
1.77540e+03,-8.38530e+00,-5.45661e+01,3.00967e-02,3.56731e-02,6.87279e-02
1.77540e+03,-8.41637e+00,-5.23834e+01,3.24612e-02,3.64528e-02,7.09941e-02
1.77540e+03,-8.31659e+00,-5.02008e+01,3.43580e-02,3.72611e-02,7.31140e-02
1.77540e+03,-8.13471e+00,-4.80181e+01,3.59614e-02,3.80932e-02,7.51432e-02
1.77540e+03,-7.87037e+00,-4.58355e+01,3.72700e-02,3.89443e-02,7.70651e-02
1.77540e+03,-7.55575e+00,-4.36529e+01,3.83988e-02,3.98102e-02,7.89242e-02
1.77540e+03,-7.21195e+00,-4.14702e+01,3.94234e-02,4.06887e-02,8.07522e-02
1.77540e+03,-6.82421e+00,-3.92876e+01,4.02909e-02,4.15774e-02,8.25190e-02
1.77540e+03,-6.40900e+00,-3.71049e+01,4.10602e-02,4.24738e-02,8.42497e-02
1.77540e+03,-5.96704e+00,-3.49223e+01,4.17339e-02,4.33762e-02,8.59430e-02
1.77540e+03,-5.49844e+00,-3.27396e+01,4.23124e-02,4.42826e-02,8.75967e-02
1.77540e+03,-5.01314e+00,-3.05570e+01,4.28311e-02,4.51916e-02,8.92264e-02
1.77540e+03,-4.50644e+00,-2.83744e+01,4.32734e-02,4.61017e-02,9.08223e-02
1.77540e+03,-3.98604e+00,-2.61917e+01,4.36667e-02,4.70116e-02,9.23962e-02
1.77540e+03,-3.45334e+00,-2.40091e+01,4.40161e-02,4.79203e-02,9.39494e-02
1.77540e+03,-2.90969e+00,-2.18264e+01,4.43263e-02,4.88268e-02,9.54829e-02
1.77540e+03,-2.36138e+00,-1.96438e+01,4.46199e-02,4.97304e-02,9.70066e-02
1.77540e+03,-1.80588e+00,-1.74611e+01,4.48877e-02,5.06306e-02,9.85154e-02
1.77540e+03,-1.24918e+00,-1.52785e+01,4.51513e-02,5.15271e-02,1.00019e-01
1.77540e+03,-6.88187e-01,-1.30959e+01,4.53995e-02,5.24195e-02,1.01511e-01
1.77540e+03,-1.27248e-01,-1.09132e+01,4.56479e-02,5.33076e-02,1.02999e-01
1.77540e+03,4.31571e-01,-8.73057e+00,4.59039e-02,5.41914e-02,1.04486e-01
1.77540e+03,9.90390e-01,-6.54793e+00,4.61599e-02,5.50706e-02,1.05967e-01
1.77540e+03,1.53598e+00,-4.36529e+00,4.64631e-02,5.59457e-02,1.07464e-01
1.77540e+03,2.07910e+00,-2.18264e+00,4.67752e-02,5.68172e-02,1.08961e-01
1.82660e+03,2.53092e+01,0.00000e+00,-2.90767e-02,4.73575e-02,8.70267e-02
1.82660e+03,2.51817e+01,-1.92323e+00,-3.02466e-02,4.67273e-02,8.64012e-02
1.82660e+03,2.50121e+01,-3.84646e+00,-3.13040e-02,4.60816e-02,8.57350e-02
1.82660e+03,2.48409e+01,-5.76969e+00,-3.23569e-02,4.54212e-02,8.50660e-02
1.82660e+03,2.46324e+01,-7.69292e+00,-3.33105e-02,4.47472e-02,8.43596e-02
1.82660e+03,2.44154e+01,-9.61614e+00,-3.42412e-02,4.40607e-02,8.36450e-02
1.82660e+03,2.41698e+01,-1.15394e+01,-3.50956e-02,4.33626e-02,8.29014e-02
1.82660e+03,2.39103e+01,-1.34626e+01,-3.59130e-02,4.26539e-02,8.21451e-02
1.82660e+03,2.36280e+01,-1.53858e+01,-3.66692e-02,4.19356e-02,8.13659e-02
1.82660e+03,2.33268e+01,-1.73091e+01,-3.73751e-02,4.12086e-02,8.05689e-02
1.82660e+03,2.30049e+01,-1.92323e+01,-3.80257e-02,4.04739e-02,7.97518e-02
1.82660e+03,2.26579e+01,-2.11555e+01,-3.86094e-02,3.97324e-02,7.89093e-02
1.82660e+03,2.22852e+01,-2.30787e+01,-3.91245e-02,3.89851e-02,7.80399e-02
1.82660e+03,2.18762e+01,-2.50020e+01,-3.95425e-02,3.82333e-02,7.71295e-02
1.82660e+03,2.14317e+01,-2.69252e+01,-3.98659e-02,3.74784e-02,7.61787e-02
1.82660e+03,2.09449e+01,-2.88484e+01,-4.00763e-02,3.67216e-02,7.51768e-02
1.82660e+03,2.04008e+01,-3.07717e+01,-4.01335e-02,3.59656e-02,7.41032e-02
1.82660e+03,1.98168e+01,-3.26949e+01,-4.00843e-02,3.52109e-02,7.29806e-02
1.82660e+03,1.91430e+01,-3.46181e+01,-3.97953e-02,3.44614e-02,7.17387e-02
1.82660e+03,1.84320e+01,-3.65413e+01,-3.94070e-02,3.37191e-02,7.04545e-02
1.82660e+03,1.76173e+01,-3.84646e+01,-3.87419e-02,3.29857e-02,6.90297e-02
1.82660e+03,1.67196e+01,-4.03878e+01,-3.78549e-02,3.22674e-02,6.75022e-02
1.82660e+03,1.57373e+01,-4.23110e+01,-3.67422e-02,3.15654e-02,6.58719e-02
1.82660e+03,1.46131e+01,-4.42343e+01,-3.52506e-02,3.08823e-02,6.40605e-02
1.82660e+03,1.33245e+01,-4.61575e+01,-3.33200e-02,3.02263e-02,6.20573e-02
1.82660e+03,1.18502e+01,-4.80807e+01,-3.08934e-02,2.96054e-02,5.98651e-02
1.82660e+03,1.01063e+01,-5.00040e+01,-2.77472e-02,2.90246e-02,5.74211e-02
1.82660e+03,7.86795e+00,-5.19272e+01,-2.32805e-02,2.85123e-02,5.45970e-02
1.82660e+03,4.84065e+00,-5.38504e+01,-1.67072e-02,2.81983e-02,5.16193e-02
1.82660e+03,-1.96139e+00,-5.57736e+01,-5.45956e-05,2.83210e-02,4.90534e-02
1.82660e+03,-2.45230e+00,-5.57781e+01,1.25272e-03,2.87047e-02,4.97339e-02
1.82660e+03,-6.92480e+00,-5.37860e+01,1.47594e-02,2.94331e-02,5.30733e-02
1.82660e+03,-7.46632e+00,-5.17940e+01,1.77696e-02,2.99715e-02,5.48692e-02
1.82660e+03,-7.65318e+00,-4.98019e+01,1.98329e-02,3.05381e-02,5.64896e-02
1.82660e+03,-7.68153e+00,-4.78098e+01,2.14728e-02,3.11311e-02,5.80390e-02
1.82660e+03,-7.59047e+00,-4.58177e+01,2.27939e-02,3.17458e-02,5.95227e-02
1.82660e+03,-7.42446e+00,-4.38257e+01,2.39149e-02,3.23786e-02,6.09675e-02
1.82660e+03,-7.18321e+00,-4.18336e+01,2.48349e-02,3.30258e-02,6.23609e-02
1.82660e+03,-6.89605e+00,-3.98415e+01,2.56324e-02,3.36842e-02,6.37252e-02
1.82660e+03,-6.58227e+00,-3.78494e+01,2.63588e-02,3.43522e-02,6.50770e-02
1.82660e+03,-6.22838e+00,-3.58574e+01,2.69781e-02,3.50279e-02,6.63980e-02
1.82660e+03,-5.84943e+00,-3.38653e+01,2.75305e-02,3.57095e-02,6.77011e-02
1.82660e+03,-5.44606e+00,-3.18732e+01,2.80177e-02,3.63957e-02,6.89849e-02
1.82660e+03,-5.01837e+00,-2.98811e+01,2.84399e-02,3.70848e-02,7.02473e-02
1.82660e+03,-4.57544e+00,-2.78891e+01,2.88215e-02,3.77759e-02,7.14964e-02
1.82660e+03,-4.11298e+00,-2.58970e+01,2.91509e-02,3.84679e-02,7.27262e-02
1.82660e+03,-3.63801e+00,-2.39049e+01,2.94469e-02,3.91596e-02,7.39429e-02
1.82660e+03,-3.15183e+00,-2.19128e+01,2.97129e-02,3.98505e-02,7.51468e-02
1.82660e+03,-2.65564e+00,-1.99208e+01,2.99522e-02,4.05396e-02,7.63381e-02
1.82660e+03,-2.15521e+00,-1.79287e+01,3.01802e-02,4.12265e-02,7.75224e-02
1.82660e+03,-1.64821e+00,-1.59366e+01,3.03907e-02,4.19108e-02,7.86966e-02
1.82660e+03,-1.14012e+00,-1.39445e+01,3.05983e-02,4.25923e-02,7.98659e-02
1.82660e+03,-6.28101e-01,-1.19525e+01,3.07953e-02,4.32707e-02,8.10272e-02
1.82660e+03,-1.16138e-01,-9.96038e+00,3.09925e-02,4.39457e-02,8.21840e-02
1.82660e+03,3.93890e-01,-7.96830e+00,3.11949e-02,4.46175e-02,8.33384e-02
1.82660e+03,9.03919e-01,-5.97623e+00,3.13973e-02,4.52858e-02,8.44878e-02
1.82660e+03,1.40187e+00,-3.98415e+00,3.16319e-02,4.59509e-02,8.56448e-02
1.82660e+03,1.89757e+00,-1.99208e+00,3.18725e-02,4.66133e-02,8.68001e-02
1.87280e+03,2.31244e+01,0.00000e+00,-1.86283e-02,3.78850e-02,6.82117e-02
1.87280e+03,2.30080e+01,-1.75721e+00,-1.94029e-02,3.74224e-02,6.76593e-02
1.87280e+03,2.28531e+01,-3.51443e+00,-2.01054e-02,3.69485e-02,6.70805e-02
1.87280e+03,2.26966e+01,-5.27164e+00,-2.08050e-02,3.64637e-02,6.64956e-02
1.87280e+03,2.25061e+01,-7.02886e+00,-2.14409e-02,3.59691e-02,6.58865e-02
1.87280e+03,2.23078e+01,-8.78607e+00,-2.20620e-02,3.54652e-02,6.52692e-02
1.87280e+03,2.20834e+01,-1.05433e+01,-2.26342e-02,3.49528e-02,6.46329e-02
1.87280e+03,2.18464e+01,-1.23005e+01,-2.31827e-02,3.44327e-02,6.39865e-02
1.87280e+03,2.15884e+01,-1.40577e+01,-2.36920e-02,3.39055e-02,6.33251e-02
1.87280e+03,2.13132e+01,-1.58149e+01,-2.41689e-02,3.33720e-02,6.26515e-02
1.87280e+03,2.10191e+01,-1.75721e+01,-2.46104e-02,3.28328e-02,6.19650e-02
1.87280e+03,2.07020e+01,-1.93294e+01,-2.50089e-02,3.22887e-02,6.12628e-02
1.87280e+03,2.03615e+01,-2.10866e+01,-2.53635e-02,3.17403e-02,6.05446e-02
1.87280e+03,1.99878e+01,-2.28438e+01,-2.56557e-02,3.11886e-02,5.98031e-02
1.87280e+03,1.95817e+01,-2.46010e+01,-2.58873e-02,3.06347e-02,5.90391e-02
1.87280e+03,1.91369e+01,-2.63582e+01,-2.60464e-02,3.00794e-02,5.82471e-02
1.87280e+03,1.86398e+01,-2.81154e+01,-2.61072e-02,2.95247e-02,5.74169e-02
1.87280e+03,1.81062e+01,-2.98726e+01,-2.60997e-02,2.89709e-02,5.65608e-02
1.87280e+03,1.74905e+01,-3.16299e+01,-2.59384e-02,2.84210e-02,5.56422e-02
1.87280e+03,1.68409e+01,-3.33871e+01,-2.57133e-02,2.78763e-02,5.47032e-02
1.87280e+03,1.60966e+01,-3.51443e+01,-2.53107e-02,2.73382e-02,5.36913e-02
1.87280e+03,1.52763e+01,-3.69015e+01,-2.47658e-02,2.68111e-02,5.26294e-02
1.87280e+03,1.43788e+01,-3.86587e+01,-2.40760e-02,2.62961e-02,5.15180e-02
1.87280e+03,1.33517e+01,-4.04159e+01,-2.31432e-02,2.57949e-02,5.03164e-02
1.87280e+03,1.21743e+01,-4.21731e+01,-2.19287e-02,2.53137e-02,4.90226e-02
1.87280e+03,1.08272e+01,-4.39304e+01,-2.03960e-02,2.48582e-02,4.76422e-02
1.87280e+03,9.23393e+00,-4.56876e+01,-1.84016e-02,2.44321e-02,4.61455e-02
1.87280e+03,7.18879e+00,-4.74448e+01,-1.55601e-02,2.40564e-02,4.44775e-02
1.87280e+03,4.42280e+00,-4.92020e+01,-1.13671e-02,2.38262e-02,4.28051e-02
1.87280e+03,-1.79208e+00,-5.09592e+01,-7.07764e-04,2.39164e-02,4.14305e-02
1.87280e+03,-2.24062e+00,-5.09633e+01,1.30883e-04,2.41981e-02,4.19126e-02
1.87280e+03,-6.32705e+00,-4.91432e+01,8.82103e-03,2.47327e-02,4.37371e-02
1.87280e+03,-6.82182e+00,-4.73231e+01,1.07772e-02,2.51278e-02,4.48371e-02
1.87280e+03,-6.99255e+00,-4.55029e+01,1.21258e-02,2.55436e-02,4.58744e-02
1.87280e+03,-7.01846e+00,-4.36828e+01,1.32028e-02,2.59787e-02,4.68934e-02
1.87280e+03,-6.93525e+00,-4.18627e+01,1.40753e-02,2.64297e-02,4.78927e-02
1.87280e+03,-6.78358e+00,-4.00426e+01,1.48194e-02,2.68940e-02,4.88823e-02
1.87280e+03,-6.56315e+00,-3.82225e+01,1.54346e-02,2.73689e-02,4.98538e-02
1.87280e+03,-6.30078e+00,-3.64024e+01,1.59712e-02,2.78520e-02,5.08162e-02
1.87280e+03,-6.01408e+00,-3.45822e+01,1.64622e-02,2.83421e-02,5.17767e-02
1.87280e+03,-5.69074e+00,-3.27621e+01,1.68844e-02,2.88379e-02,5.27253e-02
1.87280e+03,-5.34450e+00,-3.09420e+01,1.72638e-02,2.93379e-02,5.36673e-02
1.87280e+03,-4.97595e+00,-2.91219e+01,1.76013e-02,2.98413e-02,5.46014e-02
1.87280e+03,-4.58518e+00,-2.73018e+01,1.78971e-02,3.03469e-02,5.55258e-02
1.87280e+03,-4.18049e+00,-2.54816e+01,1.81668e-02,3.08539e-02,5.64440e-02
1.87280e+03,-3.75794e+00,-2.36615e+01,1.84031e-02,3.13615e-02,5.73525e-02
1.87280e+03,-3.32398e+00,-2.18414e+01,1.86179e-02,3.18690e-02,5.82540e-02
1.87280e+03,-2.87976e+00,-2.00213e+01,1.88136e-02,3.23757e-02,5.91483e-02
1.87280e+03,-2.42640e+00,-1.82012e+01,1.89921e-02,3.28812e-02,6.00352e-02
1.87280e+03,-1.96917e+00,-1.63811e+01,1.91633e-02,3.33851e-02,6.09174e-02
1.87280e+03,-1.50594e+00,-1.45609e+01,1.93233e-02,3.38871e-02,6.17931e-02
1.87280e+03,-1.04170e+00,-1.27408e+01,1.94814e-02,3.43869e-02,6.26650e-02
1.87280e+03,-5.73883e-01,-1.09207e+01,1.96327e-02,3.48845e-02,6.35313e-02
1.87280e+03,-1.06113e-01,-9.10059e+00,1.97842e-02,3.53796e-02,6.43938e-02
1.87280e+03,3.59890e-01,-7.28047e+00,1.99390e-02,3.58723e-02,6.52536e-02
1.87280e+03,8.25892e-01,-5.46035e+00,2.00938e-02,3.63624e-02,6.61093e-02
1.87280e+03,1.28086e+00,-3.64024e+00,2.02692e-02,3.68502e-02,6.69676e-02
1.87280e+03,1.73377e+00,-1.82012e+00,2.04486e-02,3.73360e-02,6.78238e-02
1.91380e+03,2.11856e+01,0.00000e+00,-1.10397e-02,2.92328e-02,5.18222e-02
1.91380e+03,2.10789e+01,-1.60989e+00,-1.15192e-02,2.89075e-02,5.13772e-02
1.91380e+03,2.09370e+01,-3.21977e+00,-1.19558e-02,2.85742e-02,5.09156e-02
1.91380e+03,2.07936e+01,-4.82966e+00,-1.23907e-02,2.82334e-02,5.04470e-02
1.91380e+03,2.06192e+01,-6.43954e+00,-1.27877e-02,2.78856e-02,4.99634e-02
1.91380e+03,2.04375e+01,-8.04943e+00,-1.31760e-02,2.75313e-02,4.94724e-02
1.91380e+03,2.02319e+01,-9.65931e+00,-1.35352e-02,2.71710e-02,4.89693e-02
1.91380e+03,2.00147e+01,-1.12692e+01,-1.38803e-02,2.68053e-02,4.84586e-02
1.91380e+03,1.97784e+01,-1.28791e+01,-1.42021e-02,2.64347e-02,4.79382e-02
1.91380e+03,1.95262e+01,-1.44890e+01,-1.45047e-02,2.60596e-02,4.74098e-02
1.91380e+03,1.92568e+01,-1.60989e+01,-1.47862e-02,2.56805e-02,4.68732e-02
1.91380e+03,1.89663e+01,-1.77087e+01,-1.50422e-02,2.52980e-02,4.63274e-02
1.91380e+03,1.86544e+01,-1.93186e+01,-1.52721e-02,2.49124e-02,4.57725e-02
1.91380e+03,1.83120e+01,-2.09285e+01,-1.54650e-02,2.45246e-02,4.52054e-02
1.91380e+03,1.79399e+01,-2.25384e+01,-1.56218e-02,2.41352e-02,4.46269e-02
1.91380e+03,1.75325e+01,-2.41483e+01,-1.57355e-02,2.37448e-02,4.40347e-02
1.91380e+03,1.70770e+01,-2.57582e+01,-1.57909e-02,2.33548e-02,4.34246e-02
1.91380e+03,1.65881e+01,-2.73680e+01,-1.58057e-02,2.29655e-02,4.28026e-02
1.91380e+03,1.60241e+01,-2.89779e+01,-1.57290e-02,2.25790e-02,4.21525e-02
1.91380e+03,1.54289e+01,-3.05878e+01,-1.56146e-02,2.21961e-02,4.14947e-02
1.91380e+03,1.47470e+01,-3.21977e+01,-1.53946e-02,2.18178e-02,4.08050e-02
1.91380e+03,1.39955e+01,-3.38076e+01,-1.50900e-02,2.14474e-02,4.00959e-02
1.91380e+03,1.31733e+01,-3.54175e+01,-1.46994e-02,2.10853e-02,3.93681e-02
1.91380e+03,1.22322e+01,-3.70274e+01,-1.41644e-02,2.07331e-02,3.86033e-02
1.91380e+03,1.11536e+01,-3.86372e+01,-1.34620e-02,2.03948e-02,3.78031e-02
1.91380e+03,9.91946e+00,-4.02471e+01,-1.25706e-02,2.00747e-02,3.69729e-02
1.91380e+03,8.45973e+00,-4.18570e+01,-1.14048e-02,1.97753e-02,3.61006e-02
1.91380e+03,6.58606e+00,-4.34669e+01,-9.73577e-03,1.95112e-02,3.51689e-02
1.91380e+03,4.05198e+00,-4.50768e+01,-7.26370e-03,1.93496e-02,3.42926e-02
1.91380e+03,-1.64183e+00,-4.66867e+01,-9.49630e-04,1.94131e-02,3.36379e-02
1.91380e+03,-2.05276e+00,-4.66904e+01,-4.51390e-04,1.96112e-02,3.39706e-02
1.91380e+03,-5.79657e+00,-4.50229e+01,4.73181e-03,1.99871e-02,3.49405e-02
1.91380e+03,-6.24986e+00,-4.33554e+01,5.91396e-03,2.02648e-02,3.55944e-02
1.91380e+03,-6.40628e+00,-4.16879e+01,6.73515e-03,2.05571e-02,3.62374e-02
1.91380e+03,-6.43001e+00,-4.00204e+01,7.39501e-03,2.08630e-02,3.68847e-02
1.91380e+03,-6.35378e+00,-3.83528e+01,7.93331e-03,2.11801e-02,3.75330e-02
1.91380e+03,-6.21483e+00,-3.66853e+01,8.39534e-03,2.15065e-02,3.81846e-02
1.91380e+03,-6.01288e+00,-3.50178e+01,8.78078e-03,2.18403e-02,3.88342e-02
1.91380e+03,-5.77251e+00,-3.33503e+01,9.11950e-03,2.21799e-02,3.94842e-02
1.91380e+03,-5.50985e+00,-3.16828e+01,9.43112e-03,2.25244e-02,4.01371e-02
1.91380e+03,-5.21362e+00,-3.00153e+01,9.70192e-03,2.28729e-02,4.07876e-02
1.91380e+03,-4.89640e+00,-2.83477e+01,9.94720e-03,2.32243e-02,4.14374e-02
1.91380e+03,-4.55876e+00,-2.66802e+01,1.01676e-02,2.35781e-02,4.20852e-02
1.91380e+03,-4.20075e+00,-2.50127e+01,1.03633e-02,2.39335e-02,4.27298e-02
1.91380e+03,-3.82998e+00,-2.33452e+01,1.05435e-02,2.42898e-02,4.33723e-02
1.91380e+03,-3.44287e+00,-2.16777e+01,1.07038e-02,2.46466e-02,4.40106e-02
1.91380e+03,-3.04529e+00,-2.00102e+01,1.08513e-02,2.50033e-02,4.46457e-02
1.91380e+03,-2.63832e+00,-1.83427e+01,1.09875e-02,2.53594e-02,4.52772e-02
1.91380e+03,-2.22297e+00,-1.66751e+01,1.11135e-02,2.57147e-02,4.59047e-02
1.91380e+03,-1.80407e+00,-1.50076e+01,1.12351e-02,2.60688e-02,4.65292e-02
1.91380e+03,-1.37967e+00,-1.33401e+01,1.13501e-02,2.64215e-02,4.71499e-02
1.91380e+03,-9.54362e-01,-1.16726e+01,1.14639e-02,2.67728e-02,4.77678e-02
1.91380e+03,-5.25768e-01,-1.00051e+01,1.15738e-02,2.71224e-02,4.83821e-02
1.91380e+03,-9.72161e-02,-8.33757e+00,1.16837e-02,2.74703e-02,4.89935e-02
1.91380e+03,3.29716e-01,-6.67006e+00,1.17955e-02,2.78166e-02,4.96026e-02
1.91380e+03,7.56647e-01,-5.00254e+00,1.19074e-02,2.81610e-02,5.02086e-02
1.91380e+03,1.17347e+00,-3.33503e+00,1.20316e-02,2.85037e-02,5.08148e-02
1.91380e+03,1.58841e+00,-1.66751e+00,1.21581e-02,2.88450e-02,5.14191e-02
1.94970e+03,1.94880e+01,0.00000e+00,-5.88418e-03,2.13764e-02,3.74896e-02
1.94970e+03,1.93899e+01,-1.48088e+00,-6.15469e-03,2.11608e-02,3.71648e-02
1.94970e+03,1.92593e+01,-2.96177e+00,-6.40225e-03,2.09400e-02,3.68298e-02
1.94970e+03,1.91274e+01,-4.44265e+00,-6.64890e-03,2.07141e-02,3.64887e-02
1.94970e+03,1.89669e+01,-5.92353e+00,-6.87530e-03,2.04836e-02,3.61387e-02
1.94970e+03,1.87998e+01,-7.40441e+00,-7.09700e-03,2.02488e-02,3.57828e-02
1.94970e+03,1.86107e+01,-8.88530e+00,-7.30315e-03,2.00101e-02,3.54196e-02
1.94970e+03,1.84109e+01,-1.03662e+01,-7.50176e-03,1.97678e-02,3.50510e-02
1.94970e+03,1.81935e+01,-1.18471e+01,-7.68788e-03,1.95222e-02,3.46764e-02
1.94970e+03,1.79616e+01,-1.33279e+01,-7.86374e-03,1.92737e-02,3.42966e-02
1.94970e+03,1.77137e+01,-1.48088e+01,-8.02832e-03,1.90225e-02,3.39119e-02
1.94970e+03,1.74465e+01,-1.62897e+01,-8.17924e-03,1.87690e-02,3.35220e-02
1.94970e+03,1.71596e+01,-1.77706e+01,-8.31617e-03,1.85136e-02,3.31272e-02
1.94970e+03,1.68446e+01,-1.92515e+01,-8.43329e-03,1.82566e-02,3.27266e-02
1.94970e+03,1.65024e+01,-2.07324e+01,-8.53112e-03,1.79986e-02,3.23207e-02
1.94970e+03,1.61276e+01,-2.22132e+01,-8.60589e-03,1.77400e-02,3.19089e-02
1.94970e+03,1.57086e+01,-2.36941e+01,-8.64941e-03,1.74816e-02,3.14902e-02
1.94970e+03,1.52589e+01,-2.51750e+01,-8.67121e-03,1.72237e-02,3.10669e-02
1.94970e+03,1.47401e+01,-2.66559e+01,-8.64411e-03,1.69676e-02,3.06336e-02
1.94970e+03,1.41926e+01,-2.81368e+01,-8.59673e-03,1.67139e-02,3.01988e-02
1.94970e+03,1.35653e+01,-2.96177e+01,-8.49289e-03,1.64633e-02,2.97532e-02
1.94970e+03,1.28740e+01,-3.10985e+01,-8.34379e-03,1.62179e-02,2.93033e-02
1.94970e+03,1.21177e+01,-3.25794e+01,-8.14864e-03,1.59781e-02,2.88496e-02
1.94970e+03,1.12521e+01,-3.40603e+01,-7.87618e-03,1.57447e-02,2.83853e-02
1.94970e+03,1.02599e+01,-3.55412e+01,-7.51418e-03,1.55207e-02,2.79130e-02
1.94970e+03,9.12460e+00,-3.70221e+01,-7.05096e-03,1.53086e-02,2.74368e-02
1.94970e+03,7.78184e+00,-3.85029e+01,-6.44096e-03,1.51103e-02,2.69527e-02
1.94970e+03,6.05831e+00,-3.99838e+01,-5.56157e-03,1.49354e-02,2.64600e-02
1.94970e+03,3.72729e+00,-4.14647e+01,-4.25241e-03,1.48284e-02,2.60332e-02
1.94970e+03,-1.51027e+00,-4.29456e+01,-8.86983e-04,1.48706e-02,2.57718e-02
1.94970e+03,-1.88827e+00,-4.29490e+01,-6.20354e-04,1.50018e-02,2.59914e-02
1.94970e+03,-5.33209e+00,-4.14151e+01,2.16812e-03,1.52509e-02,2.65042e-02
1.94970e+03,-5.74905e+00,-3.98812e+01,2.81521e-03,1.54349e-02,2.68819e-02
1.94970e+03,-5.89293e+00,-3.83473e+01,3.26911e-03,1.56286e-02,2.72662e-02
1.94970e+03,-5.91477e+00,-3.68135e+01,3.63666e-03,1.58313e-02,2.76607e-02
1.94970e+03,-5.84465e+00,-3.52796e+01,3.93916e-03,1.60414e-02,2.80623e-02
1.94970e+03,-5.71682e+00,-3.37457e+01,4.20084e-03,1.62576e-02,2.84706e-02
1.94970e+03,-5.53106e+00,-3.22118e+01,4.42153e-03,1.64787e-02,2.88825e-02
1.94970e+03,-5.30995e+00,-3.06779e+01,4.61721e-03,1.67037e-02,2.92978e-02
1.94970e+03,-5.06834e+00,-2.91440e+01,4.79839e-03,1.69319e-02,2.97169e-02
1.94970e+03,-4.79584e+00,-2.76101e+01,4.95771e-03,1.71628e-02,3.01374e-02
1.94970e+03,-4.50405e+00,-2.60762e+01,5.10339e-03,1.73956e-02,3.05592e-02
1.94970e+03,-4.19345e+00,-2.45423e+01,5.23577e-03,1.76300e-02,3.09817e-02
1.94970e+03,-3.86414e+00,-2.30084e+01,5.35489e-03,1.78654e-02,3.14037e-02
1.94970e+03,-3.52308e+00,-2.14745e+01,5.46572e-03,1.81014e-02,3.18255e-02
1.94970e+03,-3.16699e+00,-1.99406e+01,5.56590e-03,1.83378e-02,3.22459e-02
1.94970e+03,-2.80126e+00,-1.84067e+01,5.65928e-03,1.85740e-02,3.26651e-02
1.94970e+03,-2.42690e+00,-1.68728e+01,5.74654e-03,1.88099e-02,3.30826e-02
1.94970e+03,-2.04484e+00,-1.53389e+01,5.82835e-03,1.90452e-02,3.34982e-02
1.94970e+03,-1.65951e+00,-1.38050e+01,5.90785e-03,1.92798e-02,3.39121e-02
1.94970e+03,-1.26912e+00,-1.22712e+01,5.98378e-03,1.95134e-02,3.43238e-02
1.94970e+03,-8.77888e-01,-1.07373e+01,6.05910e-03,1.97460e-02,3.47337e-02
1.94970e+03,-4.83637e-01,-9.20336e+00,6.13230e-03,1.99776e-02,3.51414e-02
1.94970e+03,-8.94260e-02,-7.66947e+00,6.20551e-03,2.02080e-02,3.55472e-02
1.94970e+03,3.03295e-01,-6.13558e+00,6.27979e-03,2.04373e-02,3.59512e-02
1.94970e+03,6.96016e-01,-4.60168e+00,6.35406e-03,2.06654e-02,3.63532e-02
1.94970e+03,1.07944e+00,-3.06779e+00,6.43491e-03,2.08924e-02,3.67544e-02
1.94970e+03,1.46113e+00,-1.53389e+00,6.51699e-03,2.11185e-02,3.71542e-02
1.98010e+03,1.80504e+01,0.00000e+00,-2.73292e-03,1.46004e-02,2.54360e-02
1.98010e+03,1.79595e+01,-1.37164e+00,-2.86836e-03,1.44680e-02,2.52230e-02
1.98010e+03,1.78386e+01,-2.74329e+00,-2.99308e-03,1.43323e-02,2.50041e-02
1.98010e+03,1.77165e+01,-4.11493e+00,-3.11736e-03,1.41936e-02,2.47809e-02
1.98010e+03,1.75678e+01,-5.48657e+00,-3.23218e-03,1.40520e-02,2.45525e-02
1.98010e+03,1.74130e+01,-6.85822e+00,-3.34481e-03,1.39078e-02,2.43201e-02
1.98010e+03,1.72378e+01,-8.22986e+00,-3.45017e-03,1.37611e-02,2.40834e-02
1.98010e+03,1.70528e+01,-9.60150e+00,-3.55200e-03,1.36123e-02,2.38433e-02
1.98010e+03,1.68514e+01,-1.09731e+01,-3.64799e-03,1.34614e-02,2.35996e-02
1.98010e+03,1.66366e+01,-1.23448e+01,-3.73919e-03,1.33088e-02,2.33528e-02
1.98010e+03,1.64070e+01,-1.37164e+01,-3.82511e-03,1.31545e-02,2.31031e-02
1.98010e+03,1.61595e+01,-1.50881e+01,-3.90464e-03,1.29988e-02,2.28507e-02
1.98010e+03,1.58938e+01,-1.64597e+01,-3.97764e-03,1.28419e-02,2.25957e-02
1.98010e+03,1.56020e+01,-1.78314e+01,-4.04138e-03,1.26841e-02,2.23381e-02
1.98010e+03,1.52851e+01,-1.92030e+01,-4.09610e-03,1.25256e-02,2.20783e-02
1.98010e+03,1.49379e+01,-2.05747e+01,-4.14003e-03,1.23668e-02,2.18163e-02
1.98010e+03,1.45498e+01,-2.19463e+01,-4.16937e-03,1.22081e-02,2.15522e-02
1.98010e+03,1.41333e+01,-2.33179e+01,-4.18855e-03,1.20497e-02,2.12868e-02
1.98010e+03,1.36527e+01,-2.46896e+01,-4.18486e-03,1.18924e-02,2.10191e-02
1.98010e+03,1.31457e+01,-2.60612e+01,-4.17170e-03,1.17366e-02,2.07521e-02
1.98010e+03,1.25646e+01,-2.74329e+01,-4.13214e-03,1.15827e-02,2.04830e-02
1.98010e+03,1.19244e+01,-2.88045e+01,-4.07143e-03,1.14320e-02,2.02151e-02
1.98010e+03,1.12238e+01,-3.01762e+01,-3.98919e-03,1.12847e-02,1.99487e-02
1.98010e+03,1.04220e+01,-3.15478e+01,-3.87081e-03,1.11414e-02,1.96819e-02
1.98010e+03,9.50303e+00,-3.29194e+01,-3.71057e-03,1.10038e-02,1.94171e-02
1.98010e+03,8.45151e+00,-3.42911e+01,-3.50301e-03,1.08736e-02,1.91567e-02
1.98010e+03,7.20780e+00,-3.56627e+01,-3.22684e-03,1.07518e-02,1.89002e-02
1.98010e+03,5.61141e+00,-3.70344e+01,-2.82474e-03,1.06445e-02,1.86519e-02
1.98010e+03,3.45234e+00,-3.84060e+01,-2.22173e-03,1.05788e-02,1.84572e-02
1.98010e+03,-1.39886e+00,-3.97777e+01,-6.57473e-04,1.06047e-02,1.83797e-02
1.98010e+03,-1.74898e+00,-3.97808e+01,-5.32852e-04,1.06854e-02,1.85153e-02
1.98010e+03,-4.93876e+00,-3.83601e+01,7.79987e-04,1.08384e-02,1.87888e-02
1.98010e+03,-5.32496e+00,-3.69394e+01,1.09179e-03,1.09514e-02,1.89998e-02
1.98010e+03,-5.45823e+00,-3.55186e+01,1.31329e-03,1.10704e-02,1.92194e-02
1.98010e+03,-5.47846e+00,-3.40979e+01,1.49441e-03,1.11948e-02,1.94475e-02
1.98010e+03,-5.41351e+00,-3.26771e+01,1.64513e-03,1.13239e-02,1.96824e-02
1.98010e+03,-5.29511e+00,-3.12564e+01,1.77677e-03,1.14567e-02,1.99229e-02
1.98010e+03,-5.12305e+00,-2.98356e+01,1.88924e-03,1.15925e-02,2.01675e-02
1.98010e+03,-4.91825e+00,-2.84149e+01,1.99002e-03,1.17307e-02,2.04153e-02
1.98010e+03,-4.69446e+00,-2.69941e+01,2.08403e-03,1.18708e-02,2.06662e-02
1.98010e+03,-4.44207e+00,-2.55734e+01,2.16782e-03,1.20126e-02,2.09190e-02
1.98010e+03,-4.17180e+00,-2.41527e+01,2.24522e-03,1.21556e-02,2.11735e-02
1.98010e+03,-3.88412e+00,-2.27319e+01,2.31641e-03,1.22995e-02,2.14289e-02
1.98010e+03,-3.57909e+00,-2.13112e+01,2.38141e-03,1.24441e-02,2.16849e-02
1.98010e+03,-3.26320e+00,-1.98904e+01,2.44253e-03,1.25890e-02,2.19412e-02
1.98010e+03,-2.93337e+00,-1.84697e+01,2.49867e-03,1.27341e-02,2.21973e-02
1.98010e+03,-2.59462e+00,-1.70489e+01,2.55163e-03,1.28792e-02,2.24529e-02
1.98010e+03,-2.24788e+00,-1.56282e+01,2.60173e-03,1.30241e-02,2.27079e-02
1.98010e+03,-1.89400e+00,-1.42074e+01,2.64928e-03,1.31686e-02,2.29620e-02
1.98010e+03,-1.53709e+00,-1.27867e+01,2.69575e-03,1.33126e-02,2.32151e-02
1.98010e+03,-1.17550e+00,-1.13660e+01,2.74055e-03,1.34560e-02,2.34671e-02
1.98010e+03,-8.13129e-01,-9.94521e+00,2.78507e-03,1.35989e-02,2.37180e-02
1.98010e+03,-4.47961e-01,-8.52447e+00,2.82860e-03,1.37411e-02,2.39677e-02
1.98010e+03,-8.28294e-02,-7.10372e+00,2.87213e-03,1.38825e-02,2.42162e-02
1.98010e+03,2.80922e-01,-5.68298e+00,2.91616e-03,1.40233e-02,2.44636e-02
1.98010e+03,6.44673e-01,-4.26223e+00,2.96019e-03,1.41634e-02,2.47096e-02
1.98010e+03,9.99811e-01,-2.84149e+00,3.00729e-03,1.43027e-02,2.49549e-02
1.98010e+03,1.35334e+00,-1.42074e+00,3.05497e-03,1.44415e-02,2.51993e-02
2.00520e+03,1.68635e+01,0.00000e+00,-1.03348e-03,8.93573e-03,1.55116e-02
2.00520e+03,1.67786e+01,-1.28145e+00,-1.09020e-03,8.86323e-03,1.53902e-02
2.00520e+03,1.66656e+01,-2.56290e+00,-1.14283e-03,8.78897e-03,1.52658e-02
2.00520e+03,1.65515e+01,-3.84435e+00,-1.19530e-03,8.71302e-03,1.51387e-02
2.00520e+03,1.64126e+01,-5.12580e+00,-1.24415e-03,8.63552e-03,1.50088e-02
2.00520e+03,1.62680e+01,-6.40725e+00,-1.29216e-03,8.55658e-03,1.48767e-02
2.00520e+03,1.61044e+01,-7.68870e+00,-1.33740e-03,8.47632e-03,1.47422e-02
2.00520e+03,1.59315e+01,-8.97015e+00,-1.38128e-03,8.39486e-03,1.46058e-02
2.00520e+03,1.57433e+01,-1.02516e+01,-1.42294e-03,8.31229e-03,1.44675e-02
2.00520e+03,1.55427e+01,-1.15330e+01,-1.46276e-03,8.22874e-03,1.43275e-02
2.00520e+03,1.53282e+01,-1.28145e+01,-1.50057e-03,8.14430e-03,1.41859e-02
2.00520e+03,1.50970e+01,-1.40959e+01,-1.53594e-03,8.05909e-03,1.40430e-02
2.00520e+03,1.48486e+01,-1.53774e+01,-1.56881e-03,7.97322e-03,1.38988e-02
2.00520e+03,1.45761e+01,-1.66588e+01,-1.59814e-03,7.88684e-03,1.37536e-02
2.00520e+03,1.42800e+01,-1.79403e+01,-1.62403e-03,7.80012e-03,1.36075e-02
2.00520e+03,1.39556e+01,-1.92217e+01,-1.64580e-03,7.71319e-03,1.34606e-02
2.00520e+03,1.35931e+01,-2.05032e+01,-1.66198e-03,7.62634e-03,1.33134e-02
2.00520e+03,1.32039e+01,-2.17846e+01,-1.67429e-03,7.53965e-03,1.31660e-02
2.00520e+03,1.27550e+01,-2.30661e+01,-1.67786e-03,7.45358e-03,1.30186e-02
2.00520e+03,1.22812e+01,-2.43475e+01,-1.67781e-03,7.36833e-03,1.28721e-02
2.00520e+03,1.17384e+01,-2.56290e+01,-1.66767e-03,7.28411e-03,1.27262e-02
2.00520e+03,1.11403e+01,-2.69104e+01,-1.64945e-03,7.20163e-03,1.25822e-02
2.00520e+03,1.04858e+01,-2.81919e+01,-1.62301e-03,7.12103e-03,1.24403e-02
2.00520e+03,9.73672e+00,-2.94733e+01,-1.58275e-03,7.04261e-03,1.23004e-02
2.00520e+03,8.87814e+00,-3.07548e+01,-1.52651e-03,6.96732e-03,1.21639e-02
2.00520e+03,7.89577e+00,-3.20362e+01,-1.45218e-03,6.89606e-03,1.20323e-02
2.00520e+03,6.73385e+00,-3.33177e+01,-1.35164e-03,6.82943e-03,1.19059e-02
2.00520e+03,5.24243e+00,-3.45991e+01,-1.20298e-03,6.77068e-03,1.17887e-02
2.00520e+03,3.22533e+00,-3.58806e+01,-9.77552e-04,6.73477e-03,1.17058e-02
2.00520e+03,-1.30688e+00,-3.71620e+01,-3.84847e-04,6.74897e-03,1.16959e-02
2.00520e+03,-1.63397e+00,-3.71650e+01,-3.37243e-04,6.79312e-03,1.17709e-02
2.00520e+03,-4.61400e+00,-3.58377e+01,1.69535e-04,6.87686e-03,1.19123e-02
2.00520e+03,-4.97481e+00,-3.45104e+01,2.93829e-04,6.93872e-03,1.20218e-02
2.00520e+03,-5.09932e+00,-3.31830e+01,3.83616e-04,7.00383e-03,1.21371e-02
2.00520e+03,-5.11821e+00,-3.18557e+01,4.57980e-04,7.07195e-03,1.22575e-02
2.00520e+03,-5.05754e+00,-3.05284e+01,5.20724e-04,7.14257e-03,1.23822e-02
2.00520e+03,-4.94693e+00,-2.92011e+01,5.76177e-04,7.21524e-03,1.25104e-02
2.00520e+03,-4.78618e+00,-2.78738e+01,6.24308e-04,7.28957e-03,1.26413e-02
2.00520e+03,-4.59485e+00,-2.65464e+01,6.67973e-04,7.36519e-03,1.27744e-02
2.00520e+03,-4.38577e+00,-2.52191e+01,7.09047e-04,7.44189e-03,1.29092e-02
2.00520e+03,-4.14998e+00,-2.38918e+01,7.46219e-04,7.51947e-03,1.30455e-02
2.00520e+03,-3.89748e+00,-2.25645e+01,7.80952e-04,7.59772e-03,1.31828e-02
2.00520e+03,-3.62871e+00,-2.12371e+01,8.13310e-04,7.67649e-03,1.33209e-02
2.00520e+03,-3.34375e+00,-1.99098e+01,8.43301e-04,7.75559e-03,1.34595e-02
2.00520e+03,-3.04862e+00,-1.85825e+01,8.71809e-04,7.83491e-03,1.35984e-02
2.00520e+03,-2.74048e+00,-1.72552e+01,8.98417e-04,7.91432e-03,1.37374e-02
2.00520e+03,-2.42401e+00,-1.59279e+01,9.23808e-04,7.99370e-03,1.38763e-02
2.00520e+03,-2.10007e+00,-1.46005e+01,9.48108e-04,8.07297e-03,1.40149e-02
2.00520e+03,-1.76946e+00,-1.32732e+01,9.71434e-04,8.15203e-03,1.41531e-02
2.00520e+03,-1.43602e+00,-1.19459e+01,9.94348e-04,8.23083e-03,1.42909e-02
2.00520e+03,-1.09820e+00,-1.06186e+01,1.01662e-03,8.30933e-03,1.44280e-02
2.00520e+03,-7.59661e-01,-9.29125e+00,1.03879e-03,8.38749e-03,1.45646e-02
2.00520e+03,-4.18505e-01,-7.96393e+00,1.06058e-03,8.46528e-03,1.47006e-02
2.00520e+03,-7.73829e-02,-6.63661e+00,1.08237e-03,8.54269e-03,1.48359e-02
2.00520e+03,2.62450e-01,-5.30929e+00,1.10435e-03,8.61972e-03,1.49706e-02
2.00520e+03,6.02282e-01,-3.98196e+00,1.12633e-03,8.69634e-03,1.51046e-02
2.00520e+03,9.34067e-01,-2.65464e+00,1.14948e-03,8.77259e-03,1.52380e-02
2.00520e+03,1.26435e+00,-1.32732e+00,1.17286e-03,8.84851e-03,1.53709e-02
2.02480e+03,1.59367e+01,0.00000e+00,-2.86102e-04,4.64112e-03,8.04375e-03
2.02480e+03,1.58564e+01,-1.21102e+00,-3.04276e-04,4.60796e-03,7.98702e-03
2.02480e+03,1.57496e+01,-2.42204e+00,-3.21295e-04,4.57399e-03,7.92889e-03
2.02480e+03,1.56418e+01,-3.63306e+00,-3.38268e-04,4.53924e-03,7.86947e-03
2.02480e+03,1.55106e+01,-4.84408e+00,-3.54223e-04,4.50379e-03,7.80883e-03
2.02480e+03,1.53739e+01,-6.05509e+00,-3.69940e-04,4.46768e-03,7.74709e-03
2.02480e+03,1.52192e+01,-7.26611e+00,-3.84876e-04,4.43097e-03,7.68430e-03
2.02480e+03,1.50559e+01,-8.47713e+00,-3.99432e-04,4.39370e-03,7.62059e-03
2.02480e+03,1.48781e+01,-9.68815e+00,-4.13359e-04,4.35593e-03,7.55601e-03
2.02480e+03,1.46884e+01,-1.08992e+01,-4.26770e-04,4.31771e-03,7.49066e-03
2.02480e+03,1.44857e+01,-1.21102e+01,-4.39613e-04,4.27908e-03,7.42462e-03
2.02480e+03,1.42672e+01,-1.33212e+01,-4.51769e-04,4.24011e-03,7.35797e-03
2.02480e+03,1.40325e+01,-1.45322e+01,-4.63221e-04,4.20083e-03,7.29078e-03
2.02480e+03,1.37750e+01,-1.57432e+01,-4.73676e-04,4.16132e-03,7.22317e-03
2.02480e+03,1.34951e+01,-1.69543e+01,-4.83160e-04,4.12165e-03,7.15524e-03
2.02480e+03,1.31886e+01,-1.81653e+01,-4.91484e-04,4.08189e-03,7.08710e-03
2.02480e+03,1.28460e+01,-1.93763e+01,-4.98235e-04,4.04217e-03,7.01894e-03
2.02480e+03,1.24782e+01,-2.05873e+01,-5.03893e-04,4.00251e-03,6.95085e-03
2.02480e+03,1.20540e+01,-2.17983e+01,-5.07090e-04,3.96314e-03,6.88307e-03
2.02480e+03,1.16063e+01,-2.30094e+01,-5.09267e-04,3.92415e-03,6.81588e-03
2.02480e+03,1.10933e+01,-2.42204e+01,-5.08603e-04,3.88563e-03,6.74930e-03
2.02480e+03,1.05280e+01,-2.54314e+01,-5.05661e-04,3.84791e-03,6.68393e-03
2.02480e+03,9.90946e+00,-2.66424e+01,-5.00401e-04,3.81104e-03,6.61986e-03
2.02480e+03,9.20158e+00,-2.78534e+01,-4.91251e-04,3.77518e-03,6.55723e-03
2.02480e+03,8.39019e+00,-2.90645e+01,-4.77595e-04,3.74074e-03,6.49673e-03
2.02480e+03,7.46181e+00,-3.02755e+01,-4.58846e-04,3.70815e-03,6.43907e-03
2.02480e+03,6.36374e+00,-3.14865e+01,-4.32709e-04,3.67768e-03,6.38460e-03
2.02480e+03,4.95429e+00,-3.26975e+01,-3.93017e-04,3.65081e-03,6.33559e-03
2.02480e+03,3.04806e+00,-3.39085e+01,-3.31696e-04,3.63439e-03,6.30369e-03
2.02480e+03,-1.23505e+00,-3.51195e+01,-1.66898e-04,3.64089e-03,6.30842e-03
2.02480e+03,-1.54416e+00,-3.51224e+01,-1.53491e-04,3.66109e-03,6.34306e-03
2.02480e+03,-4.36041e+00,-3.38680e+01,-8.44128e-06,3.69940e-03,6.40755e-03
2.02480e+03,-4.70139e+00,-3.26136e+01,2.88470e-05,3.72770e-03,6.45663e-03
2.02480e+03,-4.81905e+00,-3.13592e+01,5.64131e-05,3.75748e-03,6.50839e-03
2.02480e+03,-4.83691e+00,-3.01049e+01,7.96340e-05,3.78864e-03,6.56260e-03
2.02480e+03,-4.77957e+00,-2.88505e+01,9.95812e-05,3.82094e-03,6.61881e-03
2.02480e+03,-4.67504e+00,-2.75961e+01,1.17474e-04,3.85418e-03,6.67667e-03
2.02480e+03,-4.52312e+00,-2.63418e+01,1.33304e-04,3.88818e-03,6.73585e-03
2.02480e+03,-4.34231e+00,-2.50874e+01,1.47876e-04,3.92277e-03,6.79604e-03
2.02480e+03,-4.14473e+00,-2.38330e+01,1.61718e-04,3.95785e-03,6.85710e-03
2.02480e+03,-3.92189e+00,-2.25787e+01,1.74460e-04,3.99333e-03,6.91886e-03
2.02480e+03,-3.68327e+00,-2.13243e+01,1.86515e-04,4.02912e-03,6.98114e-03
2.02480e+03,-3.42927e+00,-2.00699e+01,1.97901e-04,4.06515e-03,7.04382e-03
2.02480e+03,-3.15997e+00,-1.88155e+01,2.08621e-04,4.10133e-03,7.10677e-03
2.02480e+03,-2.88106e+00,-1.75612e+01,2.18922e-04,4.13760e-03,7.16989e-03
2.02480e+03,-2.58986e+00,-1.63068e+01,2.28688e-04,4.17392e-03,7.23306e-03
2.02480e+03,-2.29078e+00,-1.50524e+01,2.38111e-04,4.21023e-03,7.29622e-03
2.02480e+03,-1.98465e+00,-1.37981e+01,2.47227e-04,4.24648e-03,7.35928e-03
2.02480e+03,-1.67220e+00,-1.25437e+01,2.56068e-04,4.28264e-03,7.42217e-03
2.02480e+03,-1.35709e+00,-1.12893e+01,2.64794e-04,4.31868e-03,7.48486e-03
2.02480e+03,-1.03784e+00,-1.00350e+01,2.73339e-04,4.35458e-03,7.54730e-03
2.02480e+03,-7.17909e-01,-8.78059e+00,2.81854e-04,4.39032e-03,7.60948e-03
2.02480e+03,-3.95503e-01,-7.52622e+00,2.90261e-04,4.42590e-03,7.67138e-03
2.02480e+03,-7.31298e-02,-6.27185e+00,2.98670e-04,4.46130e-03,7.73297e-03
2.02480e+03,2.48025e-01,-5.01748e+00,3.07133e-04,4.49653e-03,7.79427e-03
2.02480e+03,5.69180e-01,-3.76311e+00,3.15595e-04,4.53156e-03,7.85524e-03
2.02480e+03,8.82730e-01,-2.50874e+00,3.24388e-04,4.56643e-03,7.91594e-03
2.02480e+03,1.19486e+00,-1.25437e+00,3.33243e-04,4.60115e-03,7.97639e-03
2.03880e+03,1.52746e+01,0.00000e+00,-4.76506e-05,1.82260e-03,3.15719e-03
2.03880e+03,1.51977e+01,-1.16071e+00,-5.14652e-05,1.81165e-03,3.13828e-03
2.03880e+03,1.50954e+01,-2.32142e+00,-5.50808e-05,1.80042e-03,3.11891e-03
2.03880e+03,1.49920e+01,-3.48213e+00,-5.86885e-05,1.78895e-03,3.09911e-03
2.03880e+03,1.48662e+01,-4.64285e+00,-6.21205e-05,1.77724e-03,3.07889e-03
2.03880e+03,1.47352e+01,-5.80356e+00,-6.55117e-05,1.76531e-03,3.05831e-03
2.03880e+03,1.45870e+01,-6.96427e+00,-6.87681e-05,1.75319e-03,3.03739e-03
2.03880e+03,1.44304e+01,-8.12498e+00,-7.19590e-05,1.74088e-03,3.01615e-03
2.03880e+03,1.42600e+01,-9.28569e+00,-7.50416e-05,1.72840e-03,2.99462e-03
2.03880e+03,1.40782e+01,-1.04464e+01,-7.80351e-05,1.71578e-03,2.97284e-03
2.03880e+03,1.38839e+01,-1.16071e+01,-8.09308e-05,1.70302e-03,2.95083e-03
2.03880e+03,1.36745e+01,-1.27678e+01,-8.37080e-05,1.69015e-03,2.92862e-03
2.03880e+03,1.34496e+01,-1.39285e+01,-8.63638e-05,1.67718e-03,2.90624e-03
2.03880e+03,1.32028e+01,-1.50892e+01,-8.88478e-05,1.66413e-03,2.88373e-03
2.03880e+03,1.29345e+01,-1.62500e+01,-9.11645e-05,1.65103e-03,2.86112e-03
2.03880e+03,1.26407e+01,-1.74107e+01,-9.32811e-05,1.63790e-03,2.83845e-03
2.03880e+03,1.23123e+01,-1.85714e+01,-9.51266e-05,1.62478e-03,2.81581e-03
2.03880e+03,1.19599e+01,-1.97321e+01,-9.67837e-05,1.61168e-03,2.79319e-03
2.03880e+03,1.15532e+01,-2.08928e+01,-9.80165e-05,1.59868e-03,2.77073e-03
2.03880e+03,1.11241e+01,-2.20535e+01,-9.90735e-05,1.58580e-03,2.74848e-03
2.03880e+03,1.06324e+01,-2.32142e+01,-9.96407e-05,1.57308e-03,2.72648e-03
2.03880e+03,1.00906e+01,-2.43749e+01,-9.98152e-05,1.56062e-03,2.70492e-03
2.03880e+03,9.49781e+00,-2.55357e+01,-9.95902e-05,1.54845e-03,2.68384e-03
2.03880e+03,8.81933e+00,-2.66964e+01,-9.86946e-05,1.53661e-03,2.66331e-03
2.03880e+03,8.04165e+00,-2.78571e+01,-9.70221e-05,1.52523e-03,2.64356e-03
2.03880e+03,7.15183e+00,-2.90178e+01,-9.44717e-05,1.51447e-03,2.62484e-03
2.03880e+03,6.09938e+00,-3.01785e+01,-9.06478e-05,1.50441e-03,2.60729e-03
2.03880e+03,4.74849e+00,-3.13392e+01,-8.44870e-05,1.49554e-03,2.59172e-03
2.03880e+03,2.92144e+00,-3.24999e+01,-7.45980e-05,1.49012e-03,2.58204e-03
2.03880e+03,-1.18374e+00,-3.36606e+01,-4.68707e-05,1.49227e-03,2.58510e-03
2.03880e+03,-1.48002e+00,-3.36633e+01,-4.45611e-05,1.49894e-03,2.59662e-03
2.03880e+03,-4.17927e+00,-3.24611e+01,-1.88504e-05,1.51159e-03,2.61822e-03
2.03880e+03,-4.50609e+00,-3.12588e+01,-1.17164e-05,1.52094e-03,2.63436e-03
2.03880e+03,-4.61886e+00,-3.00565e+01,-6.25823e-06,1.53077e-03,2.65138e-03
2.03880e+03,-4.63598e+00,-2.88543e+01,-1.54916e-06,1.54106e-03,2.66920e-03
2.03880e+03,-4.58102e+00,-2.76520e+01,2.59556e-06,1.55173e-03,2.68768e-03
2.03880e+03,-4.48083e+00,-2.64498e+01,6.38614e-06,1.56271e-03,2.70670e-03
2.03880e+03,-4.33523e+00,-2.52475e+01,9.82112e-06,1.57394e-03,2.72616e-03
2.03880e+03,-4.16192e+00,-2.40452e+01,1.30392e-05,1.58536e-03,2.74595e-03
2.03880e+03,-3.97255e+00,-2.28430e+01,1.61314e-05,1.59695e-03,2.76604e-03
2.03880e+03,-3.75897e+00,-2.16407e+01,1.90341e-05,1.60866e-03,2.78635e-03
2.03880e+03,-3.53026e+00,-2.04384e+01,2.18184e-05,1.62048e-03,2.80684e-03
2.03880e+03,-3.28682e+00,-1.92362e+01,2.44873e-05,1.63238e-03,2.82747e-03
2.03880e+03,-3.02870e+00,-1.80339e+01,2.70412e-05,1.64433e-03,2.84819e-03
2.03880e+03,-2.76138e+00,-1.68317e+01,2.95232e-05,1.65631e-03,2.86896e-03
2.03880e+03,-2.48228e+00,-1.56294e+01,3.19128e-05,1.66830e-03,2.88976e-03
2.03880e+03,-2.19562e+00,-1.44271e+01,3.42433e-05,1.68029e-03,2.91055e-03
2.03880e+03,-1.90220e+00,-1.32249e+01,3.65209e-05,1.69226e-03,2.93131e-03
2.03880e+03,-1.60274e+00,-1.20226e+01,3.87511e-05,1.70420e-03,2.95202e-03
2.03880e+03,-1.30072e+00,-1.08204e+01,4.09613e-05,1.71610e-03,2.97266e-03
2.03880e+03,-9.94731e-01,-9.61809e+00,4.31404e-05,1.72796e-03,2.99322e-03
2.03880e+03,-6.88086e-01,-8.41583e+00,4.53144e-05,1.73976e-03,3.01370e-03
2.03880e+03,-3.79073e-01,-7.21357e+00,4.74699e-05,1.75151e-03,3.03408e-03
2.03880e+03,-7.00919e-02,-6.01131e+00,4.96256e-05,1.76320e-03,3.05436e-03
2.03880e+03,2.37722e-01,-4.80905e+00,5.17904e-05,1.77483e-03,3.07454e-03
2.03880e+03,5.45535e-01,-3.60678e+00,5.39553e-05,1.78640e-03,3.09461e-03
2.03880e+03,8.46060e-01,-2.40452e+00,5.61772e-05,1.79792e-03,3.11459e-03
2.03880e+03,1.14523e+00,-1.20226e+00,5.84097e-05,1.80938e-03,3.13448e-03
2.04720e+03,1.48774e+01,0.00000e+00,-5.37135e-06,3.65580e-04,6.33225e-04
2.04720e+03,1.48025e+01,-1.13053e+00,-5.97573e-06,3.63997e-04,6.30489e-04
2.04720e+03,1.47028e+01,-2.26105e+00,-6.55616e-06,3.62375e-04,6.27687e-04
2.04720e+03,1.46021e+01,-3.39158e+00,-7.13562e-06,3.60717e-04,6.24821e-04
2.04720e+03,1.44796e+01,-4.52211e+00,-7.69394e-06,3.59025e-04,6.21897e-04
2.04720e+03,1.43520e+01,-5.65264e+00,-8.24735e-06,3.57301e-04,6.18919e-04
2.04720e+03,1.42077e+01,-6.78316e+00,-8.78452e-06,3.55549e-04,6.15892e-04
2.04720e+03,1.40552e+01,-7.91369e+00,-9.31382e-06,3.53770e-04,6.12819e-04
2.04720e+03,1.38892e+01,-9.04422e+00,-9.83007e-06,3.51968e-04,6.09705e-04
2.04720e+03,1.37121e+01,-1.01747e+01,-1.03356e-05,3.50144e-04,6.06555e-04
2.04720e+03,1.35229e+01,-1.13053e+01,-1.08294e-05,3.48300e-04,6.03371e-04
2.04720e+03,1.33189e+01,-1.24358e+01,-1.13088e-05,3.46440e-04,6.00159e-04
2.04720e+03,1.30998e+01,-1.35663e+01,-1.17737e-05,3.44566e-04,5.96922e-04
2.04720e+03,1.28594e+01,-1.46969e+01,-1.22179e-05,3.42680e-04,5.93665e-04
2.04720e+03,1.25982e+01,-1.58274e+01,-1.26419e-05,3.40787e-04,5.90396e-04
2.04720e+03,1.23120e+01,-1.69579e+01,-1.30419e-05,3.38889e-04,5.87119e-04
2.04720e+03,1.19922e+01,-1.80884e+01,-1.34092e-05,3.36994e-04,5.83844e-04
2.04720e+03,1.16489e+01,-1.92190e+01,-1.37538e-05,3.35102e-04,5.80576e-04
2.04720e+03,1.12528e+01,-2.03495e+01,-1.40474e-05,3.33223e-04,5.77330e-04
2.04720e+03,1.08348e+01,-2.14800e+01,-1.43198e-05,3.31362e-04,5.74114e-04
2.04720e+03,1.03559e+01,-2.26105e+01,-1.45332e-05,3.29524e-04,5.70937e-04
2.04720e+03,9.82823e+00,-2.37411e+01,-1.46993e-05,3.27724e-04,5.67824e-04
2.04720e+03,9.25081e+00,-2.48716e+01,-1.48174e-05,3.25965e-04,5.64782e-04
2.04720e+03,8.58998e+00,-2.60021e+01,-1.48547e-05,3.24253e-04,5.61819e-04
2.04720e+03,7.83252e+00,-2.71326e+01,-1.47984e-05,3.22610e-04,5.58973e-04
2.04720e+03,6.96585e+00,-2.82632e+01,-1.46365e-05,3.21055e-04,5.56276e-04
2.04720e+03,5.94077e+00,-2.93937e+01,-1.43213e-05,3.19601e-04,5.53750e-04
2.04720e+03,4.62500e+00,-3.05242e+01,-1.37247e-05,3.18319e-04,5.51516e-04
2.04720e+03,2.84547e+00,-3.16548e+01,-1.26792e-05,3.17536e-04,5.50135e-04
2.04720e+03,-1.15296e+00,-3.27853e+01,-9.48618e-06,3.17847e-04,5.50608e-04
2.04720e+03,-1.44153e+00,-3.27879e+01,-9.20845e-06,3.18811e-04,5.52273e-04
2.04720e+03,-4.07059e+00,-3.16169e+01,-5.96273e-06,3.20639e-04,5.55395e-04
2.04720e+03,-4.38891e+00,-3.04459e+01,-4.95351e-06,3.21990e-04,5.57725e-04
2.04720e+03,-4.49875e+00,-2.92749e+01,-4.14606e-06,3.23411e-04,5.60180e-04
2.04720e+03,-4.51542e+00,-2.81039e+01,-3.42880e-06,3.24898e-04,5.62751e-04
2.04720e+03,-4.46189e+00,-2.69329e+01,-2.77948e-06,3.26440e-04,5.65417e-04
2.04720e+03,-4.36430e+00,-2.57619e+01,-2.17279e-06,3.28026e-04,5.68162e-04
2.04720e+03,-4.22249e+00,-2.45909e+01,-1.60892e-06,3.29648e-04,5.70970e-04
2.04720e+03,-4.05369e+00,-2.34199e+01,-1.07116e-06,3.31299e-04,5.73828e-04
2.04720e+03,-3.86924e+00,-2.22489e+01,-5.48552e-07,3.32973e-04,5.76727e-04
2.04720e+03,-3.66121e+00,-2.10779e+01,-4.87613e-08,3.34666e-04,5.79659e-04
2.04720e+03,-3.43845e+00,-1.99069e+01,4.36769e-07,3.36374e-04,5.82617e-04
2.04720e+03,-3.20134e+00,-1.87359e+01,9.08409e-07,3.38093e-04,5.85595e-04
2.04720e+03,-2.94994e+00,-1.75649e+01,1.36621e-06,3.39820e-04,5.88587e-04
2.04720e+03,-2.68957e+00,-1.63940e+01,1.81534e-06,3.41551e-04,5.91586e-04
2.04720e+03,-2.41772e+00,-1.52230e+01,2.25336e-06,3.43284e-04,5.94589e-04
2.04720e+03,-2.13852e+00,-1.40520e+01,2.68427e-06,3.45016e-04,5.97591e-04
2.04720e+03,-1.85273e+00,-1.28810e+01,3.10879e-06,3.46746e-04,6.00590e-04
2.04720e+03,-1.56106e+00,-1.17100e+01,3.52762e-06,3.48471e-04,6.03580e-04
2.04720e+03,-1.26689e+00,-1.05390e+01,3.94404e-06,3.50191e-04,6.06561e-04
2.04720e+03,-9.68863e-01,-9.36797e+00,4.35672e-06,3.51904e-04,6.09531e-04
2.04720e+03,-6.70192e-01,-8.19698e+00,4.76878e-06,3.53609e-04,6.12488e-04
2.04720e+03,-3.69215e-01,-7.02598e+00,5.17860e-06,3.55307e-04,6.15431e-04
2.04720e+03,-6.82691e-02,-5.85498e+00,5.58846e-06,3.56996e-04,6.18360e-04
2.04720e+03,2.31540e-01,-4.68399e+00,5.99942e-06,3.58676e-04,6.21275e-04
2.04720e+03,5.31348e-01,-3.51299e+00,6.41037e-06,3.60348e-04,6.24174e-04
2.04720e+03,8.24058e-01,-2.34199e+00,6.82820e-06,3.62012e-04,6.27060e-04
2.04720e+03,1.11544e+00,-1.17100e+00,7.24731e-06,3.63668e-04,6.29933e-04
2.05000e+03,1.47450e+01,0.00000e+00,0.00000e+00,0.00000e+00,0.00000e+00
2.05000e+03,1.46708e+01,-1.12047e+00,0.00000e+00,0.00000e+00,0.00000e+00
2.05000e+03,1.45720e+01,-2.24093e+00,0.00000e+00,0.00000e+00,0.00000e+00
2.05000e+03,1.44722e+01,-3.36140e+00,0.00000e+00,0.00000e+00,0.00000e+00
2.05000e+03,1.43508e+01,-4.48186e+00,0.00000e+00,0.00000e+00,0.00000e+00
2.05000e+03,1.42243e+01,-5.60233e+00,0.00000e+00,0.00000e+00,0.00000e+00
2.05000e+03,1.40812e+01,-6.72279e+00,0.00000e+00,0.00000e+00,0.00000e+00
2.05000e+03,1.39301e+01,-7.84326e+00,0.00000e+00,0.00000e+00,0.00000e+00
2.05000e+03,1.37656e+01,-8.96372e+00,0.00000e+00,0.00000e+00,0.00000e+00
2.05000e+03,1.35901e+01,-1.00842e+01,0.00000e+00,0.00000e+00,0.00000e+00
2.05000e+03,1.34025e+01,-1.12047e+01,0.00000e+00,0.00000e+00,0.00000e+00
2.05000e+03,1.32004e+01,-1.23251e+01,0.00000e+00,0.00000e+00,0.00000e+00
2.05000e+03,1.29833e+01,-1.34456e+01,0.00000e+00,0.00000e+00,0.00000e+00
2.05000e+03,1.27450e+01,-1.45661e+01,0.00000e+00,0.00000e+00,0.00000e+00
2.05000e+03,1.24860e+01,-1.56865e+01,0.00000e+00,0.00000e+00,0.00000e+00
2.05000e+03,1.22024e+01,-1.68070e+01,0.00000e+00,0.00000e+00,0.00000e+00
2.05000e+03,1.18854e+01,-1.79274e+01,0.00000e+00,0.00000e+00,0.00000e+00
2.05000e+03,1.15452e+01,-1.90479e+01,0.00000e+00,0.00000e+00,0.00000e+00
2.05000e+03,1.11526e+01,-2.01684e+01,0.00000e+00,0.00000e+00,0.00000e+00
2.05000e+03,1.07384e+01,-2.12888e+01,0.00000e+00,0.00000e+00,0.00000e+00
2.05000e+03,1.02638e+01,-2.24093e+01,0.00000e+00,0.00000e+00,0.00000e+00
2.05000e+03,9.74076e+00,-2.35298e+01,0.00000e+00,0.00000e+00,0.00000e+00
2.05000e+03,9.16848e+00,-2.46502e+01,0.00000e+00,0.00000e+00,0.00000e+00
2.05000e+03,8.51353e+00,-2.57707e+01,0.00000e+00,0.00000e+00,0.00000e+00
2.05000e+03,7.76281e+00,-2.68912e+01,0.00000e+00,0.00000e+00,0.00000e+00
2.05000e+03,6.90385e+00,-2.80116e+01,0.00000e+00,0.00000e+00,0.00000e+00
2.05000e+03,5.88790e+00,-2.91321e+01,0.00000e+00,0.00000e+00,0.00000e+00
2.05000e+03,4.58384e+00,-3.02526e+01,0.00000e+00,0.00000e+00,0.00000e+00
2.05000e+03,2.82014e+00,-3.13730e+01,0.00000e+00,0.00000e+00,0.00000e+00
2.05000e+03,-1.14270e+00,-3.24935e+01,0.00000e+00,0.00000e+00,0.00000e+00
2.05000e+03,-1.42870e+00,-3.24961e+01,0.00000e+00,0.00000e+00,0.00000e+00
2.05000e+03,-4.03436e+00,-3.13355e+01,0.00000e+00,0.00000e+00,0.00000e+00
2.05000e+03,-4.34985e+00,-3.01749e+01,0.00000e+00,0.00000e+00,0.00000e+00
2.05000e+03,-4.45871e+00,-2.90144e+01,0.00000e+00,0.00000e+00,0.00000e+00
2.05000e+03,-4.47523e+00,-2.78538e+01,0.00000e+00,0.00000e+00,0.00000e+00
2.05000e+03,-4.42218e+00,-2.66932e+01,0.00000e+00,0.00000e+00,0.00000e+00
2.05000e+03,-4.32546e+00,-2.55327e+01,0.00000e+00,0.00000e+00,0.00000e+00
2.05000e+03,-4.18491e+00,-2.43721e+01,0.00000e+00,0.00000e+00,0.00000e+00
2.05000e+03,-4.01761e+00,-2.32115e+01,0.00000e+00,0.00000e+00,0.00000e+00
2.05000e+03,-3.83480e+00,-2.20509e+01,0.00000e+00,0.00000e+00,0.00000e+00
2.05000e+03,-3.62863e+00,-2.08903e+01,0.00000e+00,0.00000e+00,0.00000e+00
2.05000e+03,-3.40785e+00,-1.97298e+01,0.00000e+00,0.00000e+00,0.00000e+00
2.05000e+03,-3.17285e+00,-1.85692e+01,0.00000e+00,0.00000e+00,0.00000e+00
2.05000e+03,-2.92368e+00,-1.74086e+01,0.00000e+00,0.00000e+00,0.00000e+00
2.05000e+03,-2.66563e+00,-1.62480e+01,0.00000e+00,0.00000e+00,0.00000e+00
2.05000e+03,-2.39621e+00,-1.50875e+01,0.00000e+00,0.00000e+00,0.00000e+00
2.05000e+03,-2.11949e+00,-1.39269e+01,0.00000e+00,0.00000e+00,0.00000e+00
2.05000e+03,-1.83624e+00,-1.27663e+01,0.00000e+00,0.00000e+00,0.00000e+00
2.05000e+03,-1.54717e+00,-1.16057e+01,0.00000e+00,0.00000e+00,0.00000e+00
2.05000e+03,-1.25562e+00,-1.04452e+01,0.00000e+00,0.00000e+00,0.00000e+00
2.05000e+03,-9.60241e-01,-9.28460e+00,0.00000e+00,0.00000e+00,0.00000e+00
2.05000e+03,-6.64227e-01,-8.12402e+00,0.00000e+00,0.00000e+00,0.00000e+00
2.05000e+03,-3.65929e-01,-6.96345e+00,0.00000e+00,0.00000e+00,0.00000e+00
2.05000e+03,-6.76615e-02,-5.80287e+00,0.00000e+00,0.00000e+00,0.00000e+00
2.05000e+03,2.29479e-01,-4.64230e+00,0.00000e+00,0.00000e+00,0.00000e+00
2.05000e+03,5.26620e-01,-3.48173e+00,0.00000e+00,0.00000e+00,0.00000e+00
2.05000e+03,8.16724e-01,-2.32115e+00,0.00000e+00,0.00000e+00,0.00000e+00
2.05000e+03,1.10552e+00,-1.16058e+00,0.00000e+00,0.00000e+00,0.00000e+00
--------------------------------------------------------------------------------------------------------------------------------------------------------------------------------------------------------------------------------------------------------------------------------------------------------------------------------------------------------------------------------

LAMINADO 
--------------------------------------------------------------------------------------------------------------------------------------------------------------------------------------------------------------------------------------------------------------------------------------------------------------------------------------------------------------------------------
X,Y,Z,Sigma,Tau,Von Mises
0.00000e+00,4.31008e+01,0.00000e+00,0.00000e+00,0.00000e+00,0.00000e+00
0.00000e+00,4.28837e+01,-3.27521e+00,0.00000e+00,0.00000e+00,0.00000e+00
0.00000e+00,4.25950e+01,-6.55041e+00,0.00000e+00,0.00000e+00,0.00000e+00
0.00000e+00,4.23033e+01,-9.82562e+00,0.00000e+00,0.00000e+00,0.00000e+00
0.00000e+00,4.19484e+01,-1.31008e+01,0.00000e+00,0.00000e+00,0.00000e+00
0.00000e+00,4.15787e+01,-1.63760e+01,0.00000e+00,0.00000e+00,0.00000e+00
0.00000e+00,4.11605e+01,-1.96512e+01,0.00000e+00,0.00000e+00,0.00000e+00
0.00000e+00,4.07187e+01,-2.29264e+01,0.00000e+00,0.00000e+00,0.00000e+00
0.00000e+00,4.02378e+01,-2.62017e+01,0.00000e+00,0.00000e+00,0.00000e+00
0.00000e+00,3.97249e+01,-2.94769e+01,0.00000e+00,0.00000e+00,0.00000e+00
0.00000e+00,3.91766e+01,-3.27521e+01,0.00000e+00,0.00000e+00,0.00000e+00
0.00000e+00,3.85857e+01,-3.60273e+01,0.00000e+00,0.00000e+00,0.00000e+00
0.00000e+00,3.79511e+01,-3.93025e+01,0.00000e+00,0.00000e+00,0.00000e+00
0.00000e+00,3.72545e+01,-4.25777e+01,0.00000e+00,0.00000e+00,0.00000e+00
0.00000e+00,3.64976e+01,-4.58529e+01,0.00000e+00,0.00000e+00,0.00000e+00
0.00000e+00,3.56687e+01,-4.91281e+01,0.00000e+00,0.00000e+00,0.00000e+00
0.00000e+00,3.47420e+01,-5.24033e+01,0.00000e+00,0.00000e+00,0.00000e+00
0.00000e+00,3.37474e+01,-5.56785e+01,0.00000e+00,0.00000e+00,0.00000e+00
0.00000e+00,3.26000e+01,-5.89537e+01,0.00000e+00,0.00000e+00,0.00000e+00
0.00000e+00,3.13892e+01,-6.22289e+01,0.00000e+00,0.00000e+00,0.00000e+00
0.00000e+00,3.00018e+01,-6.55041e+01,0.00000e+00,0.00000e+00,0.00000e+00
0.00000e+00,2.84730e+01,-6.87793e+01,0.00000e+00,0.00000e+00,0.00000e+00
0.00000e+00,2.68002e+01,-7.20546e+01,0.00000e+00,0.00000e+00,0.00000e+00
0.00000e+00,2.48857e+01,-7.53298e+01,0.00000e+00,0.00000e+00,0.00000e+00
0.00000e+00,2.26913e+01,-7.86050e+01,0.00000e+00,0.00000e+00,0.00000e+00
0.00000e+00,2.01805e+01,-8.18802e+01,0.00000e+00,0.00000e+00,0.00000e+00
0.00000e+00,1.72108e+01,-8.51554e+01,0.00000e+00,0.00000e+00,0.00000e+00
0.00000e+00,1.33989e+01,-8.84306e+01,0.00000e+00,0.00000e+00,0.00000e+00
0.00000e+00,8.24350e+00,-9.17058e+01,0.00000e+00,0.00000e+00,0.00000e+00
0.00000e+00,-3.34020e+00,-9.49810e+01,0.00000e+00,0.00000e+00,0.00000e+00
0.00000e+00,-4.17620e+00,-9.49886e+01,0.00000e+00,0.00000e+00,0.00000e+00
0.00000e+00,-1.17928e+01,-9.15961e+01,0.00000e+00,0.00000e+00,0.00000e+00
0.00000e+00,-1.27149e+01,-8.82037e+01,0.00000e+00,0.00000e+00,0.00000e+00
0.00000e+00,-1.30332e+01,-8.48113e+01,0.00000e+00,0.00000e+00,0.00000e+00
0.00000e+00,-1.30814e+01,-8.14188e+01,0.00000e+00,0.00000e+00,0.00000e+00
0.00000e+00,-1.29264e+01,-7.80264e+01,0.00000e+00,0.00000e+00,0.00000e+00
0.00000e+00,-1.26437e+01,-7.46339e+01,0.00000e+00,0.00000e+00,0.00000e+00
0.00000e+00,-1.22328e+01,-7.12415e+01,0.00000e+00,0.00000e+00,0.00000e+00
0.00000e+00,-1.17438e+01,-6.78490e+01,0.00000e+00,0.00000e+00,0.00000e+00
0.00000e+00,-1.12094e+01,-6.44565e+01,0.00000e+00,0.00000e+00,0.00000e+00
0.00000e+00,-1.06068e+01,-6.10641e+01,0.00000e+00,0.00000e+00,0.00000e+00
0.00000e+00,-9.96142e+00,-5.76716e+01,0.00000e+00,0.00000e+00,0.00000e+00
0.00000e+00,-9.27449e+00,-5.42792e+01,0.00000e+00,0.00000e+00,0.00000e+00
0.00000e+00,-8.54615e+00,-5.08867e+01,0.00000e+00,0.00000e+00,0.00000e+00
0.00000e+00,-7.79185e+00,-4.74943e+01,0.00000e+00,0.00000e+00,0.00000e+00
0.00000e+00,-7.00429e+00,-4.41018e+01,0.00000e+00,0.00000e+00,0.00000e+00
0.00000e+00,-6.19544e+00,-4.07094e+01,0.00000e+00,0.00000e+00,0.00000e+00
0.00000e+00,-5.36748e+00,-3.73169e+01,0.00000e+00,0.00000e+00,0.00000e+00
0.00000e+00,-4.52248e+00,-3.39245e+01,0.00000e+00,0.00000e+00,0.00000e+00
0.00000e+00,-3.67026e+00,-3.05320e+01,0.00000e+00,0.00000e+00,0.00000e+00
0.00000e+00,-2.80686e+00,-2.71396e+01,0.00000e+00,0.00000e+00,0.00000e+00
0.00000e+00,-1.94159e+00,-2.37472e+01,0.00000e+00,0.00000e+00,0.00000e+00
0.00000e+00,-1.06964e+00,-2.03547e+01,0.00000e+00,0.00000e+00,0.00000e+00
0.00000e+00,-1.97780e-01,-1.69622e+01,0.00000e+00,0.00000e+00,0.00000e+00
0.00000e+00,6.70785e-01,-1.35698e+01,0.00000e+00,0.00000e+00,0.00000e+00
0.00000e+00,1.53935e+00,-1.01774e+01,0.00000e+00,0.00000e+00,0.00000e+00
0.00000e+00,2.38735e+00,-6.78490e+00,0.00000e+00,0.00000e+00,0.00000e+00
0.00000e+00,3.23151e+00,-3.39245e+00,0.00000e+00,0.00000e+00,0.00000e+00
1.07300e+02,4.26785e+01,0.00000e+00,0.00000e+00,0.00000e+00,0.00000e+00
1.07300e+02,4.24636e+01,-3.24312e+00,0.00000e+00,0.00000e+00,0.00000e+00
1.07300e+02,4.21777e+01,-6.48624e+00,0.00000e+00,0.00000e+00,0.00000e+00
1.07300e+02,4.18889e+01,-9.72936e+00,0.00000e+00,0.00000e+00,0.00000e+00
1.07300e+02,4.15374e+01,-1.29725e+01,0.00000e+00,0.00000e+00,0.00000e+00
1.07300e+02,4.11714e+01,-1.62156e+01,0.00000e+00,0.00000e+00,0.00000e+00
1.07300e+02,4.07572e+01,-1.94587e+01,0.00000e+00,0.00000e+00,0.00000e+00
1.07300e+02,4.03197e+01,-2.27018e+01,0.00000e+00,0.00000e+00,0.00000e+00
1.07300e+02,3.98436e+01,-2.59450e+01,0.00000e+00,0.00000e+00,0.00000e+00
1.07300e+02,3.93357e+01,-2.91881e+01,0.00000e+00,0.00000e+00,0.00000e+00
1.07300e+02,3.87928e+01,-3.24312e+01,0.00000e+00,0.00000e+00,0.00000e+00
1.07300e+02,3.82077e+01,-3.56743e+01,0.00000e+00,0.00000e+00,0.00000e+00
1.07300e+02,3.75793e+01,-3.89174e+01,0.00000e+00,0.00000e+00,0.00000e+00
1.07300e+02,3.68895e+01,-4.21606e+01,0.00000e+00,0.00000e+00,0.00000e+00
1.07300e+02,3.61401e+01,-4.54037e+01,0.00000e+00,0.00000e+00,0.00000e+00
1.07300e+02,3.53192e+01,-4.86468e+01,0.00000e+00,0.00000e+00,0.00000e+00
1.07300e+02,3.44016e+01,-5.18899e+01,0.00000e+00,0.00000e+00,0.00000e+00
1.07300e+02,3.34168e+01,-5.51330e+01,0.00000e+00,0.00000e+00,0.00000e+00
1.07300e+02,3.22806e+01,-5.83762e+01,0.00000e+00,0.00000e+00,0.00000e+00
1.07300e+02,3.10816e+01,-6.16193e+01,0.00000e+00,0.00000e+00,0.00000e+00
1.07300e+02,2.97079e+01,-6.48624e+01,0.00000e+00,0.00000e+00,0.00000e+00
1.07300e+02,2.81940e+01,-6.81055e+01,0.00000e+00,0.00000e+00,0.00000e+00
1.07300e+02,2.65376e+01,-7.13486e+01,0.00000e+00,0.00000e+00,0.00000e+00
1.07300e+02,2.46419e+01,-7.45918e+01,0.00000e+00,0.00000e+00,0.00000e+00
1.07300e+02,2.24690e+01,-7.78349e+01,0.00000e+00,0.00000e+00,0.00000e+00
1.07300e+02,1.99828e+01,-8.10780e+01,0.00000e+00,0.00000e+00,0.00000e+00
1.07300e+02,1.70422e+01,-8.43211e+01,0.00000e+00,0.00000e+00,0.00000e+00
1.07300e+02,1.32676e+01,-8.75642e+01,0.00000e+00,0.00000e+00,0.00000e+00
1.07300e+02,8.16273e+00,-9.08074e+01,0.00000e+00,0.00000e+00,0.00000e+00
1.07300e+02,-3.30748e+00,-9.40505e+01,0.00000e+00,0.00000e+00,0.00000e+00
1.07300e+02,-4.13529e+00,-9.40580e+01,0.00000e+00,0.00000e+00,0.00000e+00
1.07300e+02,-1.16772e+01,-9.06988e+01,0.00000e+00,0.00000e+00,0.00000e+00
1.07300e+02,-1.25904e+01,-8.73396e+01,0.00000e+00,0.00000e+00,0.00000e+00
1.07300e+02,-1.29055e+01,-8.39804e+01,0.00000e+00,0.00000e+00,0.00000e+00
1.07300e+02,-1.29533e+01,-8.06211e+01,0.00000e+00,0.00000e+00,0.00000e+00
1.07300e+02,-1.27997e+01,-7.72619e+01,0.00000e+00,0.00000e+00,0.00000e+00
1.07300e+02,-1.25198e+01,-7.39027e+01,0.00000e+00,0.00000e+00,0.00000e+00
1.07300e+02,-1.21130e+01,-7.05435e+01,0.00000e+00,0.00000e+00,0.00000e+00
1.07300e+02,-1.16287e+01,-6.71843e+01,0.00000e+00,0.00000e+00,0.00000e+00
1.07300e+02,-1.10996e+01,-6.38251e+01,0.00000e+00,0.00000e+00,0.00000e+00
1.07300e+02,-1.05029e+01,-6.04659e+01,0.00000e+00,0.00000e+00,0.00000e+00
1.07300e+02,-9.86382e+00,-5.71066e+01,0.00000e+00,0.00000e+00,0.00000e+00
1.07300e+02,-9.18363e+00,-5.37474e+01,0.00000e+00,0.00000e+00,0.00000e+00
1.07300e+02,-8.46243e+00,-5.03882e+01,0.00000e+00,0.00000e+00,0.00000e+00
1.07300e+02,-7.71552e+00,-4.70290e+01,0.00000e+00,0.00000e+00,0.00000e+00
1.07300e+02,-6.93567e+00,-4.36698e+01,0.00000e+00,0.00000e+00,0.00000e+00
1.07300e+02,-6.13474e+00,-4.03106e+01,0.00000e+00,0.00000e+00,0.00000e+00
1.07300e+02,-5.31490e+00,-3.69514e+01,0.00000e+00,0.00000e+00,0.00000e+00
1.07300e+02,-4.47818e+00,-3.35921e+01,0.00000e+00,0.00000e+00,0.00000e+00
1.07300e+02,-3.63431e+00,-3.02329e+01,0.00000e+00,0.00000e+00,0.00000e+00
1.07300e+02,-2.77936e+00,-2.68737e+01,0.00000e+00,0.00000e+00,0.00000e+00
1.07300e+02,-1.92257e+00,-2.35145e+01,0.00000e+00,0.00000e+00,0.00000e+00
1.07300e+02,-1.05916e+00,-2.01553e+01,0.00000e+00,0.00000e+00,0.00000e+00
1.07300e+02,-1.95842e-01,-1.67961e+01,0.00000e+00,0.00000e+00,0.00000e+00
1.07300e+02,6.64213e-01,-1.34369e+01,0.00000e+00,0.00000e+00,0.00000e+00
1.07300e+02,1.52427e+00,-1.00776e+01,0.00000e+00,0.00000e+00,0.00000e+00
1.07300e+02,2.36396e+00,-6.71843e+00,0.00000e+00,0.00000e+00,0.00000e+00
1.07300e+02,3.19985e+00,-3.35921e+00,0.00000e+00,0.00000e+00,0.00000e+00
2.14300e+02,4.22575e+01,0.00000e+00,0.00000e+00,0.00000e+00,0.00000e+00
2.14300e+02,4.20447e+01,-3.21112e+00,0.00000e+00,0.00000e+00,0.00000e+00
2.14300e+02,4.17615e+01,-6.42224e+00,0.00000e+00,0.00000e+00,0.00000e+00
2.14300e+02,4.14756e+01,-9.63337e+00,0.00000e+00,0.00000e+00,0.00000e+00
2.14300e+02,4.11276e+01,-1.28445e+01,0.00000e+00,0.00000e+00,0.00000e+00
2.14300e+02,4.07652e+01,-1.60556e+01,0.00000e+00,0.00000e+00,0.00000e+00
2.14300e+02,4.03551e+01,-1.92667e+01,0.00000e+00,0.00000e+00,0.00000e+00
2.14300e+02,3.99219e+01,-2.24779e+01,0.00000e+00,0.00000e+00,0.00000e+00
2.14300e+02,3.94505e+01,-2.56890e+01,0.00000e+00,0.00000e+00,0.00000e+00
2.14300e+02,3.89476e+01,-2.89001e+01,0.00000e+00,0.00000e+00,0.00000e+00
2.14300e+02,3.84101e+01,-3.21112e+01,0.00000e+00,0.00000e+00,0.00000e+00
2.14300e+02,3.78307e+01,-3.53223e+01,0.00000e+00,0.00000e+00,0.00000e+00
2.14300e+02,3.72085e+01,-3.85335e+01,0.00000e+00,0.00000e+00,0.00000e+00
2.14300e+02,3.65256e+01,-4.17446e+01,0.00000e+00,0.00000e+00,0.00000e+00
2.14300e+02,3.57835e+01,-4.49557e+01,0.00000e+00,0.00000e+00,0.00000e+00
2.14300e+02,3.49707e+01,-4.81668e+01,0.00000e+00,0.00000e+00,0.00000e+00
2.14300e+02,3.40622e+01,-5.13780e+01,0.00000e+00,0.00000e+00,0.00000e+00
2.14300e+02,3.30871e+01,-5.45891e+01,0.00000e+00,0.00000e+00,0.00000e+00
2.14300e+02,3.19621e+01,-5.78002e+01,0.00000e+00,0.00000e+00,0.00000e+00
2.14300e+02,3.07750e+01,-6.10113e+01,0.00000e+00,0.00000e+00,0.00000e+00
2.14300e+02,2.94148e+01,-6.42224e+01,0.00000e+00,0.00000e+00,0.00000e+00
2.14300e+02,2.79159e+01,-6.74336e+01,0.00000e+00,0.00000e+00,0.00000e+00
2.14300e+02,2.62758e+01,-7.06447e+01,0.00000e+00,0.00000e+00,0.00000e+00
2.14300e+02,2.43988e+01,-7.38558e+01,0.00000e+00,0.00000e+00,0.00000e+00
2.14300e+02,2.22473e+01,-7.70669e+01,0.00000e+00,0.00000e+00,0.00000e+00
2.14300e+02,1.97856e+01,-8.02781e+01,0.00000e+00,0.00000e+00,0.00000e+00
2.14300e+02,1.68740e+01,-8.34892e+01,0.00000e+00,0.00000e+00,0.00000e+00
2.14300e+02,1.31367e+01,-8.67003e+01,0.00000e+00,0.00000e+00,0.00000e+00
2.14300e+02,8.08220e+00,-8.99114e+01,0.00000e+00,0.00000e+00,0.00000e+00
2.14300e+02,-3.27484e+00,-9.31226e+01,0.00000e+00,0.00000e+00,0.00000e+00
2.14300e+02,-4.09449e+00,-9.31300e+01,0.00000e+00,0.00000e+00,0.00000e+00
2.14300e+02,-1.15620e+01,-8.98039e+01,0.00000e+00,0.00000e+00,0.00000e+00
2.14300e+02,-1.24661e+01,-8.64779e+01,0.00000e+00,0.00000e+00,0.00000e+00
2.14300e+02,-1.27781e+01,-8.31518e+01,0.00000e+00,0.00000e+00,0.00000e+00
2.14300e+02,-1.28255e+01,-7.98257e+01,0.00000e+00,0.00000e+00,0.00000e+00
2.14300e+02,-1.26734e+01,-7.64996e+01,0.00000e+00,0.00000e+00,0.00000e+00
2.14300e+02,-1.23963e+01,-7.31736e+01,0.00000e+00,0.00000e+00,0.00000e+00
2.14300e+02,-1.19935e+01,-6.98475e+01,0.00000e+00,0.00000e+00,0.00000e+00
2.14300e+02,-1.15140e+01,-6.65214e+01,0.00000e+00,0.00000e+00,0.00000e+00
2.14300e+02,-1.09901e+01,-6.31954e+01,0.00000e+00,0.00000e+00,0.00000e+00
2.14300e+02,-1.03992e+01,-5.98693e+01,0.00000e+00,0.00000e+00,0.00000e+00
2.14300e+02,-9.76651e+00,-5.65432e+01,0.00000e+00,0.00000e+00,0.00000e+00
2.14300e+02,-9.09302e+00,-5.32171e+01,0.00000e+00,0.00000e+00,0.00000e+00
2.14300e+02,-8.37893e+00,-4.98911e+01,0.00000e+00,0.00000e+00,0.00000e+00
2.14300e+02,-7.63939e+00,-4.65650e+01,0.00000e+00,0.00000e+00,0.00000e+00
2.14300e+02,-6.86724e+00,-4.32389e+01,0.00000e+00,0.00000e+00,0.00000e+00
2.14300e+02,-6.07421e+00,-3.99129e+01,0.00000e+00,0.00000e+00,0.00000e+00
2.14300e+02,-5.26246e+00,-3.65868e+01,0.00000e+00,0.00000e+00,0.00000e+00
2.14300e+02,-4.43399e+00,-3.32607e+01,0.00000e+00,0.00000e+00,0.00000e+00
2.14300e+02,-3.59845e+00,-2.99346e+01,0.00000e+00,0.00000e+00,0.00000e+00
2.14300e+02,-2.75194e+00,-2.66086e+01,0.00000e+00,0.00000e+00,0.00000e+00
2.14300e+02,-1.90360e+00,-2.32825e+01,0.00000e+00,0.00000e+00,0.00000e+00
2.14300e+02,-1.04871e+00,-1.99564e+01,0.00000e+00,0.00000e+00,0.00000e+00
2.14300e+02,-1.93910e-01,-1.66304e+01,0.00000e+00,0.00000e+00,0.00000e+00
2.14300e+02,6.57660e-01,-1.33043e+01,0.00000e+00,0.00000e+00,0.00000e+00
2.14300e+02,1.50923e+00,-9.97821e+00,0.00000e+00,0.00000e+00,0.00000e+00
2.14300e+02,2.34063e+00,-6.65214e+00,0.00000e+00,0.00000e+00,0.00000e+00
2.14300e+02,3.16828e+00,-3.32607e+00,0.00000e+00,0.00000e+00,0.00000e+00
3.20700e+02,4.18388e+01,0.00000e+00,0.00000e+00,0.00000e+00,0.00000e+00
3.20700e+02,4.16280e+01,-3.17930e+00,0.00000e+00,0.00000e+00,0.00000e+00
3.20700e+02,4.13477e+01,-6.35861e+00,0.00000e+00,0.00000e+00,0.00000e+00
3.20700e+02,4.10646e+01,-9.53791e+00,0.00000e+00,0.00000e+00,0.00000e+00
3.20700e+02,4.07201e+01,-1.27172e+01,0.00000e+00,0.00000e+00,0.00000e+00
3.20700e+02,4.03613e+01,-1.58965e+01,0.00000e+00,0.00000e+00,0.00000e+00
3.20700e+02,3.99553e+01,-1.90758e+01,0.00000e+00,0.00000e+00,0.00000e+00
3.20700e+02,3.95264e+01,-2.22551e+01,0.00000e+00,0.00000e+00,0.00000e+00
3.20700e+02,3.90596e+01,-2.54344e+01,0.00000e+00,0.00000e+00,0.00000e+00
3.20700e+02,3.85617e+01,-2.86137e+01,0.00000e+00,0.00000e+00,0.00000e+00
3.20700e+02,3.80295e+01,-3.17930e+01,0.00000e+00,0.00000e+00,0.00000e+00
3.20700e+02,3.74559e+01,-3.49724e+01,0.00000e+00,0.00000e+00,0.00000e+00
3.20700e+02,3.68398e+01,-3.81517e+01,0.00000e+00,0.00000e+00,0.00000e+00
3.20700e+02,3.61637e+01,-4.13310e+01,0.00000e+00,0.00000e+00,0.00000e+00
3.20700e+02,3.54289e+01,-4.45103e+01,0.00000e+00,0.00000e+00,0.00000e+00
3.20700e+02,3.46242e+01,-4.76896e+01,0.00000e+00,0.00000e+00,0.00000e+00
3.20700e+02,3.37247e+01,-5.08689e+01,0.00000e+00,0.00000e+00,0.00000e+00
3.20700e+02,3.27593e+01,-5.40482e+01,0.00000e+00,0.00000e+00,0.00000e+00
3.20700e+02,3.16454e+01,-5.72275e+01,0.00000e+00,0.00000e+00,0.00000e+00
3.20700e+02,3.04701e+01,-6.04068e+01,0.00000e+00,0.00000e+00,0.00000e+00
3.20700e+02,2.91233e+01,-6.35861e+01,0.00000e+00,0.00000e+00,0.00000e+00
3.20700e+02,2.76393e+01,-6.67654e+01,0.00000e+00,0.00000e+00,0.00000e+00
3.20700e+02,2.60154e+01,-6.99447e+01,0.00000e+00,0.00000e+00,0.00000e+00
3.20700e+02,2.41570e+01,-7.31240e+01,0.00000e+00,0.00000e+00,0.00000e+00
3.20700e+02,2.20269e+01,-7.63033e+01,0.00000e+00,0.00000e+00,0.00000e+00
3.20700e+02,1.95896e+01,-7.94826e+01,0.00000e+00,0.00000e+00,0.00000e+00
3.20700e+02,1.67068e+01,-8.26619e+01,0.00000e+00,0.00000e+00,0.00000e+00
3.20700e+02,1.30066e+01,-8.58412e+01,0.00000e+00,0.00000e+00,0.00000e+00
3.20700e+02,8.00212e+00,-8.90205e+01,0.00000e+00,0.00000e+00,0.00000e+00
3.20700e+02,-3.24239e+00,-9.21998e+01,0.00000e+00,0.00000e+00,0.00000e+00
3.20700e+02,-4.05392e+00,-9.22072e+01,0.00000e+00,0.00000e+00,0.00000e+00
3.20700e+02,-1.14474e+01,-8.89141e+01,0.00000e+00,0.00000e+00,0.00000e+00
3.20700e+02,-1.23426e+01,-8.56210e+01,0.00000e+00,0.00000e+00,0.00000e+00
3.20700e+02,-1.26515e+01,-8.23279e+01,0.00000e+00,0.00000e+00,0.00000e+00
3.20700e+02,-1.26984e+01,-7.90348e+01,0.00000e+00,0.00000e+00,0.00000e+00
3.20700e+02,-1.25479e+01,-7.57416e+01,0.00000e+00,0.00000e+00,0.00000e+00
3.20700e+02,-1.22734e+01,-7.24485e+01,0.00000e+00,0.00000e+00,0.00000e+00
3.20700e+02,-1.18746e+01,-6.91554e+01,0.00000e+00,0.00000e+00,0.00000e+00
3.20700e+02,-1.13999e+01,-6.58623e+01,0.00000e+00,0.00000e+00,0.00000e+00
3.20700e+02,-1.08812e+01,-6.25692e+01,0.00000e+00,0.00000e+00,0.00000e+00
3.20700e+02,-1.02962e+01,-5.92761e+01,0.00000e+00,0.00000e+00,0.00000e+00
3.20700e+02,-9.66973e+00,-5.59829e+01,0.00000e+00,0.00000e+00,0.00000e+00
3.20700e+02,-9.00292e+00,-5.26898e+01,0.00000e+00,0.00000e+00,0.00000e+00
3.20700e+02,-8.29591e+00,-4.93967e+01,0.00000e+00,0.00000e+00,0.00000e+00
3.20700e+02,-7.56370e+00,-4.61036e+01,0.00000e+00,0.00000e+00,0.00000e+00
3.20700e+02,-6.79920e+00,-4.28105e+01,0.00000e+00,0.00000e+00,0.00000e+00
3.20700e+02,-6.01403e+00,-3.95174e+01,0.00000e+00,0.00000e+00,0.00000e+00
3.20700e+02,-5.21032e+00,-3.62243e+01,0.00000e+00,0.00000e+00,0.00000e+00
3.20700e+02,-4.39006e+00,-3.29311e+01,0.00000e+00,0.00000e+00,0.00000e+00
3.20700e+02,-3.56279e+00,-2.96380e+01,0.00000e+00,0.00000e+00,0.00000e+00
3.20700e+02,-2.72467e+00,-2.63449e+01,0.00000e+00,0.00000e+00,0.00000e+00
3.20700e+02,-1.88474e+00,-2.30518e+01,0.00000e+00,0.00000e+00,0.00000e+00
3.20700e+02,-1.03832e+00,-1.97587e+01,0.00000e+00,0.00000e+00,0.00000e+00
3.20700e+02,-1.91989e-01,-1.64656e+01,0.00000e+00,0.00000e+00,0.00000e+00
3.20700e+02,6.51143e-01,-1.31725e+01,0.00000e+00,0.00000e+00,0.00000e+00
3.20700e+02,1.49428e+00,-9.87934e+00,0.00000e+00,0.00000e+00,0.00000e+00
3.20700e+02,2.31744e+00,-6.58623e+00,0.00000e+00,0.00000e+00,0.00000e+00
3.20700e+02,3.13689e+00,-3.29311e+00,0.00000e+00,0.00000e+00,0.00000e+00
4.26200e+02,4.14236e+01,0.00000e+00,0.00000e+00,0.00000e+00,0.00000e+00
4.26200e+02,4.12150e+01,-3.14776e+00,0.00000e+00,0.00000e+00,0.00000e+00
4.26200e+02,4.09374e+01,-6.29551e+00,0.00000e+00,0.00000e+00,0.00000e+00
4.26200e+02,4.06571e+01,-9.44327e+00,0.00000e+00,0.00000e+00,0.00000e+00
4.26200e+02,4.03160e+01,-1.25910e+01,0.00000e+00,0.00000e+00,0.00000e+00
4.26200e+02,3.99607e+01,-1.57388e+01,0.00000e+00,0.00000e+00,0.00000e+00
4.26200e+02,3.95588e+01,-1.88865e+01,0.00000e+00,0.00000e+00,0.00000e+00
4.26200e+02,3.91341e+01,-2.20343e+01,0.00000e+00,0.00000e+00,0.00000e+00
4.26200e+02,3.86720e+01,-2.51820e+01,0.00000e+00,0.00000e+00,0.00000e+00
4.26200e+02,3.81790e+01,-2.83298e+01,0.00000e+00,0.00000e+00,0.00000e+00
4.26200e+02,3.76521e+01,-3.14776e+01,0.00000e+00,0.00000e+00,0.00000e+00
4.26200e+02,3.70842e+01,-3.46253e+01,0.00000e+00,0.00000e+00,0.00000e+00
4.26200e+02,3.64743e+01,-3.77731e+01,0.00000e+00,0.00000e+00,0.00000e+00
4.26200e+02,3.58048e+01,-4.09208e+01,0.00000e+00,0.00000e+00,0.00000e+00
4.26200e+02,3.50774e+01,-4.40686e+01,0.00000e+00,0.00000e+00,0.00000e+00
4.26200e+02,3.42806e+01,-4.72163e+01,0.00000e+00,0.00000e+00,0.00000e+00
4.26200e+02,3.33901e+01,-5.03641e+01,0.00000e+00,0.00000e+00,0.00000e+00
4.26200e+02,3.24342e+01,-5.35118e+01,0.00000e+00,0.00000e+00,0.00000e+00
4.26200e+02,3.13314e+01,-5.66596e+01,0.00000e+00,0.00000e+00,0.00000e+00
4.26200e+02,3.01677e+01,-5.98074e+01,0.00000e+00,0.00000e+00,0.00000e+00
4.26200e+02,2.88343e+01,-6.29551e+01,0.00000e+00,0.00000e+00,0.00000e+00
4.26200e+02,2.73650e+01,-6.61029e+01,0.00000e+00,0.00000e+00,0.00000e+00
4.26200e+02,2.57573e+01,-6.92506e+01,0.00000e+00,0.00000e+00,0.00000e+00
4.26200e+02,2.39173e+01,-7.23984e+01,0.00000e+00,0.00000e+00,0.00000e+00
4.26200e+02,2.18083e+01,-7.55461e+01,0.00000e+00,0.00000e+00,0.00000e+00
4.26200e+02,1.93952e+01,-7.86939e+01,0.00000e+00,0.00000e+00,0.00000e+00
4.26200e+02,1.65410e+01,-8.18417e+01,0.00000e+00,0.00000e+00,0.00000e+00
4.26200e+02,1.28775e+01,-8.49894e+01,0.00000e+00,0.00000e+00,0.00000e+00
4.26200e+02,7.92271e+00,-8.81372e+01,0.00000e+00,0.00000e+00,0.00000e+00
4.26200e+02,-3.21022e+00,-9.12849e+01,0.00000e+00,0.00000e+00,0.00000e+00
4.26200e+02,-4.01369e+00,-9.12922e+01,0.00000e+00,0.00000e+00,0.00000e+00
4.26200e+02,-1.13339e+01,-8.80318e+01,0.00000e+00,0.00000e+00,0.00000e+00
4.26200e+02,-1.22201e+01,-8.47713e+01,0.00000e+00,0.00000e+00,0.00000e+00
4.26200e+02,-1.25260e+01,-8.15109e+01,0.00000e+00,0.00000e+00,0.00000e+00
4.26200e+02,-1.25724e+01,-7.82505e+01,0.00000e+00,0.00000e+00,0.00000e+00
4.26200e+02,-1.24233e+01,-7.49900e+01,0.00000e+00,0.00000e+00,0.00000e+00
4.26200e+02,-1.21516e+01,-7.17296e+01,0.00000e+00,0.00000e+00,0.00000e+00
4.26200e+02,-1.17568e+01,-6.84692e+01,0.00000e+00,0.00000e+00,0.00000e+00
4.26200e+02,-1.12868e+01,-6.52087e+01,0.00000e+00,0.00000e+00,0.00000e+00
4.26200e+02,-1.07732e+01,-6.19483e+01,0.00000e+00,0.00000e+00,0.00000e+00
4.26200e+02,-1.01940e+01,-5.86879e+01,0.00000e+00,0.00000e+00,0.00000e+00
4.26200e+02,-9.57378e+00,-5.54274e+01,0.00000e+00,0.00000e+00,0.00000e+00
4.26200e+02,-8.91358e+00,-5.21670e+01,0.00000e+00,0.00000e+00,0.00000e+00
4.26200e+02,-8.21359e+00,-4.89065e+01,0.00000e+00,0.00000e+00,0.00000e+00
4.26200e+02,-7.48864e+00,-4.56461e+01,0.00000e+00,0.00000e+00,0.00000e+00
4.26200e+02,-6.73173e+00,-4.23857e+01,0.00000e+00,0.00000e+00,0.00000e+00
4.26200e+02,-5.95435e+00,-3.91252e+01,0.00000e+00,0.00000e+00,0.00000e+00
4.26200e+02,-5.15861e+00,-3.58648e+01,0.00000e+00,0.00000e+00,0.00000e+00
4.26200e+02,-4.34650e+00,-3.26044e+01,0.00000e+00,0.00000e+00,0.00000e+00
4.26200e+02,-3.52744e+00,-2.93439e+01,0.00000e+00,0.00000e+00,0.00000e+00
4.26200e+02,-2.69763e+00,-2.60835e+01,0.00000e+00,0.00000e+00,0.00000e+00
4.26200e+02,-1.86603e+00,-2.28231e+01,0.00000e+00,0.00000e+00,0.00000e+00
4.26200e+02,-1.02802e+00,-1.95626e+01,0.00000e+00,0.00000e+00,0.00000e+00
4.26200e+02,-1.90083e-01,-1.63022e+01,0.00000e+00,0.00000e+00,0.00000e+00
4.26200e+02,6.44682e-01,-1.30417e+01,0.00000e+00,0.00000e+00,0.00000e+00
4.26200e+02,1.47945e+00,-9.78131e+00,0.00000e+00,0.00000e+00,0.00000e+00
4.26200e+02,2.29445e+00,-6.52087e+00,0.00000e+00,0.00000e+00,0.00000e+00
4.26200e+02,3.10576e+00,-3.26044e+00,0.00000e+00,0.00000e+00,0.00000e+00
5.30600e+02,4.10127e+01,0.00000e+00,0.00000e+00,0.00000e+00,0.00000e+00
5.30600e+02,4.08062e+01,-3.11654e+00,0.00000e+00,0.00000e+00,0.00000e+00
5.30600e+02,4.05314e+01,-6.23307e+00,0.00000e+00,0.00000e+00,0.00000e+00
5.30600e+02,4.02539e+01,-9.34961e+00,0.00000e+00,0.00000e+00,0.00000e+00
5.30600e+02,3.99161e+01,-1.24661e+01,0.00000e+00,0.00000e+00,0.00000e+00
5.30600e+02,3.95644e+01,-1.55827e+01,0.00000e+00,0.00000e+00,0.00000e+00
5.30600e+02,3.91664e+01,-1.86992e+01,0.00000e+00,0.00000e+00,0.00000e+00
5.30600e+02,3.87460e+01,-2.18158e+01,0.00000e+00,0.00000e+00,0.00000e+00
5.30600e+02,3.82884e+01,-2.49323e+01,0.00000e+00,0.00000e+00,0.00000e+00
5.30600e+02,3.78003e+01,-2.80488e+01,0.00000e+00,0.00000e+00,0.00000e+00
5.30600e+02,3.72787e+01,-3.11654e+01,0.00000e+00,0.00000e+00,0.00000e+00
5.30600e+02,3.67164e+01,-3.42819e+01,0.00000e+00,0.00000e+00,0.00000e+00
5.30600e+02,3.61125e+01,-3.73984e+01,0.00000e+00,0.00000e+00,0.00000e+00
5.30600e+02,3.54497e+01,-4.05150e+01,0.00000e+00,0.00000e+00,0.00000e+00
5.30600e+02,3.47295e+01,-4.36315e+01,0.00000e+00,0.00000e+00,0.00000e+00
5.30600e+02,3.39406e+01,-4.67480e+01,0.00000e+00,0.00000e+00,0.00000e+00
5.30600e+02,3.30589e+01,-4.98646e+01,0.00000e+00,0.00000e+00,0.00000e+00
5.30600e+02,3.21125e+01,-5.29811e+01,0.00000e+00,0.00000e+00,0.00000e+00
5.30600e+02,3.10206e+01,-5.60976e+01,0.00000e+00,0.00000e+00,0.00000e+00
5.30600e+02,2.98685e+01,-5.92142e+01,0.00000e+00,0.00000e+00,0.00000e+00
5.30600e+02,2.85484e+01,-6.23307e+01,0.00000e+00,0.00000e+00,0.00000e+00
5.30600e+02,2.70936e+01,-6.54473e+01,0.00000e+00,0.00000e+00,0.00000e+00
5.30600e+02,2.55018e+01,-6.85638e+01,0.00000e+00,0.00000e+00,0.00000e+00
5.30600e+02,2.36801e+01,-7.16803e+01,0.00000e+00,0.00000e+00,0.00000e+00
5.30600e+02,2.15920e+01,-7.47969e+01,0.00000e+00,0.00000e+00,0.00000e+00
5.30600e+02,1.92028e+01,-7.79134e+01,0.00000e+00,0.00000e+00,0.00000e+00
5.30600e+02,1.63770e+01,-8.10299e+01,0.00000e+00,0.00000e+00,0.00000e+00
5.30600e+02,1.27498e+01,-8.41465e+01,0.00000e+00,0.00000e+00,0.00000e+00
5.30600e+02,7.84413e+00,-8.72630e+01,0.00000e+00,0.00000e+00,0.00000e+00
5.30600e+02,-3.17838e+00,-9.03795e+01,0.00000e+00,0.00000e+00,0.00000e+00
5.30600e+02,-3.97388e+00,-9.03868e+01,0.00000e+00,0.00000e+00,0.00000e+00
5.30600e+02,-1.12214e+01,-8.71587e+01,0.00000e+00,0.00000e+00,0.00000e+00
5.30600e+02,-1.20989e+01,-8.39306e+01,0.00000e+00,0.00000e+00,0.00000e+00
5.30600e+02,-1.24018e+01,-8.07025e+01,0.00000e+00,0.00000e+00,0.00000e+00
5.30600e+02,-1.24477e+01,-7.74744e+01,0.00000e+00,0.00000e+00,0.00000e+00
5.30600e+02,-1.23001e+01,-7.42463e+01,0.00000e+00,0.00000e+00,0.00000e+00
5.30600e+02,-1.20311e+01,-7.10182e+01,0.00000e+00,0.00000e+00,0.00000e+00
5.30600e+02,-1.16402e+01,-6.77901e+01,0.00000e+00,0.00000e+00,0.00000e+00
5.30600e+02,-1.11748e+01,-6.45620e+01,0.00000e+00,0.00000e+00,0.00000e+00
5.30600e+02,-1.06664e+01,-6.13339e+01,0.00000e+00,0.00000e+00,0.00000e+00
5.30600e+02,-1.00929e+01,-5.81058e+01,0.00000e+00,0.00000e+00,0.00000e+00
5.30600e+02,-9.47882e+00,-5.48777e+01,0.00000e+00,0.00000e+00,0.00000e+00
5.30600e+02,-8.82518e+00,-5.16496e+01,0.00000e+00,0.00000e+00,0.00000e+00
5.30600e+02,-8.13212e+00,-4.84215e+01,0.00000e+00,0.00000e+00,0.00000e+00
5.30600e+02,-7.41437e+00,-4.51934e+01,0.00000e+00,0.00000e+00,0.00000e+00
5.30600e+02,-6.66496e+00,-4.19653e+01,0.00000e+00,0.00000e+00,0.00000e+00
5.30600e+02,-5.89529e+00,-3.87372e+01,0.00000e+00,0.00000e+00,0.00000e+00
5.30600e+02,-5.10745e+00,-3.55091e+01,0.00000e+00,0.00000e+00,0.00000e+00
5.30600e+02,-4.30339e+00,-3.22810e+01,0.00000e+00,0.00000e+00,0.00000e+00
5.30600e+02,-3.49245e+00,-2.90529e+01,0.00000e+00,0.00000e+00,0.00000e+00
5.30600e+02,-2.67088e+00,-2.58248e+01,0.00000e+00,0.00000e+00,0.00000e+00
5.30600e+02,-1.84753e+00,-2.25967e+01,0.00000e+00,0.00000e+00,0.00000e+00
5.30600e+02,-1.01782e+00,-1.93686e+01,0.00000e+00,0.00000e+00,0.00000e+00
5.30600e+02,-1.88198e-01,-1.61405e+01,0.00000e+00,0.00000e+00,0.00000e+00
5.30600e+02,6.38288e-01,-1.29124e+01,0.00000e+00,0.00000e+00,0.00000e+00
5.30600e+02,1.46477e+00,-9.68430e+00,0.00000e+00,0.00000e+00,0.00000e+00
5.30600e+02,2.27169e+00,-6.45620e+00,0.00000e+00,0.00000e+00,0.00000e+00
5.30600e+02,3.07496e+00,-3.22810e+00,0.00000e+00,0.00000e+00,0.00000e+00
6.33500e+02,4.06078e+01,0.00000e+00,0.00000e+00,0.00000e+00,0.00000e+00
6.33500e+02,4.04033e+01,-3.08576e+00,0.00000e+00,0.00000e+00,0.00000e+00
6.33500e+02,4.01312e+01,-6.17153e+00,0.00000e+00,0.00000e+00,0.00000e+00
6.33500e+02,3.98564e+01,-9.25729e+00,0.00000e+00,0.00000e+00,0.00000e+00
6.33500e+02,3.95220e+01,-1.23431e+01,0.00000e+00,0.00000e+00,0.00000e+00
6.33500e+02,3.91738e+01,-1.54288e+01,0.00000e+00,0.00000e+00,0.00000e+00
6.33500e+02,3.87797e+01,-1.85146e+01,0.00000e+00,0.00000e+00,0.00000e+00
6.33500e+02,3.83634e+01,-2.16004e+01,0.00000e+00,0.00000e+00,0.00000e+00
6.33500e+02,3.79104e+01,-2.46861e+01,0.00000e+00,0.00000e+00,0.00000e+00
6.33500e+02,3.74271e+01,-2.77719e+01,0.00000e+00,0.00000e+00,0.00000e+00
6.33500e+02,3.69106e+01,-3.08576e+01,0.00000e+00,0.00000e+00,0.00000e+00
6.33500e+02,3.63539e+01,-3.39434e+01,0.00000e+00,0.00000e+00,0.00000e+00
6.33500e+02,3.57559e+01,-3.70292e+01,0.00000e+00,0.00000e+00,0.00000e+00
6.33500e+02,3.50997e+01,-4.01149e+01,0.00000e+00,0.00000e+00,0.00000e+00
6.33500e+02,3.43866e+01,-4.32007e+01,0.00000e+00,0.00000e+00,0.00000e+00
6.33500e+02,3.36055e+01,-4.62865e+01,0.00000e+00,0.00000e+00,0.00000e+00
6.33500e+02,3.27325e+01,-4.93722e+01,0.00000e+00,0.00000e+00,0.00000e+00
6.33500e+02,3.17954e+01,-5.24580e+01,0.00000e+00,0.00000e+00,0.00000e+00
6.33500e+02,3.07144e+01,-5.55438e+01,0.00000e+00,0.00000e+00,0.00000e+00
6.33500e+02,2.95736e+01,-5.86295e+01,0.00000e+00,0.00000e+00,0.00000e+00
6.33500e+02,2.82665e+01,-6.17153e+01,0.00000e+00,0.00000e+00,0.00000e+00
6.33500e+02,2.68261e+01,-6.48011e+01,0.00000e+00,0.00000e+00,0.00000e+00
6.33500e+02,2.52500e+01,-6.78868e+01,0.00000e+00,0.00000e+00,0.00000e+00
6.33500e+02,2.34463e+01,-7.09726e+01,0.00000e+00,0.00000e+00,0.00000e+00
6.33500e+02,2.13788e+01,-7.40584e+01,0.00000e+00,0.00000e+00,0.00000e+00
6.33500e+02,1.90132e+01,-7.71441e+01,0.00000e+00,0.00000e+00,0.00000e+00
6.33500e+02,1.62153e+01,-8.02299e+01,0.00000e+00,0.00000e+00,0.00000e+00
6.33500e+02,1.26239e+01,-8.33156e+01,0.00000e+00,0.00000e+00,0.00000e+00
6.33500e+02,7.76668e+00,-8.64014e+01,0.00000e+00,0.00000e+00,0.00000e+00
6.33500e+02,-3.14700e+00,-8.94872e+01,0.00000e+00,0.00000e+00,0.00000e+00
6.33500e+02,-3.93464e+00,-8.94943e+01,0.00000e+00,0.00000e+00,0.00000e+00
6.33500e+02,-1.11106e+01,-8.62981e+01,0.00000e+00,0.00000e+00,0.00000e+00
6.33500e+02,-1.19795e+01,-8.31019e+01,0.00000e+00,0.00000e+00,0.00000e+00
6.33500e+02,-1.22793e+01,-7.99057e+01,0.00000e+00,0.00000e+00,0.00000e+00
6.33500e+02,-1.23248e+01,-7.67094e+01,0.00000e+00,0.00000e+00,0.00000e+00
6.33500e+02,-1.21787e+01,-7.35132e+01,0.00000e+00,0.00000e+00,0.00000e+00
6.33500e+02,-1.19123e+01,-7.03170e+01,0.00000e+00,0.00000e+00,0.00000e+00
6.33500e+02,-1.15252e+01,-6.71208e+01,0.00000e+00,0.00000e+00,0.00000e+00
6.33500e+02,-1.10645e+01,-6.39245e+01,0.00000e+00,0.00000e+00,0.00000e+00
6.33500e+02,-1.05611e+01,-6.07283e+01,0.00000e+00,0.00000e+00,0.00000e+00
6.33500e+02,-9.99326e+00,-5.75321e+01,0.00000e+00,0.00000e+00,0.00000e+00
6.33500e+02,-9.38524e+00,-5.43358e+01,0.00000e+00,0.00000e+00,0.00000e+00
6.33500e+02,-8.73804e+00,-5.11396e+01,0.00000e+00,0.00000e+00,0.00000e+00
6.33500e+02,-8.05183e+00,-4.79434e+01,0.00000e+00,0.00000e+00,0.00000e+00
6.33500e+02,-7.34116e+00,-4.47472e+01,0.00000e+00,0.00000e+00,0.00000e+00
6.33500e+02,-6.59916e+00,-4.15509e+01,0.00000e+00,0.00000e+00,0.00000e+00
6.33500e+02,-5.83709e+00,-3.83547e+01,0.00000e+00,0.00000e+00,0.00000e+00
6.33500e+02,-5.05702e+00,-3.51585e+01,0.00000e+00,0.00000e+00,0.00000e+00
6.33500e+02,-4.26090e+00,-3.19623e+01,0.00000e+00,0.00000e+00,0.00000e+00
6.33500e+02,-3.45797e+00,-2.87660e+01,0.00000e+00,0.00000e+00,0.00000e+00
6.33500e+02,-2.64450e+00,-2.55698e+01,0.00000e+00,0.00000e+00,0.00000e+00
6.33500e+02,-1.82928e+00,-2.23736e+01,0.00000e+00,0.00000e+00,0.00000e+00
6.33500e+02,-1.00777e+00,-1.91774e+01,0.00000e+00,0.00000e+00,0.00000e+00
6.33500e+02,-1.86340e-01,-1.59811e+01,0.00000e+00,0.00000e+00,0.00000e+00
6.33500e+02,6.31986e-01,-1.27849e+01,0.00000e+00,0.00000e+00,0.00000e+00
6.33500e+02,1.45031e+00,-9.58868e+00,0.00000e+00,0.00000e+00,0.00000e+00
6.33500e+02,2.24926e+00,-6.39245e+00,0.00000e+00,0.00000e+00,0.00000e+00
6.33500e+02,3.04460e+00,-3.19623e+00,0.00000e+00,0.00000e+00,0.00000e+00
7.34700e+02,4.02095e+01,0.00000e+00,0.00000e+00,0.00000e+00,0.00000e+00
7.34700e+02,4.00070e+01,-3.05550e+00,0.00000e+00,0.00000e+00,0.00000e+00
7.34700e+02,3.97376e+01,-6.11100e+00,0.00000e+00,0.00000e+00,0.00000e+00
7.34700e+02,3.94656e+01,-9.16651e+00,0.00000e+00,0.00000e+00,0.00000e+00
7.34700e+02,3.91344e+01,-1.22220e+01,0.00000e+00,0.00000e+00,0.00000e+00
7.34700e+02,3.87896e+01,-1.52775e+01,0.00000e+00,0.00000e+00,0.00000e+00
7.34700e+02,3.83994e+01,-1.83330e+01,0.00000e+00,0.00000e+00,0.00000e+00
7.34700e+02,3.79872e+01,-2.13885e+01,0.00000e+00,0.00000e+00,0.00000e+00
7.34700e+02,3.75386e+01,-2.44440e+01,0.00000e+00,0.00000e+00,0.00000e+00
7.34700e+02,3.70601e+01,-2.74995e+01,0.00000e+00,0.00000e+00,0.00000e+00
7.34700e+02,3.65486e+01,-3.05550e+01,0.00000e+00,0.00000e+00,0.00000e+00
7.34700e+02,3.59973e+01,-3.36105e+01,0.00000e+00,0.00000e+00,0.00000e+00
7.34700e+02,3.54053e+01,-3.66660e+01,0.00000e+00,0.00000e+00,0.00000e+00
7.34700e+02,3.47554e+01,-3.97215e+01,0.00000e+00,0.00000e+00,0.00000e+00
7.34700e+02,3.40493e+01,-4.27770e+01,0.00000e+00,0.00000e+00,0.00000e+00
7.34700e+02,3.32760e+01,-4.58325e+01,0.00000e+00,0.00000e+00,0.00000e+00
7.34700e+02,3.24115e+01,-4.88880e+01,0.00000e+00,0.00000e+00,0.00000e+00
7.34700e+02,3.14836e+01,-5.19435e+01,0.00000e+00,0.00000e+00,0.00000e+00
7.34700e+02,3.04131e+01,-5.49990e+01,0.00000e+00,0.00000e+00,0.00000e+00
7.34700e+02,2.92835e+01,-5.80545e+01,0.00000e+00,0.00000e+00,0.00000e+00
7.34700e+02,2.79893e+01,-6.11100e+01,0.00000e+00,0.00000e+00,0.00000e+00
7.34700e+02,2.65630e+01,-6.41655e+01,0.00000e+00,0.00000e+00,0.00000e+00
7.34700e+02,2.50024e+01,-6.72210e+01,0.00000e+00,0.00000e+00,0.00000e+00
7.34700e+02,2.32164e+01,-7.02765e+01,0.00000e+00,0.00000e+00,0.00000e+00
7.34700e+02,2.11691e+01,-7.33320e+01,0.00000e+00,0.00000e+00,0.00000e+00
7.34700e+02,1.88268e+01,-7.63875e+01,0.00000e+00,0.00000e+00,0.00000e+00
7.34700e+02,1.60563e+01,-7.94430e+01,0.00000e+00,0.00000e+00,0.00000e+00
7.34700e+02,1.25001e+01,-8.24985e+01,0.00000e+00,0.00000e+00,0.00000e+00
7.34700e+02,7.69051e+00,-8.55540e+01,0.00000e+00,0.00000e+00,0.00000e+00
7.34700e+02,-3.11614e+00,-8.86096e+01,0.00000e+00,0.00000e+00,0.00000e+00
7.34700e+02,-3.89606e+00,-8.86166e+01,0.00000e+00,0.00000e+00,0.00000e+00
7.34700e+02,-1.10017e+01,-8.54518e+01,0.00000e+00,0.00000e+00,0.00000e+00
7.34700e+02,-1.18620e+01,-8.22869e+01,0.00000e+00,0.00000e+00,0.00000e+00
7.34700e+02,-1.21589e+01,-7.91220e+01,0.00000e+00,0.00000e+00,0.00000e+00
7.34700e+02,-1.22039e+01,-7.59571e+01,0.00000e+00,0.00000e+00,0.00000e+00
7.34700e+02,-1.20592e+01,-7.27922e+01,0.00000e+00,0.00000e+00,0.00000e+00
7.34700e+02,-1.17955e+01,-6.96274e+01,0.00000e+00,0.00000e+00,0.00000e+00
7.34700e+02,-1.14122e+01,-6.64625e+01,0.00000e+00,0.00000e+00,0.00000e+00
7.34700e+02,-1.09560e+01,-6.32976e+01,0.00000e+00,0.00000e+00,0.00000e+00
7.34700e+02,-1.04575e+01,-6.01327e+01,0.00000e+00,0.00000e+00,0.00000e+00
7.34700e+02,-9.89525e+00,-5.69678e+01,0.00000e+00,0.00000e+00,0.00000e+00
7.34700e+02,-9.29319e+00,-5.38030e+01,0.00000e+00,0.00000e+00,0.00000e+00
7.34700e+02,-8.65235e+00,-5.06381e+01,0.00000e+00,0.00000e+00,0.00000e+00
7.34700e+02,-7.97287e+00,-4.74732e+01,0.00000e+00,0.00000e+00,0.00000e+00
7.34700e+02,-7.26917e+00,-4.43083e+01,0.00000e+00,0.00000e+00,0.00000e+00
7.34700e+02,-6.53444e+00,-4.11434e+01,0.00000e+00,0.00000e+00,0.00000e+00
7.34700e+02,-5.77984e+00,-3.79786e+01,0.00000e+00,0.00000e+00,0.00000e+00
7.34700e+02,-5.00742e+00,-3.48137e+01,0.00000e+00,0.00000e+00,0.00000e+00
7.34700e+02,-4.21911e+00,-3.16488e+01,0.00000e+00,0.00000e+00,0.00000e+00
7.34700e+02,-3.42406e+00,-2.84839e+01,0.00000e+00,0.00000e+00,0.00000e+00
7.34700e+02,-2.61857e+00,-2.53190e+01,0.00000e+00,0.00000e+00,0.00000e+00
7.34700e+02,-1.81134e+00,-2.21542e+01,0.00000e+00,0.00000e+00,0.00000e+00
7.34700e+02,-9.97887e-01,-1.89893e+01,0.00000e+00,0.00000e+00,0.00000e+00
7.34700e+02,-1.84513e-01,-1.58244e+01,0.00000e+00,0.00000e+00,0.00000e+00
7.34700e+02,6.25788e-01,-1.26595e+01,0.00000e+00,0.00000e+00,0.00000e+00
7.34700e+02,1.43609e+00,-9.49464e+00,0.00000e+00,0.00000e+00,0.00000e+00
7.34700e+02,2.22720e+00,-6.32976e+00,0.00000e+00,0.00000e+00,0.00000e+00
7.34700e+02,3.01474e+00,-3.16488e+00,0.00000e+00,0.00000e+00,0.00000e+00
8.33800e+02,3.98196e+01,0.00000e+00,0.00000e+00,0.00000e+00,0.00000e+00
8.33800e+02,3.96190e+01,-3.02587e+00,0.00000e+00,0.00000e+00,0.00000e+00
8.33800e+02,3.93522e+01,-6.05173e+00,0.00000e+00,0.00000e+00,0.00000e+00
8.33800e+02,3.90828e+01,-9.07760e+00,0.00000e+00,0.00000e+00,0.00000e+00
8.33800e+02,3.87549e+01,-1.21035e+01,0.00000e+00,0.00000e+00,0.00000e+00
8.33800e+02,3.84134e+01,-1.51293e+01,0.00000e+00,0.00000e+00,0.00000e+00
8.33800e+02,3.80270e+01,-1.81552e+01,0.00000e+00,0.00000e+00,0.00000e+00
8.33800e+02,3.76188e+01,-2.11811e+01,0.00000e+00,0.00000e+00,0.00000e+00
8.33800e+02,3.71745e+01,-2.42069e+01,0.00000e+00,0.00000e+00,0.00000e+00
8.33800e+02,3.67006e+01,-2.72328e+01,0.00000e+00,0.00000e+00,0.00000e+00
8.33800e+02,3.61941e+01,-3.02587e+01,0.00000e+00,0.00000e+00,0.00000e+00
8.33800e+02,3.56482e+01,-3.32845e+01,0.00000e+00,0.00000e+00,0.00000e+00
8.33800e+02,3.50619e+01,-3.63104e+01,0.00000e+00,0.00000e+00,0.00000e+00
8.33800e+02,3.44183e+01,-3.93363e+01,0.00000e+00,0.00000e+00,0.00000e+00
8.33800e+02,3.37191e+01,-4.23621e+01,0.00000e+00,0.00000e+00,0.00000e+00
8.33800e+02,3.29532e+01,-4.53880e+01,0.00000e+00,0.00000e+00,0.00000e+00
8.33800e+02,3.20971e+01,-4.84139e+01,0.00000e+00,0.00000e+00,0.00000e+00
8.33800e+02,3.11783e+01,-5.14397e+01,0.00000e+00,0.00000e+00,0.00000e+00
8.33800e+02,3.01182e+01,-5.44656e+01,0.00000e+00,0.00000e+00,0.00000e+00
8.33800e+02,2.89995e+01,-5.74915e+01,0.00000e+00,0.00000e+00,0.00000e+00
8.33800e+02,2.77178e+01,-6.05173e+01,0.00000e+00,0.00000e+00,0.00000e+00
8.33800e+02,2.63054e+01,-6.35432e+01,0.00000e+00,0.00000e+00,0.00000e+00
8.33800e+02,2.47599e+01,-6.65691e+01,0.00000e+00,0.00000e+00,0.00000e+00
8.33800e+02,2.29912e+01,-6.95949e+01,0.00000e+00,0.00000e+00,0.00000e+00
8.33800e+02,2.09638e+01,-7.26208e+01,0.00000e+00,0.00000e+00,0.00000e+00
8.33800e+02,1.86442e+01,-7.56467e+01,0.00000e+00,0.00000e+00,0.00000e+00
8.33800e+02,1.59005e+01,-7.86725e+01,0.00000e+00,0.00000e+00,0.00000e+00
8.33800e+02,1.23789e+01,-8.16984e+01,0.00000e+00,0.00000e+00,0.00000e+00
8.33800e+02,7.61592e+00,-8.47243e+01,0.00000e+00,0.00000e+00,0.00000e+00
8.33800e+02,-3.08591e+00,-8.77501e+01,0.00000e+00,0.00000e+00,0.00000e+00
8.33800e+02,-3.85827e+00,-8.77572e+01,0.00000e+00,0.00000e+00,0.00000e+00
8.33800e+02,-1.08950e+01,-8.46230e+01,0.00000e+00,0.00000e+00,0.00000e+00
8.33800e+02,-1.17470e+01,-8.14888e+01,0.00000e+00,0.00000e+00,0.00000e+00
8.33800e+02,-1.20409e+01,-7.83546e+01,0.00000e+00,0.00000e+00,0.00000e+00
8.33800e+02,-1.20856e+01,-7.52204e+01,0.00000e+00,0.00000e+00,0.00000e+00
8.33800e+02,-1.19423e+01,-7.20862e+01,0.00000e+00,0.00000e+00,0.00000e+00
8.33800e+02,-1.16811e+01,-6.89521e+01,0.00000e+00,0.00000e+00,0.00000e+00
8.33800e+02,-1.13015e+01,-6.58179e+01,0.00000e+00,0.00000e+00,0.00000e+00
8.33800e+02,-1.08497e+01,-6.26837e+01,0.00000e+00,0.00000e+00,0.00000e+00
8.33800e+02,-1.03561e+01,-5.95495e+01,0.00000e+00,0.00000e+00,0.00000e+00
8.33800e+02,-9.79928e+00,-5.64153e+01,0.00000e+00,0.00000e+00,0.00000e+00
8.33800e+02,-9.20306e+00,-5.32811e+01,0.00000e+00,0.00000e+00,0.00000e+00
8.33800e+02,-8.56843e+00,-5.01469e+01,0.00000e+00,0.00000e+00,0.00000e+00
8.33800e+02,-7.89554e+00,-4.70128e+01,0.00000e+00,0.00000e+00,0.00000e+00
8.33800e+02,-7.19866e+00,-4.38786e+01,0.00000e+00,0.00000e+00,0.00000e+00
8.33800e+02,-6.47106e+00,-4.07444e+01,0.00000e+00,0.00000e+00,0.00000e+00
8.33800e+02,-5.72378e+00,-3.76102e+01,0.00000e+00,0.00000e+00,0.00000e+00
8.33800e+02,-4.95886e+00,-3.44760e+01,0.00000e+00,0.00000e+00,0.00000e+00
8.33800e+02,-4.17819e+00,-3.13418e+01,0.00000e+00,0.00000e+00,0.00000e+00
8.33800e+02,-3.39085e+00,-2.82077e+01,0.00000e+00,0.00000e+00,0.00000e+00
8.33800e+02,-2.59317e+00,-2.50735e+01,0.00000e+00,0.00000e+00,0.00000e+00
8.33800e+02,-1.79378e+00,-2.19393e+01,0.00000e+00,0.00000e+00,0.00000e+00
8.33800e+02,-9.88209e-01,-1.88051e+01,0.00000e+00,0.00000e+00,0.00000e+00
8.33800e+02,-1.82723e-01,-1.56709e+01,0.00000e+00,0.00000e+00,0.00000e+00
8.33800e+02,6.19718e-01,-1.25367e+01,0.00000e+00,0.00000e+00,0.00000e+00
8.33800e+02,1.42216e+00,-9.40255e+00,0.00000e+00,0.00000e+00,0.00000e+00
8.33800e+02,2.20560e+00,-6.26837e+00,0.00000e+00,0.00000e+00,0.00000e+00
8.33800e+02,2.98550e+00,-3.13418e+00,0.00000e+00,0.00000e+00,0.00000e+00
9.30700e+02,3.94382e+01,0.00000e+00,0.00000e+00,0.00000e+00,0.00000e+00
9.30700e+02,3.92396e+01,-2.99689e+00,0.00000e+00,0.00000e+00,0.00000e+00
9.30700e+02,3.89754e+01,-5.99378e+00,0.00000e+00,0.00000e+00,0.00000e+00
9.30700e+02,3.87085e+01,-8.99067e+00,0.00000e+00,0.00000e+00,0.00000e+00
9.30700e+02,3.83837e+01,-1.19876e+01,0.00000e+00,0.00000e+00,0.00000e+00
9.30700e+02,3.80455e+01,-1.49844e+01,0.00000e+00,0.00000e+00,0.00000e+00
9.30700e+02,3.76628e+01,-1.79813e+01,0.00000e+00,0.00000e+00,0.00000e+00
9.30700e+02,3.72585e+01,-2.09782e+01,0.00000e+00,0.00000e+00,0.00000e+00
9.30700e+02,3.68185e+01,-2.39751e+01,0.00000e+00,0.00000e+00,0.00000e+00
9.30700e+02,3.63492e+01,-2.69720e+01,0.00000e+00,0.00000e+00,0.00000e+00
9.30700e+02,3.58475e+01,-2.99689e+01,0.00000e+00,0.00000e+00,0.00000e+00
9.30700e+02,3.53068e+01,-3.29658e+01,0.00000e+00,0.00000e+00,0.00000e+00
9.30700e+02,3.47261e+01,-3.59627e+01,0.00000e+00,0.00000e+00,0.00000e+00
9.30700e+02,3.40887e+01,-3.89596e+01,0.00000e+00,0.00000e+00,0.00000e+00
9.30700e+02,3.33962e+01,-4.19565e+01,0.00000e+00,0.00000e+00,0.00000e+00
9.30700e+02,3.26376e+01,-4.49533e+01,0.00000e+00,0.00000e+00,0.00000e+00
9.30700e+02,3.17897e+01,-4.79502e+01,0.00000e+00,0.00000e+00,0.00000e+00
9.30700e+02,3.08797e+01,-5.09471e+01,0.00000e+00,0.00000e+00,0.00000e+00
9.30700e+02,2.98297e+01,-5.39440e+01,0.00000e+00,0.00000e+00,0.00000e+00
9.30700e+02,2.87218e+01,-5.69409e+01,0.00000e+00,0.00000e+00,0.00000e+00
9.30700e+02,2.74524e+01,-5.99378e+01,0.00000e+00,0.00000e+00,0.00000e+00
9.30700e+02,2.60534e+01,-6.29347e+01,0.00000e+00,0.00000e+00,0.00000e+00
9.30700e+02,2.45228e+01,-6.59316e+01,0.00000e+00,0.00000e+00,0.00000e+00
9.30700e+02,2.27710e+01,-6.89285e+01,0.00000e+00,0.00000e+00,0.00000e+00
9.30700e+02,2.07631e+01,-7.19254e+01,0.00000e+00,0.00000e+00,0.00000e+00
9.30700e+02,1.84656e+01,-7.49222e+01,0.00000e+00,0.00000e+00,0.00000e+00
9.30700e+02,1.57483e+01,-7.79191e+01,0.00000e+00,0.00000e+00,0.00000e+00
9.30700e+02,1.22603e+01,-8.09160e+01,0.00000e+00,0.00000e+00,0.00000e+00
9.30700e+02,7.54299e+00,-8.39129e+01,0.00000e+00,0.00000e+00,0.00000e+00
9.30700e+02,-3.05636e+00,-8.69098e+01,0.00000e+00,0.00000e+00,0.00000e+00
9.30700e+02,-3.82132e+00,-8.69168e+01,0.00000e+00,0.00000e+00,0.00000e+00
9.30700e+02,-1.07906e+01,-8.38126e+01,0.00000e+00,0.00000e+00,0.00000e+00
9.30700e+02,-1.16345e+01,-8.07084e+01,0.00000e+00,0.00000e+00,0.00000e+00
9.30700e+02,-1.19256e+01,-7.76042e+01,0.00000e+00,0.00000e+00,0.00000e+00
9.30700e+02,-1.19698e+01,-7.45001e+01,0.00000e+00,0.00000e+00,0.00000e+00
9.30700e+02,-1.18279e+01,-7.13959e+01,0.00000e+00,0.00000e+00,0.00000e+00
9.30700e+02,-1.15692e+01,-6.82917e+01,0.00000e+00,0.00000e+00,0.00000e+00
9.30700e+02,-1.11933e+01,-6.51876e+01,0.00000e+00,0.00000e+00,0.00000e+00
9.30700e+02,-1.07458e+01,-6.20834e+01,0.00000e+00,0.00000e+00,0.00000e+00
9.30700e+02,-1.02569e+01,-5.89792e+01,0.00000e+00,0.00000e+00,0.00000e+00
9.30700e+02,-9.70544e+00,-5.58751e+01,0.00000e+00,0.00000e+00,0.00000e+00
9.30700e+02,-9.11493e+00,-5.27709e+01,0.00000e+00,0.00000e+00,0.00000e+00
9.30700e+02,-8.48637e+00,-4.96667e+01,0.00000e+00,0.00000e+00,0.00000e+00
9.30700e+02,-7.81993e+00,-4.65625e+01,0.00000e+00,0.00000e+00,0.00000e+00
9.30700e+02,-7.12973e+00,-4.34584e+01,0.00000e+00,0.00000e+00,0.00000e+00
9.30700e+02,-6.40909e+00,-4.03542e+01,0.00000e+00,0.00000e+00,0.00000e+00
9.30700e+02,-5.66897e+00,-3.72500e+01,0.00000e+00,0.00000e+00,0.00000e+00
9.30700e+02,-4.91137e+00,-3.41459e+01,0.00000e+00,0.00000e+00,0.00000e+00
9.30700e+02,-4.13818e+00,-3.10417e+01,0.00000e+00,0.00000e+00,0.00000e+00
9.30700e+02,-3.35837e+00,-2.79375e+01,0.00000e+00,0.00000e+00,0.00000e+00
9.30700e+02,-2.56834e+00,-2.48334e+01,0.00000e+00,0.00000e+00,0.00000e+00
9.30700e+02,-1.77660e+00,-2.17292e+01,0.00000e+00,0.00000e+00,0.00000e+00
9.30700e+02,-9.78745e-01,-1.86250e+01,0.00000e+00,0.00000e+00,0.00000e+00
9.30700e+02,-1.80973e-01,-1.55208e+01,0.00000e+00,0.00000e+00,0.00000e+00
9.30700e+02,6.13784e-01,-1.24167e+01,0.00000e+00,0.00000e+00,0.00000e+00
9.30700e+02,1.40854e+00,-9.31251e+00,0.00000e+00,0.00000e+00,0.00000e+00
9.30700e+02,2.18448e+00,-6.20834e+00,0.00000e+00,0.00000e+00,0.00000e+00
9.30700e+02,2.95691e+00,-3.10417e+00,0.00000e+00,0.00000e+00,0.00000e+00
1.02500e+03,3.90671e+01,0.00000e+00,0.00000e+00,0.00000e+00,0.00000e+00
1.02500e+03,3.88704e+01,-2.96869e+00,0.00000e+00,0.00000e+00,0.00000e+00
1.02500e+03,3.86086e+01,-5.93738e+00,0.00000e+00,0.00000e+00,0.00000e+00
1.02500e+03,3.83443e+01,-8.90607e+00,0.00000e+00,0.00000e+00,0.00000e+00
1.02500e+03,3.80226e+01,-1.18748e+01,0.00000e+00,0.00000e+00,0.00000e+00
1.02500e+03,3.76875e+01,-1.48435e+01,0.00000e+00,0.00000e+00,0.00000e+00
1.02500e+03,3.73084e+01,-1.78121e+01,0.00000e+00,0.00000e+00,0.00000e+00
1.02500e+03,3.69079e+01,-2.07808e+01,0.00000e+00,0.00000e+00,0.00000e+00
1.02500e+03,3.64721e+01,-2.37495e+01,0.00000e+00,0.00000e+00,0.00000e+00
1.02500e+03,3.60071e+01,-2.67182e+01,0.00000e+00,0.00000e+00,0.00000e+00
1.02500e+03,3.55102e+01,-2.96869e+01,0.00000e+00,0.00000e+00,0.00000e+00
1.02500e+03,3.49746e+01,-3.26556e+01,0.00000e+00,0.00000e+00,0.00000e+00
1.02500e+03,3.43994e+01,-3.56243e+01,0.00000e+00,0.00000e+00,0.00000e+00
1.02500e+03,3.37680e+01,-3.85930e+01,0.00000e+00,0.00000e+00,0.00000e+00
1.02500e+03,3.30819e+01,-4.15617e+01,0.00000e+00,0.00000e+00,0.00000e+00
1.02500e+03,3.23305e+01,-4.45304e+01,0.00000e+00,0.00000e+00,0.00000e+00
1.02500e+03,3.14906e+01,-4.74990e+01,0.00000e+00,0.00000e+00,0.00000e+00
1.02500e+03,3.05891e+01,-5.04677e+01,0.00000e+00,0.00000e+00,0.00000e+00
1.02500e+03,2.95491e+01,-5.34364e+01,0.00000e+00,0.00000e+00,0.00000e+00
1.02500e+03,2.84516e+01,-5.64051e+01,0.00000e+00,0.00000e+00,0.00000e+00
1.02500e+03,2.71940e+01,-5.93738e+01,0.00000e+00,0.00000e+00,0.00000e+00
1.02500e+03,2.58083e+01,-6.23425e+01,0.00000e+00,0.00000e+00,0.00000e+00
1.02500e+03,2.42920e+01,-6.53112e+01,0.00000e+00,0.00000e+00,0.00000e+00
1.02500e+03,2.25567e+01,-6.82799e+01,0.00000e+00,0.00000e+00,0.00000e+00
1.02500e+03,2.05677e+01,-7.12486e+01,0.00000e+00,0.00000e+00,0.00000e+00
1.02500e+03,1.82919e+01,-7.42173e+01,0.00000e+00,0.00000e+00,0.00000e+00
1.02500e+03,1.56001e+01,-7.71859e+01,0.00000e+00,0.00000e+00,0.00000e+00
1.02500e+03,1.21450e+01,-8.01546e+01,0.00000e+00,0.00000e+00,0.00000e+00
1.02500e+03,7.47201e+00,-8.31233e+01,0.00000e+00,0.00000e+00,0.00000e+00
1.02500e+03,-3.02760e+00,-8.60920e+01,0.00000e+00,0.00000e+00,0.00000e+00
1.02500e+03,-3.78536e+00,-8.60989e+01,0.00000e+00,0.00000e+00,0.00000e+00
1.02500e+03,-1.06891e+01,-8.30239e+01,0.00000e+00,0.00000e+00,0.00000e+00
1.02500e+03,-1.15250e+01,-7.99490e+01,0.00000e+00,0.00000e+00,0.00000e+00
1.02500e+03,-1.18134e+01,-7.68740e+01,0.00000e+00,0.00000e+00,0.00000e+00
1.02500e+03,-1.18572e+01,-7.37991e+01,0.00000e+00,0.00000e+00,0.00000e+00
1.02500e+03,-1.17166e+01,-7.07241e+01,0.00000e+00,0.00000e+00,0.00000e+00
1.02500e+03,-1.14604e+01,-6.76491e+01,0.00000e+00,0.00000e+00,0.00000e+00
1.02500e+03,-1.10880e+01,-6.45742e+01,0.00000e+00,0.00000e+00,0.00000e+00
1.02500e+03,-1.06447e+01,-6.14992e+01,0.00000e+00,0.00000e+00,0.00000e+00
1.02500e+03,-1.01604e+01,-5.84243e+01,0.00000e+00,0.00000e+00,0.00000e+00
1.02500e+03,-9.61411e+00,-5.53493e+01,0.00000e+00,0.00000e+00,0.00000e+00
1.02500e+03,-9.02916e+00,-5.22743e+01,0.00000e+00,0.00000e+00,0.00000e+00
1.02500e+03,-8.40652e+00,-4.91994e+01,0.00000e+00,0.00000e+00,0.00000e+00
1.02500e+03,-7.74634e+00,-4.61244e+01,0.00000e+00,0.00000e+00,0.00000e+00
1.02500e+03,-7.06264e+00,-4.30495e+01,0.00000e+00,0.00000e+00,0.00000e+00
1.02500e+03,-6.34878e+00,-3.99745e+01,0.00000e+00,0.00000e+00,0.00000e+00
1.02500e+03,-5.61563e+00,-3.68995e+01,0.00000e+00,0.00000e+00,0.00000e+00
1.02500e+03,-4.86516e+00,-3.38246e+01,0.00000e+00,0.00000e+00,0.00000e+00
1.02500e+03,-4.09924e+00,-3.07496e+01,0.00000e+00,0.00000e+00,0.00000e+00
1.02500e+03,-3.32677e+00,-2.76746e+01,0.00000e+00,0.00000e+00,0.00000e+00
1.02500e+03,-2.54417e+00,-2.45997e+01,0.00000e+00,0.00000e+00,0.00000e+00
1.02500e+03,-1.75988e+00,-2.15247e+01,0.00000e+00,0.00000e+00,0.00000e+00
1.02500e+03,-9.69535e-01,-1.84498e+01,0.00000e+00,0.00000e+00,0.00000e+00
1.02500e+03,-1.79270e-01,-1.53748e+01,0.00000e+00,0.00000e+00,0.00000e+00
1.02500e+03,6.08008e-01,-1.22998e+01,0.00000e+00,0.00000e+00,0.00000e+00
1.02500e+03,1.39529e+00,-9.22488e+00,0.00000e+00,0.00000e+00,0.00000e+00
1.02500e+03,2.16392e+00,-6.14992e+00,0.00000e+00,0.00000e+00,0.00000e+00
1.02500e+03,2.92908e+00,-3.07496e+00,0.00000e+00,0.00000e+00,0.00000e+00
1.11650e+03,3.87070e+01,0.00000e+00,0.00000e+00,0.00000e+00,0.00000e+00
1.11650e+03,3.85121e+01,-2.94133e+00,0.00000e+00,0.00000e+00,0.00000e+00
1.11650e+03,3.82528e+01,-5.88266e+00,0.00000e+00,0.00000e+00,0.00000e+00
1.11650e+03,3.79909e+01,-8.82398e+00,0.00000e+00,0.00000e+00,0.00000e+00
1.11650e+03,3.76721e+01,-1.17653e+01,0.00000e+00,0.00000e+00,0.00000e+00
1.11650e+03,3.73401e+01,-1.47066e+01,0.00000e+00,0.00000e+00,0.00000e+00
1.11650e+03,3.69645e+01,-1.76480e+01,0.00000e+00,0.00000e+00,0.00000e+00
1.11650e+03,3.65678e+01,-2.05893e+01,0.00000e+00,0.00000e+00,0.00000e+00
1.11650e+03,3.61359e+01,-2.35306e+01,0.00000e+00,0.00000e+00,0.00000e+00
1.11650e+03,3.56753e+01,-2.64720e+01,0.00000e+00,0.00000e+00,0.00000e+00
1.11650e+03,3.51829e+01,-2.94133e+01,0.00000e+00,0.00000e+00,0.00000e+00
1.11650e+03,3.46522e+01,-3.23546e+01,0.00000e+00,0.00000e+00,0.00000e+00
1.11650e+03,3.40823e+01,-3.52959e+01,0.00000e+00,0.00000e+00,0.00000e+00
1.11650e+03,3.34567e+01,-3.82373e+01,0.00000e+00,0.00000e+00,0.00000e+00
1.11650e+03,3.27770e+01,-4.11786e+01,0.00000e+00,0.00000e+00,0.00000e+00
1.11650e+03,3.20325e+01,-4.41199e+01,0.00000e+00,0.00000e+00,0.00000e+00
1.11650e+03,3.12004e+01,-4.70612e+01,0.00000e+00,0.00000e+00,0.00000e+00
1.11650e+03,3.03072e+01,-5.00026e+01,0.00000e+00,0.00000e+00,0.00000e+00
1.11650e+03,2.92767e+01,-5.29439e+01,0.00000e+00,0.00000e+00,0.00000e+00
1.11650e+03,2.81893e+01,-5.58852e+01,0.00000e+00,0.00000e+00,0.00000e+00
1.11650e+03,2.69434e+01,-5.88266e+01,0.00000e+00,0.00000e+00,0.00000e+00
1.11650e+03,2.55704e+01,-6.17679e+01,0.00000e+00,0.00000e+00,0.00000e+00
1.11650e+03,2.40681e+01,-6.47092e+01,0.00000e+00,0.00000e+00,0.00000e+00
1.11650e+03,2.23488e+01,-6.76505e+01,0.00000e+00,0.00000e+00,0.00000e+00
1.11650e+03,2.03781e+01,-7.05919e+01,0.00000e+00,0.00000e+00,0.00000e+00
1.11650e+03,1.81233e+01,-7.35332e+01,0.00000e+00,0.00000e+00,0.00000e+00
1.11650e+03,1.54563e+01,-7.64745e+01,0.00000e+00,0.00000e+00,0.00000e+00
1.11650e+03,1.20330e+01,-7.94159e+01,0.00000e+00,0.00000e+00,0.00000e+00
1.11650e+03,7.40314e+00,-8.23572e+01,0.00000e+00,0.00000e+00,0.00000e+00
1.11650e+03,-2.99970e+00,-8.52985e+01,0.00000e+00,0.00000e+00,0.00000e+00
1.11650e+03,-3.75047e+00,-8.53053e+01,0.00000e+00,0.00000e+00,0.00000e+00
1.11650e+03,-1.05906e+01,-8.22587e+01,0.00000e+00,0.00000e+00,0.00000e+00
1.11650e+03,-1.14188e+01,-7.92121e+01,0.00000e+00,0.00000e+00,0.00000e+00
1.11650e+03,-1.17045e+01,-7.61655e+01,0.00000e+00,0.00000e+00,0.00000e+00
1.11650e+03,-1.17479e+01,-7.31189e+01,0.00000e+00,0.00000e+00,0.00000e+00
1.11650e+03,-1.16086e+01,-7.00722e+01,0.00000e+00,0.00000e+00,0.00000e+00
1.11650e+03,-1.13547e+01,-6.70256e+01,0.00000e+00,0.00000e+00,0.00000e+00
1.11650e+03,-1.09858e+01,-6.39790e+01,0.00000e+00,0.00000e+00,0.00000e+00
1.11650e+03,-1.05466e+01,-6.09324e+01,0.00000e+00,0.00000e+00,0.00000e+00
1.11650e+03,-1.00667e+01,-5.78858e+01,0.00000e+00,0.00000e+00,0.00000e+00
1.11650e+03,-9.52550e+00,-5.48391e+01,0.00000e+00,0.00000e+00,0.00000e+00
1.11650e+03,-8.94594e+00,-5.17925e+01,0.00000e+00,0.00000e+00,0.00000e+00
1.11650e+03,-8.32904e+00,-4.87459e+01,0.00000e+00,0.00000e+00,0.00000e+00
1.11650e+03,-7.67495e+00,-4.56993e+01,0.00000e+00,0.00000e+00,0.00000e+00
1.11650e+03,-6.99754e+00,-4.26527e+01,0.00000e+00,0.00000e+00,0.00000e+00
1.11650e+03,-6.29027e+00,-3.96060e+01,0.00000e+00,0.00000e+00,0.00000e+00
1.11650e+03,-5.56387e+00,-3.65594e+01,0.00000e+00,0.00000e+00,0.00000e+00
1.11650e+03,-4.82031e+00,-3.35128e+01,0.00000e+00,0.00000e+00,0.00000e+00
1.11650e+03,-4.06146e+00,-3.04662e+01,0.00000e+00,0.00000e+00,0.00000e+00
1.11650e+03,-3.29611e+00,-2.74196e+01,0.00000e+00,0.00000e+00,0.00000e+00
1.11650e+03,-2.52072e+00,-2.43730e+01,0.00000e+00,0.00000e+00,0.00000e+00
1.11650e+03,-1.74366e+00,-2.13263e+01,0.00000e+00,0.00000e+00,0.00000e+00
1.11650e+03,-9.60599e-01,-1.82797e+01,0.00000e+00,0.00000e+00,0.00000e+00
1.11650e+03,-1.77618e-01,-1.52331e+01,0.00000e+00,0.00000e+00,0.00000e+00
1.11650e+03,6.02404e-01,-1.21865e+01,0.00000e+00,0.00000e+00,0.00000e+00
1.11650e+03,1.38243e+00,-9.13986e+00,0.00000e+00,0.00000e+00,0.00000e+00
1.11650e+03,2.14398e+00,-6.09324e+00,0.00000e+00,0.00000e+00,0.00000e+00
1.11650e+03,2.90209e+00,-3.04662e+00,0.00000e+00,0.00000e+00,0.00000e+00
1.20500e+03,3.76912e+01,0.00000e+00,0.00000e+00,0.00000e+00,0.00000e+00
1.20500e+03,3.75014e+01,-2.86413e+00,0.00000e+00,0.00000e+00,0.00000e+00
1.20500e+03,3.72488e+01,-5.72827e+00,0.00000e+00,0.00000e+00,0.00000e+00
1.20500e+03,3.69938e+01,-8.59240e+00,0.00000e+00,0.00000e+00,0.00000e+00
1.20500e+03,3.66834e+01,-1.14565e+01,0.00000e+00,0.00000e+00,0.00000e+00
1.20500e+03,3.63602e+01,-1.43207e+01,0.00000e+00,0.00000e+00,0.00000e+00
1.20500e+03,3.59944e+01,-1.71848e+01,0.00000e+00,0.00000e+00,0.00000e+00
1.20500e+03,3.56080e+01,-2.00489e+01,0.00000e+00,0.00000e+00,0.00000e+00
1.20500e+03,3.51875e+01,-2.29131e+01,0.00000e+00,0.00000e+00,0.00000e+00
1.20500e+03,3.47390e+01,-2.57772e+01,0.00000e+00,0.00000e+00,0.00000e+00
1.20500e+03,3.42596e+01,-2.86413e+01,0.00000e+00,0.00000e+00,0.00000e+00
1.20500e+03,3.37428e+01,-3.15055e+01,0.00000e+00,0.00000e+00,0.00000e+00
1.20500e+03,3.31878e+01,-3.43696e+01,0.00000e+00,0.00000e+00,0.00000e+00
1.20500e+03,3.25787e+01,-3.72337e+01,0.00000e+00,0.00000e+00,0.00000e+00
1.20500e+03,3.19168e+01,-4.00979e+01,0.00000e+00,0.00000e+00,0.00000e+00
1.20500e+03,3.11919e+01,-4.29620e+01,0.00000e+00,0.00000e+00,0.00000e+00
1.20500e+03,3.03815e+01,-4.58261e+01,0.00000e+00,0.00000e+00,0.00000e+00
1.20500e+03,2.95118e+01,-4.86903e+01,0.00000e+00,0.00000e+00,0.00000e+00
1.20500e+03,2.85084e+01,-5.15544e+01,0.00000e+00,0.00000e+00,0.00000e+00
1.20500e+03,2.74495e+01,-5.44186e+01,0.00000e+00,0.00000e+00,0.00000e+00
1.20500e+03,2.62363e+01,-5.72827e+01,0.00000e+00,0.00000e+00,0.00000e+00
1.20500e+03,2.48993e+01,-6.01468e+01,0.00000e+00,0.00000e+00,0.00000e+00
1.20500e+03,2.34365e+01,-6.30110e+01,0.00000e+00,0.00000e+00,0.00000e+00
1.20500e+03,2.17623e+01,-6.58751e+01,0.00000e+00,0.00000e+00,0.00000e+00
1.20500e+03,1.98433e+01,-6.87392e+01,0.00000e+00,0.00000e+00,0.00000e+00
1.20500e+03,1.76476e+01,-7.16034e+01,0.00000e+00,0.00000e+00,0.00000e+00
1.20500e+03,1.50506e+01,-7.44675e+01,0.00000e+00,0.00000e+00,0.00000e+00
1.20500e+03,1.17172e+01,-7.73316e+01,0.00000e+00,0.00000e+00,0.00000e+00
1.20500e+03,7.20885e+00,-8.01958e+01,0.00000e+00,0.00000e+00,0.00000e+00
1.20500e+03,-2.92097e+00,-8.30599e+01,0.00000e+00,0.00000e+00,0.00000e+00
1.20500e+03,-3.65204e+00,-8.30665e+01,0.00000e+00,0.00000e+00,0.00000e+00
1.20500e+03,-1.03126e+01,-8.00999e+01,0.00000e+00,0.00000e+00,0.00000e+00
1.20500e+03,-1.11191e+01,-7.71332e+01,0.00000e+00,0.00000e+00,0.00000e+00
1.20500e+03,-1.13974e+01,-7.41666e+01,0.00000e+00,0.00000e+00,0.00000e+00
1.20500e+03,-1.14396e+01,-7.11999e+01,0.00000e+00,0.00000e+00,0.00000e+00
1.20500e+03,-1.13040e+01,-6.82332e+01,0.00000e+00,0.00000e+00,0.00000e+00
1.20500e+03,-1.10567e+01,-6.52666e+01,0.00000e+00,0.00000e+00,0.00000e+00
1.20500e+03,-1.06975e+01,-6.22999e+01,0.00000e+00,0.00000e+00,0.00000e+00
1.20500e+03,-1.02698e+01,-5.93332e+01,0.00000e+00,0.00000e+00,0.00000e+00
1.20500e+03,-9.80253e+00,-5.63666e+01,0.00000e+00,0.00000e+00,0.00000e+00
1.20500e+03,-9.27551e+00,-5.33999e+01,0.00000e+00,0.00000e+00,0.00000e+00
1.20500e+03,-8.71115e+00,-5.04333e+01,0.00000e+00,0.00000e+00,0.00000e+00
1.20500e+03,-8.11045e+00,-4.74666e+01,0.00000e+00,0.00000e+00,0.00000e+00
1.20500e+03,-7.47352e+00,-4.44999e+01,0.00000e+00,0.00000e+00,0.00000e+00
1.20500e+03,-6.81389e+00,-4.15333e+01,0.00000e+00,0.00000e+00,0.00000e+00
1.20500e+03,-6.12518e+00,-3.85666e+01,0.00000e+00,0.00000e+00,0.00000e+00
1.20500e+03,-5.41785e+00,-3.55999e+01,0.00000e+00,0.00000e+00,0.00000e+00
1.20500e+03,-4.69381e+00,-3.26333e+01,0.00000e+00,0.00000e+00,0.00000e+00
1.20500e+03,-3.95486e+00,-2.96666e+01,0.00000e+00,0.00000e+00,0.00000e+00
1.20500e+03,-3.20961e+00,-2.67000e+01,0.00000e+00,0.00000e+00,0.00000e+00
1.20500e+03,-2.45457e+00,-2.37333e+01,0.00000e+00,0.00000e+00,0.00000e+00
1.20500e+03,-1.69790e+00,-2.07666e+01,0.00000e+00,0.00000e+00,0.00000e+00
1.20500e+03,-9.35389e-01,-1.78000e+01,0.00000e+00,0.00000e+00,0.00000e+00
1.20500e+03,-1.72956e-01,-1.48333e+01,0.00000e+00,0.00000e+00,0.00000e+00
1.20500e+03,5.86594e-01,-1.18666e+01,0.00000e+00,0.00000e+00,0.00000e+00
1.20500e+03,1.34615e+00,-8.89999e+00,0.00000e+00,0.00000e+00,0.00000e+00
1.20500e+03,2.08771e+00,-5.93332e+00,0.00000e+00,0.00000e+00,0.00000e+00
1.20500e+03,2.82592e+00,-2.96666e+00,0.00000e+00,0.00000e+00,0.00000e+00
1.29010e+03,3.63234e+01,0.00000e+00,0.00000e+00,0.00000e+00,0.00000e+00
1.29010e+03,3.61405e+01,-2.76019e+00,0.00000e+00,0.00000e+00,0.00000e+00
1.29010e+03,3.58971e+01,-5.52039e+00,0.00000e+00,0.00000e+00,0.00000e+00
1.29010e+03,3.56513e+01,-8.28058e+00,0.00000e+00,0.00000e+00,0.00000e+00
1.29010e+03,3.53522e+01,-1.10408e+01,0.00000e+00,0.00000e+00,0.00000e+00
1.29010e+03,3.50407e+01,-1.38010e+01,0.00000e+00,0.00000e+00,0.00000e+00
1.29010e+03,3.46882e+01,-1.65612e+01,0.00000e+00,0.00000e+00,0.00000e+00
1.29010e+03,3.43158e+01,-1.93214e+01,0.00000e+00,0.00000e+00,0.00000e+00
1.29010e+03,3.39106e+01,-2.20816e+01,0.00000e+00,0.00000e+00,0.00000e+00
1.29010e+03,3.34783e+01,-2.48418e+01,0.00000e+00,0.00000e+00,0.00000e+00
1.29010e+03,3.30163e+01,-2.76019e+01,0.00000e+00,0.00000e+00,0.00000e+00
1.29010e+03,3.25183e+01,-3.03621e+01,0.00000e+00,0.00000e+00,0.00000e+00
1.29010e+03,3.19834e+01,-3.31223e+01,0.00000e+00,0.00000e+00,0.00000e+00
1.29010e+03,3.13964e+01,-3.58825e+01,0.00000e+00,0.00000e+00,0.00000e+00
1.29010e+03,3.07585e+01,-3.86427e+01,0.00000e+00,0.00000e+00,0.00000e+00
1.29010e+03,3.00599e+01,-4.14029e+01,0.00000e+00,0.00000e+00,0.00000e+00
1.29010e+03,2.92790e+01,-4.41631e+01,0.00000e+00,0.00000e+00,0.00000e+00
1.29010e+03,2.84408e+01,-4.69233e+01,0.00000e+00,0.00000e+00,0.00000e+00
1.29010e+03,2.74738e+01,-4.96835e+01,0.00000e+00,0.00000e+00,0.00000e+00
1.29010e+03,2.64534e+01,-5.24437e+01,0.00000e+00,0.00000e+00,0.00000e+00
1.29010e+03,2.52842e+01,-5.52039e+01,0.00000e+00,0.00000e+00,0.00000e+00
1.29010e+03,2.39957e+01,-5.79641e+01,0.00000e+00,0.00000e+00,0.00000e+00
1.29010e+03,2.25860e+01,-6.07243e+01,0.00000e+00,0.00000e+00,0.00000e+00
1.29010e+03,2.09725e+01,-6.34845e+01,0.00000e+00,0.00000e+00,0.00000e+00
1.29010e+03,1.91232e+01,-6.62447e+01,0.00000e+00,0.00000e+00,0.00000e+00
1.29010e+03,1.70072e+01,-6.90049e+01,0.00000e+00,0.00000e+00,0.00000e+00
1.29010e+03,1.45045e+01,-7.17651e+01,0.00000e+00,0.00000e+00,0.00000e+00
1.29010e+03,1.12920e+01,-7.45253e+01,0.00000e+00,0.00000e+00,0.00000e+00
1.29010e+03,6.94724e+00,-7.72855e+01,0.00000e+00,0.00000e+00,0.00000e+00
1.29010e+03,-2.81497e+00,-8.00457e+01,0.00000e+00,0.00000e+00,0.00000e+00
1.29010e+03,-3.51951e+00,-8.00521e+01,0.00000e+00,0.00000e+00,0.00000e+00
1.29010e+03,-9.93839e+00,-7.71931e+01,0.00000e+00,0.00000e+00,0.00000e+00
1.29010e+03,-1.07156e+01,-7.43341e+01,0.00000e+00,0.00000e+00,0.00000e+00
1.29010e+03,-1.09838e+01,-7.14751e+01,0.00000e+00,0.00000e+00,0.00000e+00
1.29010e+03,-1.10244e+01,-6.86160e+01,0.00000e+00,0.00000e+00,0.00000e+00
1.29010e+03,-1.08937e+01,-6.57570e+01,0.00000e+00,0.00000e+00,0.00000e+00
1.29010e+03,-1.06555e+01,-6.28980e+01,0.00000e+00,0.00000e+00,0.00000e+00
1.29010e+03,-1.03093e+01,-6.00390e+01,0.00000e+00,0.00000e+00,0.00000e+00
1.29010e+03,-9.89713e+00,-5.71800e+01,0.00000e+00,0.00000e+00,0.00000e+00
1.29010e+03,-9.44680e+00,-5.43210e+01,0.00000e+00,0.00000e+00,0.00000e+00
1.29010e+03,-8.93890e+00,-5.14620e+01,0.00000e+00,0.00000e+00,0.00000e+00
1.29010e+03,-8.39503e+00,-4.86030e+01,0.00000e+00,0.00000e+00,0.00000e+00
1.29010e+03,-7.81612e+00,-4.57440e+01,0.00000e+00,0.00000e+00,0.00000e+00
1.29010e+03,-7.20231e+00,-4.28850e+01,0.00000e+00,0.00000e+00,0.00000e+00
1.29010e+03,-6.56662e+00,-4.00260e+01,0.00000e+00,0.00000e+00,0.00000e+00
1.29010e+03,-5.90290e+00,-3.71670e+01,0.00000e+00,0.00000e+00,0.00000e+00
1.29010e+03,-5.22123e+00,-3.43080e+01,0.00000e+00,0.00000e+00,0.00000e+00
1.29010e+03,-4.52347e+00,-3.14490e+01,0.00000e+00,0.00000e+00,0.00000e+00
1.29010e+03,-3.81134e+00,-2.85900e+01,0.00000e+00,0.00000e+00,0.00000e+00
1.29010e+03,-3.09313e+00,-2.57310e+01,0.00000e+00,0.00000e+00,0.00000e+00
1.29010e+03,-2.36549e+00,-2.28720e+01,0.00000e+00,0.00000e+00,0.00000e+00
1.29010e+03,-1.63628e+00,-2.00130e+01,0.00000e+00,0.00000e+00,0.00000e+00
1.29010e+03,-9.01444e-01,-1.71540e+01,0.00000e+00,0.00000e+00,0.00000e+00
1.29010e+03,-1.66680e-01,-1.42950e+01,0.00000e+00,0.00000e+00,0.00000e+00
1.29010e+03,5.65307e-01,-1.14360e+01,0.00000e+00,0.00000e+00,0.00000e+00
1.29010e+03,1.29729e+00,-8.57701e+00,0.00000e+00,0.00000e+00,0.00000e+00
1.29010e+03,2.01195e+00,-5.71800e+00,0.00000e+00,0.00000e+00,0.00000e+00
1.29010e+03,2.72337e+00,-2.85900e+00,0.00000e+00,0.00000e+00,0.00000e+00
1.37170e+03,3.50118e+01,0.00000e+00,0.00000e+00,0.00000e+00,0.00000e+00
1.37170e+03,3.48355e+01,-2.66053e+00,0.00000e+00,0.00000e+00,0.00000e+00
1.37170e+03,3.46009e+01,-5.32106e+00,0.00000e+00,0.00000e+00,0.00000e+00
1.37170e+03,3.43640e+01,-7.98159e+00,0.00000e+00,0.00000e+00,0.00000e+00
1.37170e+03,3.40757e+01,-1.06421e+01,0.00000e+00,0.00000e+00,0.00000e+00
1.37170e+03,3.37754e+01,-1.33027e+01,0.00000e+00,0.00000e+00,0.00000e+00
1.37170e+03,3.34357e+01,-1.59632e+01,0.00000e+00,0.00000e+00,0.00000e+00
1.37170e+03,3.30768e+01,-1.86237e+01,0.00000e+00,0.00000e+00,0.00000e+00
1.37170e+03,3.26861e+01,-2.12842e+01,0.00000e+00,0.00000e+00,0.00000e+00
1.37170e+03,3.22695e+01,-2.39448e+01,0.00000e+00,0.00000e+00,0.00000e+00
1.37170e+03,3.18241e+01,-2.66053e+01,0.00000e+00,0.00000e+00,0.00000e+00
1.37170e+03,3.13441e+01,-2.92658e+01,0.00000e+00,0.00000e+00,0.00000e+00
1.37170e+03,3.08286e+01,-3.19264e+01,0.00000e+00,0.00000e+00,0.00000e+00
1.37170e+03,3.02627e+01,-3.45869e+01,0.00000e+00,0.00000e+00,0.00000e+00
1.37170e+03,2.96479e+01,-3.72474e+01,0.00000e+00,0.00000e+00,0.00000e+00
1.37170e+03,2.89745e+01,-3.99080e+01,0.00000e+00,0.00000e+00,0.00000e+00
1.37170e+03,2.82218e+01,-4.25685e+01,0.00000e+00,0.00000e+00,0.00000e+00
1.37170e+03,2.74139e+01,-4.52290e+01,0.00000e+00,0.00000e+00,0.00000e+00
1.37170e+03,2.64818e+01,-4.78895e+01,0.00000e+00,0.00000e+00,0.00000e+00
1.37170e+03,2.54982e+01,-5.05501e+01,0.00000e+00,0.00000e+00,0.00000e+00
1.37170e+03,2.43712e+01,-5.32106e+01,0.00000e+00,0.00000e+00,0.00000e+00
1.37170e+03,2.31293e+01,-5.58711e+01,0.00000e+00,0.00000e+00,0.00000e+00
1.37170e+03,2.17704e+01,-5.85317e+01,0.00000e+00,0.00000e+00,0.00000e+00
1.37170e+03,2.02153e+01,-6.11922e+01,0.00000e+00,0.00000e+00,0.00000e+00
1.37170e+03,1.84327e+01,-6.38527e+01,0.00000e+00,0.00000e+00,0.00000e+00
1.37170e+03,1.63931e+01,-6.65133e+01,0.00000e+00,0.00000e+00,0.00000e+00
1.37170e+03,1.39807e+01,-6.91738e+01,0.00000e+00,0.00000e+00,0.00000e+00
1.37170e+03,1.08843e+01,-7.18343e+01,0.00000e+00,0.00000e+00,0.00000e+00
1.37170e+03,6.69639e+00,-7.44949e+01,0.00000e+00,0.00000e+00,0.00000e+00
1.37170e+03,-2.71333e+00,-7.71554e+01,0.00000e+00,0.00000e+00,0.00000e+00
1.37170e+03,-3.39243e+00,-7.71616e+01,0.00000e+00,0.00000e+00,0.00000e+00
1.37170e+03,-9.57954e+00,-7.44058e+01,0.00000e+00,0.00000e+00,0.00000e+00
1.37170e+03,-1.03287e+01,-7.16500e+01,0.00000e+00,0.00000e+00,0.00000e+00
1.37170e+03,-1.05872e+01,-6.88942e+01,0.00000e+00,0.00000e+00,0.00000e+00
1.37170e+03,-1.06264e+01,-6.61385e+01,0.00000e+00,0.00000e+00,0.00000e+00
1.37170e+03,-1.05004e+01,-6.33827e+01,0.00000e+00,0.00000e+00,0.00000e+00
1.37170e+03,-1.02708e+01,-6.06269e+01,0.00000e+00,0.00000e+00,0.00000e+00
1.37170e+03,-9.93701e+00,-5.78712e+01,0.00000e+00,0.00000e+00,0.00000e+00
1.37170e+03,-9.53977e+00,-5.51154e+01,0.00000e+00,0.00000e+00,0.00000e+00
1.37170e+03,-9.10569e+00,-5.23596e+01,0.00000e+00,0.00000e+00,0.00000e+00
1.37170e+03,-8.61613e+00,-4.96039e+01,0.00000e+00,0.00000e+00,0.00000e+00
1.37170e+03,-8.09190e+00,-4.68481e+01,0.00000e+00,0.00000e+00,0.00000e+00
1.37170e+03,-7.53389e+00,-4.40923e+01,0.00000e+00,0.00000e+00,0.00000e+00
1.37170e+03,-6.94225e+00,-4.13365e+01,0.00000e+00,0.00000e+00,0.00000e+00
1.37170e+03,-6.32951e+00,-3.85808e+01,0.00000e+00,0.00000e+00,0.00000e+00
1.37170e+03,-5.68976e+00,-3.58250e+01,0.00000e+00,0.00000e+00,0.00000e+00
1.37170e+03,-5.03271e+00,-3.30692e+01,0.00000e+00,0.00000e+00,0.00000e+00
1.37170e+03,-4.36014e+00,-3.03135e+01,0.00000e+00,0.00000e+00,0.00000e+00
1.37170e+03,-3.67372e+00,-2.75577e+01,0.00000e+00,0.00000e+00,0.00000e+00
1.37170e+03,-2.98144e+00,-2.48019e+01,0.00000e+00,0.00000e+00,0.00000e+00
1.37170e+03,-2.28008e+00,-2.20462e+01,0.00000e+00,0.00000e+00,0.00000e+00
1.37170e+03,-1.57720e+00,-1.92904e+01,0.00000e+00,0.00000e+00,0.00000e+00
1.37170e+03,-8.68894e-01,-1.65346e+01,0.00000e+00,0.00000e+00,0.00000e+00
1.37170e+03,-1.60661e-01,-1.37788e+01,0.00000e+00,0.00000e+00,0.00000e+00
1.37170e+03,5.44895e-01,-1.10231e+01,0.00000e+00,0.00000e+00,0.00000e+00
1.37170e+03,1.25045e+00,-8.26731e+00,0.00000e+00,0.00000e+00,0.00000e+00
1.37170e+03,1.93930e+00,-5.51154e+00,0.00000e+00,0.00000e+00,0.00000e+00
1.37170e+03,2.62503e+00,-2.75577e+00,0.00000e+00,0.00000e+00,0.00000e+00
1.44960e+03,3.37597e+01,0.00000e+00,0.00000e+00,0.00000e+00,0.00000e+00
1.44960e+03,3.35897e+01,-2.56538e+00,0.00000e+00,0.00000e+00,0.00000e+00
1.44960e+03,3.33635e+01,-5.13077e+00,0.00000e+00,0.00000e+00,0.00000e+00
1.44960e+03,3.31351e+01,-7.69615e+00,0.00000e+00,0.00000e+00,0.00000e+00
1.44960e+03,3.28571e+01,-1.02615e+01,0.00000e+00,0.00000e+00,0.00000e+00
1.44960e+03,3.25675e+01,-1.28269e+01,0.00000e+00,0.00000e+00,0.00000e+00
1.44960e+03,3.22399e+01,-1.53923e+01,0.00000e+00,0.00000e+00,0.00000e+00
1.44960e+03,3.18939e+01,-1.79577e+01,0.00000e+00,0.00000e+00,0.00000e+00
1.44960e+03,3.15172e+01,-2.05231e+01,0.00000e+00,0.00000e+00,0.00000e+00
1.44960e+03,3.11155e+01,-2.30885e+01,0.00000e+00,0.00000e+00,0.00000e+00
1.44960e+03,3.06860e+01,-2.56538e+01,0.00000e+00,0.00000e+00,0.00000e+00
1.44960e+03,3.02232e+01,-2.82192e+01,0.00000e+00,0.00000e+00,0.00000e+00
1.44960e+03,2.97261e+01,-3.07846e+01,0.00000e+00,0.00000e+00,0.00000e+00
1.44960e+03,2.91805e+01,-3.33500e+01,0.00000e+00,0.00000e+00,0.00000e+00
1.44960e+03,2.85877e+01,-3.59154e+01,0.00000e+00,0.00000e+00,0.00000e+00
1.44960e+03,2.79383e+01,-3.84808e+01,0.00000e+00,0.00000e+00,0.00000e+00
1.44960e+03,2.72125e+01,-4.10462e+01,0.00000e+00,0.00000e+00,0.00000e+00
1.44960e+03,2.64335e+01,-4.36115e+01,0.00000e+00,0.00000e+00,0.00000e+00
1.44960e+03,2.55347e+01,-4.61769e+01,0.00000e+00,0.00000e+00,0.00000e+00
1.44960e+03,2.45863e+01,-4.87423e+01,0.00000e+00,0.00000e+00,0.00000e+00
1.44960e+03,2.34997e+01,-5.13077e+01,0.00000e+00,0.00000e+00,0.00000e+00
1.44960e+03,2.23022e+01,-5.38731e+01,0.00000e+00,0.00000e+00,0.00000e+00
1.44960e+03,2.09919e+01,-5.64385e+01,0.00000e+00,0.00000e+00,0.00000e+00
1.44960e+03,1.94923e+01,-5.90039e+01,0.00000e+00,0.00000e+00,0.00000e+00
1.44960e+03,1.77735e+01,-6.15692e+01,0.00000e+00,0.00000e+00,0.00000e+00
1.44960e+03,1.58069e+01,-6.41346e+01,0.00000e+00,0.00000e+00,0.00000e+00
1.44960e+03,1.34808e+01,-6.67000e+01,0.00000e+00,0.00000e+00,0.00000e+00
1.44960e+03,1.04950e+01,-6.92654e+01,0.00000e+00,0.00000e+00,0.00000e+00
1.44960e+03,6.45692e+00,-7.18308e+01,0.00000e+00,0.00000e+00,0.00000e+00
1.44960e+03,-2.61629e+00,-7.43962e+01,0.00000e+00,0.00000e+00,0.00000e+00
1.44960e+03,-3.27111e+00,-7.44021e+01,0.00000e+00,0.00000e+00,0.00000e+00
1.44960e+03,-9.23696e+00,-7.17449e+01,0.00000e+00,0.00000e+00,0.00000e+00
1.44960e+03,-9.95928e+00,-6.90877e+01,0.00000e+00,0.00000e+00,0.00000e+00
1.44960e+03,-1.02085e+01,-6.64305e+01,0.00000e+00,0.00000e+00,0.00000e+00
1.44960e+03,-1.02464e+01,-6.37732e+01,0.00000e+00,0.00000e+00,0.00000e+00
1.44960e+03,-1.01249e+01,-6.11160e+01,0.00000e+00,0.00000e+00,0.00000e+00
1.44960e+03,-9.90345e+00,-5.84588e+01,0.00000e+00,0.00000e+00,0.00000e+00
1.44960e+03,-9.58164e+00,-5.58016e+01,0.00000e+00,0.00000e+00,0.00000e+00
1.44960e+03,-9.19861e+00,-5.31444e+01,0.00000e+00,0.00000e+00,0.00000e+00
1.44960e+03,-8.78006e+00,-5.04872e+01,0.00000e+00,0.00000e+00,0.00000e+00
1.44960e+03,-8.30801e+00,-4.78299e+01,0.00000e+00,0.00000e+00,0.00000e+00
1.44960e+03,-7.80252e+00,-4.51727e+01,0.00000e+00,0.00000e+00,0.00000e+00
1.44960e+03,-7.26447e+00,-4.25155e+01,0.00000e+00,0.00000e+00,0.00000e+00
1.44960e+03,-6.69398e+00,-3.98583e+01,0.00000e+00,0.00000e+00,0.00000e+00
1.44960e+03,-6.10316e+00,-3.72011e+01,0.00000e+00,0.00000e+00,0.00000e+00
1.44960e+03,-5.48628e+00,-3.45438e+01,0.00000e+00,0.00000e+00,0.00000e+00
1.44960e+03,-4.85273e+00,-3.18866e+01,0.00000e+00,0.00000e+00,0.00000e+00
1.44960e+03,-4.20421e+00,-2.92294e+01,0.00000e+00,0.00000e+00,0.00000e+00
1.44960e+03,-3.54234e+00,-2.65722e+01,0.00000e+00,0.00000e+00,0.00000e+00
1.44960e+03,-2.87482e+00,-2.39150e+01,0.00000e+00,0.00000e+00,0.00000e+00
1.44960e+03,-2.19854e+00,-2.12577e+01,0.00000e+00,0.00000e+00,0.00000e+00
1.44960e+03,-1.52080e+00,-1.86005e+01,0.00000e+00,0.00000e+00,0.00000e+00
1.44960e+03,-8.37821e-01,-1.59433e+01,0.00000e+00,0.00000e+00,0.00000e+00
1.44960e+03,-1.54916e-01,-1.32861e+01,0.00000e+00,0.00000e+00,0.00000e+00
1.44960e+03,5.25408e-01,-1.06289e+01,0.00000e+00,0.00000e+00,0.00000e+00
1.44960e+03,1.20573e+00,-7.97166e+00,0.00000e+00,0.00000e+00,0.00000e+00
1.44960e+03,1.86995e+00,-5.31444e+00,0.00000e+00,0.00000e+00,0.00000e+00
1.44960e+03,2.53116e+00,-2.65722e+00,0.00000e+00,0.00000e+00,0.00000e+00
1.52340e+03,3.25736e+01,0.00000e+00,0.00000e+00,0.00000e+00,0.00000e+00
1.52340e+03,3.24095e+01,-2.47525e+00,0.00000e+00,0.00000e+00,0.00000e+00
1.52340e+03,3.21913e+01,-4.95049e+00,0.00000e+00,0.00000e+00,0.00000e+00
1.52340e+03,3.19709e+01,-7.42574e+00,0.00000e+00,0.00000e+00,0.00000e+00
1.52340e+03,3.17026e+01,-9.90099e+00,0.00000e+00,0.00000e+00,0.00000e+00
1.52340e+03,3.14232e+01,-1.23762e+01,0.00000e+00,0.00000e+00,0.00000e+00
1.52340e+03,3.11072e+01,-1.48515e+01,0.00000e+00,0.00000e+00,0.00000e+00
1.52340e+03,3.07733e+01,-1.73267e+01,0.00000e+00,0.00000e+00,0.00000e+00
1.52340e+03,3.04098e+01,-1.98020e+01,0.00000e+00,0.00000e+00,0.00000e+00
1.52340e+03,3.00222e+01,-2.22772e+01,0.00000e+00,0.00000e+00,0.00000e+00
1.52340e+03,2.96079e+01,-2.47525e+01,0.00000e+00,0.00000e+00,0.00000e+00
1.52340e+03,2.91613e+01,-2.72277e+01,0.00000e+00,0.00000e+00,0.00000e+00
1.52340e+03,2.86816e+01,-2.97030e+01,0.00000e+00,0.00000e+00,0.00000e+00
1.52340e+03,2.81552e+01,-3.21782e+01,0.00000e+00,0.00000e+00,0.00000e+00
1.52340e+03,2.75832e+01,-3.46535e+01,0.00000e+00,0.00000e+00,0.00000e+00
1.52340e+03,2.69567e+01,-3.71287e+01,0.00000e+00,0.00000e+00,0.00000e+00
1.52340e+03,2.62564e+01,-3.96040e+01,0.00000e+00,0.00000e+00,0.00000e+00
1.52340e+03,2.55047e+01,-4.20792e+01,0.00000e+00,0.00000e+00,0.00000e+00
1.52340e+03,2.46375e+01,-4.45544e+01,0.00000e+00,0.00000e+00,0.00000e+00
1.52340e+03,2.37225e+01,-4.70297e+01,0.00000e+00,0.00000e+00,0.00000e+00
1.52340e+03,2.26740e+01,-4.95049e+01,0.00000e+00,0.00000e+00,0.00000e+00
1.52340e+03,2.15185e+01,-5.19802e+01,0.00000e+00,0.00000e+00,0.00000e+00
1.52340e+03,2.02543e+01,-5.44554e+01,0.00000e+00,0.00000e+00,0.00000e+00
1.52340e+03,1.88075e+01,-5.69307e+01,0.00000e+00,0.00000e+00,0.00000e+00
1.52340e+03,1.71490e+01,-5.94059e+01,0.00000e+00,0.00000e+00,0.00000e+00
1.52340e+03,1.52515e+01,-6.18812e+01,0.00000e+00,0.00000e+00,0.00000e+00
1.52340e+03,1.30071e+01,-6.43564e+01,0.00000e+00,0.00000e+00,0.00000e+00
1.52340e+03,1.01263e+01,-6.68317e+01,0.00000e+00,0.00000e+00,0.00000e+00
1.52340e+03,6.23005e+00,-6.93069e+01,0.00000e+00,0.00000e+00,0.00000e+00
1.52340e+03,-2.52437e+00,-7.17822e+01,0.00000e+00,0.00000e+00,0.00000e+00
1.52340e+03,-3.15618e+00,-7.17879e+01,0.00000e+00,0.00000e+00,0.00000e+00
1.52340e+03,-8.91241e+00,-6.92241e+01,0.00000e+00,0.00000e+00,0.00000e+00
1.52340e+03,-9.60935e+00,-6.66602e+01,0.00000e+00,0.00000e+00,0.00000e+00
1.52340e+03,-9.84985e+00,-6.40963e+01,0.00000e+00,0.00000e+00,0.00000e+00
1.52340e+03,-9.88634e+00,-6.15325e+01,0.00000e+00,0.00000e+00,0.00000e+00
1.52340e+03,-9.76914e+00,-5.89686e+01,0.00000e+00,0.00000e+00,0.00000e+00
1.52340e+03,-9.55548e+00,-5.64048e+01,0.00000e+00,0.00000e+00,0.00000e+00
1.52340e+03,-9.24498e+00,-5.38409e+01,0.00000e+00,0.00000e+00,0.00000e+00
1.52340e+03,-8.87540e+00,-5.12771e+01,0.00000e+00,0.00000e+00,0.00000e+00
1.52340e+03,-8.47156e+00,-4.87132e+01,0.00000e+00,0.00000e+00,0.00000e+00
1.52340e+03,-8.01609e+00,-4.61494e+01,0.00000e+00,0.00000e+00,0.00000e+00
1.52340e+03,-7.52837e+00,-4.35855e+01,0.00000e+00,0.00000e+00,0.00000e+00
1.52340e+03,-7.00922e+00,-4.10217e+01,0.00000e+00,0.00000e+00,0.00000e+00
1.52340e+03,-6.45878e+00,-3.84578e+01,0.00000e+00,0.00000e+00,0.00000e+00
1.52340e+03,-5.88872e+00,-3.58940e+01,0.00000e+00,0.00000e+00,0.00000e+00
1.52340e+03,-5.29352e+00,-3.33301e+01,0.00000e+00,0.00000e+00,0.00000e+00
1.52340e+03,-4.68222e+00,-3.07662e+01,0.00000e+00,0.00000e+00,0.00000e+00
1.52340e+03,-4.05649e+00,-2.82024e+01,0.00000e+00,0.00000e+00,0.00000e+00
1.52340e+03,-3.41788e+00,-2.56385e+01,0.00000e+00,0.00000e+00,0.00000e+00
1.52340e+03,-2.77381e+00,-2.30747e+01,0.00000e+00,0.00000e+00,0.00000e+00
1.52340e+03,-2.12129e+00,-2.05108e+01,0.00000e+00,0.00000e+00,0.00000e+00
1.52340e+03,-1.46736e+00,-1.79470e+01,0.00000e+00,0.00000e+00,0.00000e+00
1.52340e+03,-8.08383e-01,-1.53831e+01,0.00000e+00,0.00000e+00,0.00000e+00
1.52340e+03,-1.49473e-01,-1.28193e+01,0.00000e+00,0.00000e+00,0.00000e+00
1.52340e+03,5.06948e-01,-1.02554e+01,0.00000e+00,0.00000e+00,0.00000e+00
1.52340e+03,1.16337e+00,-7.69156e+00,0.00000e+00,0.00000e+00,0.00000e+00
1.52340e+03,1.80424e+00,-5.12771e+00,0.00000e+00,0.00000e+00,0.00000e+00
1.52340e+03,2.44222e+00,-2.56385e+00,0.00000e+00,0.00000e+00,0.00000e+00
1.59310e+03,3.14533e+01,0.00000e+00,0.00000e+00,0.00000e+00,0.00000e+00
1.59310e+03,3.12949e+01,-2.39012e+00,0.00000e+00,0.00000e+00,0.00000e+00
1.59310e+03,3.10841e+01,-4.78023e+00,0.00000e+00,0.00000e+00,0.00000e+00
1.59310e+03,3.08713e+01,-7.17035e+00,0.00000e+00,0.00000e+00,0.00000e+00
1.59310e+03,3.06123e+01,-9.56047e+00,0.00000e+00,0.00000e+00,0.00000e+00
1.59310e+03,3.03425e+01,-1.19506e+01,0.00000e+00,0.00000e+00,0.00000e+00
1.59310e+03,3.00373e+01,-1.43407e+01,0.00000e+00,0.00000e+00,0.00000e+00
1.59310e+03,2.97149e+01,-1.67308e+01,0.00000e+00,0.00000e+00,0.00000e+00
1.59310e+03,2.93640e+01,-1.91209e+01,0.00000e+00,0.00000e+00,0.00000e+00
1.59310e+03,2.89896e+01,-2.15111e+01,0.00000e+00,0.00000e+00,0.00000e+00
1.59310e+03,2.85896e+01,-2.39012e+01,0.00000e+00,0.00000e+00,0.00000e+00
1.59310e+03,2.81583e+01,-2.62913e+01,0.00000e+00,0.00000e+00,0.00000e+00
1.59310e+03,2.76952e+01,-2.86814e+01,0.00000e+00,0.00000e+00,0.00000e+00
1.59310e+03,2.71869e+01,-3.10715e+01,0.00000e+00,0.00000e+00,0.00000e+00
1.59310e+03,2.66345e+01,-3.34616e+01,0.00000e+00,0.00000e+00,0.00000e+00
1.59310e+03,2.60296e+01,-3.58518e+01,0.00000e+00,0.00000e+00,0.00000e+00
1.59310e+03,2.53533e+01,-3.82419e+01,0.00000e+00,0.00000e+00,0.00000e+00
1.59310e+03,2.46276e+01,-4.06320e+01,0.00000e+00,0.00000e+00,0.00000e+00
1.59310e+03,2.37902e+01,-4.30221e+01,0.00000e+00,0.00000e+00,0.00000e+00
1.59310e+03,2.29066e+01,-4.54122e+01,0.00000e+00,0.00000e+00,0.00000e+00
1.59310e+03,2.18941e+01,-4.78023e+01,0.00000e+00,0.00000e+00,0.00000e+00
1.59310e+03,2.07785e+01,-5.01925e+01,0.00000e+00,0.00000e+00,0.00000e+00
1.59310e+03,1.95577e+01,-5.25826e+01,0.00000e+00,0.00000e+00,0.00000e+00
1.59310e+03,1.81606e+01,-5.49727e+01,0.00000e+00,0.00000e+00,0.00000e+00
1.59310e+03,1.65592e+01,-5.73628e+01,0.00000e+00,0.00000e+00,0.00000e+00
1.59310e+03,1.47269e+01,-5.97529e+01,0.00000e+00,0.00000e+00,0.00000e+00
1.59310e+03,1.25597e+01,-6.21430e+01,0.00000e+00,0.00000e+00,0.00000e+00
1.59310e+03,9.77800e+00,-6.45332e+01,0.00000e+00,0.00000e+00,0.00000e+00
1.59310e+03,6.01578e+00,-6.69233e+01,0.00000e+00,0.00000e+00,0.00000e+00
1.59310e+03,-2.43755e+00,-6.93134e+01,0.00000e+00,0.00000e+00,0.00000e+00
1.59310e+03,-3.04763e+00,-6.93189e+01,0.00000e+00,0.00000e+00,0.00000e+00
1.59310e+03,-8.60589e+00,-6.68433e+01,0.00000e+00,0.00000e+00,0.00000e+00
1.59310e+03,-9.27886e+00,-6.43676e+01,0.00000e+00,0.00000e+00,0.00000e+00
1.59310e+03,-9.51109e+00,-6.18919e+01,0.00000e+00,0.00000e+00,0.00000e+00
1.59310e+03,-9.54632e+00,-5.94162e+01,0.00000e+00,0.00000e+00,0.00000e+00
1.59310e+03,-9.43315e+00,-5.69406e+01,0.00000e+00,0.00000e+00,0.00000e+00
1.59310e+03,-9.22684e+00,-5.44649e+01,0.00000e+00,0.00000e+00,0.00000e+00
1.59310e+03,-8.92702e+00,-5.19892e+01,0.00000e+00,0.00000e+00,0.00000e+00
1.59310e+03,-8.57016e+00,-4.95135e+01,0.00000e+00,0.00000e+00,0.00000e+00
1.59310e+03,-8.18020e+00,-4.70379e+01,0.00000e+00,0.00000e+00,0.00000e+00
1.59310e+03,-7.74040e+00,-4.45622e+01,0.00000e+00,0.00000e+00,0.00000e+00
1.59310e+03,-7.26945e+00,-4.20865e+01,0.00000e+00,0.00000e+00,0.00000e+00
1.59310e+03,-6.76816e+00,-3.96108e+01,0.00000e+00,0.00000e+00,0.00000e+00
1.59310e+03,-6.23665e+00,-3.71351e+01,0.00000e+00,0.00000e+00,0.00000e+00
1.59310e+03,-5.68619e+00,-3.46595e+01,0.00000e+00,0.00000e+00,0.00000e+00
1.59310e+03,-5.11146e+00,-3.21838e+01,0.00000e+00,0.00000e+00,0.00000e+00
1.59310e+03,-4.52119e+00,-2.97081e+01,0.00000e+00,0.00000e+00,0.00000e+00
1.59310e+03,-3.91698e+00,-2.72324e+01,0.00000e+00,0.00000e+00,0.00000e+00
1.59310e+03,-3.30033e+00,-2.47568e+01,0.00000e+00,0.00000e+00,0.00000e+00
1.59310e+03,-2.67841e+00,-2.22811e+01,0.00000e+00,0.00000e+00,0.00000e+00
1.59310e+03,-2.04833e+00,-1.98054e+01,0.00000e+00,0.00000e+00,0.00000e+00
1.59310e+03,-1.41689e+00,-1.73297e+01,0.00000e+00,0.00000e+00,0.00000e+00
1.59310e+03,-7.80581e-01,-1.48541e+01,0.00000e+00,0.00000e+00,0.00000e+00
1.59310e+03,-1.44332e-01,-1.23784e+01,0.00000e+00,0.00000e+00,0.00000e+00
1.59310e+03,4.89512e-01,-9.90271e+00,0.00000e+00,0.00000e+00,0.00000e+00
1.59310e+03,1.12336e+00,-7.42703e+00,0.00000e+00,0.00000e+00,0.00000e+00
1.59310e+03,1.74219e+00,-4.95135e+00,0.00000e+00,0.00000e+00,0.00000e+00
1.59310e+03,2.35823e+00,-2.47568e+00,0.00000e+00,0.00000e+00,0.00000e+00
1.65850e+03,3.04021e+01,0.00000e+00,0.00000e+00,0.00000e+00,0.00000e+00
1.65850e+03,3.02490e+01,-2.31024e+00,0.00000e+00,0.00000e+00,0.00000e+00
1.65850e+03,3.00453e+01,-4.62048e+00,0.00000e+00,0.00000e+00,0.00000e+00
1.65850e+03,2.98396e+01,-6.93072e+00,0.00000e+00,0.00000e+00,0.00000e+00
1.65850e+03,2.95892e+01,-9.24096e+00,0.00000e+00,0.00000e+00,0.00000e+00
1.65850e+03,2.93285e+01,-1.15512e+01,0.00000e+00,0.00000e+00,0.00000e+00
1.65850e+03,2.90335e+01,-1.38614e+01,0.00000e+00,0.00000e+00,0.00000e+00
1.65850e+03,2.87218e+01,-1.61717e+01,0.00000e+00,0.00000e+00,0.00000e+00
1.65850e+03,2.83826e+01,-1.84819e+01,0.00000e+00,0.00000e+00,0.00000e+00
1.65850e+03,2.80208e+01,-2.07921e+01,0.00000e+00,0.00000e+00,0.00000e+00
1.65850e+03,2.76341e+01,-2.31024e+01,0.00000e+00,0.00000e+00,0.00000e+00
1.65850e+03,2.72173e+01,-2.54126e+01,0.00000e+00,0.00000e+00,0.00000e+00
1.65850e+03,2.67696e+01,-2.77229e+01,0.00000e+00,0.00000e+00,0.00000e+00
1.65850e+03,2.62783e+01,-3.00331e+01,0.00000e+00,0.00000e+00,0.00000e+00
1.65850e+03,2.57444e+01,-3.23433e+01,0.00000e+00,0.00000e+00,0.00000e+00
1.65850e+03,2.51597e+01,-3.46536e+01,0.00000e+00,0.00000e+00,0.00000e+00
1.65850e+03,2.45060e+01,-3.69638e+01,0.00000e+00,0.00000e+00,0.00000e+00
1.65850e+03,2.38045e+01,-3.92741e+01,0.00000e+00,0.00000e+00,0.00000e+00
1.65850e+03,2.29951e+01,-4.15843e+01,0.00000e+00,0.00000e+00,0.00000e+00
1.65850e+03,2.21410e+01,-4.38945e+01,0.00000e+00,0.00000e+00,0.00000e+00
1.65850e+03,2.11624e+01,-4.62048e+01,0.00000e+00,0.00000e+00,0.00000e+00
1.65850e+03,2.00840e+01,-4.85150e+01,0.00000e+00,0.00000e+00,0.00000e+00
1.65850e+03,1.89041e+01,-5.08253e+01,0.00000e+00,0.00000e+00,0.00000e+00
1.65850e+03,1.75537e+01,-5.31355e+01,0.00000e+00,0.00000e+00,0.00000e+00
1.65850e+03,1.60058e+01,-5.54457e+01,0.00000e+00,0.00000e+00,0.00000e+00
1.65850e+03,1.42348e+01,-5.77560e+01,0.00000e+00,0.00000e+00,0.00000e+00
1.65850e+03,1.21400e+01,-6.00662e+01,0.00000e+00,0.00000e+00,0.00000e+00
1.65850e+03,9.45122e+00,-6.23764e+01,0.00000e+00,0.00000e+00,0.00000e+00
1.65850e+03,5.81473e+00,-6.46867e+01,0.00000e+00,0.00000e+00,0.00000e+00
1.65850e+03,-2.35608e+00,-6.69969e+01,0.00000e+00,0.00000e+00,0.00000e+00
1.65850e+03,-2.94577e+00,-6.70023e+01,0.00000e+00,0.00000e+00,0.00000e+00
1.65850e+03,-8.31828e+00,-6.46093e+01,0.00000e+00,0.00000e+00,0.00000e+00
1.65850e+03,-8.96876e+00,-6.22164e+01,0.00000e+00,0.00000e+00,0.00000e+00
1.65850e+03,-9.19322e+00,-5.98235e+01,0.00000e+00,0.00000e+00,0.00000e+00
1.65850e+03,-9.22728e+00,-5.74305e+01,0.00000e+00,0.00000e+00,0.00000e+00
1.65850e+03,-9.11789e+00,-5.50376e+01,0.00000e+00,0.00000e+00,0.00000e+00
1.65850e+03,-8.91848e+00,-5.26447e+01,0.00000e+00,0.00000e+00,0.00000e+00
1.65850e+03,-8.62868e+00,-5.02517e+01,0.00000e+00,0.00000e+00,0.00000e+00
1.65850e+03,-8.28374e+00,-4.78588e+01,0.00000e+00,0.00000e+00,0.00000e+00
1.65850e+03,-7.90682e+00,-4.54658e+01,0.00000e+00,0.00000e+00,0.00000e+00
1.65850e+03,-7.48171e+00,-4.30729e+01,0.00000e+00,0.00000e+00,0.00000e+00
1.65850e+03,-7.02650e+00,-4.06800e+01,0.00000e+00,0.00000e+00,0.00000e+00
1.65850e+03,-6.54196e+00,-3.82870e+01,0.00000e+00,0.00000e+00,0.00000e+00
1.65850e+03,-6.02822e+00,-3.58941e+01,0.00000e+00,0.00000e+00,0.00000e+00
1.65850e+03,-5.49615e+00,-3.35011e+01,0.00000e+00,0.00000e+00,0.00000e+00
1.65850e+03,-4.94063e+00,-3.11082e+01,0.00000e+00,0.00000e+00,0.00000e+00
1.65850e+03,-4.37009e+00,-2.87153e+01,0.00000e+00,0.00000e+00,0.00000e+00
1.65850e+03,-3.78607e+00,-2.63223e+01,0.00000e+00,0.00000e+00,0.00000e+00
1.65850e+03,-3.19003e+00,-2.39294e+01,0.00000e+00,0.00000e+00,0.00000e+00
1.65850e+03,-2.58890e+00,-2.15364e+01,0.00000e+00,0.00000e+00,0.00000e+00
1.65850e+03,-1.97988e+00,-1.91435e+01,0.00000e+00,0.00000e+00,0.00000e+00
1.65850e+03,-1.36954e+00,-1.67506e+01,0.00000e+00,0.00000e+00,0.00000e+00
1.65850e+03,-7.54494e-01,-1.43576e+01,0.00000e+00,0.00000e+00,0.00000e+00
1.65850e+03,-1.39508e-01,-1.19647e+01,0.00000e+00,0.00000e+00,0.00000e+00
1.65850e+03,4.73153e-01,-9.57176e+00,0.00000e+00,0.00000e+00,0.00000e+00
1.65850e+03,1.08581e+00,-7.17882e+00,0.00000e+00,0.00000e+00,0.00000e+00
1.65850e+03,1.68397e+00,-4.78588e+00,0.00000e+00,0.00000e+00,0.00000e+00
1.65850e+03,2.27942e+00,-2.39294e+00,0.00000e+00,0.00000e+00,0.00000e+00
1.71930e+03,2.94249e+01,0.00000e+00,0.00000e+00,0.00000e+00,0.00000e+00
1.71930e+03,2.92767e+01,-2.23598e+00,0.00000e+00,0.00000e+00,0.00000e+00
1.71930e+03,2.90795e+01,-4.47196e+00,0.00000e+00,0.00000e+00,0.00000e+00
1.71930e+03,2.88804e+01,-6.70794e+00,0.00000e+00,0.00000e+00,0.00000e+00
1.71930e+03,2.86381e+01,-8.94392e+00,0.00000e+00,0.00000e+00,0.00000e+00
1.71930e+03,2.83857e+01,-1.11799e+01,0.00000e+00,0.00000e+00,0.00000e+00
1.71930e+03,2.81002e+01,-1.34159e+01,0.00000e+00,0.00000e+00,0.00000e+00
1.71930e+03,2.77986e+01,-1.56519e+01,0.00000e+00,0.00000e+00,0.00000e+00
1.71930e+03,2.74703e+01,-1.78878e+01,0.00000e+00,0.00000e+00,0.00000e+00
1.71930e+03,2.71201e+01,-2.01238e+01,0.00000e+00,0.00000e+00,0.00000e+00
1.71930e+03,2.67458e+01,-2.23598e+01,0.00000e+00,0.00000e+00,0.00000e+00
1.71930e+03,2.63424e+01,-2.45958e+01,0.00000e+00,0.00000e+00,0.00000e+00
1.71930e+03,2.59091e+01,-2.68317e+01,0.00000e+00,0.00000e+00,0.00000e+00
1.71930e+03,2.54336e+01,-2.90677e+01,0.00000e+00,0.00000e+00,0.00000e+00
1.71930e+03,2.49169e+01,-3.13037e+01,0.00000e+00,0.00000e+00,0.00000e+00
1.71930e+03,2.43509e+01,-3.35397e+01,0.00000e+00,0.00000e+00,0.00000e+00
1.71930e+03,2.37183e+01,-3.57757e+01,0.00000e+00,0.00000e+00,0.00000e+00
1.71930e+03,2.30393e+01,-3.80116e+01,0.00000e+00,0.00000e+00,0.00000e+00
1.71930e+03,2.22560e+01,-4.02476e+01,0.00000e+00,0.00000e+00,0.00000e+00
1.71930e+03,2.14293e+01,-4.24836e+01,0.00000e+00,0.00000e+00,0.00000e+00
1.71930e+03,2.04822e+01,-4.47196e+01,0.00000e+00,0.00000e+00,0.00000e+00
1.71930e+03,1.94385e+01,-4.69556e+01,0.00000e+00,0.00000e+00,0.00000e+00
1.71930e+03,1.82964e+01,-4.91915e+01,0.00000e+00,0.00000e+00,0.00000e+00
1.71930e+03,1.69894e+01,-5.14275e+01,0.00000e+00,0.00000e+00,0.00000e+00
1.71930e+03,1.54913e+01,-5.36635e+01,0.00000e+00,0.00000e+00,0.00000e+00
1.71930e+03,1.37772e+01,-5.58995e+01,0.00000e+00,0.00000e+00,0.00000e+00
1.71930e+03,1.17498e+01,-5.81355e+01,0.00000e+00,0.00000e+00,0.00000e+00
1.71930e+03,9.14742e+00,-6.03714e+01,0.00000e+00,0.00000e+00,0.00000e+00
1.71930e+03,5.62782e+00,-6.26074e+01,0.00000e+00,0.00000e+00,0.00000e+00
1.71930e+03,-2.28035e+00,-6.48434e+01,0.00000e+00,0.00000e+00,0.00000e+00
1.71930e+03,-2.85109e+00,-6.48486e+01,0.00000e+00,0.00000e+00,0.00000e+00
1.71930e+03,-8.05090e+00,-6.25326e+01,0.00000e+00,0.00000e+00,0.00000e+00
1.71930e+03,-8.68047e+00,-6.02165e+01,0.00000e+00,0.00000e+00,0.00000e+00
1.71930e+03,-8.89772e+00,-5.79005e+01,0.00000e+00,0.00000e+00,0.00000e+00
1.71930e+03,-8.93068e+00,-5.55845e+01,0.00000e+00,0.00000e+00,0.00000e+00
1.71930e+03,-8.82481e+00,-5.32685e+01,0.00000e+00,0.00000e+00,0.00000e+00
1.71930e+03,-8.63181e+00,-5.09525e+01,0.00000e+00,0.00000e+00,0.00000e+00
1.71930e+03,-8.35132e+00,-4.86364e+01,0.00000e+00,0.00000e+00,0.00000e+00
1.71930e+03,-8.01747e+00,-4.63204e+01,0.00000e+00,0.00000e+00,0.00000e+00
1.71930e+03,-7.65266e+00,-4.40044e+01,0.00000e+00,0.00000e+00,0.00000e+00
1.71930e+03,-7.24122e+00,-4.16884e+01,0.00000e+00,0.00000e+00,0.00000e+00
1.71930e+03,-6.80064e+00,-3.93724e+01,0.00000e+00,0.00000e+00,0.00000e+00
1.71930e+03,-6.33168e+00,-3.70563e+01,0.00000e+00,0.00000e+00,0.00000e+00
1.71930e+03,-5.83445e+00,-3.47403e+01,0.00000e+00,0.00000e+00,0.00000e+00
1.71930e+03,-5.31949e+00,-3.24243e+01,0.00000e+00,0.00000e+00,0.00000e+00
1.71930e+03,-4.78182e+00,-3.01083e+01,0.00000e+00,0.00000e+00,0.00000e+00
1.71930e+03,-4.22962e+00,-2.77922e+01,0.00000e+00,0.00000e+00,0.00000e+00
1.71930e+03,-3.66437e+00,-2.54762e+01,0.00000e+00,0.00000e+00,0.00000e+00
1.71930e+03,-3.08749e+00,-2.31602e+01,0.00000e+00,0.00000e+00,0.00000e+00
1.71930e+03,-2.50568e+00,-2.08442e+01,0.00000e+00,0.00000e+00,0.00000e+00
1.71930e+03,-1.91624e+00,-1.85282e+01,0.00000e+00,0.00000e+00,0.00000e+00
1.71930e+03,-1.32552e+00,-1.62121e+01,0.00000e+00,0.00000e+00,0.00000e+00
1.71930e+03,-7.30242e-01,-1.38961e+01,0.00000e+00,0.00000e+00,0.00000e+00
1.71930e+03,-1.35024e-01,-1.15801e+01,0.00000e+00,0.00000e+00,0.00000e+00
1.71930e+03,4.57944e-01,-9.26408e+00,0.00000e+00,0.00000e+00,0.00000e+00
1.71930e+03,1.05091e+00,-6.94806e+00,0.00000e+00,0.00000e+00,0.00000e+00
1.71930e+03,1.62984e+00,-4.63204e+00,0.00000e+00,0.00000e+00,0.00000e+00
1.71930e+03,2.20615e+00,-2.31602e+00,0.00000e+00,0.00000e+00,0.00000e+00
1.77540e+03,2.77303e+01,0.00000e+00,0.00000e+00,0.00000e+00,0.00000e+00
1.77540e+03,2.75906e+01,-2.10721e+00,0.00000e+00,0.00000e+00,0.00000e+00
1.77540e+03,2.74048e+01,-4.21442e+00,0.00000e+00,0.00000e+00,0.00000e+00
1.77540e+03,2.72172e+01,-6.32163e+00,0.00000e+00,0.00000e+00,0.00000e+00
1.77540e+03,2.69888e+01,-8.42884e+00,0.00000e+00,0.00000e+00,0.00000e+00
1.77540e+03,2.67510e+01,-1.05361e+01,0.00000e+00,0.00000e+00,0.00000e+00
1.77540e+03,2.64819e+01,-1.26433e+01,0.00000e+00,0.00000e+00,0.00000e+00
1.77540e+03,2.61977e+01,-1.47505e+01,0.00000e+00,0.00000e+00,0.00000e+00
1.77540e+03,2.58883e+01,-1.68577e+01,0.00000e+00,0.00000e+00,0.00000e+00
1.77540e+03,2.55583e+01,-1.89649e+01,0.00000e+00,0.00000e+00,0.00000e+00
1.77540e+03,2.52056e+01,-2.10721e+01,0.00000e+00,0.00000e+00,0.00000e+00
1.77540e+03,2.48254e+01,-2.31793e+01,0.00000e+00,0.00000e+00,0.00000e+00
1.77540e+03,2.44171e+01,-2.52865e+01,0.00000e+00,0.00000e+00,0.00000e+00
1.77540e+03,2.39689e+01,-2.73937e+01,0.00000e+00,0.00000e+00,0.00000e+00
1.77540e+03,2.34819e+01,-2.95009e+01,0.00000e+00,0.00000e+00,0.00000e+00
1.77540e+03,2.29486e+01,-3.16082e+01,0.00000e+00,0.00000e+00,0.00000e+00
1.77540e+03,2.23524e+01,-3.37154e+01,0.00000e+00,0.00000e+00,0.00000e+00
1.77540e+03,2.17125e+01,-3.58226e+01,0.00000e+00,0.00000e+00,0.00000e+00
1.77540e+03,2.09743e+01,-3.79298e+01,0.00000e+00,0.00000e+00,0.00000e+00
1.77540e+03,2.01952e+01,-4.00370e+01,0.00000e+00,0.00000e+00,0.00000e+00
1.77540e+03,1.93026e+01,-4.21442e+01,0.00000e+00,0.00000e+00,0.00000e+00
1.77540e+03,1.83190e+01,-4.42514e+01,0.00000e+00,0.00000e+00,0.00000e+00
1.77540e+03,1.72428e+01,-4.63586e+01,0.00000e+00,0.00000e+00,0.00000e+00
1.77540e+03,1.60110e+01,-4.84658e+01,0.00000e+00,0.00000e+00,0.00000e+00
1.77540e+03,1.45992e+01,-5.05731e+01,0.00000e+00,0.00000e+00,0.00000e+00
1.77540e+03,1.29838e+01,-5.26803e+01,0.00000e+00,0.00000e+00,0.00000e+00
1.77540e+03,1.10731e+01,-5.47875e+01,0.00000e+00,0.00000e+00,0.00000e+00
1.77540e+03,8.62063e+00,-5.68947e+01,0.00000e+00,0.00000e+00,0.00000e+00
1.77540e+03,5.30372e+00,-5.90019e+01,0.00000e+00,0.00000e+00,0.00000e+00
1.77540e+03,-2.14903e+00,-6.11091e+01,0.00000e+00,0.00000e+00,0.00000e+00
1.77540e+03,-2.68689e+00,-6.11140e+01,0.00000e+00,0.00000e+00,0.00000e+00
1.77540e+03,-7.58725e+00,-5.89314e+01,0.00000e+00,0.00000e+00,0.00000e+00
1.77540e+03,-8.18057e+00,-5.67487e+01,0.00000e+00,0.00000e+00,0.00000e+00
1.77540e+03,-8.38530e+00,-5.45661e+01,0.00000e+00,0.00000e+00,0.00000e+00
1.77540e+03,-8.41637e+00,-5.23834e+01,0.00000e+00,0.00000e+00,0.00000e+00
1.77540e+03,-8.31659e+00,-5.02008e+01,0.00000e+00,0.00000e+00,0.00000e+00
1.77540e+03,-8.13471e+00,-4.80181e+01,0.00000e+00,0.00000e+00,0.00000e+00
1.77540e+03,-7.87037e+00,-4.58355e+01,0.00000e+00,0.00000e+00,0.00000e+00
1.77540e+03,-7.55575e+00,-4.36529e+01,0.00000e+00,0.00000e+00,0.00000e+00
1.77540e+03,-7.21195e+00,-4.14702e+01,0.00000e+00,0.00000e+00,0.00000e+00
1.77540e+03,-6.82421e+00,-3.92876e+01,0.00000e+00,0.00000e+00,0.00000e+00
1.77540e+03,-6.40900e+00,-3.71049e+01,0.00000e+00,0.00000e+00,0.00000e+00
1.77540e+03,-5.96704e+00,-3.49223e+01,0.00000e+00,0.00000e+00,0.00000e+00
1.77540e+03,-5.49844e+00,-3.27396e+01,0.00000e+00,0.00000e+00,0.00000e+00
1.77540e+03,-5.01314e+00,-3.05570e+01,0.00000e+00,0.00000e+00,0.00000e+00
1.77540e+03,-4.50644e+00,-2.83744e+01,0.00000e+00,0.00000e+00,0.00000e+00
1.77540e+03,-3.98604e+00,-2.61917e+01,0.00000e+00,0.00000e+00,0.00000e+00
1.77540e+03,-3.45334e+00,-2.40091e+01,0.00000e+00,0.00000e+00,0.00000e+00
1.77540e+03,-2.90969e+00,-2.18264e+01,0.00000e+00,0.00000e+00,0.00000e+00
1.77540e+03,-2.36138e+00,-1.96438e+01,0.00000e+00,0.00000e+00,0.00000e+00
1.77540e+03,-1.80588e+00,-1.74611e+01,0.00000e+00,0.00000e+00,0.00000e+00
1.77540e+03,-1.24918e+00,-1.52785e+01,0.00000e+00,0.00000e+00,0.00000e+00
1.77540e+03,-6.88187e-01,-1.30959e+01,0.00000e+00,0.00000e+00,0.00000e+00
1.77540e+03,-1.27248e-01,-1.09132e+01,0.00000e+00,0.00000e+00,0.00000e+00
1.77540e+03,4.31571e-01,-8.73057e+00,0.00000e+00,0.00000e+00,0.00000e+00
1.77540e+03,9.90390e-01,-6.54793e+00,0.00000e+00,0.00000e+00,0.00000e+00
1.77540e+03,1.53598e+00,-4.36529e+00,0.00000e+00,0.00000e+00,0.00000e+00
1.77540e+03,2.07910e+00,-2.18264e+00,0.00000e+00,0.00000e+00,0.00000e+00
1.82660e+03,2.53092e+01,0.00000e+00,0.00000e+00,0.00000e+00,0.00000e+00
1.82660e+03,2.51817e+01,-1.92323e+00,0.00000e+00,0.00000e+00,0.00000e+00
1.82660e+03,2.50121e+01,-3.84646e+00,0.00000e+00,0.00000e+00,0.00000e+00
1.82660e+03,2.48409e+01,-5.76969e+00,0.00000e+00,0.00000e+00,0.00000e+00
1.82660e+03,2.46324e+01,-7.69292e+00,0.00000e+00,0.00000e+00,0.00000e+00
1.82660e+03,2.44154e+01,-9.61614e+00,0.00000e+00,0.00000e+00,0.00000e+00
1.82660e+03,2.41698e+01,-1.15394e+01,0.00000e+00,0.00000e+00,0.00000e+00
1.82660e+03,2.39103e+01,-1.34626e+01,0.00000e+00,0.00000e+00,0.00000e+00
1.82660e+03,2.36280e+01,-1.53858e+01,0.00000e+00,0.00000e+00,0.00000e+00
1.82660e+03,2.33268e+01,-1.73091e+01,0.00000e+00,0.00000e+00,0.00000e+00
1.82660e+03,2.30049e+01,-1.92323e+01,0.00000e+00,0.00000e+00,0.00000e+00
1.82660e+03,2.26579e+01,-2.11555e+01,0.00000e+00,0.00000e+00,0.00000e+00
1.82660e+03,2.22852e+01,-2.30787e+01,0.00000e+00,0.00000e+00,0.00000e+00
1.82660e+03,2.18762e+01,-2.50020e+01,0.00000e+00,0.00000e+00,0.00000e+00
1.82660e+03,2.14317e+01,-2.69252e+01,0.00000e+00,0.00000e+00,0.00000e+00
1.82660e+03,2.09449e+01,-2.88484e+01,0.00000e+00,0.00000e+00,0.00000e+00
1.82660e+03,2.04008e+01,-3.07717e+01,0.00000e+00,0.00000e+00,0.00000e+00
1.82660e+03,1.98168e+01,-3.26949e+01,0.00000e+00,0.00000e+00,0.00000e+00
1.82660e+03,1.91430e+01,-3.46181e+01,0.00000e+00,0.00000e+00,0.00000e+00
1.82660e+03,1.84320e+01,-3.65413e+01,0.00000e+00,0.00000e+00,0.00000e+00
1.82660e+03,1.76173e+01,-3.84646e+01,0.00000e+00,0.00000e+00,0.00000e+00
1.82660e+03,1.67196e+01,-4.03878e+01,0.00000e+00,0.00000e+00,0.00000e+00
1.82660e+03,1.57373e+01,-4.23110e+01,0.00000e+00,0.00000e+00,0.00000e+00
1.82660e+03,1.46131e+01,-4.42343e+01,0.00000e+00,0.00000e+00,0.00000e+00
1.82660e+03,1.33245e+01,-4.61575e+01,0.00000e+00,0.00000e+00,0.00000e+00
1.82660e+03,1.18502e+01,-4.80807e+01,0.00000e+00,0.00000e+00,0.00000e+00
1.82660e+03,1.01063e+01,-5.00040e+01,0.00000e+00,0.00000e+00,0.00000e+00
1.82660e+03,7.86795e+00,-5.19272e+01,0.00000e+00,0.00000e+00,0.00000e+00
1.82660e+03,4.84065e+00,-5.38504e+01,0.00000e+00,0.00000e+00,0.00000e+00
1.82660e+03,-1.96139e+00,-5.57736e+01,0.00000e+00,0.00000e+00,0.00000e+00
1.82660e+03,-2.45230e+00,-5.57781e+01,0.00000e+00,0.00000e+00,0.00000e+00
1.82660e+03,-6.92480e+00,-5.37860e+01,0.00000e+00,0.00000e+00,0.00000e+00
1.82660e+03,-7.46632e+00,-5.17940e+01,0.00000e+00,0.00000e+00,0.00000e+00
1.82660e+03,-7.65318e+00,-4.98019e+01,0.00000e+00,0.00000e+00,0.00000e+00
1.82660e+03,-7.68153e+00,-4.78098e+01,0.00000e+00,0.00000e+00,0.00000e+00
1.82660e+03,-7.59047e+00,-4.58177e+01,0.00000e+00,0.00000e+00,0.00000e+00
1.82660e+03,-7.42446e+00,-4.38257e+01,0.00000e+00,0.00000e+00,0.00000e+00
1.82660e+03,-7.18321e+00,-4.18336e+01,0.00000e+00,0.00000e+00,0.00000e+00
1.82660e+03,-6.89605e+00,-3.98415e+01,0.00000e+00,0.00000e+00,0.00000e+00
1.82660e+03,-6.58227e+00,-3.78494e+01,0.00000e+00,0.00000e+00,0.00000e+00
1.82660e+03,-6.22838e+00,-3.58574e+01,0.00000e+00,0.00000e+00,0.00000e+00
1.82660e+03,-5.84943e+00,-3.38653e+01,0.00000e+00,0.00000e+00,0.00000e+00
1.82660e+03,-5.44606e+00,-3.18732e+01,0.00000e+00,0.00000e+00,0.00000e+00
1.82660e+03,-5.01837e+00,-2.98811e+01,0.00000e+00,0.00000e+00,0.00000e+00
1.82660e+03,-4.57544e+00,-2.78891e+01,0.00000e+00,0.00000e+00,0.00000e+00
1.82660e+03,-4.11298e+00,-2.58970e+01,0.00000e+00,0.00000e+00,0.00000e+00
1.82660e+03,-3.63801e+00,-2.39049e+01,0.00000e+00,0.00000e+00,0.00000e+00
1.82660e+03,-3.15183e+00,-2.19128e+01,0.00000e+00,0.00000e+00,0.00000e+00
1.82660e+03,-2.65564e+00,-1.99208e+01,0.00000e+00,0.00000e+00,0.00000e+00
1.82660e+03,-2.15521e+00,-1.79287e+01,0.00000e+00,0.00000e+00,0.00000e+00
1.82660e+03,-1.64821e+00,-1.59366e+01,0.00000e+00,0.00000e+00,0.00000e+00
1.82660e+03,-1.14012e+00,-1.39445e+01,0.00000e+00,0.00000e+00,0.00000e+00
1.82660e+03,-6.28101e-01,-1.19525e+01,0.00000e+00,0.00000e+00,0.00000e+00
1.82660e+03,-1.16138e-01,-9.96038e+00,0.00000e+00,0.00000e+00,0.00000e+00
1.82660e+03,3.93890e-01,-7.96830e+00,0.00000e+00,0.00000e+00,0.00000e+00
1.82660e+03,9.03919e-01,-5.97623e+00,0.00000e+00,0.00000e+00,0.00000e+00
1.82660e+03,1.40187e+00,-3.98415e+00,0.00000e+00,0.00000e+00,0.00000e+00
1.82660e+03,1.89757e+00,-1.99208e+00,0.00000e+00,0.00000e+00,0.00000e+00
1.87280e+03,2.31244e+01,0.00000e+00,0.00000e+00,0.00000e+00,0.00000e+00
1.87280e+03,2.30080e+01,-1.75721e+00,0.00000e+00,0.00000e+00,0.00000e+00
1.87280e+03,2.28531e+01,-3.51443e+00,0.00000e+00,0.00000e+00,0.00000e+00
1.87280e+03,2.26966e+01,-5.27164e+00,0.00000e+00,0.00000e+00,0.00000e+00
1.87280e+03,2.25061e+01,-7.02886e+00,0.00000e+00,0.00000e+00,0.00000e+00
1.87280e+03,2.23078e+01,-8.78607e+00,0.00000e+00,0.00000e+00,0.00000e+00
1.87280e+03,2.20834e+01,-1.05433e+01,0.00000e+00,0.00000e+00,0.00000e+00
1.87280e+03,2.18464e+01,-1.23005e+01,0.00000e+00,0.00000e+00,0.00000e+00
1.87280e+03,2.15884e+01,-1.40577e+01,0.00000e+00,0.00000e+00,0.00000e+00
1.87280e+03,2.13132e+01,-1.58149e+01,0.00000e+00,0.00000e+00,0.00000e+00
1.87280e+03,2.10191e+01,-1.75721e+01,0.00000e+00,0.00000e+00,0.00000e+00
1.87280e+03,2.07020e+01,-1.93294e+01,0.00000e+00,0.00000e+00,0.00000e+00
1.87280e+03,2.03615e+01,-2.10866e+01,0.00000e+00,0.00000e+00,0.00000e+00
1.87280e+03,1.99878e+01,-2.28438e+01,0.00000e+00,0.00000e+00,0.00000e+00
1.87280e+03,1.95817e+01,-2.46010e+01,0.00000e+00,0.00000e+00,0.00000e+00
1.87280e+03,1.91369e+01,-2.63582e+01,0.00000e+00,0.00000e+00,0.00000e+00
1.87280e+03,1.86398e+01,-2.81154e+01,0.00000e+00,0.00000e+00,0.00000e+00
1.87280e+03,1.81062e+01,-2.98726e+01,0.00000e+00,0.00000e+00,0.00000e+00
1.87280e+03,1.74905e+01,-3.16299e+01,0.00000e+00,0.00000e+00,0.00000e+00
1.87280e+03,1.68409e+01,-3.33871e+01,0.00000e+00,0.00000e+00,0.00000e+00
1.87280e+03,1.60966e+01,-3.51443e+01,0.00000e+00,0.00000e+00,0.00000e+00
1.87280e+03,1.52763e+01,-3.69015e+01,0.00000e+00,0.00000e+00,0.00000e+00
1.87280e+03,1.43788e+01,-3.86587e+01,0.00000e+00,0.00000e+00,0.00000e+00
1.87280e+03,1.33517e+01,-4.04159e+01,0.00000e+00,0.00000e+00,0.00000e+00
1.87280e+03,1.21743e+01,-4.21731e+01,0.00000e+00,0.00000e+00,0.00000e+00
1.87280e+03,1.08272e+01,-4.39304e+01,0.00000e+00,0.00000e+00,0.00000e+00
1.87280e+03,9.23393e+00,-4.56876e+01,0.00000e+00,0.00000e+00,0.00000e+00
1.87280e+03,7.18879e+00,-4.74448e+01,0.00000e+00,0.00000e+00,0.00000e+00
1.87280e+03,4.42280e+00,-4.92020e+01,0.00000e+00,0.00000e+00,0.00000e+00
1.87280e+03,-1.79208e+00,-5.09592e+01,0.00000e+00,0.00000e+00,0.00000e+00
1.87280e+03,-2.24062e+00,-5.09633e+01,0.00000e+00,0.00000e+00,0.00000e+00
1.87280e+03,-6.32705e+00,-4.91432e+01,0.00000e+00,0.00000e+00,0.00000e+00
1.87280e+03,-6.82182e+00,-4.73231e+01,0.00000e+00,0.00000e+00,0.00000e+00
1.87280e+03,-6.99255e+00,-4.55029e+01,0.00000e+00,0.00000e+00,0.00000e+00
1.87280e+03,-7.01846e+00,-4.36828e+01,0.00000e+00,0.00000e+00,0.00000e+00
1.87280e+03,-6.93525e+00,-4.18627e+01,0.00000e+00,0.00000e+00,0.00000e+00
1.87280e+03,-6.78358e+00,-4.00426e+01,0.00000e+00,0.00000e+00,0.00000e+00
1.87280e+03,-6.56315e+00,-3.82225e+01,0.00000e+00,0.00000e+00,0.00000e+00
1.87280e+03,-6.30078e+00,-3.64024e+01,0.00000e+00,0.00000e+00,0.00000e+00
1.87280e+03,-6.01408e+00,-3.45822e+01,0.00000e+00,0.00000e+00,0.00000e+00
1.87280e+03,-5.69074e+00,-3.27621e+01,0.00000e+00,0.00000e+00,0.00000e+00
1.87280e+03,-5.34450e+00,-3.09420e+01,0.00000e+00,0.00000e+00,0.00000e+00
1.87280e+03,-4.97595e+00,-2.91219e+01,0.00000e+00,0.00000e+00,0.00000e+00
1.87280e+03,-4.58518e+00,-2.73018e+01,0.00000e+00,0.00000e+00,0.00000e+00
1.87280e+03,-4.18049e+00,-2.54816e+01,0.00000e+00,0.00000e+00,0.00000e+00
1.87280e+03,-3.75794e+00,-2.36615e+01,0.00000e+00,0.00000e+00,0.00000e+00
1.87280e+03,-3.32398e+00,-2.18414e+01,0.00000e+00,0.00000e+00,0.00000e+00
1.87280e+03,-2.87976e+00,-2.00213e+01,0.00000e+00,0.00000e+00,0.00000e+00
1.87280e+03,-2.42640e+00,-1.82012e+01,0.00000e+00,0.00000e+00,0.00000e+00
1.87280e+03,-1.96917e+00,-1.63811e+01,0.00000e+00,0.00000e+00,0.00000e+00
1.87280e+03,-1.50594e+00,-1.45609e+01,0.00000e+00,0.00000e+00,0.00000e+00
1.87280e+03,-1.04170e+00,-1.27408e+01,0.00000e+00,0.00000e+00,0.00000e+00
1.87280e+03,-5.73883e-01,-1.09207e+01,0.00000e+00,0.00000e+00,0.00000e+00
1.87280e+03,-1.06113e-01,-9.10059e+00,0.00000e+00,0.00000e+00,0.00000e+00
1.87280e+03,3.59890e-01,-7.28047e+00,0.00000e+00,0.00000e+00,0.00000e+00
1.87280e+03,8.25892e-01,-5.46035e+00,0.00000e+00,0.00000e+00,0.00000e+00
1.87280e+03,1.28086e+00,-3.64024e+00,0.00000e+00,0.00000e+00,0.00000e+00
1.87280e+03,1.73377e+00,-1.82012e+00,0.00000e+00,0.00000e+00,0.00000e+00
1.91380e+03,2.11856e+01,0.00000e+00,0.00000e+00,0.00000e+00,0.00000e+00
1.91380e+03,2.10789e+01,-1.60989e+00,0.00000e+00,0.00000e+00,0.00000e+00
1.91380e+03,2.09370e+01,-3.21977e+00,0.00000e+00,0.00000e+00,0.00000e+00
1.91380e+03,2.07936e+01,-4.82966e+00,0.00000e+00,0.00000e+00,0.00000e+00
1.91380e+03,2.06192e+01,-6.43954e+00,0.00000e+00,0.00000e+00,0.00000e+00
1.91380e+03,2.04375e+01,-8.04943e+00,0.00000e+00,0.00000e+00,0.00000e+00
1.91380e+03,2.02319e+01,-9.65931e+00,0.00000e+00,0.00000e+00,0.00000e+00
1.91380e+03,2.00147e+01,-1.12692e+01,0.00000e+00,0.00000e+00,0.00000e+00
1.91380e+03,1.97784e+01,-1.28791e+01,0.00000e+00,0.00000e+00,0.00000e+00
1.91380e+03,1.95262e+01,-1.44890e+01,0.00000e+00,0.00000e+00,0.00000e+00
1.91380e+03,1.92568e+01,-1.60989e+01,0.00000e+00,0.00000e+00,0.00000e+00
1.91380e+03,1.89663e+01,-1.77087e+01,0.00000e+00,0.00000e+00,0.00000e+00
1.91380e+03,1.86544e+01,-1.93186e+01,0.00000e+00,0.00000e+00,0.00000e+00
1.91380e+03,1.83120e+01,-2.09285e+01,0.00000e+00,0.00000e+00,0.00000e+00
1.91380e+03,1.79399e+01,-2.25384e+01,0.00000e+00,0.00000e+00,0.00000e+00
1.91380e+03,1.75325e+01,-2.41483e+01,0.00000e+00,0.00000e+00,0.00000e+00
1.91380e+03,1.70770e+01,-2.57582e+01,0.00000e+00,0.00000e+00,0.00000e+00
1.91380e+03,1.65881e+01,-2.73680e+01,0.00000e+00,0.00000e+00,0.00000e+00
1.91380e+03,1.60241e+01,-2.89779e+01,0.00000e+00,0.00000e+00,0.00000e+00
1.91380e+03,1.54289e+01,-3.05878e+01,0.00000e+00,0.00000e+00,0.00000e+00
1.91380e+03,1.47470e+01,-3.21977e+01,0.00000e+00,0.00000e+00,0.00000e+00
1.91380e+03,1.39955e+01,-3.38076e+01,0.00000e+00,0.00000e+00,0.00000e+00
1.91380e+03,1.31733e+01,-3.54175e+01,0.00000e+00,0.00000e+00,0.00000e+00
1.91380e+03,1.22322e+01,-3.70274e+01,0.00000e+00,0.00000e+00,0.00000e+00
1.91380e+03,1.11536e+01,-3.86372e+01,0.00000e+00,0.00000e+00,0.00000e+00
1.91380e+03,9.91946e+00,-4.02471e+01,0.00000e+00,0.00000e+00,0.00000e+00
1.91380e+03,8.45973e+00,-4.18570e+01,0.00000e+00,0.00000e+00,0.00000e+00
1.91380e+03,6.58606e+00,-4.34669e+01,0.00000e+00,0.00000e+00,0.00000e+00
1.91380e+03,4.05198e+00,-4.50768e+01,0.00000e+00,0.00000e+00,0.00000e+00
1.91380e+03,-1.64183e+00,-4.66867e+01,0.00000e+00,0.00000e+00,0.00000e+00
1.91380e+03,-2.05276e+00,-4.66904e+01,0.00000e+00,0.00000e+00,0.00000e+00
1.91380e+03,-5.79657e+00,-4.50229e+01,0.00000e+00,0.00000e+00,0.00000e+00
1.91380e+03,-6.24986e+00,-4.33554e+01,0.00000e+00,0.00000e+00,0.00000e+00
1.91380e+03,-6.40628e+00,-4.16879e+01,0.00000e+00,0.00000e+00,0.00000e+00
1.91380e+03,-6.43001e+00,-4.00204e+01,0.00000e+00,0.00000e+00,0.00000e+00
1.91380e+03,-6.35378e+00,-3.83528e+01,0.00000e+00,0.00000e+00,0.00000e+00
1.91380e+03,-6.21483e+00,-3.66853e+01,0.00000e+00,0.00000e+00,0.00000e+00
1.91380e+03,-6.01288e+00,-3.50178e+01,0.00000e+00,0.00000e+00,0.00000e+00
1.91380e+03,-5.77251e+00,-3.33503e+01,0.00000e+00,0.00000e+00,0.00000e+00
1.91380e+03,-5.50985e+00,-3.16828e+01,0.00000e+00,0.00000e+00,0.00000e+00
1.91380e+03,-5.21362e+00,-3.00153e+01,0.00000e+00,0.00000e+00,0.00000e+00
1.91380e+03,-4.89640e+00,-2.83477e+01,0.00000e+00,0.00000e+00,0.00000e+00
1.91380e+03,-4.55876e+00,-2.66802e+01,0.00000e+00,0.00000e+00,0.00000e+00
1.91380e+03,-4.20075e+00,-2.50127e+01,0.00000e+00,0.00000e+00,0.00000e+00
1.91380e+03,-3.82998e+00,-2.33452e+01,0.00000e+00,0.00000e+00,0.00000e+00
1.91380e+03,-3.44287e+00,-2.16777e+01,0.00000e+00,0.00000e+00,0.00000e+00
1.91380e+03,-3.04529e+00,-2.00102e+01,0.00000e+00,0.00000e+00,0.00000e+00
1.91380e+03,-2.63832e+00,-1.83427e+01,0.00000e+00,0.00000e+00,0.00000e+00
1.91380e+03,-2.22297e+00,-1.66751e+01,0.00000e+00,0.00000e+00,0.00000e+00
1.91380e+03,-1.80407e+00,-1.50076e+01,0.00000e+00,0.00000e+00,0.00000e+00
1.91380e+03,-1.37967e+00,-1.33401e+01,0.00000e+00,0.00000e+00,0.00000e+00
1.91380e+03,-9.54362e-01,-1.16726e+01,0.00000e+00,0.00000e+00,0.00000e+00
1.91380e+03,-5.25768e-01,-1.00051e+01,0.00000e+00,0.00000e+00,0.00000e+00
1.91380e+03,-9.72161e-02,-8.33757e+00,0.00000e+00,0.00000e+00,0.00000e+00
1.91380e+03,3.29716e-01,-6.67006e+00,0.00000e+00,0.00000e+00,0.00000e+00
1.91380e+03,7.56647e-01,-5.00254e+00,0.00000e+00,0.00000e+00,0.00000e+00
1.91380e+03,1.17347e+00,-3.33503e+00,0.00000e+00,0.00000e+00,0.00000e+00
1.91380e+03,1.58841e+00,-1.66751e+00,0.00000e+00,0.00000e+00,0.00000e+00
1.94970e+03,1.94880e+01,0.00000e+00,0.00000e+00,0.00000e+00,0.00000e+00
1.94970e+03,1.93899e+01,-1.48088e+00,0.00000e+00,0.00000e+00,0.00000e+00
1.94970e+03,1.92593e+01,-2.96177e+00,0.00000e+00,0.00000e+00,0.00000e+00
1.94970e+03,1.91274e+01,-4.44265e+00,0.00000e+00,0.00000e+00,0.00000e+00
1.94970e+03,1.89669e+01,-5.92353e+00,0.00000e+00,0.00000e+00,0.00000e+00
1.94970e+03,1.87998e+01,-7.40441e+00,0.00000e+00,0.00000e+00,0.00000e+00
1.94970e+03,1.86107e+01,-8.88530e+00,0.00000e+00,0.00000e+00,0.00000e+00
1.94970e+03,1.84109e+01,-1.03662e+01,0.00000e+00,0.00000e+00,0.00000e+00
1.94970e+03,1.81935e+01,-1.18471e+01,0.00000e+00,0.00000e+00,0.00000e+00
1.94970e+03,1.79616e+01,-1.33279e+01,0.00000e+00,0.00000e+00,0.00000e+00
1.94970e+03,1.77137e+01,-1.48088e+01,0.00000e+00,0.00000e+00,0.00000e+00
1.94970e+03,1.74465e+01,-1.62897e+01,0.00000e+00,0.00000e+00,0.00000e+00
1.94970e+03,1.71596e+01,-1.77706e+01,0.00000e+00,0.00000e+00,0.00000e+00
1.94970e+03,1.68446e+01,-1.92515e+01,0.00000e+00,0.00000e+00,0.00000e+00
1.94970e+03,1.65024e+01,-2.07324e+01,0.00000e+00,0.00000e+00,0.00000e+00
1.94970e+03,1.61276e+01,-2.22132e+01,0.00000e+00,0.00000e+00,0.00000e+00
1.94970e+03,1.57086e+01,-2.36941e+01,0.00000e+00,0.00000e+00,0.00000e+00
1.94970e+03,1.52589e+01,-2.51750e+01,0.00000e+00,0.00000e+00,0.00000e+00
1.94970e+03,1.47401e+01,-2.66559e+01,0.00000e+00,0.00000e+00,0.00000e+00
1.94970e+03,1.41926e+01,-2.81368e+01,0.00000e+00,0.00000e+00,0.00000e+00
1.94970e+03,1.35653e+01,-2.96177e+01,0.00000e+00,0.00000e+00,0.00000e+00
1.94970e+03,1.28740e+01,-3.10985e+01,0.00000e+00,0.00000e+00,0.00000e+00
1.94970e+03,1.21177e+01,-3.25794e+01,0.00000e+00,0.00000e+00,0.00000e+00
1.94970e+03,1.12521e+01,-3.40603e+01,0.00000e+00,0.00000e+00,0.00000e+00
1.94970e+03,1.02599e+01,-3.55412e+01,0.00000e+00,0.00000e+00,0.00000e+00
1.94970e+03,9.12460e+00,-3.70221e+01,0.00000e+00,0.00000e+00,0.00000e+00
1.94970e+03,7.78184e+00,-3.85029e+01,0.00000e+00,0.00000e+00,0.00000e+00
1.94970e+03,6.05831e+00,-3.99838e+01,0.00000e+00,0.00000e+00,0.00000e+00
1.94970e+03,3.72729e+00,-4.14647e+01,0.00000e+00,0.00000e+00,0.00000e+00
1.94970e+03,-1.51027e+00,-4.29456e+01,0.00000e+00,0.00000e+00,0.00000e+00
1.94970e+03,-1.88827e+00,-4.29490e+01,0.00000e+00,0.00000e+00,0.00000e+00
1.94970e+03,-5.33209e+00,-4.14151e+01,0.00000e+00,0.00000e+00,0.00000e+00
1.94970e+03,-5.74905e+00,-3.98812e+01,0.00000e+00,0.00000e+00,0.00000e+00
1.94970e+03,-5.89293e+00,-3.83473e+01,0.00000e+00,0.00000e+00,0.00000e+00
1.94970e+03,-5.91477e+00,-3.68135e+01,0.00000e+00,0.00000e+00,0.00000e+00
1.94970e+03,-5.84465e+00,-3.52796e+01,0.00000e+00,0.00000e+00,0.00000e+00
1.94970e+03,-5.71682e+00,-3.37457e+01,0.00000e+00,0.00000e+00,0.00000e+00
1.94970e+03,-5.53106e+00,-3.22118e+01,0.00000e+00,0.00000e+00,0.00000e+00
1.94970e+03,-5.30995e+00,-3.06779e+01,0.00000e+00,0.00000e+00,0.00000e+00
1.94970e+03,-5.06834e+00,-2.91440e+01,0.00000e+00,0.00000e+00,0.00000e+00
1.94970e+03,-4.79584e+00,-2.76101e+01,0.00000e+00,0.00000e+00,0.00000e+00
1.94970e+03,-4.50405e+00,-2.60762e+01,0.00000e+00,0.00000e+00,0.00000e+00
1.94970e+03,-4.19345e+00,-2.45423e+01,0.00000e+00,0.00000e+00,0.00000e+00
1.94970e+03,-3.86414e+00,-2.30084e+01,0.00000e+00,0.00000e+00,0.00000e+00
1.94970e+03,-3.52308e+00,-2.14745e+01,0.00000e+00,0.00000e+00,0.00000e+00
1.94970e+03,-3.16699e+00,-1.99406e+01,0.00000e+00,0.00000e+00,0.00000e+00
1.94970e+03,-2.80126e+00,-1.84067e+01,0.00000e+00,0.00000e+00,0.00000e+00
1.94970e+03,-2.42690e+00,-1.68728e+01,0.00000e+00,0.00000e+00,0.00000e+00
1.94970e+03,-2.04484e+00,-1.53389e+01,0.00000e+00,0.00000e+00,0.00000e+00
1.94970e+03,-1.65951e+00,-1.38050e+01,0.00000e+00,0.00000e+00,0.00000e+00
1.94970e+03,-1.26912e+00,-1.22712e+01,0.00000e+00,0.00000e+00,0.00000e+00
1.94970e+03,-8.77888e-01,-1.07373e+01,0.00000e+00,0.00000e+00,0.00000e+00
1.94970e+03,-4.83637e-01,-9.20336e+00,0.00000e+00,0.00000e+00,0.00000e+00
1.94970e+03,-8.94260e-02,-7.66947e+00,0.00000e+00,0.00000e+00,0.00000e+00
1.94970e+03,3.03295e-01,-6.13558e+00,0.00000e+00,0.00000e+00,0.00000e+00
1.94970e+03,6.96016e-01,-4.60168e+00,0.00000e+00,0.00000e+00,0.00000e+00
1.94970e+03,1.07944e+00,-3.06779e+00,0.00000e+00,0.00000e+00,0.00000e+00
1.94970e+03,1.46113e+00,-1.53389e+00,0.00000e+00,0.00000e+00,0.00000e+00
1.98010e+03,1.80504e+01,0.00000e+00,0.00000e+00,0.00000e+00,0.00000e+00
1.98010e+03,1.79595e+01,-1.37164e+00,0.00000e+00,0.00000e+00,0.00000e+00
1.98010e+03,1.78386e+01,-2.74329e+00,0.00000e+00,0.00000e+00,0.00000e+00
1.98010e+03,1.77165e+01,-4.11493e+00,0.00000e+00,0.00000e+00,0.00000e+00
1.98010e+03,1.75678e+01,-5.48657e+00,0.00000e+00,0.00000e+00,0.00000e+00
1.98010e+03,1.74130e+01,-6.85822e+00,0.00000e+00,0.00000e+00,0.00000e+00
1.98010e+03,1.72378e+01,-8.22986e+00,0.00000e+00,0.00000e+00,0.00000e+00
1.98010e+03,1.70528e+01,-9.60150e+00,0.00000e+00,0.00000e+00,0.00000e+00
1.98010e+03,1.68514e+01,-1.09731e+01,0.00000e+00,0.00000e+00,0.00000e+00
1.98010e+03,1.66366e+01,-1.23448e+01,0.00000e+00,0.00000e+00,0.00000e+00
1.98010e+03,1.64070e+01,-1.37164e+01,0.00000e+00,0.00000e+00,0.00000e+00
1.98010e+03,1.61595e+01,-1.50881e+01,0.00000e+00,0.00000e+00,0.00000e+00
1.98010e+03,1.58938e+01,-1.64597e+01,0.00000e+00,0.00000e+00,0.00000e+00
1.98010e+03,1.56020e+01,-1.78314e+01,0.00000e+00,0.00000e+00,0.00000e+00
1.98010e+03,1.52851e+01,-1.92030e+01,0.00000e+00,0.00000e+00,0.00000e+00
1.98010e+03,1.49379e+01,-2.05747e+01,0.00000e+00,0.00000e+00,0.00000e+00
1.98010e+03,1.45498e+01,-2.19463e+01,0.00000e+00,0.00000e+00,0.00000e+00
1.98010e+03,1.41333e+01,-2.33179e+01,0.00000e+00,0.00000e+00,0.00000e+00
1.98010e+03,1.36527e+01,-2.46896e+01,0.00000e+00,0.00000e+00,0.00000e+00
1.98010e+03,1.31457e+01,-2.60612e+01,0.00000e+00,0.00000e+00,0.00000e+00
1.98010e+03,1.25646e+01,-2.74329e+01,0.00000e+00,0.00000e+00,0.00000e+00
1.98010e+03,1.19244e+01,-2.88045e+01,0.00000e+00,0.00000e+00,0.00000e+00
1.98010e+03,1.12238e+01,-3.01762e+01,0.00000e+00,0.00000e+00,0.00000e+00
1.98010e+03,1.04220e+01,-3.15478e+01,0.00000e+00,0.00000e+00,0.00000e+00
1.98010e+03,9.50303e+00,-3.29194e+01,0.00000e+00,0.00000e+00,0.00000e+00
1.98010e+03,8.45151e+00,-3.42911e+01,0.00000e+00,0.00000e+00,0.00000e+00
1.98010e+03,7.20780e+00,-3.56627e+01,0.00000e+00,0.00000e+00,0.00000e+00
1.98010e+03,5.61141e+00,-3.70344e+01,0.00000e+00,0.00000e+00,0.00000e+00
1.98010e+03,3.45234e+00,-3.84060e+01,0.00000e+00,0.00000e+00,0.00000e+00
1.98010e+03,-1.39886e+00,-3.97777e+01,0.00000e+00,0.00000e+00,0.00000e+00
1.98010e+03,-1.74898e+00,-3.97808e+01,0.00000e+00,0.00000e+00,0.00000e+00
1.98010e+03,-4.93876e+00,-3.83601e+01,0.00000e+00,0.00000e+00,0.00000e+00
1.98010e+03,-5.32496e+00,-3.69394e+01,0.00000e+00,0.00000e+00,0.00000e+00
1.98010e+03,-5.45823e+00,-3.55186e+01,0.00000e+00,0.00000e+00,0.00000e+00
1.98010e+03,-5.47846e+00,-3.40979e+01,0.00000e+00,0.00000e+00,0.00000e+00
1.98010e+03,-5.41351e+00,-3.26771e+01,0.00000e+00,0.00000e+00,0.00000e+00
1.98010e+03,-5.29511e+00,-3.12564e+01,0.00000e+00,0.00000e+00,0.00000e+00
1.98010e+03,-5.12305e+00,-2.98356e+01,0.00000e+00,0.00000e+00,0.00000e+00
1.98010e+03,-4.91825e+00,-2.84149e+01,0.00000e+00,0.00000e+00,0.00000e+00
1.98010e+03,-4.69446e+00,-2.69941e+01,0.00000e+00,0.00000e+00,0.00000e+00
1.98010e+03,-4.44207e+00,-2.55734e+01,0.00000e+00,0.00000e+00,0.00000e+00
1.98010e+03,-4.17180e+00,-2.41527e+01,0.00000e+00,0.00000e+00,0.00000e+00
1.98010e+03,-3.88412e+00,-2.27319e+01,0.00000e+00,0.00000e+00,0.00000e+00
1.98010e+03,-3.57909e+00,-2.13112e+01,0.00000e+00,0.00000e+00,0.00000e+00
1.98010e+03,-3.26320e+00,-1.98904e+01,0.00000e+00,0.00000e+00,0.00000e+00
1.98010e+03,-2.93337e+00,-1.84697e+01,0.00000e+00,0.00000e+00,0.00000e+00
1.98010e+03,-2.59462e+00,-1.70489e+01,0.00000e+00,0.00000e+00,0.00000e+00
1.98010e+03,-2.24788e+00,-1.56282e+01,0.00000e+00,0.00000e+00,0.00000e+00
1.98010e+03,-1.89400e+00,-1.42074e+01,0.00000e+00,0.00000e+00,0.00000e+00
1.98010e+03,-1.53709e+00,-1.27867e+01,0.00000e+00,0.00000e+00,0.00000e+00
1.98010e+03,-1.17550e+00,-1.13660e+01,0.00000e+00,0.00000e+00,0.00000e+00
1.98010e+03,-8.13129e-01,-9.94521e+00,0.00000e+00,0.00000e+00,0.00000e+00
1.98010e+03,-4.47961e-01,-8.52447e+00,0.00000e+00,0.00000e+00,0.00000e+00
1.98010e+03,-8.28294e-02,-7.10372e+00,0.00000e+00,0.00000e+00,0.00000e+00
1.98010e+03,2.80922e-01,-5.68298e+00,0.00000e+00,0.00000e+00,0.00000e+00
1.98010e+03,6.44673e-01,-4.26223e+00,0.00000e+00,0.00000e+00,0.00000e+00
1.98010e+03,9.99811e-01,-2.84149e+00,0.00000e+00,0.00000e+00,0.00000e+00
1.98010e+03,1.35334e+00,-1.42074e+00,0.00000e+00,0.00000e+00,0.00000e+00
2.00520e+03,1.68635e+01,0.00000e+00,0.00000e+00,0.00000e+00,0.00000e+00
2.00520e+03,1.67786e+01,-1.28145e+00,0.00000e+00,0.00000e+00,0.00000e+00
2.00520e+03,1.66656e+01,-2.56290e+00,0.00000e+00,0.00000e+00,0.00000e+00
2.00520e+03,1.65515e+01,-3.84435e+00,0.00000e+00,0.00000e+00,0.00000e+00
2.00520e+03,1.64126e+01,-5.12580e+00,0.00000e+00,0.00000e+00,0.00000e+00
2.00520e+03,1.62680e+01,-6.40725e+00,0.00000e+00,0.00000e+00,0.00000e+00
2.00520e+03,1.61044e+01,-7.68870e+00,0.00000e+00,0.00000e+00,0.00000e+00
2.00520e+03,1.59315e+01,-8.97015e+00,0.00000e+00,0.00000e+00,0.00000e+00
2.00520e+03,1.57433e+01,-1.02516e+01,0.00000e+00,0.00000e+00,0.00000e+00
2.00520e+03,1.55427e+01,-1.15330e+01,0.00000e+00,0.00000e+00,0.00000e+00
2.00520e+03,1.53282e+01,-1.28145e+01,0.00000e+00,0.00000e+00,0.00000e+00
2.00520e+03,1.50970e+01,-1.40959e+01,0.00000e+00,0.00000e+00,0.00000e+00
2.00520e+03,1.48486e+01,-1.53774e+01,0.00000e+00,0.00000e+00,0.00000e+00
2.00520e+03,1.45761e+01,-1.66588e+01,0.00000e+00,0.00000e+00,0.00000e+00
2.00520e+03,1.42800e+01,-1.79403e+01,0.00000e+00,0.00000e+00,0.00000e+00
2.00520e+03,1.39556e+01,-1.92217e+01,0.00000e+00,0.00000e+00,0.00000e+00
2.00520e+03,1.35931e+01,-2.05032e+01,0.00000e+00,0.00000e+00,0.00000e+00
2.00520e+03,1.32039e+01,-2.17846e+01,0.00000e+00,0.00000e+00,0.00000e+00
2.00520e+03,1.27550e+01,-2.30661e+01,0.00000e+00,0.00000e+00,0.00000e+00
2.00520e+03,1.22812e+01,-2.43475e+01,0.00000e+00,0.00000e+00,0.00000e+00
2.00520e+03,1.17384e+01,-2.56290e+01,0.00000e+00,0.00000e+00,0.00000e+00
2.00520e+03,1.11403e+01,-2.69104e+01,0.00000e+00,0.00000e+00,0.00000e+00
2.00520e+03,1.04858e+01,-2.81919e+01,0.00000e+00,0.00000e+00,0.00000e+00
2.00520e+03,9.73672e+00,-2.94733e+01,0.00000e+00,0.00000e+00,0.00000e+00
2.00520e+03,8.87814e+00,-3.07548e+01,0.00000e+00,0.00000e+00,0.00000e+00
2.00520e+03,7.89577e+00,-3.20362e+01,0.00000e+00,0.00000e+00,0.00000e+00
2.00520e+03,6.73385e+00,-3.33177e+01,0.00000e+00,0.00000e+00,0.00000e+00
2.00520e+03,5.24243e+00,-3.45991e+01,0.00000e+00,0.00000e+00,0.00000e+00
2.00520e+03,3.22533e+00,-3.58806e+01,0.00000e+00,0.00000e+00,0.00000e+00
2.00520e+03,-1.30688e+00,-3.71620e+01,0.00000e+00,0.00000e+00,0.00000e+00
2.00520e+03,-1.63397e+00,-3.71650e+01,0.00000e+00,0.00000e+00,0.00000e+00
2.00520e+03,-4.61400e+00,-3.58377e+01,0.00000e+00,0.00000e+00,0.00000e+00
2.00520e+03,-4.97481e+00,-3.45104e+01,0.00000e+00,0.00000e+00,0.00000e+00
2.00520e+03,-5.09932e+00,-3.31830e+01,0.00000e+00,0.00000e+00,0.00000e+00
2.00520e+03,-5.11821e+00,-3.18557e+01,0.00000e+00,0.00000e+00,0.00000e+00
2.00520e+03,-5.05754e+00,-3.05284e+01,0.00000e+00,0.00000e+00,0.00000e+00
2.00520e+03,-4.94693e+00,-2.92011e+01,0.00000e+00,0.00000e+00,0.00000e+00
2.00520e+03,-4.78618e+00,-2.78738e+01,0.00000e+00,0.00000e+00,0.00000e+00
2.00520e+03,-4.59485e+00,-2.65464e+01,0.00000e+00,0.00000e+00,0.00000e+00
2.00520e+03,-4.38577e+00,-2.52191e+01,0.00000e+00,0.00000e+00,0.00000e+00
2.00520e+03,-4.14998e+00,-2.38918e+01,0.00000e+00,0.00000e+00,0.00000e+00
2.00520e+03,-3.89748e+00,-2.25645e+01,0.00000e+00,0.00000e+00,0.00000e+00
2.00520e+03,-3.62871e+00,-2.12371e+01,0.00000e+00,0.00000e+00,0.00000e+00
2.00520e+03,-3.34375e+00,-1.99098e+01,0.00000e+00,0.00000e+00,0.00000e+00
2.00520e+03,-3.04862e+00,-1.85825e+01,0.00000e+00,0.00000e+00,0.00000e+00
2.00520e+03,-2.74048e+00,-1.72552e+01,0.00000e+00,0.00000e+00,0.00000e+00
2.00520e+03,-2.42401e+00,-1.59279e+01,0.00000e+00,0.00000e+00,0.00000e+00
2.00520e+03,-2.10007e+00,-1.46005e+01,0.00000e+00,0.00000e+00,0.00000e+00
2.00520e+03,-1.76946e+00,-1.32732e+01,0.00000e+00,0.00000e+00,0.00000e+00
2.00520e+03,-1.43602e+00,-1.19459e+01,0.00000e+00,0.00000e+00,0.00000e+00
2.00520e+03,-1.09820e+00,-1.06186e+01,0.00000e+00,0.00000e+00,0.00000e+00
2.00520e+03,-7.59661e-01,-9.29125e+00,0.00000e+00,0.00000e+00,0.00000e+00
2.00520e+03,-4.18505e-01,-7.96393e+00,0.00000e+00,0.00000e+00,0.00000e+00
2.00520e+03,-7.73829e-02,-6.63661e+00,0.00000e+00,0.00000e+00,0.00000e+00
2.00520e+03,2.62450e-01,-5.30929e+00,0.00000e+00,0.00000e+00,0.00000e+00
2.00520e+03,6.02282e-01,-3.98196e+00,0.00000e+00,0.00000e+00,0.00000e+00
2.00520e+03,9.34067e-01,-2.65464e+00,0.00000e+00,0.00000e+00,0.00000e+00
2.00520e+03,1.26435e+00,-1.32732e+00,0.00000e+00,0.00000e+00,0.00000e+00
2.02480e+03,1.59367e+01,0.00000e+00,0.00000e+00,0.00000e+00,0.00000e+00
2.02480e+03,1.58564e+01,-1.21102e+00,0.00000e+00,0.00000e+00,0.00000e+00
2.02480e+03,1.57496e+01,-2.42204e+00,0.00000e+00,0.00000e+00,0.00000e+00
2.02480e+03,1.56418e+01,-3.63306e+00,0.00000e+00,0.00000e+00,0.00000e+00
2.02480e+03,1.55106e+01,-4.84408e+00,0.00000e+00,0.00000e+00,0.00000e+00
2.02480e+03,1.53739e+01,-6.05509e+00,0.00000e+00,0.00000e+00,0.00000e+00
2.02480e+03,1.52192e+01,-7.26611e+00,0.00000e+00,0.00000e+00,0.00000e+00
2.02480e+03,1.50559e+01,-8.47713e+00,0.00000e+00,0.00000e+00,0.00000e+00
2.02480e+03,1.48781e+01,-9.68815e+00,0.00000e+00,0.00000e+00,0.00000e+00
2.02480e+03,1.46884e+01,-1.08992e+01,0.00000e+00,0.00000e+00,0.00000e+00
2.02480e+03,1.44857e+01,-1.21102e+01,0.00000e+00,0.00000e+00,0.00000e+00
2.02480e+03,1.42672e+01,-1.33212e+01,0.00000e+00,0.00000e+00,0.00000e+00
2.02480e+03,1.40325e+01,-1.45322e+01,0.00000e+00,0.00000e+00,0.00000e+00
2.02480e+03,1.37750e+01,-1.57432e+01,0.00000e+00,0.00000e+00,0.00000e+00
2.02480e+03,1.34951e+01,-1.69543e+01,0.00000e+00,0.00000e+00,0.00000e+00
2.02480e+03,1.31886e+01,-1.81653e+01,0.00000e+00,0.00000e+00,0.00000e+00
2.02480e+03,1.28460e+01,-1.93763e+01,0.00000e+00,0.00000e+00,0.00000e+00
2.02480e+03,1.24782e+01,-2.05873e+01,0.00000e+00,0.00000e+00,0.00000e+00
2.02480e+03,1.20540e+01,-2.17983e+01,0.00000e+00,0.00000e+00,0.00000e+00
2.02480e+03,1.16063e+01,-2.30094e+01,0.00000e+00,0.00000e+00,0.00000e+00
2.02480e+03,1.10933e+01,-2.42204e+01,0.00000e+00,0.00000e+00,0.00000e+00
2.02480e+03,1.05280e+01,-2.54314e+01,0.00000e+00,0.00000e+00,0.00000e+00
2.02480e+03,9.90946e+00,-2.66424e+01,0.00000e+00,0.00000e+00,0.00000e+00
2.02480e+03,9.20158e+00,-2.78534e+01,0.00000e+00,0.00000e+00,0.00000e+00
2.02480e+03,8.39019e+00,-2.90645e+01,0.00000e+00,0.00000e+00,0.00000e+00
2.02480e+03,7.46181e+00,-3.02755e+01,0.00000e+00,0.00000e+00,0.00000e+00
2.02480e+03,6.36374e+00,-3.14865e+01,0.00000e+00,0.00000e+00,0.00000e+00
2.02480e+03,4.95429e+00,-3.26975e+01,0.00000e+00,0.00000e+00,0.00000e+00
2.02480e+03,3.04806e+00,-3.39085e+01,0.00000e+00,0.00000e+00,0.00000e+00
2.02480e+03,-1.23505e+00,-3.51195e+01,0.00000e+00,0.00000e+00,0.00000e+00
2.02480e+03,-1.54416e+00,-3.51224e+01,0.00000e+00,0.00000e+00,0.00000e+00
2.02480e+03,-4.36041e+00,-3.38680e+01,0.00000e+00,0.00000e+00,0.00000e+00
2.02480e+03,-4.70139e+00,-3.26136e+01,0.00000e+00,0.00000e+00,0.00000e+00
2.02480e+03,-4.81905e+00,-3.13592e+01,0.00000e+00,0.00000e+00,0.00000e+00
2.02480e+03,-4.83691e+00,-3.01049e+01,0.00000e+00,0.00000e+00,0.00000e+00
2.02480e+03,-4.77957e+00,-2.88505e+01,0.00000e+00,0.00000e+00,0.00000e+00
2.02480e+03,-4.67504e+00,-2.75961e+01,0.00000e+00,0.00000e+00,0.00000e+00
2.02480e+03,-4.52312e+00,-2.63418e+01,0.00000e+00,0.00000e+00,0.00000e+00
2.02480e+03,-4.34231e+00,-2.50874e+01,0.00000e+00,0.00000e+00,0.00000e+00
2.02480e+03,-4.14473e+00,-2.38330e+01,0.00000e+00,0.00000e+00,0.00000e+00
2.02480e+03,-3.92189e+00,-2.25787e+01,0.00000e+00,0.00000e+00,0.00000e+00
2.02480e+03,-3.68327e+00,-2.13243e+01,0.00000e+00,0.00000e+00,0.00000e+00
2.02480e+03,-3.42927e+00,-2.00699e+01,0.00000e+00,0.00000e+00,0.00000e+00
2.02480e+03,-3.15997e+00,-1.88155e+01,0.00000e+00,0.00000e+00,0.00000e+00
2.02480e+03,-2.88106e+00,-1.75612e+01,0.00000e+00,0.00000e+00,0.00000e+00
2.02480e+03,-2.58986e+00,-1.63068e+01,0.00000e+00,0.00000e+00,0.00000e+00
2.02480e+03,-2.29078e+00,-1.50524e+01,0.00000e+00,0.00000e+00,0.00000e+00
2.02480e+03,-1.98465e+00,-1.37981e+01,0.00000e+00,0.00000e+00,0.00000e+00
2.02480e+03,-1.67220e+00,-1.25437e+01,0.00000e+00,0.00000e+00,0.00000e+00
2.02480e+03,-1.35709e+00,-1.12893e+01,0.00000e+00,0.00000e+00,0.00000e+00
2.02480e+03,-1.03784e+00,-1.00350e+01,0.00000e+00,0.00000e+00,0.00000e+00
2.02480e+03,-7.17909e-01,-8.78059e+00,0.00000e+00,0.00000e+00,0.00000e+00
2.02480e+03,-3.95503e-01,-7.52622e+00,0.00000e+00,0.00000e+00,0.00000e+00
2.02480e+03,-7.31298e-02,-6.27185e+00,0.00000e+00,0.00000e+00,0.00000e+00
2.02480e+03,2.48025e-01,-5.01748e+00,0.00000e+00,0.00000e+00,0.00000e+00
2.02480e+03,5.69180e-01,-3.76311e+00,0.00000e+00,0.00000e+00,0.00000e+00
2.02480e+03,8.82730e-01,-2.50874e+00,0.00000e+00,0.00000e+00,0.00000e+00
2.02480e+03,1.19486e+00,-1.25437e+00,0.00000e+00,0.00000e+00,0.00000e+00
2.03880e+03,1.52746e+01,0.00000e+00,0.00000e+00,0.00000e+00,0.00000e+00
2.03880e+03,1.51977e+01,-1.16071e+00,0.00000e+00,0.00000e+00,0.00000e+00
2.03880e+03,1.50954e+01,-2.32142e+00,0.00000e+00,0.00000e+00,0.00000e+00
2.03880e+03,1.49920e+01,-3.48213e+00,0.00000e+00,0.00000e+00,0.00000e+00
2.03880e+03,1.48662e+01,-4.64285e+00,0.00000e+00,0.00000e+00,0.00000e+00
2.03880e+03,1.47352e+01,-5.80356e+00,0.00000e+00,0.00000e+00,0.00000e+00
2.03880e+03,1.45870e+01,-6.96427e+00,0.00000e+00,0.00000e+00,0.00000e+00
2.03880e+03,1.44304e+01,-8.12498e+00,0.00000e+00,0.00000e+00,0.00000e+00
2.03880e+03,1.42600e+01,-9.28569e+00,0.00000e+00,0.00000e+00,0.00000e+00
2.03880e+03,1.40782e+01,-1.04464e+01,0.00000e+00,0.00000e+00,0.00000e+00
2.03880e+03,1.38839e+01,-1.16071e+01,0.00000e+00,0.00000e+00,0.00000e+00
2.03880e+03,1.36745e+01,-1.27678e+01,0.00000e+00,0.00000e+00,0.00000e+00
2.03880e+03,1.34496e+01,-1.39285e+01,0.00000e+00,0.00000e+00,0.00000e+00
2.03880e+03,1.32028e+01,-1.50892e+01,0.00000e+00,0.00000e+00,0.00000e+00
2.03880e+03,1.29345e+01,-1.62500e+01,0.00000e+00,0.00000e+00,0.00000e+00
2.03880e+03,1.26407e+01,-1.74107e+01,0.00000e+00,0.00000e+00,0.00000e+00
2.03880e+03,1.23123e+01,-1.85714e+01,0.00000e+00,0.00000e+00,0.00000e+00
2.03880e+03,1.19599e+01,-1.97321e+01,0.00000e+00,0.00000e+00,0.00000e+00
2.03880e+03,1.15532e+01,-2.08928e+01,0.00000e+00,0.00000e+00,0.00000e+00
2.03880e+03,1.11241e+01,-2.20535e+01,0.00000e+00,0.00000e+00,0.00000e+00
2.03880e+03,1.06324e+01,-2.32142e+01,0.00000e+00,0.00000e+00,0.00000e+00
2.03880e+03,1.00906e+01,-2.43749e+01,0.00000e+00,0.00000e+00,0.00000e+00
2.03880e+03,9.49781e+00,-2.55357e+01,0.00000e+00,0.00000e+00,0.00000e+00
2.03880e+03,8.81933e+00,-2.66964e+01,0.00000e+00,0.00000e+00,0.00000e+00
2.03880e+03,8.04165e+00,-2.78571e+01,0.00000e+00,0.00000e+00,0.00000e+00
2.03880e+03,7.15183e+00,-2.90178e+01,0.00000e+00,0.00000e+00,0.00000e+00
2.03880e+03,6.09938e+00,-3.01785e+01,0.00000e+00,0.00000e+00,0.00000e+00
2.03880e+03,4.74849e+00,-3.13392e+01,0.00000e+00,0.00000e+00,0.00000e+00
2.03880e+03,2.92144e+00,-3.24999e+01,0.00000e+00,0.00000e+00,0.00000e+00
2.03880e+03,-1.18374e+00,-3.36606e+01,0.00000e+00,0.00000e+00,0.00000e+00
2.03880e+03,-1.48002e+00,-3.36633e+01,0.00000e+00,0.00000e+00,0.00000e+00
2.03880e+03,-4.17927e+00,-3.24611e+01,0.00000e+00,0.00000e+00,0.00000e+00
2.03880e+03,-4.50609e+00,-3.12588e+01,0.00000e+00,0.00000e+00,0.00000e+00
2.03880e+03,-4.61886e+00,-3.00565e+01,0.00000e+00,0.00000e+00,0.00000e+00
2.03880e+03,-4.63598e+00,-2.88543e+01,0.00000e+00,0.00000e+00,0.00000e+00
2.03880e+03,-4.58102e+00,-2.76520e+01,0.00000e+00,0.00000e+00,0.00000e+00
2.03880e+03,-4.48083e+00,-2.64498e+01,0.00000e+00,0.00000e+00,0.00000e+00
2.03880e+03,-4.33523e+00,-2.52475e+01,0.00000e+00,0.00000e+00,0.00000e+00
2.03880e+03,-4.16192e+00,-2.40452e+01,0.00000e+00,0.00000e+00,0.00000e+00
2.03880e+03,-3.97255e+00,-2.28430e+01,0.00000e+00,0.00000e+00,0.00000e+00
2.03880e+03,-3.75897e+00,-2.16407e+01,0.00000e+00,0.00000e+00,0.00000e+00
2.03880e+03,-3.53026e+00,-2.04384e+01,0.00000e+00,0.00000e+00,0.00000e+00
2.03880e+03,-3.28682e+00,-1.92362e+01,0.00000e+00,0.00000e+00,0.00000e+00
2.03880e+03,-3.02870e+00,-1.80339e+01,0.00000e+00,0.00000e+00,0.00000e+00
2.03880e+03,-2.76138e+00,-1.68317e+01,0.00000e+00,0.00000e+00,0.00000e+00
2.03880e+03,-2.48228e+00,-1.56294e+01,0.00000e+00,0.00000e+00,0.00000e+00
2.03880e+03,-2.19562e+00,-1.44271e+01,0.00000e+00,0.00000e+00,0.00000e+00
2.03880e+03,-1.90220e+00,-1.32249e+01,0.00000e+00,0.00000e+00,0.00000e+00
2.03880e+03,-1.60274e+00,-1.20226e+01,0.00000e+00,0.00000e+00,0.00000e+00
2.03880e+03,-1.30072e+00,-1.08204e+01,0.00000e+00,0.00000e+00,0.00000e+00
2.03880e+03,-9.94731e-01,-9.61809e+00,0.00000e+00,0.00000e+00,0.00000e+00
2.03880e+03,-6.88086e-01,-8.41583e+00,0.00000e+00,0.00000e+00,0.00000e+00
2.03880e+03,-3.79073e-01,-7.21357e+00,0.00000e+00,0.00000e+00,0.00000e+00
2.03880e+03,-7.00919e-02,-6.01131e+00,0.00000e+00,0.00000e+00,0.00000e+00
2.03880e+03,2.37722e-01,-4.80905e+00,0.00000e+00,0.00000e+00,0.00000e+00
2.03880e+03,5.45535e-01,-3.60678e+00,0.00000e+00,0.00000e+00,0.00000e+00
2.03880e+03,8.46060e-01,-2.40452e+00,0.00000e+00,0.00000e+00,0.00000e+00
2.03880e+03,1.14523e+00,-1.20226e+00,0.00000e+00,0.00000e+00,0.00000e+00
2.04720e+03,1.48774e+01,0.00000e+00,0.00000e+00,0.00000e+00,0.00000e+00
2.04720e+03,1.48025e+01,-1.13053e+00,0.00000e+00,0.00000e+00,0.00000e+00
2.04720e+03,1.47028e+01,-2.26105e+00,0.00000e+00,0.00000e+00,0.00000e+00
2.04720e+03,1.46021e+01,-3.39158e+00,0.00000e+00,0.00000e+00,0.00000e+00
2.04720e+03,1.44796e+01,-4.52211e+00,0.00000e+00,0.00000e+00,0.00000e+00
2.04720e+03,1.43520e+01,-5.65264e+00,0.00000e+00,0.00000e+00,0.00000e+00
2.04720e+03,1.42077e+01,-6.78316e+00,0.00000e+00,0.00000e+00,0.00000e+00
2.04720e+03,1.40552e+01,-7.91369e+00,0.00000e+00,0.00000e+00,0.00000e+00
2.04720e+03,1.38892e+01,-9.04422e+00,0.00000e+00,0.00000e+00,0.00000e+00
2.04720e+03,1.37121e+01,-1.01747e+01,0.00000e+00,0.00000e+00,0.00000e+00
2.04720e+03,1.35229e+01,-1.13053e+01,0.00000e+00,0.00000e+00,0.00000e+00
2.04720e+03,1.33189e+01,-1.24358e+01,0.00000e+00,0.00000e+00,0.00000e+00
2.04720e+03,1.30998e+01,-1.35663e+01,0.00000e+00,0.00000e+00,0.00000e+00
2.04720e+03,1.28594e+01,-1.46969e+01,0.00000e+00,0.00000e+00,0.00000e+00
2.04720e+03,1.25982e+01,-1.58274e+01,0.00000e+00,0.00000e+00,0.00000e+00
2.04720e+03,1.23120e+01,-1.69579e+01,0.00000e+00,0.00000e+00,0.00000e+00
2.04720e+03,1.19922e+01,-1.80884e+01,0.00000e+00,0.00000e+00,0.00000e+00
2.04720e+03,1.16489e+01,-1.92190e+01,0.00000e+00,0.00000e+00,0.00000e+00
2.04720e+03,1.12528e+01,-2.03495e+01,0.00000e+00,0.00000e+00,0.00000e+00
2.04720e+03,1.08348e+01,-2.14800e+01,0.00000e+00,0.00000e+00,0.00000e+00
2.04720e+03,1.03559e+01,-2.26105e+01,0.00000e+00,0.00000e+00,0.00000e+00
2.04720e+03,9.82823e+00,-2.37411e+01,0.00000e+00,0.00000e+00,0.00000e+00
2.04720e+03,9.25081e+00,-2.48716e+01,0.00000e+00,0.00000e+00,0.00000e+00
2.04720e+03,8.58998e+00,-2.60021e+01,0.00000e+00,0.00000e+00,0.00000e+00
2.04720e+03,7.83252e+00,-2.71326e+01,0.00000e+00,0.00000e+00,0.00000e+00
2.04720e+03,6.96585e+00,-2.82632e+01,0.00000e+00,0.00000e+00,0.00000e+00
2.04720e+03,5.94077e+00,-2.93937e+01,0.00000e+00,0.00000e+00,0.00000e+00
2.04720e+03,4.62500e+00,-3.05242e+01,0.00000e+00,0.00000e+00,0.00000e+00
2.04720e+03,2.84547e+00,-3.16548e+01,0.00000e+00,0.00000e+00,0.00000e+00
2.04720e+03,-1.15296e+00,-3.27853e+01,0.00000e+00,0.00000e+00,0.00000e+00
2.04720e+03,-1.44153e+00,-3.27879e+01,0.00000e+00,0.00000e+00,0.00000e+00
2.04720e+03,-4.07059e+00,-3.16169e+01,0.00000e+00,0.00000e+00,0.00000e+00
2.04720e+03,-4.38891e+00,-3.04459e+01,0.00000e+00,0.00000e+00,0.00000e+00
2.04720e+03,-4.49875e+00,-2.92749e+01,0.00000e+00,0.00000e+00,0.00000e+00
2.04720e+03,-4.51542e+00,-2.81039e+01,0.00000e+00,0.00000e+00,0.00000e+00
2.04720e+03,-4.46189e+00,-2.69329e+01,0.00000e+00,0.00000e+00,0.00000e+00
2.04720e+03,-4.36430e+00,-2.57619e+01,0.00000e+00,0.00000e+00,0.00000e+00
2.04720e+03,-4.22249e+00,-2.45909e+01,0.00000e+00,0.00000e+00,0.00000e+00
2.04720e+03,-4.05369e+00,-2.34199e+01,0.00000e+00,0.00000e+00,0.00000e+00
2.04720e+03,-3.86924e+00,-2.22489e+01,0.00000e+00,0.00000e+00,0.00000e+00
2.04720e+03,-3.66121e+00,-2.10779e+01,0.00000e+00,0.00000e+00,0.00000e+00
2.04720e+03,-3.43845e+00,-1.99069e+01,0.00000e+00,0.00000e+00,0.00000e+00
2.04720e+03,-3.20134e+00,-1.87359e+01,0.00000e+00,0.00000e+00,0.00000e+00
2.04720e+03,-2.94994e+00,-1.75649e+01,0.00000e+00,0.00000e+00,0.00000e+00
2.04720e+03,-2.68957e+00,-1.63940e+01,0.00000e+00,0.00000e+00,0.00000e+00
2.04720e+03,-2.41772e+00,-1.52230e+01,0.00000e+00,0.00000e+00,0.00000e+00
2.04720e+03,-2.13852e+00,-1.40520e+01,0.00000e+00,0.00000e+00,0.00000e+00
2.04720e+03,-1.85273e+00,-1.28810e+01,0.00000e+00,0.00000e+00,0.00000e+00
2.04720e+03,-1.56106e+00,-1.17100e+01,0.00000e+00,0.00000e+00,0.00000e+00
2.04720e+03,-1.26689e+00,-1.05390e+01,0.00000e+00,0.00000e+00,0.00000e+00
2.04720e+03,-9.68863e-01,-9.36797e+00,0.00000e+00,0.00000e+00,0.00000e+00
2.04720e+03,-6.70192e-01,-8.19698e+00,0.00000e+00,0.00000e+00,0.00000e+00
2.04720e+03,-3.69215e-01,-7.02598e+00,0.00000e+00,0.00000e+00,0.00000e+00
2.04720e+03,-6.82691e-02,-5.85498e+00,0.00000e+00,0.00000e+00,0.00000e+00
2.04720e+03,2.31540e-01,-4.68399e+00,0.00000e+00,0.00000e+00,0.00000e+00
2.04720e+03,5.31348e-01,-3.51299e+00,0.00000e+00,0.00000e+00,0.00000e+00
2.04720e+03,8.24058e-01,-2.34199e+00,0.00000e+00,0.00000e+00,0.00000e+00
2.04720e+03,1.11544e+00,-1.17100e+00,0.00000e+00,0.00000e+00,0.00000e+00
2.05000e+03,1.47450e+01,0.00000e+00,0.00000e+00,0.00000e+00,0.00000e+00
2.05000e+03,1.46708e+01,-1.12047e+00,0.00000e+00,0.00000e+00,0.00000e+00
2.05000e+03,1.45720e+01,-2.24093e+00,0.00000e+00,0.00000e+00,0.00000e+00
2.05000e+03,1.44722e+01,-3.36140e+00,0.00000e+00,0.00000e+00,0.00000e+00
2.05000e+03,1.43508e+01,-4.48186e+00,0.00000e+00,0.00000e+00,0.00000e+00
2.05000e+03,1.42243e+01,-5.60233e+00,0.00000e+00,0.00000e+00,0.00000e+00
2.05000e+03,1.40812e+01,-6.72279e+00,0.00000e+00,0.00000e+00,0.00000e+00
2.05000e+03,1.39301e+01,-7.84326e+00,0.00000e+00,0.00000e+00,0.00000e+00
2.05000e+03,1.37656e+01,-8.96372e+00,0.00000e+00,0.00000e+00,0.00000e+00
2.05000e+03,1.35901e+01,-1.00842e+01,0.00000e+00,0.00000e+00,0.00000e+00
2.05000e+03,1.34025e+01,-1.12047e+01,0.00000e+00,0.00000e+00,0.00000e+00
2.05000e+03,1.32004e+01,-1.23251e+01,0.00000e+00,0.00000e+00,0.00000e+00
2.05000e+03,1.29833e+01,-1.34456e+01,0.00000e+00,0.00000e+00,0.00000e+00
2.05000e+03,1.27450e+01,-1.45661e+01,0.00000e+00,0.00000e+00,0.00000e+00
2.05000e+03,1.24860e+01,-1.56865e+01,0.00000e+00,0.00000e+00,0.00000e+00
2.05000e+03,1.22024e+01,-1.68070e+01,0.00000e+00,0.00000e+00,0.00000e+00
2.05000e+03,1.18854e+01,-1.79274e+01,0.00000e+00,0.00000e+00,0.00000e+00
2.05000e+03,1.15452e+01,-1.90479e+01,0.00000e+00,0.00000e+00,0.00000e+00
2.05000e+03,1.11526e+01,-2.01684e+01,0.00000e+00,0.00000e+00,0.00000e+00
2.05000e+03,1.07384e+01,-2.12888e+01,0.00000e+00,0.00000e+00,0.00000e+00
2.05000e+03,1.02638e+01,-2.24093e+01,0.00000e+00,0.00000e+00,0.00000e+00
2.05000e+03,9.74076e+00,-2.35298e+01,0.00000e+00,0.00000e+00,0.00000e+00
2.05000e+03,9.16848e+00,-2.46502e+01,0.00000e+00,0.00000e+00,0.00000e+00
2.05000e+03,8.51353e+00,-2.57707e+01,0.00000e+00,0.00000e+00,0.00000e+00
2.05000e+03,7.76281e+00,-2.68912e+01,0.00000e+00,0.00000e+00,0.00000e+00
2.05000e+03,6.90385e+00,-2.80116e+01,0.00000e+00,0.00000e+00,0.00000e+00
2.05000e+03,5.88790e+00,-2.91321e+01,0.00000e+00,0.00000e+00,0.00000e+00
2.05000e+03,4.58384e+00,-3.02526e+01,0.00000e+00,0.00000e+00,0.00000e+00
2.05000e+03,2.82014e+00,-3.13730e+01,0.00000e+00,0.00000e+00,0.00000e+00
2.05000e+03,-1.14270e+00,-3.24935e+01,0.00000e+00,0.00000e+00,0.00000e+00
2.05000e+03,-1.42870e+00,-3.24961e+01,0.00000e+00,0.00000e+00,0.00000e+00
2.05000e+03,-4.03436e+00,-3.13355e+01,0.00000e+00,0.00000e+00,0.00000e+00
2.05000e+03,-4.34985e+00,-3.01749e+01,0.00000e+00,0.00000e+00,0.00000e+00
2.05000e+03,-4.45871e+00,-2.90144e+01,0.00000e+00,0.00000e+00,0.00000e+00
2.05000e+03,-4.47523e+00,-2.78538e+01,0.00000e+00,0.00000e+00,0.00000e+00
2.05000e+03,-4.42218e+00,-2.66932e+01,0.00000e+00,0.00000e+00,0.00000e+00
2.05000e+03,-4.32546e+00,-2.55327e+01,0.00000e+00,0.00000e+00,0.00000e+00
2.05000e+03,-4.18491e+00,-2.43721e+01,0.00000e+00,0.00000e+00,0.00000e+00
2.05000e+03,-4.01761e+00,-2.32115e+01,0.00000e+00,0.00000e+00,0.00000e+00
2.05000e+03,-3.83480e+00,-2.20509e+01,0.00000e+00,0.00000e+00,0.00000e+00
2.05000e+03,-3.62863e+00,-2.08903e+01,0.00000e+00,0.00000e+00,0.00000e+00
2.05000e+03,-3.40785e+00,-1.97298e+01,0.00000e+00,0.00000e+00,0.00000e+00
2.05000e+03,-3.17285e+00,-1.85692e+01,0.00000e+00,0.00000e+00,0.00000e+00
2.05000e+03,-2.92368e+00,-1.74086e+01,0.00000e+00,0.00000e+00,0.00000e+00
2.05000e+03,-2.66563e+00,-1.62480e+01,0.00000e+00,0.00000e+00,0.00000e+00
2.05000e+03,-2.39621e+00,-1.50875e+01,0.00000e+00,0.00000e+00,0.00000e+00
2.05000e+03,-2.11949e+00,-1.39269e+01,0.00000e+00,0.00000e+00,0.00000e+00
2.05000e+03,-1.83624e+00,-1.27663e+01,0.00000e+00,0.00000e+00,0.00000e+00
2.05000e+03,-1.54717e+00,-1.16057e+01,0.00000e+00,0.00000e+00,0.00000e+00
2.05000e+03,-1.25562e+00,-1.04452e+01,0.00000e+00,0.00000e+00,0.00000e+00
2.05000e+03,-9.60241e-01,-9.28460e+00,0.00000e+00,0.00000e+00,0.00000e+00
2.05000e+03,-6.64227e-01,-8.12402e+00,0.00000e+00,0.00000e+00,0.00000e+00
2.05000e+03,-3.65929e-01,-6.96345e+00,0.00000e+00,0.00000e+00,0.00000e+00
2.05000e+03,-6.76615e-02,-5.80287e+00,0.00000e+00,0.00000e+00,0.00000e+00
2.05000e+03,2.29479e-01,-4.64230e+00,0.00000e+00,0.00000e+00,0.00000e+00
2.05000e+03,5.26620e-01,-3.48173e+00,0.00000e+00,0.00000e+00,0.00000e+00
2.05000e+03,8.16724e-01,-2.32115e+00,0.00000e+00,0.00000e+00,0.00000e+00
2.05000e+03,1.10552e+00,-1.16058e+00,0.00000e+00,0.00000e+00,0.00000e+00
--------------------------------------------------------------------------------------------------------------------------------------------------------------------------------------------------------------------------------------------------------------------------------------------------------------------------------------------------------------------------------

ALMA 
--------------------------------------------------------------------------------------------------------------------------------------------------------------------------------------------------------------------------------------------------------------------------------------------------------------------------------------------------------------------------------
X,Y,Z,Sigma,Tau,Von Mises
0.00000e+00,4.05613e+00,0.00000e+00,9.85179e-02,4.09556e-01,7.16181e-01
0.00000e+00,1.70710e+01,0.00000e+00,3.49798e-02,4.10018e-01,7.11033e-01
0.00000e+00,3.00859e+01,0.00000e+00,-2.85583e-02,4.10018e-01,7.10746e-01
0.00000e+00,4.31008e+01,0.00000e+00,-9.20964e-02,4.09566e-01,7.15342e-01
1.07300e+02,4.01639e+00,0.00000e+00,8.79852e-02,3.86642e-01,6.75438e-01
1.07300e+02,1.69038e+01,0.00000e+00,3.12472e-02,3.87074e-01,6.71160e-01
1.07300e+02,2.97912e+01,0.00000e+00,-2.54908e-02,3.87074e-01,6.70916e-01
1.07300e+02,4.26785e+01,0.00000e+00,-8.22287e-02,3.86651e-01,6.74728e-01
2.14300e+02,3.97676e+00,0.00000e+00,7.80204e-02,3.63609e-01,6.34603e-01
2.14300e+02,1.67370e+01,0.00000e+00,2.77157e-02,3.64012e-01,6.31097e-01
2.14300e+02,2.94972e+01,0.00000e+00,-2.25891e-02,3.64012e-01,6.30892e-01
2.14300e+02,4.22575e+01,0.00000e+00,-7.28939e-02,3.63617e-01,6.34008e-01
3.20700e+02,3.93736e+00,0.00000e+00,6.86628e-02,3.40109e-01,5.93073e-01
3.20700e+02,1.65712e+01,0.00000e+00,2.43990e-02,3.40483e-01,5.90238e-01
3.20700e+02,2.92050e+01,0.00000e+00,-1.98649e-02,3.40483e-01,5.90068e-01
3.20700e+02,4.18388e+01,0.00000e+00,-6.41287e-02,3.40116e-01,5.92579e-01
4.26200e+02,3.89829e+00,0.00000e+00,5.99489e-02,3.16588e-01,5.51614e-01
4.26200e+02,1.64067e+01,0.00000e+00,2.13101e-02,3.16933e-01,5.49358e-01
4.26200e+02,2.89151e+01,0.00000e+00,-1.73288e-02,3.16933e-01,5.49218e-01
4.26200e+02,4.14236e+01,0.00000e+00,-5.59676e-02,3.16595e-01,5.51208e-01
5.30600e+02,3.85963e+00,0.00000e+00,5.18926e-02,2.93152e-01,5.10398e-01
5.30600e+02,1.62440e+01,0.00000e+00,1.84539e-02,2.93468e-01,5.08637e-01
5.30600e+02,2.86284e+01,0.00000e+00,-1.49847e-02,2.93468e-01,5.08523e-01
5.30600e+02,4.10127e+01,0.00000e+00,-4.84234e-02,2.93158e-01,5.10068e-01
6.33500e+02,3.82152e+00,0.00000e+00,4.45136e-02,2.69860e-01,4.69526e-01
6.33500e+02,1.60836e+01,0.00000e+00,1.58375e-02,2.70149e-01,4.68180e-01
6.33500e+02,2.83457e+01,0.00000e+00,-1.28387e-02,2.70149e-01,4.68088e-01
6.33500e+02,4.06078e+01,0.00000e+00,-4.15149e-02,2.69866e-01,4.69261e-01
7.34700e+02,3.78404e+00,0.00000e+00,3.78074e-02,2.46816e-01,4.29167e-01
7.34700e+02,1.59259e+01,0.00000e+00,1.34587e-02,2.47079e-01,4.28165e-01
7.34700e+02,2.80677e+01,0.00000e+00,-1.08900e-02,2.47079e-01,4.28091e-01
7.34700e+02,4.02095e+01,0.00000e+00,-3.52387e-02,2.46821e-01,4.28957e-01
8.33800e+02,3.74734e+00,0.00000e+00,3.17751e-02,2.24172e-01,3.89575e-01
8.33800e+02,1.57714e+01,0.00000e+00,1.13180e-02,2.24408e-01,3.88851e-01
8.33800e+02,2.77955e+01,0.00000e+00,-9.13914e-03,2.24408e-01,3.88794e-01
8.33800e+02,3.98196e+01,0.00000e+00,-2.95962e-02,2.24176e-01,3.89411e-01
9.30700e+02,3.71145e+00,0.00000e+00,2.63932e-02,2.01986e-01,3.50845e-01
9.30700e+02,1.56204e+01,0.00000e+00,9.40686e-03,2.02198e-01,3.50344e-01
9.30700e+02,2.75293e+01,0.00000e+00,-7.57943e-03,2.02198e-01,3.50300e-01
9.30700e+02,3.94382e+01,0.00000e+00,-2.45657e-02,2.01991e-01,3.50719e-01
1.02500e+03,3.67653e+00,0.00000e+00,2.16469e-02,1.80606e-01,3.13567e-01
1.02500e+03,1.54734e+01,0.00000e+00,7.72038e-03,1.80795e-01,3.13241e-01
1.02500e+03,2.72703e+01,0.00000e+00,-6.20617e-03,1.80795e-01,3.13207e-01
1.02500e+03,3.90671e+01,0.00000e+00,-2.01327e-02,1.80610e-01,3.13473e-01
1.11650e+03,3.64264e+00,0.00000e+00,1.75083e-02,1.59704e-01,2.77169e-01
1.11650e+03,1.53308e+01,0.00000e+00,6.24878e-03,1.59870e-01,2.76974e-01
1.11650e+03,2.70189e+01,0.00000e+00,-5.01076e-03,1.59870e-01,2.76948e-01
1.11650e+03,3.87070e+01,0.00000e+00,-1.62703e-02,1.59707e-01,2.77099e-01
1.20500e+03,3.54704e+00,0.00000e+00,1.99912e-02,1.41282e-01,2.45523e-01
1.20500e+03,1.49284e+01,0.00000e+00,7.17642e-03,1.41487e-01,2.45167e-01
1.20500e+03,2.63098e+01,0.00000e+00,-5.63832e-03,1.41487e-01,2.45127e-01
1.20500e+03,3.76912e+01,0.00000e+00,-1.84531e-02,1.41288e-01,2.45412e-01
1.29010e+03,3.41832e+00,0.00000e+00,1.61996e-02,1.27104e-01,2.20746e-01
1.29010e+03,1.43867e+01,0.00000e+00,5.81749e-03,1.27282e-01,2.20536e-01
1.29010e+03,2.53550e+01,0.00000e+00,-4.56467e-03,1.27282e-01,2.20507e-01
1.29010e+03,3.63234e+01,0.00000e+00,-1.49468e-02,1.27109e-01,2.20666e-01
1.37170e+03,3.29489e+00,0.00000e+00,1.28780e-02,1.13022e-01,1.96183e-01
1.37170e+03,1.38672e+01,0.00000e+00,4.62653e-03,1.13175e-01,1.96080e-01
1.37170e+03,2.44395e+01,0.00000e+00,-3.62499e-03,1.13175e-01,1.96059e-01
1.37170e+03,3.50118e+01,0.00000e+00,-1.18765e-02,1.13026e-01,1.96127e-01
1.44960e+03,3.17706e+00,0.00000e+00,1.00138e-02,9.93276e-02,1.72332e-01
1.44960e+03,1.33713e+01,0.00000e+00,3.59899e-03,9.94579e-02,1.72304e-01
1.44960e+03,2.35655e+01,0.00000e+00,-2.81582e-03,9.94579e-02,1.72289e-01
1.44960e+03,3.37597e+01,0.00000e+00,-9.23064e-03,9.93307e-02,1.72293e-01
1.52340e+03,3.06543e+00,0.00000e+00,7.59788e-03,8.57717e-02,1.48755e-01
1.52340e+03,1.29015e+01,0.00000e+00,2.73174e-03,8.58807e-02,1.48775e-01
1.52340e+03,2.27375e+01,0.00000e+00,-2.13439e-03,8.58807e-02,1.48765e-01
1.52340e+03,3.25736e+01,0.00000e+00,-7.00053e-03,8.57743e-02,1.48730e-01
1.59310e+03,2.96000e+00,0.00000e+00,5.60640e-03,7.26467e-02,1.25953e-01
1.59310e+03,1.24578e+01,0.00000e+00,2.01683e-03,7.27362e-02,1.25999e-01
1.59310e+03,2.19555e+01,0.00000e+00,-1.57275e-03,7.27362e-02,1.25993e-01
1.59310e+03,3.14533e+01,0.00000e+00,-5.16232e-03,7.26488e-02,1.25937e-01
1.65850e+03,2.86108e+00,0.00000e+00,4.00796e-03,6.03469e-02,1.04601e-01
1.65850e+03,1.20414e+01,0.00000e+00,1.44297e-03,6.04189e-02,1.04659e-01
1.65850e+03,2.12218e+01,0.00000e+00,-1.12202e-03,6.04189e-02,1.04655e-01
1.65850e+03,3.04021e+01,0.00000e+00,-3.68701e-03,6.03485e-02,1.04592e-01
1.71930e+03,2.76911e+00,0.00000e+00,2.76339e-03,4.88516e-02,8.46586e-02
1.71930e+03,1.16544e+01,0.00000e+00,9.95715e-04,4.89083e-02,8.47175e-02
1.71930e+03,2.05396e+01,0.00000e+00,-7.71961e-04,4.89083e-02,8.47152e-02
1.71930e+03,2.94249e+01,0.00000e+00,-2.53964e-03,4.88528e-02,8.46537e-02
1.77540e+03,2.60964e+00,0.00000e+00,3.29926e-03,6.47779e-02,1.12247e-01
1.77540e+03,1.09832e+01,0.00000e+00,1.20410e-03,6.48544e-02,1.12338e-01
1.77540e+03,1.93567e+01,0.00000e+00,-8.91056e-04,6.48544e-02,1.12335e-01
1.77540e+03,2.77303e+01,0.00000e+00,-2.98622e-03,6.47808e-02,1.12243e-01
1.82660e+03,2.38179e+00,0.00000e+00,2.25007e-03,5.35697e-02,9.28128e-02
1.82660e+03,1.00242e+01,0.00000e+00,8.21588e-04,5.36278e-02,9.28898e-02
1.82660e+03,1.76667e+01,0.00000e+00,-6.06891e-04,5.36278e-02,9.28881e-02
1.82660e+03,2.53092e+01,0.00000e+00,-2.03537e-03,5.35718e-02,9.28114e-02
1.87280e+03,2.17619e+00,0.00000e+00,1.44533e-03,4.29423e-02,7.43923e-02
1.87280e+03,9.15894e+00,0.00000e+00,5.28892e-04,4.29849e-02,7.44539e-02
1.87280e+03,1.61417e+01,0.00000e+00,-3.87546e-04,4.29849e-02,7.44530e-02
1.87280e+03,2.31244e+01,0.00000e+00,-1.30398e-03,4.29437e-02,7.43921e-02
1.91380e+03,1.99374e+00,0.00000e+00,8.60733e-04,3.30281e-02,5.72128e-02
1.91380e+03,8.39104e+00,0.00000e+00,3.16228e-04,3.30580e-02,5.72589e-02
1.91380e+03,1.47883e+01,0.00000e+00,-2.28276e-04,3.30580e-02,5.72585e-02
1.91380e+03,2.11856e+01,0.00000e+00,-7.72781e-04,3.30290e-02,5.72131e-02
1.94970e+03,1.83398e+00,0.00000e+00,4.62373e-04,2.39467e-02,4.14796e-02
1.94970e+03,7.71865e+00,0.00000e+00,1.70951e-04,2.39665e-02,4.15116e-02
1.94970e+03,1.36033e+01,0.00000e+00,-1.20471e-04,2.39665e-02,4.15114e-02
1.94970e+03,1.94880e+01,0.00000e+00,-4.11893e-04,2.39473e-02,4.14800e-02
1.98010e+03,1.69869e+00,0.00000e+00,2.17390e-04,1.60906e-02,2.78705e-02
1.98010e+03,7.14927e+00,0.00000e+00,8.11586e-05,1.61027e-02,2.78908e-02
1.98010e+03,1.25999e+01,0.00000e+00,-5.50729e-05,1.61027e-02,2.78908e-02
1.98010e+03,1.80504e+01,0.00000e+00,-1.91304e-04,1.60909e-02,2.78709e-02
2.00520e+03,1.58699e+00,0.00000e+00,8.38142e-05,9.61661e-03,1.66567e-02
2.00520e+03,6.67917e+00,0.00000e+00,3.17617e-05,9.62324e-03,1.66680e-02
2.00520e+03,1.17713e+01,0.00000e+00,-2.02908e-05,9.62324e-03,1.66680e-02
2.00520e+03,1.68635e+01,0.00000e+00,-7.23433e-05,9.61677e-03,1.66569e-02
2.02480e+03,1.49977e+00,0.00000e+00,2.39688e-05,4.81236e-03,8.33528e-03
2.02480e+03,6.31207e+00,0.00000e+00,9.30352e-06,4.81539e-03,8.34051e-03
2.02480e+03,1.11244e+01,0.00000e+00,-5.36180e-06,4.81539e-03,8.34050e-03
2.02480e+03,1.59367e+01,0.00000e+00,-2.00271e-05,4.81243e-03,8.33539e-03
2.03880e+03,1.43746e+00,0.00000e+00,4.24876e-06,1.76985e-03,3.06548e-03
2.03880e+03,6.04986e+00,0.00000e+00,1.72066e-06,1.77085e-03,3.06721e-03
2.03880e+03,1.06622e+01,0.00000e+00,-8.07442e-07,1.77085e-03,3.06721e-03
2.03880e+03,1.52746e+01,0.00000e+00,-3.33554e-06,1.76987e-03,3.06551e-03
2.04720e+03,1.40008e+00,0.00000e+00,5.37106e-07,3.10158e-04,5.37209e-04
2.04720e+03,5.89253e+00,0.00000e+00,2.32740e-07,3.10302e-04,5.37460e-04
2.04720e+03,1.03850e+01,0.00000e+00,-7.16274e-08,3.10302e-04,5.37459e-04
2.04720e+03,1.48774e+01,0.00000e+00,-3.75994e-07,3.10161e-04,5.37215e-04
2.05000e+03,1.38762e+00,0.00000e+00,0.00000e+00,0.00000e+00,0.00000e+00
2.05000e+03,5.84009e+00,0.00000e+00,0.00000e+00,0.00000e+00,0.00000e+00
2.05000e+03,1.02925e+01,0.00000e+00,0.00000e+00,0.00000e+00,0.00000e+00
2.05000e+03,1.47450e+01,0.00000e+00,0.00000e+00,0.00000e+00,0.00000e+00
MESA INFERIOR 
--------------------------------------------------------------------------------------------------------------------------------------------------------------------------------------------------------------------------------------------------------------------------------------------------------------------------------------------------------------------------------
X,Y,Z,Sigma,Von Mises
0.00000e+00,4.05613e+00,0.00000e+00,0.00000e+00,0.00000e+00
1.07300e+02,4.01639e+00,0.00000e+00,0.00000e+00,0.00000e+00
2.14300e+02,3.97676e+00,0.00000e+00,0.00000e+00,0.00000e+00
3.20700e+02,3.93736e+00,0.00000e+00,0.00000e+00,0.00000e+00
4.26200e+02,3.89829e+00,0.00000e+00,0.00000e+00,0.00000e+00
5.30600e+02,3.85963e+00,0.00000e+00,0.00000e+00,0.00000e+00
6.33500e+02,3.82152e+00,0.00000e+00,0.00000e+00,0.00000e+00
7.34700e+02,3.78404e+00,0.00000e+00,0.00000e+00,0.00000e+00
8.33800e+02,3.74734e+00,0.00000e+00,0.00000e+00,0.00000e+00
9.30700e+02,3.71145e+00,0.00000e+00,0.00000e+00,0.00000e+00
1.02500e+03,3.67653e+00,0.00000e+00,0.00000e+00,0.00000e+00
1.11650e+03,3.64264e+00,0.00000e+00,0.00000e+00,0.00000e+00
1.20500e+03,3.54704e+00,0.00000e+00,0.00000e+00,0.00000e+00
1.29010e+03,3.41832e+00,0.00000e+00,0.00000e+00,0.00000e+00
1.37170e+03,3.29489e+00,0.00000e+00,0.00000e+00,0.00000e+00
1.44960e+03,3.17706e+00,0.00000e+00,0.00000e+00,0.00000e+00
1.52340e+03,3.06543e+00,0.00000e+00,0.00000e+00,0.00000e+00
1.59310e+03,2.96000e+00,0.00000e+00,0.00000e+00,0.00000e+00
1.65850e+03,2.86108e+00,0.00000e+00,0.00000e+00,0.00000e+00
1.71930e+03,2.76911e+00,0.00000e+00,0.00000e+00,0.00000e+00
1.77540e+03,2.60964e+00,0.00000e+00,0.00000e+00,0.00000e+00
1.82660e+03,2.38179e+00,0.00000e+00,0.00000e+00,0.00000e+00
1.87280e+03,2.17619e+00,0.00000e+00,0.00000e+00,0.00000e+00
1.91380e+03,1.99374e+00,0.00000e+00,0.00000e+00,0.00000e+00
1.94970e+03,1.83398e+00,0.00000e+00,0.00000e+00,0.00000e+00
1.98010e+03,1.69869e+00,0.00000e+00,0.00000e+00,0.00000e+00
2.00520e+03,1.58699e+00,0.00000e+00,0.00000e+00,0.00000e+00
2.02480e+03,1.49977e+00,0.00000e+00,0.00000e+00,0.00000e+00
2.03880e+03,1.43746e+00,0.00000e+00,0.00000e+00,0.00000e+00
2.04720e+03,1.40008e+00,0.00000e+00,0.00000e+00,0.00000e+00
2.05000e+03,1.38762e+00,0.00000e+00,0.00000e+00,0.00000e+00
--------------------------------------------------------------------------------------------------------------------------------------------------------------------------------------------------------------------------------------------------------------------------------------------------------------------------------------------------------------------------------

MESA SUPERIOR 
--------------------------------------------------------------------------------------------------------------------------------------------------------------------------------------------------------------------------------------------------------------------------------------------------------------------------------------------------------------------------------
X,Y,Z,Sigma,Von Mises
0.00000e+00,4.31008e+01,0.00000e+00,0.00000e+00,0.00000e+00
1.07300e+02,4.26785e+01,0.00000e+00,0.00000e+00,0.00000e+00
2.14300e+02,4.22575e+01,0.00000e+00,0.00000e+00,0.00000e+00
3.20700e+02,4.18388e+01,0.00000e+00,0.00000e+00,0.00000e+00
4.26200e+02,4.14236e+01,0.00000e+00,0.00000e+00,0.00000e+00
5.30600e+02,4.10127e+01,0.00000e+00,0.00000e+00,0.00000e+00
6.33500e+02,4.06078e+01,0.00000e+00,0.00000e+00,0.00000e+00
7.34700e+02,4.02095e+01,0.00000e+00,0.00000e+00,0.00000e+00
8.33800e+02,3.98196e+01,0.00000e+00,0.00000e+00,0.00000e+00
9.30700e+02,3.94382e+01,0.00000e+00,0.00000e+00,0.00000e+00
1.02500e+03,3.90671e+01,0.00000e+00,0.00000e+00,0.00000e+00
1.11650e+03,3.87070e+01,0.00000e+00,0.00000e+00,0.00000e+00
1.20500e+03,3.76912e+01,0.00000e+00,0.00000e+00,0.00000e+00
1.29010e+03,3.63234e+01,0.00000e+00,0.00000e+00,0.00000e+00
1.37170e+03,3.50118e+01,0.00000e+00,0.00000e+00,0.00000e+00
1.44960e+03,3.37597e+01,0.00000e+00,0.00000e+00,0.00000e+00
1.52340e+03,3.25736e+01,0.00000e+00,0.00000e+00,0.00000e+00
1.59310e+03,3.14533e+01,0.00000e+00,0.00000e+00,0.00000e+00
1.65850e+03,3.04021e+01,0.00000e+00,0.00000e+00,0.00000e+00
1.71930e+03,2.94249e+01,0.00000e+00,0.00000e+00,0.00000e+00
1.77540e+03,2.77303e+01,0.00000e+00,0.00000e+00,0.00000e+00
1.82660e+03,2.53092e+01,0.00000e+00,0.00000e+00,0.00000e+00
1.87280e+03,2.31244e+01,0.00000e+00,0.00000e+00,0.00000e+00
1.91380e+03,2.11856e+01,0.00000e+00,0.00000e+00,0.00000e+00
1.94970e+03,1.94880e+01,0.00000e+00,0.00000e+00,0.00000e+00
1.98010e+03,1.80504e+01,0.00000e+00,0.00000e+00,0.00000e+00
2.00520e+03,1.68635e+01,0.00000e+00,0.00000e+00,0.00000e+00
2.02480e+03,1.59367e+01,0.00000e+00,0.00000e+00,0.00000e+00
2.03880e+03,1.52746e+01,0.00000e+00,0.00000e+00,0.00000e+00
2.04720e+03,1.48774e+01,0.00000e+00,0.00000e+00,0.00000e+00
2.05000e+03,1.47450e+01,0.00000e+00,0.00000e+00,0.00000e+00
--------------------------------------------------------------------------------------------------------------------------------------------------------------------------------------------------------------------------------------------------------------------------------------------------------------------------------------------------------------------------------

