----------------------------------------------
LOG MATLAB Estruturas Copyright Charles 2020
----------------------------------------------

VISÃO GERAL POR SEÇÃO
--------------------------------------------------------------------------------------------------------------------------------------------------------------------------------------------------------------------------------------------------------------------------------------------------------------------------------------------------------------------------------
SEÇÃO,POSIÇÃO .25c,, ESFORÇOS,,,,,INÉRCIAS,,,,CENTROS GEOMÉTRICOS,,,DEFLEXÇOES,,,,,TENSÕES NORMAIS,,,,,,,,TENSÕES CISALHAMENTO,,,TENSÕES DE VON MISES
NUMERO,X,Y,MFz,MFy,MTx,Vz,Vy,EIzz,EIyy,EIzy,GJ,Zcg,Ycg,Zcc,Z,Y,Z´,Y´,Theta,Sigma_Chap+,Sigma_Chap-,Sigma_Lam+,Sigma_Lam-,Sigma_Mesa+,Sigma_Mesa-,Sigma_Alma+,Sigma_Alma-,  Tau_Alma,  Tau_Chap,  Tau_Lam, Von Mises_Alma,  Von Mises_Chap,  Von Mises_Lam
--------------------------------------------------------------------------------------------------------------------------------------------------------------------------------------------------------------------------------------------------------------------------------------------------------------------------------------------------------------------------------
01,0.00000e+00,0.00000e+00,3.48439e+05,1.53664e+04,-2.71509e+04,1.55005e+01,3.91235e+02,2.43720e+09,3.02407e+09,6.88619e+08,4.26061e+07,8.66395e+01,2.17434e+01,7.43235e+01,0.00000e+00,0.00000e+00,0.00000e+00,0.00000e+00,0.00000e+00,4.58523e+00,-5.68348e+00,0.00000e+00,0.00000e+00,2.57343e+02,-2.48431e+02,3.21931e-01,-3.10783e-01,1.32273e+00,1.58853e+00,0.00000e+00,2.31090e+00,6.12346e+00,0.00000e+00
02,1.07300e+02,0.00000e+00,3.07816e+05,1.37512e+04,-2.51520e+04,1.46060e+01,3.65948e+02,2.38487e+09,2.93941e+09,6.69313e+08,4.13805e+07,8.58583e+01,2.15452e+01,7.36225e+01,-1.60500e-01,8.28216e-01,-2.99162e-03,1.54374e-02,-6.67983e-02,4.09769e+00,-5.08517e+00,0.00000e+00,0.00000e+00,2.30006e+02,-2.21982e+02,2.87733e-01,-2.77695e-01,1.24990e+00,1.49791e+00,0.00000e+00,2.18145e+00,5.52191e+00,0.00000e+00
03,2.14300e+02,0.00000e+00,2.69992e+05,1.22355e+04,-2.31782e+04,1.37251e+01,3.41042e+02,2.33333e+09,2.85653e+09,6.50412e+08,4.01678e+07,8.50782e+01,2.13473e+01,7.29231e+01,-6.23592e-01,3.22064e+00,-5.66431e-03,2.92809e-02,-1.30188e-01,3.63626e+00,-4.51830e+00,0.00000e+00,0.00000e+00,2.04130e+02,-1.96947e+02,2.55364e-01,-2.46378e-01,1.17634e+00,1.40574e+00,0.00000e+00,2.05111e+00,4.95027e+00,0.00000e+00
04,3.20700e+02,0.00000e+00,2.35033e+05,1.08203e+04,-2.12524e+04,1.28758e+01,3.16084e+02,2.28273e+09,2.77562e+09,6.31961e+08,3.89904e+07,8.43013e+01,2.11503e+01,7.22271e+01,-1.35199e+00,6.98996e+00,-8.02733e-03,4.15708e-02,-1.89884e-01,3.20270e+00,-3.98507e+00,0.00000e+00,0.00000e+00,1.79815e+02,-1.73426e+02,2.24946e-01,-2.16953e-01,1.10124e+00,1.31259e+00,0.00000e+00,1.91847e+00,4.41094e+00,0.00000e+00
05,4.26200e+02,0.00000e+00,2.02982e+05,9.50583e+03,-1.93786e+04,1.20434e+01,2.91526e+02,2.23318e+09,2.69686e+09,6.14002e+08,3.78401e+07,8.35299e+01,2.09548e+01,7.15366e+01,-2.30788e+00,1.19452e+01,-1.00938e-02,5.23669e-02,-2.45650e-01,2.79861e+00,-3.48742e+00,0.00000e+00,0.00000e+00,1.57150e+02,-1.51505e+02,1.96592e-01,-1.89530e-01,1.02574e+00,1.21904e+00,0.00000e+00,1.78549e+00,3.90564e+00,0.00000e+00
06,5.30600e+02,0.00000e+00,1.73801e+05,8.29121e+03,-1.75639e+04,1.12252e+01,2.67488e+02,2.18477e+09,2.62035e+09,5.96558e+08,3.67170e+07,8.27655e+01,2.07610e+01,7.08528e+01,-3.45500e+00,1.79023e+01,-1.18818e-02,6.17541e-02,-2.97353e-01,2.42460e+00,-3.02617e+00,0.00000e+00,0.00000e+00,1.36170e+02,-1.31219e+02,1.70347e-01,-1.64153e-01,9.50251e-01,1.12557e+00,0.00000e+00,1.65284e+00,3.43508e+00,0.00000e+00
07,6.33500e+02,0.00000e+00,1.47477e+05,7.17580e+03,-1.58368e+04,1.04541e+01,2.44149e+02,2.13765e+09,2.54632e+09,5.79679e+08,3.56320e+07,8.20110e+01,2.05698e+01,7.01785e+01,-4.75619e+00,2.46714e+01,-1.34085e-02,6.98121e-02,-3.44832e-01,2.08162e+00,-2.60251e+00,0.00000e+00,0.00000e+00,1.16927e+02,-1.12619e+02,1.46274e-01,-1.40884e-01,8.75680e-01,1.03381e+00,0.00000e+00,1.52209e+00,3.00205e+00,0.00000e+00
08,7.34700e+02,0.00000e+00,1.23911e+05,6.15525e+03,-1.41938e+04,9.71491e+00,2.21579e+02,2.09189e+09,2.47483e+09,5.63383e+08,3.45829e+07,8.12680e+01,2.03815e+01,6.95148e+01,-6.17829e+00,3.20823e+01,-1.46963e-02,7.66484e-02,-3.88089e-01,1.76948e+00,-2.21624e+00,0.00000e+00,0.00000e+00,9.94122e+01,-9.56969e+01,1.24363e-01,-1.19715e-01,8.02230e-01,9.43802e-01,0.00000e+00,1.39354e+00,2.60528e+00,0.00000e+00
09,8.33800e+02,0.00000e+00,1.03028e+05,5.22784e+03,-1.26376e+04,9.00167e+00,1.99881e+02,2.04762e+09,2.40610e+09,5.47713e+08,3.35705e+07,8.05393e+01,2.01969e+01,6.88645e+01,-7.68773e+00,3.99613e+01,-1.57665e-02,8.23640e-02,-4.27079e-01,1.48832e+00,-1.86758e+00,0.00000e+00,0.00000e+00,8.36320e+01,-8.04602e+01,1.04622e-01,-1.00654e-01,7.30291e-01,8.55919e-01,0.00000e+00,1.26785e+00,2.24452e+00,0.00000e+00
10,9.30700e+02,0.00000e+00,8.46693e+04,4.38984e+03,-1.11563e+04,8.29457e+00,1.79041e+02,2.00486e+09,2.34009e+09,5.32666e+08,3.25874e+07,7.98259e+01,2.00162e+01,6.82283e+01,-9.25803e+00,4.81710e+01,-1.66443e-02,8.70820e-02,-4.61905e-01,1.23712e+00,-1.55537e+00,0.00000e+00,0.00000e+00,6.95302e+01,-6.68531e+01,8.69812e-02,-8.36320e-02,6.59758e-01,7.69719e-01,0.00000e+00,1.14481e+00,1.91820e+00,0.00000e+00
11,1.02500e+03,0.00000e+00,6.87150e+04,3.64104e+03,-9.75115e+03,7.58664e+00,1.59333e+02,1.96375e+09,2.27699e+09,5.18282e+08,3.16225e+07,7.91308e+01,1.98401e+01,6.76088e+01,-1.08610e+01,5.65634e+01,-1.73520e-02,9.09106e-02,-4.92586e-01,1.01532e+00,-1.27904e+00,0.00000e+00,0.00000e+00,5.70755e+01,-5.48436e+01,7.14004e-02,-6.86085e-02,5.91489e-01,6.85688e-01,0.00000e+00,1.02587e+00,1.62564e+00,0.00000e+00
12,1.11650e+03,0.00000e+00,5.50017e+04,2.97908e+03,-8.42308e+03,6.88250e+00,1.40410e+02,1.92432e+09,2.21681e+09,5.04566e+08,3.06878e+07,7.84554e+01,1.96691e+01,6.70073e+01,-1.24743e+01,6.50215e+01,-1.79129e-02,9.39667e-02,-5.19251e-01,8.21662e-01,-1.03720e+00,0.00000e+00,0.00000e+00,4.61989e+01,-4.43637e+01,5.77940e-02,-5.54982e-02,5.24705e-01,6.03747e-01,0.00000e+00,9.09681e-01,1.36459e+00,0.00000e+00
13,1.20500e+03,0.00000e+00,4.33593e+04,2.40090e+03,-7.18390e+03,6.18378e+00,1.22695e+02,1.32148e+09,1.95268e+09,4.45208e+08,2.79903e+07,7.39632e+01,1.86188e+01,6.42675e+01,-1.40836e+01,7.34650e+01,-1.84555e-02,9.68480e-02,-5.42753e-01,9.39569e-01,-1.15781e+00,0.00000e+00,0.00000e+00,5.27456e+01,-5.03963e+01,6.59838e-02,-6.30449e-02,4.65648e-01,5.87164e-01,0.00000e+00,8.08024e-01,1.42188e+00,0.00000e+00
14,1.29010e+03,0.00000e+00,3.36205e+04,1.90318e+03,-6.05537e+03,5.51337e+00,1.06185e+02,1.21619e+09,1.75686e+09,4.00479e+08,2.51510e+07,7.15330e+01,1.79989e+01,6.20379e+01,-1.56767e+01,8.18238e+01,-1.89837e-02,9.95965e-02,-5.63918e-01,7.61559e-01,-9.41398e-01,0.00000e+00,0.00000e+00,4.27639e+01,-4.08464e+01,5.34969e-02,-5.10981e-02,4.19912e-01,5.26996e-01,0.00000e+00,7.28230e-01,1.20411e+00,0.00000e+00
15,1.37170e+03,0.00000e+00,2.55836e+04,1.48052e+03,-5.02124e+03,4.84599e+00,9.07969e+01,1.12002e+09,1.58132e+09,3.60391e+08,2.25864e+07,6.91884e+01,1.74013e+01,5.98941e+01,-1.72428e+01,9.00404e+01,-1.94018e-02,1.01793e-01,-5.82812e-01,6.05519e-01,-7.50975e-01,0.00000e+00,0.00000e+00,3.40114e+01,-3.24752e+01,4.25476e-02,-4.06260e-02,3.73595e-01,4.65838e-01,0.00000e+00,6.47584e-01,1.00922e+00,0.00000e+00
16,1.44960e+03,0.00000e+00,1.90576e+04,1.12717e+03,-4.11225e+03,4.22599e+00,7.67527e+01,1.03251e+09,1.42458e+09,3.24609e+08,2.02976e+07,6.69366e+01,1.68278e+01,5.78421e+01,-1.87668e+01,9.80367e+01,-1.97245e-02,1.03504e-01,-5.99362e-01,4.71005e-01,-5.86154e-01,0.00000e+00,0.00000e+00,2.64637e+01,-2.52593e+01,3.31056e-02,-3.15990e-02,3.28343e-01,4.06644e-01,0.00000e+00,5.68905e-01,8.40023e-01,0.00000e+00
17,1.52340e+03,0.00000e+00,1.38688e+04,8.37374e+02,-3.30966e+03,3.62745e+00,6.38651e+01,9.53418e+08,1.28561e+09,2.92889e+08,1.82654e+07,6.47909e+01,1.62818e+01,5.58929e+01,-2.02313e+01,1.05723e+02,-1.99659e-02,1.04797e-01,-6.13524e-01,3.57572e-01,-4.46548e-01,0.00000e+00,0.00000e+00,2.00964e+01,-1.91751e+01,2.51402e-02,-2.39878e-02,2.83677e-01,3.48702e-01,0.00000e+00,4.91422e-01,6.94633e-01,0.00000e+00
18,1.59310e+03,0.00000e+00,9.82323e+03,6.05571e+02,-2.62720e+03,3.02401e+00,5.22193e+01,8.82075e+08,1.16263e+09,2.64824e+08,1.64849e+07,6.27531e+01,1.57637e+01,5.40474e+01,-2.16291e+01,1.13060e+02,-2.01411e-02,1.05745e-01,-6.25393e-01,2.63924e-01,-3.30796e-01,0.00000e+00,0.00000e+00,1.48379e+01,-1.41522e+01,1.85619e-02,-1.77041e-02,2.40832e-01,2.94338e-01,0.00000e+00,4.17183e-01,5.69096e-01,0.00000e+00
19,1.65850e+03,0.00000e+00,6.74654e+03,4.25057e+02,-2.03215e+03,2.49628e+00,4.18690e+01,8.18049e+08,1.05434e+09,2.40117e+08,1.48967e+07,6.08309e+01,1.52752e+01,5.23116e+01,-2.29503e+01,1.19998e+02,-2.02635e-02,1.06416e-01,-6.35065e-01,1.88642e-01,-2.37337e-01,0.00000e+00,0.00000e+00,1.06090e+01,-1.01141e+01,1.32717e-02,-1.26526e-02,1.99875e-01,2.42129e-01,0.00000e+00,3.46225e-01,4.56674e-01,0.00000e+00
20,1.71930e+03,0.00000e+00,4.47659e+03,2.88009e+02,-1.53008e+03,2.01187e+00,3.28007e+01,7.61023e+08,9.59670e+08,2.18523e+08,1.34980e+07,5.90349e+01,1.48192e+01,5.06943e+01,-2.41848e+01,1.26482e+02,-2.03454e-02,1.06869e-01,-6.42658e-01,1.30046e-01,-1.64242e-01,0.00000e+00,0.00000e+00,7.31610e+00,-6.97156e+00,9.15231e-03,-8.72131e-03,1.61631e-01,1.93675e-01,0.00000e+00,2.79972e-01,3.57844e-01,0.00000e+00
21,1.77540e+03,0.00000e+00,2.85324e+03,1.88175e+02,-1.10895e+03,1.54730e+00,2.50727e+01,3.98519e+08,7.29057e+08,1.66652e+08,9.50229e+06,5.21005e+01,1.31900e+01,4.07358e+01,-2.53283e+01,1.32488e+02,-2.04193e-02,1.07262e-01,-6.49111e-01,1.55413e-01,-1.88605e-01,0.00000e+00,0.00000e+00,8.72227e+00,-8.22077e+00,1.09114e-02,-1.02840e-02,2.13726e-01,1.82107e-01,0.00000e+00,3.70203e-01,3.47956e-01,0.00000e+00
22,1.82660e+03,0.00000e+00,1.73389e+03,1.19438e+02,-7.78639e+02,1.13775e+00,1.86520e+01,3.22692e+08,5.63581e+08,1.28741e+08,7.32106e+06,4.80842e+01,1.21552e+01,3.73499e+01,-2.63755e+01,1.37989e+02,-2.04870e-02,1.07610e-01,-6.54822e-01,1.05957e-01,-1.29410e-01,0.00000e+00,0.00000e+00,5.94966e+00,-5.60631e+00,7.44292e-03,-7.01340e-03,1.76568e-01,1.48493e-01,0.00000e+00,3.05836e-01,2.76023e-01,0.00000e+00
23,1.87280e+03,0.00000e+00,9.93402e+02,7.37349e+01,-5.31722e+02,8.40738e-01,1.34036e+01,2.62353e+08,4.36581e+08,9.96683e+07,5.66557e+06,4.43938e+01,1.12070e+01,3.42731e+01,-2.73230e+01,1.42966e+02,-2.05304e-02,1.07839e-01,-6.59446e-01,6.79848e-02,-8.37279e-02,0.00000e+00,0.00000e+00,3.82044e+00,-3.59306e+00,4.77931e-03,-4.49486e-03,1.40982e-01,1.17545e-01,0.00000e+00,2.44194e-01,2.13480e-01,0.00000e+00
24,1.91380e+03,0.00000e+00,5.29127e+02,4.35571e+01,-3.53222e+02,6.31349e-01,9.24401e+00,2.14932e+08,3.40501e+08,7.76906e+07,4.43097e+06,4.10625e+01,1.03532e+01,3.15244e+01,-2.81652e+01,1.47390e+02,-2.05557e-02,1.07976e-01,-6.63005e-01,4.04093e-02,-5.03110e-02,0.00000e+00,0.00000e+00,2.27334e+00,-2.12995e+00,2.84391e-03,-2.66453e-03,1.08090e-01,8.99951e-02,0.00000e+00,1.87220e-01,1.60457e-01,0.00000e+00
25,1.94970e+03,0.00000e+00,2.55152e+02,2.39961e+01,-2.23934e+02,4.58400e-01,6.01921e+00,1.77937e+08,2.68420e+08,6.12136e+07,3.51101e+06,3.80992e+01,9.59536e+00,2.91026e+01,-2.89034e+01,1.51268e+02,-2.05688e-02,1.08051e-01,-6.65580e-01,2.16438e-02,-2.73436e-02,0.00000e+00,0.00000e+00,1.21953e+00,-1.13559e+00,1.52562e-03,-1.42060e-03,7.81024e-02,6.53292e-02,0.00000e+00,1.35278e-01,1.14959e-01,0.00000e+00
26,1.98010e+03,0.00000e+00,1.08300e+02,1.20517e+01,-1.33898e+02,3.27418e-01,3.64215e+00,1.49784e+08,2.15653e+08,4.91590e+07,2.84304e+06,3.55543e+01,8.94582e+00,2.70403e+01,-2.95288e+01,1.54553e+02,-2.05745e-02,1.08086e-01,-6.67266e-01,1.01318e-02,-1.30749e-02,0.00000e+00,0.00000e+00,5.72156e-01,-5.27646e-01,7.15758e-04,-6.60076e-04,5.22292e-02,4.42038e-02,0.00000e+00,9.04641e-02,7.71418e-02,0.00000e+00
27,2.00520e+03,0.00000e+00,3.78852e+01,5.18429e+00,-7.28879e+01,2.19784e-01,1.96859e+00,1.28656e+08,1.77484e+08,4.04436e+07,2.36552e+06,3.34272e+01,8.40385e+00,2.53292e+01,-3.00452e+01,1.57266e+02,-2.05765e-02,1.08099e-01,-6.68243e-01,3.87860e-03,-5.16267e-03,0.00000e+00,0.00000e+00,2.19731e-01,-1.99660e-01,2.74880e-04,-2.49771e-04,3.10559e-02,2.68158e-02,0.00000e+00,5.37904e-02,4.65832e-02,0.00000e+00
28,2.02480e+03,0.00000e+00,9.86262e+00,1.74830e+00,-3.43073e+01,1.30827e-01,8.90859e-01,1.13447e+08,1.50904e+08,3.43767e+07,2.04382e+06,3.17493e+01,7.97693e+00,2.39876e+01,-3.04485e+01,1.59385e+02,-2.05770e-02,1.08103e-01,-6.68710e-01,1.09571e-03,-1.52639e-03,0.00000e+00,0.00000e+00,6.23753e-02,-5.53492e-02,7.80304e-05,-6.92409e-05,1.54115e-02,1.37546e-02,0.00000e+00,2.66936e-02,2.38442e-02,0.00000e+00
29,2.03880e+03,0.00000e+00,1.58330e+00,4.01520e-01,-1.24564e+01,6.15700e-02,2.91902e-01,1.03260e+08,1.33576e+08,3.04229e+07,1.85700e+06,3.05414e+01,7.66993e+00,2.30264e+01,-3.07366e+01,1.60898e+02,-2.05770e-02,1.08104e-01,-6.68874e-01,1.90251e-04,-2.87841e-04,0.00000e+00,0.00000e+00,1.09221e-02,-9.26937e-03,1.36634e-05,-1.15958e-05,5.57590e-03,5.27528e-03,0.00000e+00,9.65774e-03,9.13855e-03,0.00000e+00
30,2.04720e+03,0.00000e+00,1.78656e-01,7.14628e-02,-2.38926e+00,1.70149e-02,4.25372e-02,9.74134e+07,1.23821e+08,2.81976e+07,1.81035e+06,2.98129e+01,7.48488e+00,2.24484e+01,-3.09095e+01,1.61806e+02,-2.05770e-02,1.08104e-01,-6.68908e-01,2.33560e-05,-4.06978e-05,0.00000e+00,0.00000e+00,1.36040e-03,-1.06296e-03,1.70184e-06,-1.32975e-06,9.52032e-04,1.02108e-03,0.00000e+00,1.64897e-03,1.76867e-03,0.00000e+00
31,2.05000e+03,0.00000e+00,0.00000e+00,0.00000e+00,0.00000e+00,0.00000e+00,0.00000e+00,5.74754e+07,1.08343e+08,2.47732e+07,NaN,2.74871e+01,6.96602e+00,2.15905e+01,-3.09671e+01,1.62109e+02,-2.05770e-02,1.08104e-01,-6.68910e-01,0.00000e+00,0.00000e+00,0.00000e+00,0.00000e+00,0.00000e+00,0.00000e+00,0.00000e+00,0.00000e+00,0.00000e+00,0.00000e+00,0.00000e+00,0.00000e+00,0.00000e+00,0.00000e+00
--------------------------------------------------------------------------------------------------------------------------------------------------------------------------------------------------------------------------------------------------------------------------------------------------------------------------------------------------------------------------------

CHAPEADO 
--------------------------------------------------------------------------------------------------------------------------------------------------------------------------------------------------------------------------------------------------------------------------------------------------------------------------------------------------------------------------------
X,Y,Z,Sigma,Tau,Von Mises
0.00000e+00,4.31008e+01,0.00000e+00,-4.43975e+00,1.58853e+00,5.22319e+00
0.00000e+00,4.28837e+01,-3.27521e+00,-4.58712e+00,1.57164e+00,5.33403e+00
0.00000e+00,4.25950e+01,-6.55041e+00,-4.71789e+00,1.55435e+00,5.43198e+00
0.00000e+00,4.23033e+01,-9.82562e+00,-4.84799e+00,1.53666e+00,5.53055e+00
0.00000e+00,4.19484e+01,-1.31008e+01,-4.96344e+00,1.51861e+00,5.61732e+00
0.00000e+00,4.15787e+01,-1.63760e+01,-5.07548e+00,1.50023e+00,5.70198e+00
0.00000e+00,4.11605e+01,-1.96512e+01,-5.17628e+00,1.48154e+00,5.77743e+00
0.00000e+00,4.07187e+01,-2.29264e+01,-5.27161e+00,1.46257e+00,5.84870e+00
0.00000e+00,4.02378e+01,-2.62017e+01,-5.35791e+00,1.44335e+00,5.91244e+00
0.00000e+00,3.97249e+01,-2.94769e+01,-5.43678e+00,1.42389e+00,5.97001e+00
0.00000e+00,3.91766e+01,-3.27521e+01,-5.50749e+00,1.40423e+00,6.02063e+00
0.00000e+00,3.85857e+01,-3.60273e+01,-5.56831e+00,1.38439e+00,6.06264e+00
0.00000e+00,3.79511e+01,-3.93025e+01,-5.61900e+00,1.36440e+00,6.09573e+00
0.00000e+00,3.72545e+01,-4.25777e+01,-5.65537e+00,1.34429e+00,6.11592e+00
0.00000e+00,3.64976e+01,-4.58529e+01,-5.67777e+00,1.32410e+00,6.12346e+00
0.00000e+00,3.56687e+01,-4.91281e+01,-5.68348e+00,1.30386e+00,6.11572e+00
0.00000e+00,3.47420e+01,-5.24033e+01,-5.66658e+00,1.28364e+00,6.08714e+00
0.00000e+00,3.37474e+01,-5.56785e+01,-5.63395e+00,1.26346e+00,6.04404e+00
0.00000e+00,3.26000e+01,-5.89537e+01,-5.56594e+00,1.24342e+00,5.96808e+00
0.00000e+00,3.13892e+01,-6.22289e+01,-5.48325e+00,1.22358e+00,5.87856e+00
0.00000e+00,3.00018e+01,-6.55041e+01,-5.35970e+00,1.20397e+00,5.75109e+00
0.00000e+00,2.84730e+01,-6.87793e+01,-5.20339e+00,1.18477e+00,5.59342e+00
0.00000e+00,2.68002e+01,-7.20546e+01,-5.01376e+00,1.16601e+00,5.40523e+00
0.00000e+00,2.48857e+01,-7.53298e+01,-4.76818e+00,1.14776e+00,5.16600e+00
0.00000e+00,2.26913e+01,-7.86050e+01,-4.45779e+00,1.13024e+00,4.86870e+00
0.00000e+00,2.01805e+01,-8.18802e+01,-4.07416e+00,1.11365e+00,4.50771e+00
0.00000e+00,1.72108e+01,-8.51554e+01,-3.58429e+00,1.09814e+00,4.05770e+00
0.00000e+00,1.33989e+01,-8.84306e+01,-2.89947e+00,1.08447e+00,3.45473e+00
0.00000e+00,8.24350e+00,-9.17058e+01,-1.90362e+00,1.07612e+00,2.66418e+00
0.00000e+00,-3.34020e+00,-9.49810e+01,5.80371e-01,1.07943e+00,1.95764e+00
0.00000e+00,-4.17620e+00,-9.49886e+01,7.73445e-01,1.08971e+00,2.03976e+00
0.00000e+00,-1.17928e+01,-9.15961e+01,2.74135e+00,1.10921e+00,3.34754e+00
0.00000e+00,-1.27149e+01,-8.82037e+01,3.15953e+00,1.12361e+00,3.71081e+00
0.00000e+00,-1.30332e+01,-8.48113e+01,3.43789e+00,1.13877e+00,3.96351e+00
0.00000e+00,-1.30814e+01,-8.14188e+01,3.65376e+00,1.15463e+00,4.16526e+00
0.00000e+00,-1.29264e+01,-7.80264e+01,3.82255e+00,1.17106e+00,4.32736e+00
0.00000e+00,-1.26437e+01,-7.46339e+01,3.96179e+00,1.18798e+00,4.46427e+00
0.00000e+00,-1.22328e+01,-7.12415e+01,4.07137e+00,1.20528e+00,4.57539e+00
0.00000e+00,-1.17438e+01,-6.78490e+01,4.16286e+00,1.22288e+00,4.67073e+00
0.00000e+00,-1.12094e+01,-6.44565e+01,4.24384e+00,1.24074e+00,4.75694e+00
0.00000e+00,-1.06068e+01,-6.10641e+01,4.30902e+00,1.25879e+00,4.82922e+00
0.00000e+00,-9.96142e+00,-5.76716e+01,4.36431e+00,1.27701e+00,4.89280e+00
0.00000e+00,-9.27449e+00,-5.42792e+01,4.40998e+00,1.29534e+00,4.94789e+00
0.00000e+00,-8.54615e+00,-5.08867e+01,4.44606e+00,1.31375e+00,4.99452e+00
0.00000e+00,-7.79185e+00,-4.74943e+01,4.47613e+00,1.33221e+00,5.03588e+00
0.00000e+00,-7.00429e+00,-4.41018e+01,4.49851e+00,1.35069e+00,5.07047e+00
0.00000e+00,-6.19544e+00,-4.07094e+01,4.51595e+00,1.36916e+00,5.10074e+00
0.00000e+00,-5.36748e+00,-3.73169e+01,4.52897e+00,1.38761e+00,5.12717e+00
0.00000e+00,-4.52248e+00,-3.39245e+01,4.53804e+00,1.40601e+00,5.15018e+00
0.00000e+00,-3.67026e+00,-3.05320e+01,4.54545e+00,1.42434e+00,5.17178e+00
0.00000e+00,-2.80686e+00,-2.71396e+01,4.55026e+00,1.44261e+00,5.19117e+00
0.00000e+00,-1.94159e+00,-2.37472e+01,4.55464e+00,1.46079e+00,5.21023e+00
0.00000e+00,-1.06964e+00,-2.03547e+01,4.55748e+00,1.47890e+00,5.22800e+00
0.00000e+00,-1.97780e-01,-1.69622e+01,4.56034e+00,1.49691e+00,5.24584e+00
0.00000e+00,6.70785e-01,-1.35698e+01,4.56396e+00,1.51483e+00,5.26439e+00
0.00000e+00,1.53935e+00,-1.01774e+01,4.56758e+00,1.53265e+00,5.28298e+00
0.00000e+00,2.38735e+00,-6.78490e+00,4.57596e+00,1.55039e+00,5.30571e+00
0.00000e+00,3.23151e+00,-3.39245e+00,4.58523e+00,1.56806e+00,5.32923e+00
1.07300e+02,4.26785e+01,0.00000e+00,-3.96707e+00,1.49791e+00,4.74013e+00
1.07300e+02,4.24636e+01,-3.24312e+00,-4.09921e+00,1.48209e+00,4.83666e+00
1.07300e+02,4.21777e+01,-6.48624e+00,-4.21651e+00,1.46589e+00,4.92194e+00
1.07300e+02,4.18889e+01,-9.72936e+00,-4.33322e+00,1.44932e+00,5.00783e+00
1.07300e+02,4.15374e+01,-1.29725e+01,-4.43683e+00,1.43241e+00,5.08339e+00
1.07300e+02,4.11714e+01,-1.62156e+01,-4.53741e+00,1.41519e+00,5.15716e+00
1.07300e+02,4.07572e+01,-1.94587e+01,-4.62792e+00,1.39768e+00,5.22285e+00
1.07300e+02,4.03197e+01,-2.27018e+01,-4.71356e+00,1.37991e+00,5.28490e+00
1.07300e+02,3.98436e+01,-2.59450e+01,-4.79113e+00,1.36190e+00,5.34033e+00
1.07300e+02,3.93357e+01,-2.91881e+01,-4.86205e+00,1.34367e+00,5.39035e+00
1.07300e+02,3.87928e+01,-3.24312e+01,-4.92568e+00,1.32525e+00,5.43426e+00
1.07300e+02,3.82077e+01,-3.56743e+01,-4.98047e+00,1.30667e+00,5.47058e+00
1.07300e+02,3.75793e+01,-3.89174e+01,-5.02622e+00,1.28794e+00,5.49902e+00
1.07300e+02,3.68895e+01,-4.21606e+01,-5.05916e+00,1.26910e+00,5.51606e+00
1.07300e+02,3.61401e+01,-4.54037e+01,-5.07962e+00,1.25018e+00,5.52191e+00
1.07300e+02,3.53192e+01,-4.86468e+01,-5.08517e+00,1.23122e+00,5.51422e+00
1.07300e+02,3.44016e+01,-5.18899e+01,-5.07051e+00,1.21228e+00,5.48807e+00
1.07300e+02,3.34168e+01,-5.51330e+01,-5.04179e+00,1.19338e+00,5.44905e+00
1.07300e+02,3.22806e+01,-5.83762e+01,-4.98145e+00,1.17460e+00,5.38089e+00
1.07300e+02,3.10816e+01,-6.16193e+01,-4.90800e+00,1.15601e+00,5.30071e+00
1.07300e+02,2.97079e+01,-6.48624e+01,-4.79803e+00,1.13765e+00,5.18689e+00
1.07300e+02,2.81940e+01,-6.81055e+01,-4.65879e+00,1.11966e+00,5.04631e+00
1.07300e+02,2.65376e+01,-7.13486e+01,-4.48976e+00,1.10209e+00,4.87870e+00
1.07300e+02,2.46419e+01,-7.45918e+01,-4.27074e+00,1.08499e+00,4.66592e+00
1.07300e+02,2.24690e+01,-7.78349e+01,-3.99381e+00,1.06857e+00,4.40182e+00
1.07300e+02,1.99828e+01,-8.10780e+01,-3.65142e+00,1.05303e+00,4.08160e+00
1.07300e+02,1.70422e+01,-8.43211e+01,-3.21408e+00,1.03850e+00,3.68318e+00
1.07300e+02,1.32676e+01,-8.75642e+01,-2.60253e+00,1.02569e+00,3.15108e+00
1.07300e+02,8.16273e+00,-9.08074e+01,-1.71302e+00,1.01787e+00,2.45818e+00
1.07300e+02,-3.30748e+00,-9.40505e+01,5.06366e-01,1.02097e+00,1.83945e+00
1.07300e+02,-4.13529e+00,-9.40580e+01,6.78906e-01,1.03061e+00,1.90981e+00
1.07300e+02,-1.16772e+01,-9.06988e+01,2.43800e+00,1.04887e+00,3.04043e+00
1.07300e+02,-1.25904e+01,-8.73396e+01,2.81216e+00,1.06236e+00,3.36067e+00
1.07300e+02,-1.29055e+01,-8.39804e+01,3.06138e+00,1.07656e+00,3.58455e+00
1.07300e+02,-1.29533e+01,-8.06211e+01,3.25475e+00,1.09142e+00,3.76390e+00
1.07300e+02,-1.27997e+01,-7.72619e+01,3.40604e+00,1.10682e+00,3.90849e+00
1.07300e+02,-1.25198e+01,-7.39027e+01,3.53094e+00,1.12267e+00,4.03097e+00
1.07300e+02,-1.21130e+01,-7.05435e+01,3.62932e+00,1.13888e+00,4.13075e+00
1.07300e+02,-1.16287e+01,-6.71843e+01,3.71154e+00,1.15537e+00,4.21665e+00
1.07300e+02,-1.10996e+01,-6.38251e+01,3.78437e+00,1.17209e+00,4.29451e+00
1.07300e+02,-1.05029e+01,-6.04659e+01,3.84307e+00,1.18901e+00,4.36009e+00
1.07300e+02,-9.86382e+00,-5.71066e+01,3.89294e+00,1.20607e+00,4.41801e+00
1.07300e+02,-9.18363e+00,-5.37474e+01,3.93421e+00,1.22324e+00,4.46845e+00
1.07300e+02,-8.46243e+00,-5.03882e+01,3.96692e+00,1.24049e+00,4.51142e+00
1.07300e+02,-7.71552e+00,-4.70290e+01,3.99425e+00,1.25778e+00,4.54973e+00
1.07300e+02,-6.93567e+00,-4.36698e+01,4.01470e+00,1.27509e+00,4.58208e+00
1.07300e+02,-6.13474e+00,-4.03106e+01,4.03075e+00,1.29240e+00,4.61062e+00
1.07300e+02,-5.31490e+00,-3.69514e+01,4.04284e+00,1.30968e+00,4.63577e+00
1.07300e+02,-4.47818e+00,-3.35921e+01,4.05141e+00,1.32692e+00,4.65790e+00
1.07300e+02,-3.63431e+00,-3.02329e+01,4.05848e+00,1.34409e+00,4.67879e+00
1.07300e+02,-2.77936e+00,-2.68737e+01,4.06324e+00,1.36121e+00,4.69772e+00
1.07300e+02,-1.92257e+00,-2.35145e+01,4.06762e+00,1.37824e+00,4.71637e+00
1.07300e+02,-1.05916e+00,-2.01553e+01,4.07061e+00,1.39520e+00,4.73388e+00
1.07300e+02,-1.95842e-01,-1.67961e+01,4.07362e+00,1.41207e+00,4.75144e+00
1.07300e+02,6.64213e-01,-1.34369e+01,4.07731e+00,1.42886e+00,4.76963e+00
1.07300e+02,1.52427e+00,-1.00776e+01,4.08101e+00,1.44556e+00,4.78785e+00
1.07300e+02,2.36396e+00,-6.71843e+00,4.08895e+00,1.46218e+00,4.80972e+00
1.07300e+02,3.19985e+00,-3.35921e+00,4.09769e+00,1.47873e+00,4.83229e+00
2.14300e+02,4.22575e+01,0.00000e+00,-3.51968e+00,1.40574e+00,4.27978e+00
2.14300e+02,4.20447e+01,-3.21112e+00,-3.63737e+00,1.39098e+00,4.36290e+00
2.14300e+02,4.17615e+01,-6.42224e+00,-3.74189e+00,1.37585e+00,4.43629e+00
2.14300e+02,4.14756e+01,-9.63337e+00,-3.84588e+00,1.36038e+00,4.51029e+00
2.14300e+02,4.11276e+01,-1.28445e+01,-3.93825e+00,1.34460e+00,4.57534e+00
2.14300e+02,4.07652e+01,-1.60556e+01,-4.02793e+00,1.32853e+00,4.63888e+00
2.14300e+02,4.03551e+01,-1.92667e+01,-4.10868e+00,1.31219e+00,4.69540e+00
2.14300e+02,3.99219e+01,-2.24779e+01,-4.18511e+00,1.29560e+00,4.74877e+00
2.14300e+02,3.94505e+01,-2.56890e+01,-4.25436e+00,1.27879e+00,4.79640e+00
2.14300e+02,3.89476e+01,-2.89001e+01,-4.31773e+00,1.26177e+00,4.83932e+00
2.14300e+02,3.84101e+01,-3.21112e+01,-4.37462e+00,1.24458e+00,4.87691e+00
2.14300e+02,3.78307e+01,-3.53223e+01,-4.42368e+00,1.22724e+00,4.90788e+00
2.14300e+02,3.72085e+01,-3.85335e+01,-4.46470e+00,1.20975e+00,4.93195e+00
2.14300e+02,3.65256e+01,-4.17446e+01,-4.49436e+00,1.19217e+00,4.94602e+00
2.14300e+02,3.57835e+01,-4.49557e+01,-4.51295e+00,1.17451e+00,4.95027e+00
2.14300e+02,3.49707e+01,-4.81668e+01,-4.51830e+00,1.15682e+00,4.94264e+00
2.14300e+02,3.40622e+01,-5.13780e+01,-4.50572e+00,1.13914e+00,4.91878e+00
2.14300e+02,3.30871e+01,-5.45891e+01,-4.48068e+00,1.12149e+00,4.88361e+00
2.14300e+02,3.19621e+01,-5.78002e+01,-4.42756e+00,1.10397e+00,4.82282e+00
2.14300e+02,3.07750e+01,-6.10113e+01,-4.36282e+00,1.08661e+00,4.75146e+00
2.14300e+02,2.94148e+01,-6.42224e+01,-4.26566e+00,1.06947e+00,4.65050e+00
2.14300e+02,2.79159e+01,-6.74336e+01,-4.14254e+00,1.05268e+00,4.52604e+00
2.14300e+02,2.62758e+01,-7.06447e+01,-3.99298e+00,1.03628e+00,4.37784e+00
2.14300e+02,2.43988e+01,-7.38558e+01,-3.79906e+00,1.02032e+00,4.18999e+00
2.14300e+02,2.22473e+01,-7.70669e+01,-3.55375e+00,1.00500e+00,3.95717e+00
2.14300e+02,1.97856e+01,-8.02781e+01,-3.25035e+00,9.90493e-01,3.67532e+00
2.14300e+02,1.68740e+01,-8.34892e+01,-2.86271e+00,9.76933e-01,3.32540e+00
2.14300e+02,1.31367e+01,-8.67003e+01,-2.32047e+00,9.64979e-01,2.85974e+00
2.14300e+02,8.08220e+00,-8.99114e+01,-1.53158e+00,9.57677e-01,2.25769e+00
2.14300e+02,-3.27484e+00,-9.31226e+01,4.37393e-01,9.60574e-01,1.72030e+00
2.14300e+02,-4.09449e+00,-9.31300e+01,5.90498e-01,9.69564e-01,1.78013e+00
2.14300e+02,-1.15620e+01,-8.98039e+01,2.15190e+00,9.86613e-01,2.74789e+00
2.14300e+02,-1.24661e+01,-8.64779e+01,2.48436e+00,9.99208e-01,3.02776e+00
2.14300e+02,-1.27781e+01,-8.31518e+01,2.70596e+00,1.01246e+00,3.22450e+00
2.14300e+02,-1.28255e+01,-7.98257e+01,2.87799e+00,1.02633e+00,3.38273e+00
2.14300e+02,-1.26734e+01,-7.64996e+01,3.01269e+00,1.04070e+00,3.51077e+00
2.14300e+02,-1.23963e+01,-7.31736e+01,3.12397e+00,1.05550e+00,3.61958e+00
2.14300e+02,-1.19935e+01,-6.98475e+01,3.21172e+00,1.07062e+00,3.70862e+00
2.14300e+02,-1.15140e+01,-6.65214e+01,3.28512e+00,1.08601e+00,3.78553e+00
2.14300e+02,-1.09901e+01,-6.31954e+01,3.35019e+00,1.10163e+00,3.85545e+00
2.14300e+02,-1.03992e+01,-5.98693e+01,3.40273e+00,1.11741e+00,3.91464e+00
2.14300e+02,-9.76651e+00,-5.65432e+01,3.44743e+00,1.13334e+00,3.96713e+00
2.14300e+02,-9.09302e+00,-5.32171e+01,3.48450e+00,1.14937e+00,4.01309e+00
2.14300e+02,-8.37893e+00,-4.98911e+01,3.51396e+00,1.16547e+00,4.05252e+00
2.14300e+02,-7.63939e+00,-4.65650e+01,3.53866e+00,1.18161e+00,4.08788e+00
2.14300e+02,-6.86724e+00,-4.32389e+01,3.55726e+00,1.19777e+00,4.11801e+00
2.14300e+02,-6.07421e+00,-3.99129e+01,3.57194e+00,1.21392e+00,4.14483e+00
2.14300e+02,-5.26246e+00,-3.65868e+01,3.58312e+00,1.23005e+00,4.16867e+00
2.14300e+02,-4.43399e+00,-3.32607e+01,3.59117e+00,1.24614e+00,4.18988e+00
2.14300e+02,-3.59845e+00,-2.99346e+01,3.59789e+00,1.26217e+00,4.20999e+00
2.14300e+02,-2.75194e+00,-2.66086e+01,3.60256e+00,1.27814e+00,4.22840e+00
2.14300e+02,-1.90360e+00,-2.32825e+01,3.60689e+00,1.29404e+00,4.24656e+00
2.14300e+02,-1.04871e+00,-1.99564e+01,3.60999e+00,1.30987e+00,4.26372e+00
2.14300e+02,-1.93910e-01,-1.66304e+01,3.61311e+00,1.32562e+00,4.28093e+00
2.14300e+02,6.57660e-01,-1.33043e+01,3.61683e+00,1.34129e+00,4.29868e+00
2.14300e+02,1.50923e+00,-9.97821e+00,3.62056e+00,1.35687e+00,4.31645e+00
2.14300e+02,2.34063e+00,-6.65214e+00,3.62806e+00,1.37238e+00,4.33741e+00
2.14300e+02,3.16828e+00,-3.32607e+00,3.63626e+00,1.38783e+00,4.35897e+00
3.20700e+02,4.18388e+01,0.00000e+00,-3.09933e+00,1.31259e+00,3.84376e+00
3.20700e+02,4.16280e+01,-3.17930e+00,-3.20339e+00,1.29888e+00,3.91446e+00
3.20700e+02,4.13477e+01,-6.35861e+00,-3.29586e+00,1.28485e+00,3.97683e+00
3.20700e+02,4.10646e+01,-9.53791e+00,-3.38787e+00,1.27049e+00,4.03981e+00
3.20700e+02,4.07201e+01,-1.27172e+01,-3.46964e+00,1.25584e+00,4.09509e+00
3.20700e+02,4.03613e+01,-1.58965e+01,-3.54903e+00,1.24092e+00,4.14913e+00
3.20700e+02,3.99553e+01,-1.90758e+01,-3.62057e+00,1.22575e+00,4.19713e+00
3.20700e+02,3.95264e+01,-2.22551e+01,-3.68829e+00,1.21035e+00,4.24244e+00
3.20700e+02,3.90596e+01,-2.54344e+01,-3.74970e+00,1.19474e+00,4.28282e+00
3.20700e+02,3.85617e+01,-2.86137e+01,-3.80593e+00,1.17895e+00,4.31913e+00
3.20700e+02,3.80295e+01,-3.17930e+01,-3.85645e+00,1.16299e+00,4.35085e+00
3.20700e+02,3.74559e+01,-3.49724e+01,-3.90007e+00,1.14689e+00,4.37683e+00
3.20700e+02,3.68398e+01,-3.81517e+01,-3.93662e+00,1.13066e+00,4.39683e+00
3.20700e+02,3.61637e+01,-4.13310e+01,-3.96316e+00,1.11434e+00,4.40816e+00
3.20700e+02,3.54289e+01,-4.45103e+01,-3.97994e+00,1.09795e+00,4.41094e+00
3.20700e+02,3.46242e+01,-4.76896e+01,-3.98507e+00,1.08152e+00,4.40339e+00
3.20700e+02,3.37247e+01,-5.08689e+01,-3.97441e+00,1.06511e+00,4.38170e+00
3.20700e+02,3.27593e+01,-5.40482e+01,-3.95276e+00,1.04873e+00,4.35015e+00
3.20700e+02,3.16454e+01,-5.72275e+01,-3.90640e+00,1.03247e+00,4.29627e+00
3.20700e+02,3.04701e+01,-6.04068e+01,-3.84979e+00,1.01636e+00,4.23318e+00
3.20700e+02,2.91233e+01,-6.35861e+01,-3.76464e+00,1.00045e+00,4.14429e+00
3.20700e+02,2.76393e+01,-6.67654e+01,-3.65661e+00,9.84862e-01,4.03493e+00
3.20700e+02,2.60154e+01,-6.99447e+01,-3.52531e+00,9.69634e-01,3.90491e+00
3.20700e+02,2.41570e+01,-7.31240e+01,-3.35493e+00,9.54819e-01,3.74040e+00
3.20700e+02,2.20269e+01,-7.63033e+01,-3.13929e+00,9.40595e-01,3.53685e+00
3.20700e+02,1.95896e+01,-7.94826e+01,-2.87250e+00,9.27133e-01,3.29089e+00
3.20700e+02,1.67068e+01,-8.26619e+01,-2.53150e+00,9.14547e-01,2.98625e+00
3.20700e+02,1.30066e+01,-8.58412e+01,-2.05435e+00,9.03450e-01,2.58245e+00
3.20700e+02,8.00212e+00,-8.90205e+01,-1.35997e+00,8.96673e-01,2.06436e+00
3.20700e+02,-3.24239e+00,-9.21998e+01,3.73754e-01,8.99362e-01,1.60195e+00
3.20700e+02,-4.05392e+00,-9.22072e+01,5.08598e-01,9.07707e-01,1.65241e+00
3.20700e+02,-1.14474e+01,-8.89141e+01,1.88420e+00,9.23533e-01,2.47163e+00
3.20700e+02,-1.23426e+01,-8.56210e+01,2.17744e+00,9.35225e-01,2.71389e+00
3.20700e+02,-1.26515e+01,-8.23279e+01,2.37304e+00,9.47528e-01,2.88526e+00
3.20700e+02,-1.26984e+01,-7.90348e+01,2.52498e+00,9.60400e-01,3.02368e+00
3.20700e+02,-1.25479e+01,-7.57416e+01,2.64405e+00,9.73742e-01,3.13616e+00
3.20700e+02,-1.22734e+01,-7.24485e+01,2.74248e+00,9.87474e-01,3.23211e+00
3.20700e+02,-1.18746e+01,-6.91554e+01,2.82020e+00,1.00152e+00,3.31098e+00
3.20700e+02,-1.13999e+01,-6.58623e+01,2.88527e+00,1.01580e+00,3.37940e+00
3.20700e+02,-1.08812e+01,-6.25692e+01,2.94302e+00,1.03029e+00,3.44178e+00
3.20700e+02,-1.02962e+01,-5.92761e+01,2.98972e+00,1.04495e+00,3.49488e+00
3.20700e+02,-9.66973e+00,-5.59829e+01,3.02952e+00,1.05973e+00,3.54218e+00
3.20700e+02,-9.00292e+00,-5.26898e+01,3.06259e+00,1.07461e+00,3.58383e+00
3.20700e+02,-8.29591e+00,-4.93967e+01,3.08897e+00,1.08955e+00,3.61983e+00
3.20700e+02,-7.56370e+00,-4.61036e+01,3.11116e+00,1.10454e+00,3.65230e+00
3.20700e+02,-6.79920e+00,-4.28105e+01,3.12796e+00,1.11954e+00,3.68025e+00
3.20700e+02,-6.01403e+00,-3.95174e+01,3.14133e+00,1.13453e+00,3.70532e+00
3.20700e+02,-5.21032e+00,-3.62243e+01,3.15160e+00,1.14950e+00,3.72782e+00
3.20700e+02,-4.39006e+00,-3.29311e+01,3.15912e+00,1.16444e+00,3.74804e+00
3.20700e+02,-3.56279e+00,-2.96380e+01,3.16547e+00,1.17932e+00,3.76730e+00
3.20700e+02,-2.72467e+00,-2.63449e+01,3.17001e+00,1.19414e+00,3.78509e+00
3.20700e+02,-1.88474e+00,-2.30518e+01,3.17426e+00,1.20890e+00,3.80266e+00
3.20700e+02,-1.03832e+00,-1.97587e+01,3.17742e+00,1.22360e+00,3.81936e+00
3.20700e+02,-1.91989e-01,-1.64656e+01,3.18059e+00,1.23821e+00,3.83610e+00
3.20700e+02,6.51143e-01,-1.31725e+01,3.18430e+00,1.25276e+00,3.85331e+00
3.20700e+02,1.49428e+00,-9.87934e+00,3.18801e+00,1.26723e+00,3.87053e+00
3.20700e+02,2.31744e+00,-6.58623e+00,3.19505e+00,1.28162e+00,3.89050e+00
3.20700e+02,3.13689e+00,-3.29311e+00,3.20270e+00,1.29596e+00,3.91099e+00
4.26200e+02,4.14236e+01,0.00000e+00,-2.70757e+00,1.21904e+00,3.43353e+00
4.26200e+02,4.12150e+01,-3.14776e+00,-2.79890e+00,1.20638e+00,3.49283e+00
4.26200e+02,4.09374e+01,-6.29551e+00,-2.88009e+00,1.19341e+00,3.54508e+00
4.26200e+02,4.06571e+01,-9.44327e+00,-2.96087e+00,1.18015e+00,3.59792e+00
4.26200e+02,4.03160e+01,-1.25910e+01,-3.03272e+00,1.16661e+00,3.64422e+00
4.26200e+02,3.99607e+01,-1.57388e+01,-3.10248e+00,1.15283e+00,3.68951e+00
4.26200e+02,3.95588e+01,-1.88865e+01,-3.16539e+00,1.13882e+00,3.72966e+00
4.26200e+02,3.91341e+01,-2.20343e+01,-3.22496e+00,1.12459e+00,3.76755e+00
4.26200e+02,3.86720e+01,-2.51820e+01,-3.27901e+00,1.11018e+00,3.80123e+00
4.26200e+02,3.81790e+01,-2.83298e+01,-3.32853e+00,1.09559e+00,3.83146e+00
4.26200e+02,3.76521e+01,-3.14776e+01,-3.37307e+00,1.08085e+00,3.85776e+00
4.26200e+02,3.70842e+01,-3.46253e+01,-3.41158e+00,1.06597e+00,3.87914e+00
4.26200e+02,3.64743e+01,-3.77731e+01,-3.44391e+00,1.05098e+00,3.89541e+00
4.26200e+02,3.58048e+01,-4.09208e+01,-3.46749e+00,1.03590e+00,3.90420e+00
4.26200e+02,3.50774e+01,-4.40686e+01,-3.48255e+00,1.02077e+00,3.90564e+00
4.26200e+02,3.42806e+01,-4.72163e+01,-3.48742e+00,1.00559e+00,3.89817e+00
4.26200e+02,3.33901e+01,-5.03641e+01,-3.47850e+00,9.90432e-01,3.87851e+00
4.26200e+02,3.24342e+01,-5.35118e+01,-3.45998e+00,9.75301e-01,3.85034e+00
4.26200e+02,3.13314e+01,-5.66596e+01,-3.41986e+00,9.60278e-01,3.80287e+00
4.26200e+02,3.01677e+01,-5.98074e+01,-3.37079e+00,9.45398e-01,3.74747e+00
4.26200e+02,2.88343e+01,-6.29551e+01,-3.29678e+00,9.30699e-01,3.66979e+00
4.26200e+02,2.73650e+01,-6.61029e+01,-3.20278e+00,9.16305e-01,3.57445e+00
4.26200e+02,2.57573e+01,-6.92506e+01,-3.08845e+00,9.02238e-01,3.46130e+00
4.26200e+02,2.39173e+01,-7.23984e+01,-2.93997e+00,8.88553e-01,3.31843e+00
4.26200e+02,2.18083e+01,-7.55461e+01,-2.75194e+00,8.75414e-01,3.14201e+00
4.26200e+02,1.93952e+01,-7.86939e+01,-2.51921e+00,8.62979e-01,2.92927e+00
4.26200e+02,1.65410e+01,-8.18417e+01,-2.22166e+00,8.51353e-01,2.66649e+00
4.26200e+02,1.28775e+01,-8.49894e+01,-1.80512e+00,8.41103e-01,2.31966e+00
4.26200e+02,7.92271e+00,-8.81372e+01,-1.19878e+00,8.34843e-01,1.87829e+00
4.26200e+02,-3.21022e+00,-9.12849e+01,3.15719e-01,8.37328e-01,1.48426e+00
4.26200e+02,-4.01369e+00,-9.12922e+01,4.33542e-01,8.45037e-01,1.52651e+00
4.26200e+02,-1.13339e+01,-8.80318e+01,1.63593e+00,8.59656e-01,2.21208e+00
4.26200e+02,-1.22201e+01,-8.47713e+01,1.89256e+00,8.70456e-01,2.41968e+00
4.26200e+02,-1.25260e+01,-8.15109e+01,2.06387e+00,8.81820e-01,2.56757e+00
4.26200e+02,-1.25724e+01,-7.82505e+01,2.19705e+00,8.93711e-01,2.68760e+00
4.26200e+02,-1.24233e+01,-7.49900e+01,2.30150e+00,9.06035e-01,2.78560e+00
4.26200e+02,-1.21516e+01,-7.17296e+01,2.38791e+00,9.18720e-01,2.86954e+00
4.26200e+02,-1.17568e+01,-6.84692e+01,2.45623e+00,9.31692e-01,2.93891e+00
4.26200e+02,-1.12868e+01,-6.52087e+01,2.51349e+00,9.44888e-01,2.99935e+00
4.26200e+02,-1.07732e+01,-6.19483e+01,2.56436e+00,9.58274e-01,3.05464e+00
4.26200e+02,-1.01940e+01,-5.86879e+01,2.60557e+00,9.71813e-01,3.10198e+00
4.26200e+02,-9.57378e+00,-5.54274e+01,2.64076e+00,9.85467e-01,3.14436e+00
4.26200e+02,-8.91358e+00,-5.21670e+01,2.67006e+00,9.99211e-01,3.18190e+00
4.26200e+02,-8.21359e+00,-4.89065e+01,2.69352e+00,1.01301e+00,3.21460e+00
4.26200e+02,-7.48864e+00,-4.56461e+01,2.71332e+00,1.02685e+00,3.24428e+00
4.26200e+02,-6.73173e+00,-4.23857e+01,2.72841e+00,1.04071e+00,3.27008e+00
4.26200e+02,-5.95435e+00,-3.91252e+01,2.74049e+00,1.05456e+00,3.29342e+00
4.26200e+02,-5.15861e+00,-3.58648e+01,2.74988e+00,1.06839e+00,3.31454e+00
4.26200e+02,-4.34650e+00,-3.26044e+01,2.75686e+00,1.08218e+00,3.33371e+00
4.26200e+02,-3.52744e+00,-2.93439e+01,2.76281e+00,1.09593e+00,3.35206e+00
4.26200e+02,-2.69763e+00,-2.60835e+01,2.76719e+00,1.10962e+00,3.36914e+00
4.26200e+02,-1.86603e+00,-2.28231e+01,2.77131e+00,1.12326e+00,3.38604e+00
4.26200e+02,-1.02802e+00,-1.95626e+01,2.77448e+00,1.13683e+00,3.40218e+00
4.26200e+02,-1.90083e-01,-1.63022e+01,2.77766e+00,1.15033e+00,3.41836e+00
4.26200e+02,6.44682e-01,-1.30417e+01,2.78131e+00,1.16377e+00,3.43493e+00
4.26200e+02,1.47945e+00,-9.78131e+00,2.78496e+00,1.17713e+00,3.45150e+00
4.26200e+02,2.29445e+00,-6.52087e+00,2.79151e+00,1.19043e+00,3.47043e+00
4.26200e+02,3.10576e+00,-3.26044e+00,2.79861e+00,1.20367e+00,3.48979e+00
5.30600e+02,4.10127e+01,0.00000e+00,-2.34504e+00,1.12557e+00,3.04958e+00
5.30600e+02,4.08062e+01,-3.11654e+00,-2.42452e+00,1.11394e+00,3.09852e+00
5.30600e+02,4.05314e+01,-6.23307e+00,-2.49523e+00,1.10202e+00,3.14157e+00
5.30600e+02,4.02539e+01,-9.34961e+00,-2.56558e+00,1.08983e+00,3.18518e+00
5.30600e+02,3.99161e+01,-1.24661e+01,-2.62819e+00,1.07739e+00,3.22331e+00
5.30600e+02,3.95644e+01,-1.55827e+01,-2.68900e+00,1.06473e+00,3.26062e+00
5.30600e+02,3.91664e+01,-1.86992e+01,-2.74386e+00,1.05185e+00,3.29362e+00
5.30600e+02,3.87460e+01,-2.18158e+01,-2.79584e+00,1.03878e+00,3.32474e+00
5.30600e+02,3.82884e+01,-2.49323e+01,-2.84304e+00,1.02553e+00,3.35231e+00
5.30600e+02,3.78003e+01,-2.80488e+01,-2.88631e+00,1.01213e+00,3.37698e+00
5.30600e+02,3.72787e+01,-3.11654e+01,-2.92526e+00,9.98580e-01,3.39833e+00
5.30600e+02,3.67164e+01,-3.42819e+01,-2.95899e+00,9.84910e-01,3.41552e+00
5.30600e+02,3.61125e+01,-3.73984e+01,-2.98737e+00,9.71135e-01,3.42836e+00
5.30600e+02,3.54497e+01,-4.05150e+01,-3.00817e+00,9.57279e-01,3.43485e+00
5.30600e+02,3.47295e+01,-4.36315e+01,-3.02158e+00,9.43368e-01,3.43508e+00
5.30600e+02,3.39406e+01,-4.67480e+01,-3.02617e+00,9.29422e-01,3.42771e+00
5.30600e+02,3.30589e+01,-4.98646e+01,-3.01881e+00,9.15492e-01,3.40993e+00
5.30600e+02,3.21125e+01,-5.29811e+01,-3.00314e+00,9.01588e-01,3.38488e+00
5.30600e+02,3.10206e+01,-5.60976e+01,-2.96876e+00,8.87782e-01,3.34335e+00
5.30600e+02,2.98685e+01,-5.92142e+01,-2.92662e+00,8.74108e-01,3.29504e+00
5.30600e+02,2.85484e+01,-6.23307e+01,-2.86287e+00,8.60601e-01,3.22769e+00
5.30600e+02,2.70936e+01,-6.54473e+01,-2.78181e+00,8.47374e-01,3.14525e+00
5.30600e+02,2.55018e+01,-6.85638e+01,-2.68313e+00,8.34448e-01,3.04764e+00
5.30600e+02,2.36801e+01,-7.16803e+01,-2.55488e+00,8.21872e-01,2.92469e+00
5.30600e+02,2.15920e+01,-7.47969e+01,-2.39236e+00,8.09798e-01,2.77321e+00
5.30600e+02,1.92028e+01,-7.79134e+01,-2.19112e+00,7.98371e-01,2.59098e+00
5.30600e+02,1.63770e+01,-8.10299e+01,-1.93371e+00,7.87688e-01,2.36656e+00
5.30600e+02,1.27498e+01,-8.41465e+01,-1.57324e+00,7.78269e-01,2.07176e+00
5.30600e+02,7.84413e+00,-8.72630e+01,-1.04833e+00,7.72517e-01,1.69981e+00
5.30600e+02,-3.17838e+00,-9.03795e+01,2.63313e-01,7.74800e-01,1.36758e+00
5.30600e+02,-3.97388e+00,-9.03868e+01,3.65382e-01,7.81885e-01,1.40269e+00
5.30600e+02,-1.12214e+01,-8.71587e+01,1.40739e+00,7.95319e-01,1.96935e+00
5.30600e+02,-1.20989e+01,-8.39306e+01,1.63010e+00,8.05244e-01,2.14534e+00
5.30600e+02,-1.24018e+01,-8.07025e+01,1.77889e+00,8.15687e-01,2.27167e+00
5.30600e+02,-1.24477e+01,-7.74744e+01,1.89465e+00,8.26614e-01,2.37478e+00
5.30600e+02,-1.23001e+01,-7.42463e+01,1.98552e+00,8.37939e-01,2.45941e+00
5.30600e+02,-1.20311e+01,-7.10182e+01,2.06076e+00,8.49596e-01,2.53223e+00
5.30600e+02,-1.16402e+01,-6.77901e+01,2.12032e+00,8.61517e-01,2.59276e+00
5.30600e+02,-1.11748e+01,-6.45620e+01,2.17032e+00,8.73643e-01,2.64576e+00
5.30600e+02,-1.06664e+01,-6.13339e+01,2.21477e+00,8.85943e-01,2.69442e+00
5.30600e+02,-1.00929e+01,-5.81058e+01,2.25085e+00,8.98385e-01,2.73635e+00
5.30600e+02,-9.47882e+00,-5.48777e+01,2.28172e+00,9.10932e-01,2.77410e+00
5.30600e+02,-8.82518e+00,-5.16496e+01,2.30749e+00,9.23562e-01,2.80774e+00
5.30600e+02,-8.13212e+00,-4.84215e+01,2.32820e+00,9.36246e-01,2.83728e+00
5.30600e+02,-7.41437e+00,-4.51934e+01,2.34573e+00,9.48964e-01,2.86427e+00
5.30600e+02,-6.66496e+00,-4.19653e+01,2.35919e+00,9.61696e-01,2.88796e+00
5.30600e+02,-5.89529e+00,-3.87372e+01,2.37004e+00,9.74423e-01,2.90957e+00
5.30600e+02,-5.10745e+00,-3.55091e+01,2.37855e+00,9.87131e-01,2.92930e+00
5.30600e+02,-4.30339e+00,-3.22810e+01,2.38498e+00,9.99806e-01,2.94737e+00
5.30600e+02,-3.49245e+00,-2.90529e+01,2.39052e+00,1.01244e+00,2.96474e+00
5.30600e+02,-2.67088e+00,-2.58248e+01,2.39470e+00,1.02502e+00,2.98104e+00
5.30600e+02,-1.84753e+00,-2.25967e+01,2.39865e+00,1.03755e+00,2.99717e+00
5.30600e+02,-1.01782e+00,-1.93686e+01,2.40178e+00,1.05002e+00,3.01267e+00
5.30600e+02,-1.88198e-01,-1.61405e+01,2.40492e+00,1.06243e+00,3.02819e+00
5.30600e+02,6.38288e-01,-1.29124e+01,2.40846e+00,1.07478e+00,3.04403e+00
5.30600e+02,1.46477e+00,-9.68430e+00,2.41201e+00,1.08706e+00,3.05988e+00
5.30600e+02,2.27169e+00,-6.45620e+00,2.41807e+00,1.09928e+00,3.07771e+00
5.30600e+02,3.07496e+00,-3.22810e+00,2.42460e+00,1.11144e+00,3.09590e+00
6.33500e+02,4.06078e+01,0.00000e+00,-2.01263e+00,1.03381e+00,2.69388e+00
6.33500e+02,4.04033e+01,-3.08576e+00,-2.08121e+00,1.02317e+00,2.73351e+00
6.33500e+02,4.01312e+01,-6.17153e+00,-2.14225e+00,1.01228e+00,2.76828e+00
6.33500e+02,3.98564e+01,-9.25729e+00,-2.20299e+00,1.00114e+00,2.80357e+00
6.33500e+02,3.95220e+01,-1.23431e+01,-2.25708e+00,9.89771e-01,2.83432e+00
6.33500e+02,3.91738e+01,-1.54288e+01,-2.30963e+00,9.78192e-01,2.86443e+00
6.33500e+02,3.87797e+01,-1.85146e+01,-2.35707e+00,9.66420e-01,2.89096e+00
6.33500e+02,3.83634e+01,-2.16004e+01,-2.40203e+00,9.54471e-01,2.91596e+00
6.33500e+02,3.79104e+01,-2.46861e+01,-2.44289e+00,9.42361e-01,2.93800e+00
6.33500e+02,3.74271e+01,-2.77719e+01,-2.48038e+00,9.30107e-01,2.95763e+00
6.33500e+02,3.69106e+01,-3.08576e+01,-2.51416e+00,9.17724e-01,2.97450e+00
6.33500e+02,3.63539e+01,-3.39434e+01,-2.54346e+00,9.05228e-01,2.98789e+00
6.33500e+02,3.57559e+01,-3.70292e+01,-2.56816e+00,8.92636e-01,2.99764e+00
6.33500e+02,3.50997e+01,-4.01149e+01,-2.58636e+00,8.79969e-01,3.00205e+00
6.33500e+02,3.43866e+01,-4.32007e+01,-2.59822e+00,8.67253e-01,3.00119e+00
6.33500e+02,3.36055e+01,-4.62865e+01,-2.60251e+00,8.54505e-01,2.99392e+00
6.33500e+02,3.27325e+01,-4.93722e+01,-2.59653e+00,8.41771e-01,2.97787e+00
6.33500e+02,3.17954e+01,-5.24580e+01,-2.58342e+00,8.29060e-01,2.95569e+00
6.33500e+02,3.07144e+01,-5.55438e+01,-2.55424e+00,8.16441e-01,2.91957e+00
6.33500e+02,2.95736e+01,-5.86295e+01,-2.51841e+00,8.03941e-01,2.87773e+00
6.33500e+02,2.82665e+01,-6.17153e+01,-2.46403e+00,7.91594e-01,2.81981e+00
6.33500e+02,2.68261e+01,-6.48011e+01,-2.39478e+00,7.79502e-01,2.74916e+00
6.33500e+02,2.52500e+01,-6.78868e+01,-2.31041e+00,7.67687e-01,2.66571e+00
6.33500e+02,2.34463e+01,-7.09726e+01,-2.20065e+00,7.56191e-01,2.56092e+00
6.33500e+02,2.13788e+01,-7.40584e+01,-2.06147e+00,7.45154e-01,2.43217e+00
6.33500e+02,1.90132e+01,-7.71441e+01,-1.88906e+00,7.34709e-01,2.27770e+00
6.33500e+02,1.62153e+01,-8.02299e+01,-1.66842e+00,7.24943e-01,2.08812e+00
6.33500e+02,1.26239e+01,-8.33156e+01,-1.35931e+00,7.16333e-01,1.84041e+00
6.33500e+02,7.76668e+00,-8.64014e+01,-9.09033e-01,7.11076e-01,1.53076e+00
6.33500e+02,-3.14700e+00,-8.94872e+01,2.16635e-01,7.13163e-01,1.25409e+00
6.33500e+02,-3.93464e+00,-8.94943e+01,3.04258e-01,7.19639e-01,1.28305e+00
6.33500e+02,-1.11106e+01,-8.62981e+01,1.19915e+00,7.31920e-01,1.74502e+00
6.33500e+02,-1.19795e+01,-8.31019e+01,1.39070e+00,7.40992e-01,1.89242e+00
6.33500e+02,-1.22793e+01,-7.99057e+01,1.51878e+00,7.50539e-01,1.99916e+00
6.33500e+02,-1.23248e+01,-7.67094e+01,1.61851e+00,7.60528e-01,2.08681e+00
6.33500e+02,-1.21787e+01,-7.35132e+01,1.69687e+00,7.70880e-01,2.15920e+00
6.33500e+02,-1.19123e+01,-7.03170e+01,1.76182e+00,7.81536e-01,2.22180e+00
6.33500e+02,-1.15252e+01,-6.71208e+01,1.81331e+00,7.92433e-01,2.27419e+00
6.33500e+02,-1.10645e+01,-6.39245e+01,1.85658e+00,8.03518e-01,2.32031e+00
6.33500e+02,-1.05611e+01,-6.07283e+01,1.89510e+00,8.14762e-01,2.36282e+00
6.33500e+02,-9.99326e+00,-5.75321e+01,1.92643e+00,8.26135e-01,2.39971e+00
6.33500e+02,-9.38524e+00,-5.43358e+01,1.95328e+00,8.37605e-01,2.43311e+00
6.33500e+02,-8.73804e+00,-5.11396e+01,1.97576e+00,8.49150e-01,2.46309e+00
6.33500e+02,-8.05183e+00,-4.79434e+01,1.99389e+00,8.60745e-01,2.48963e+00
6.33500e+02,-7.34116e+00,-4.47472e+01,2.00929e+00,8.72370e-01,2.51403e+00
6.33500e+02,-6.59916e+00,-4.15509e+01,2.02120e+00,8.84009e-01,2.53568e+00
6.33500e+02,-5.83709e+00,-3.83547e+01,2.03087e+00,8.95643e-01,2.55558e+00
6.33500e+02,-5.05702e+00,-3.51585e+01,2.03854e+00,9.07259e-01,2.57391e+00
6.33500e+02,-4.26090e+00,-3.19623e+01,2.04441e+00,9.18846e-01,2.59084e+00
6.33500e+02,-3.45797e+00,-2.87660e+01,2.04953e+00,9.30393e-01,2.60719e+00
6.33500e+02,-2.64450e+00,-2.55698e+01,2.05346e+00,9.41896e-01,2.62264e+00
6.33500e+02,-1.82928e+00,-2.23736e+01,2.05721e+00,9.53349e-01,2.63794e+00
6.33500e+02,-1.00777e+00,-1.91774e+01,2.06025e+00,9.64748e-01,2.65271e+00
6.33500e+02,-1.86340e-01,-1.59811e+01,2.06330e+00,9.76090e-01,2.66748e+00
6.33500e+02,6.31986e-01,-1.27849e+01,2.06670e+00,9.87375e-01,2.68253e+00
6.33500e+02,1.45031e+00,-9.58868e+00,2.07010e+00,9.98600e-01,2.69757e+00
6.33500e+02,2.24926e+00,-6.39245e+00,2.07565e+00,1.00977e+00,2.71427e+00
6.33500e+02,3.04460e+00,-3.19623e+00,2.08162e+00,1.02089e+00,2.73126e+00
7.34700e+02,4.02095e+01,0.00000e+00,-1.71022e+00,9.43802e-01,2.36583e+00
7.34700e+02,4.00070e+01,-3.05550e+00,-1.76882e+00,9.34135e-01,2.39719e+00
7.34700e+02,3.97376e+01,-6.11100e+00,-1.82101e+00,9.24233e-01,2.42460e+00
7.34700e+02,3.94656e+01,-9.16651e+00,-1.87295e+00,9.14106e-01,2.45249e+00
7.34700e+02,3.91344e+01,-1.22220e+01,-1.91923e+00,9.03774e-01,2.47667e+00
7.34700e+02,3.87896e+01,-1.52775e+01,-1.96420e+00,8.93249e-01,2.50036e+00
7.34700e+02,3.83994e+01,-1.83330e+01,-2.00484e+00,8.82550e-01,2.52112e+00
7.34700e+02,3.79872e+01,-2.13885e+01,-2.04336e+00,8.71689e-01,2.54064e+00
7.34700e+02,3.75386e+01,-2.44440e+01,-2.07840e+00,8.60683e-01,2.55775e+00
7.34700e+02,3.70601e+01,-2.74995e+01,-2.11058e+00,8.49545e-01,2.57288e+00
7.34700e+02,3.65486e+01,-3.05550e+01,-2.13960e+00,8.38289e-01,2.58575e+00
7.34700e+02,3.59973e+01,-3.36105e+01,-2.16481e+00,8.26932e-01,2.59574e+00
7.34700e+02,3.54053e+01,-3.66660e+01,-2.18612e+00,8.15487e-01,2.60272e+00
7.34700e+02,3.47554e+01,-3.97215e+01,-2.20189e+00,8.03974e-01,2.60528e+00
7.34700e+02,3.40493e+01,-4.27770e+01,-2.21229e+00,7.92416e-01,2.60346e+00
7.34700e+02,3.32760e+01,-4.58325e+01,-2.21624e+00,7.80830e-01,2.59630e+00
7.34700e+02,3.24115e+01,-4.88880e+01,-2.21147e+00,7.69256e-01,2.58183e+00
7.34700e+02,3.14836e+01,-5.19435e+01,-2.20063e+00,7.57703e-01,2.56225e+00
7.34700e+02,3.04131e+01,-5.49990e+01,-2.17614e+00,7.46233e-01,2.53104e+00
7.34700e+02,2.92835e+01,-5.80545e+01,-2.14599e+00,7.34872e-01,2.49507e+00
7.34700e+02,2.79893e+01,-6.11100e+01,-2.10008e+00,7.23650e-01,2.44568e+00
7.34700e+02,2.65630e+01,-6.41655e+01,-2.04153e+00,7.12660e-01,2.38569e+00
7.34700e+02,2.50024e+01,-6.72210e+01,-1.97013e+00,7.01921e-01,2.31506e+00
7.34700e+02,2.32164e+01,-7.02765e+01,-1.87714e+00,6.91472e-01,2.22667e+00
7.34700e+02,2.11691e+01,-7.33320e+01,-1.75915e+00,6.81441e-01,2.11842e+00
7.34700e+02,1.88268e+01,-7.63875e+01,-1.61291e+00,6.71948e-01,1.98898e+00
7.34700e+02,1.60563e+01,-7.94430e+01,-1.42569e+00,6.63071e-01,1.83073e+00
7.34700e+02,1.25001e+01,-8.24985e+01,-1.16326e+00,6.55247e-01,1.62518e+00
7.34700e+02,7.69051e+00,-8.55540e+01,-7.80842e-01,6.50468e-01,1.37078e+00
7.34700e+02,-3.11614e+00,-8.86096e+01,1.75641e-01,6.52366e-01,1.14350e+00
7.34700e+02,-3.89606e+00,-8.86166e+01,2.50118e-01,6.58252e-01,1.16724e+00
7.34700e+02,-1.10017e+01,-8.54518e+01,1.01108e+00,6.69414e-01,1.53838e+00
7.34700e+02,-1.18620e+01,-8.22869e+01,1.17421e+00,6.77660e-01,1.66025e+00
7.34700e+02,-1.21589e+01,-7.91220e+01,1.28340e+00,6.86337e-01,1.74937e+00
7.34700e+02,-1.22039e+01,-7.59571e+01,1.36848e+00,6.95416e-01,1.82306e+00
7.34700e+02,-1.20592e+01,-7.27922e+01,1.43541e+00,7.04825e-01,1.88434e+00
7.34700e+02,-1.17955e+01,-6.96274e+01,1.49094e+00,7.14510e-01,1.93764e+00
7.34700e+02,-1.14122e+01,-6.64625e+01,1.53502e+00,7.24415e-01,1.98258e+00
7.34700e+02,-1.09560e+01,-6.32976e+01,1.57212e+00,7.34490e-01,2.02237e+00
7.34700e+02,-1.04575e+01,-6.01327e+01,1.60518e+00,7.44710e-01,2.05922e+00
7.34700e+02,-9.89525e+00,-5.69678e+01,1.63213e+00,7.55046e-01,2.09144e+00
7.34700e+02,-9.29319e+00,-5.38030e+01,1.65527e+00,7.65471e-01,2.12079e+00
7.34700e+02,-8.65235e+00,-5.06381e+01,1.67470e+00,7.75964e-01,2.14732e+00
7.34700e+02,-7.97287e+00,-4.74732e+01,1.69043e+00,7.86503e-01,2.17102e+00
7.34700e+02,-7.26917e+00,-4.43083e+01,1.70385e+00,7.97069e-01,2.19295e+00
7.34700e+02,-6.53444e+00,-4.11434e+01,1.71429e+00,8.07647e-01,2.21261e+00
7.34700e+02,-5.77984e+00,-3.79786e+01,1.72283e+00,8.18221e-01,2.23083e+00
7.34700e+02,-5.00742e+00,-3.48137e+01,1.72966e+00,8.28779e-01,2.24774e+00
7.34700e+02,-4.21911e+00,-3.16488e+01,1.73497e+00,8.39310e-01,2.26351e+00
7.34700e+02,-3.42406e+00,-2.84839e+01,1.73964e+00,8.49806e-01,2.27879e+00
7.34700e+02,-2.61857e+00,-2.53190e+01,1.74331e+00,8.60260e-01,2.29331e+00
7.34700e+02,-1.81134e+00,-2.21542e+01,1.74681e+00,8.70669e-01,2.30772e+00
7.34700e+02,-9.97887e-01,-1.89893e+01,1.74972e+00,8.81030e-01,2.32167e+00
7.34700e+02,-1.84513e-01,-1.58244e+01,1.75263e+00,8.91338e-01,2.33563e+00
7.34700e+02,6.25788e-01,-1.26595e+01,1.75584e+00,9.01595e-01,2.34981e+00
7.34700e+02,1.43609e+00,-9.49464e+00,1.75905e+00,9.11797e-01,2.36397e+00
7.34700e+02,2.22720e+00,-6.32976e+00,1.76409e+00,9.21950e-01,2.37950e+00
7.34700e+02,3.01474e+00,-3.16488e+00,1.76948e+00,9.32059e-01,2.39526e+00
8.33800e+02,3.98196e+01,0.00000e+00,-1.43792e+00,8.55919e-01,2.06529e+00
8.33800e+02,3.96190e+01,-3.02587e+00,-1.48747e+00,8.47186e-01,2.08944e+00
8.33800e+02,3.93522e+01,-6.05173e+00,-1.53164e+00,8.38241e-01,2.11042e+00
8.33800e+02,3.90828e+01,-9.07760e+00,-1.57560e+00,8.29092e-01,2.13183e+00
8.33800e+02,3.87549e+01,-1.21035e+01,-1.61479e+00,8.19757e-01,2.15025e+00
8.33800e+02,3.84134e+01,-1.51293e+01,-1.65289e+00,8.10250e-01,2.16831e+00
8.33800e+02,3.80270e+01,-1.81552e+01,-1.68733e+00,8.00584e-01,2.18401e+00
8.33800e+02,3.76188e+01,-2.11811e+01,-1.72001e+00,7.90772e-01,2.19872e+00
8.33800e+02,3.71745e+01,-2.42069e+01,-1.74975e+00,7.80829e-01,2.21149e+00
8.33800e+02,3.67006e+01,-2.72328e+01,-1.77708e+00,7.70767e-01,2.22267e+00
8.33800e+02,3.61941e+01,-3.02587e+01,-1.80176e+00,7.60599e-01,2.23201e+00
8.33800e+02,3.56482e+01,-3.32845e+01,-1.82324e+00,7.50339e-01,2.23902e+00
8.33800e+02,3.50619e+01,-3.63104e+01,-1.84143e+00,7.39999e-01,2.24358e+00
8.33800e+02,3.44183e+01,-3.93363e+01,-1.85497e+00,7.29599e-01,2.24452e+00
8.33800e+02,3.37191e+01,-4.23621e+01,-1.86398e+00,7.19157e-01,2.24187e+00
8.33800e+02,3.29532e+01,-4.53880e+01,-1.86758e+00,7.08690e-01,2.23486e+00
8.33800e+02,3.20971e+01,-4.84139e+01,-1.86384e+00,6.98235e-01,2.22182e+00
8.33800e+02,3.11783e+01,-5.14397e+01,-1.85500e+00,6.87798e-01,2.20459e+00
8.33800e+02,3.01182e+01,-5.44656e+01,-1.83468e+00,6.77436e-01,2.17780e+00
8.33800e+02,2.89995e+01,-5.74915e+01,-1.80959e+00,6.67173e-01,2.14709e+00
8.33800e+02,2.77178e+01,-6.05173e+01,-1.77125e+00,6.57035e-01,2.10533e+00
8.33800e+02,2.63054e+01,-6.35432e+01,-1.72228e+00,6.47107e-01,2.05487e+00
8.33800e+02,2.47599e+01,-6.65691e+01,-1.66250e+00,6.37405e-01,1.99569e+00
8.33800e+02,2.29912e+01,-6.95949e+01,-1.58457e+00,6.27966e-01,1.92195e+00
8.33800e+02,2.09638e+01,-7.26208e+01,-1.48561e+00,6.18904e-01,1.83199e+00
8.33800e+02,1.86442e+01,-7.56467e+01,-1.36289e+00,6.10328e-01,1.72481e+00
8.33800e+02,1.59005e+01,-7.86725e+01,-1.20570e+00,6.02310e-01,1.59438e+00
8.33800e+02,1.23789e+01,-8.16984e+01,-9.85263e-01,5.95241e-01,1.42607e+00
8.33800e+02,7.61592e+00,-8.47243e+01,-6.63914e-01,5.90924e-01,1.21998e+00
8.33800e+02,-3.08591e+00,-8.77501e+01,1.40243e-01,5.92639e-01,1.03602e+00
8.33800e+02,-3.85827e+00,-8.77572e+01,2.02880e-01,5.97957e-01,1.05538e+00
8.33800e+02,-1.08950e+01,-8.46230e+01,8.43150e-01,6.08041e-01,1.34909e+00
8.33800e+02,-1.17470e+01,-8.14888e+01,9.80628e-01,6.15490e-01,1.44849e+00
8.33800e+02,-1.20409e+01,-7.83546e+01,1.07274e+00,6.23329e-01,1.52197e+00
8.33800e+02,-1.20856e+01,-7.52204e+01,1.14459e+00,6.31530e-01,1.58321e+00
8.33800e+02,-1.19423e+01,-7.20862e+01,1.20115e+00,6.40031e-01,1.63453e+00
8.33800e+02,-1.16811e+01,-6.89521e+01,1.24814e+00,6.48780e-01,1.67946e+00
8.33800e+02,-1.13015e+01,-6.58179e+01,1.28549e+00,6.57728e-01,1.71765e+00
8.33800e+02,-1.08497e+01,-6.26837e+01,1.31698e+00,6.66829e-01,1.75169e+00
8.33800e+02,-1.03561e+01,-5.95495e+01,1.34506e+00,6.76062e-01,1.78336e+00
8.33800e+02,-9.79928e+00,-5.64153e+01,1.36801e+00,6.85400e-01,1.81129e+00
8.33800e+02,-9.20306e+00,-5.32811e+01,1.38776e+00,6.94817e-01,1.83690e+00
8.33800e+02,-8.56843e+00,-5.01469e+01,1.40438e+00,7.04297e-01,1.86021e+00
8.33800e+02,-7.89554e+00,-4.70128e+01,1.41789e+00,7.13817e-01,1.88123e+00
8.33800e+02,-7.19866e+00,-4.38786e+01,1.42945e+00,7.23362e-01,1.90082e+00
8.33800e+02,-6.47106e+00,-4.07444e+01,1.43852e+00,7.32918e-01,1.91855e+00
8.33800e+02,-5.72378e+00,-3.76102e+01,1.44598e+00,7.42470e-01,1.93511e+00
8.33800e+02,-4.95886e+00,-3.44760e+01,1.45201e+00,7.52009e-01,1.95061e+00
8.33800e+02,-4.17819e+00,-3.13418e+01,1.45676e+00,7.61521e-01,1.96517e+00
8.33800e+02,-3.39085e+00,-2.82077e+01,1.46097e+00,7.71003e-01,1.97934e+00
8.33800e+02,-2.59317e+00,-2.50735e+01,1.46434e+00,7.80447e-01,1.99288e+00
8.33800e+02,-1.79378e+00,-2.19393e+01,1.46757e+00,7.89850e-01,2.00633e+00
8.33800e+02,-9.88209e-01,-1.88051e+01,1.47029e+00,7.99210e-01,2.01940e+00
8.33800e+02,-1.82723e-01,-1.56709e+01,1.47302e+00,8.08522e-01,2.03247e+00
8.33800e+02,6.19718e-01,-1.25367e+01,1.47600e+00,8.17788e-01,2.04571e+00
8.33800e+02,1.42216e+00,-9.40255e+00,1.47899e+00,8.27004e-01,2.05893e+00
8.33800e+02,2.20560e+00,-6.26837e+00,1.48351e+00,8.36175e-01,2.07325e+00
8.33800e+02,2.98550e+00,-3.13418e+00,1.48832e+00,8.45307e-01,2.08776e+00
9.30700e+02,3.94382e+01,0.00000e+00,-1.19474e+00,7.69719e-01,1.79020e+00
9.30700e+02,3.92396e+01,-2.99689e+00,-1.23617e+00,7.61885e-01,1.80818e+00
9.30700e+02,3.89754e+01,-5.99378e+00,-1.27311e+00,7.53861e-01,1.82366e+00
9.30700e+02,3.87085e+01,-8.99067e+00,-1.30988e+00,7.45654e-01,1.83950e+00
9.30700e+02,3.83837e+01,-1.19876e+01,-1.34269e+00,7.37280e-01,1.85299e+00
9.30700e+02,3.80455e+01,-1.49844e+01,-1.37459e+00,7.28752e-01,1.86621e+00
9.30700e+02,3.76628e+01,-1.79813e+01,-1.40345e+00,7.20081e-01,1.87756e+00
9.30700e+02,3.72585e+01,-2.09782e+01,-1.43084e+00,7.11280e-01,1.88814e+00
9.30700e+02,3.68185e+01,-2.39751e+01,-1.45580e+00,7.02361e-01,1.89717e+00
9.30700e+02,3.63492e+01,-2.69720e+01,-1.47875e+00,6.93335e-01,1.90495e+00
9.30700e+02,3.58475e+01,-2.99689e+01,-1.49950e+00,6.84214e-01,1.91127e+00
9.30700e+02,3.53068e+01,-3.29658e+01,-1.51758e+00,6.75010e-01,1.91572e+00
9.30700e+02,3.47261e+01,-3.59627e+01,-1.53294e+00,6.65736e-01,1.91820e+00
9.30700e+02,3.40887e+01,-3.89596e+01,-1.54442e+00,6.56406e-01,1.91777e+00
9.30700e+02,3.33962e+01,-4.19565e+01,-1.55215e+00,6.47040e-01,1.91446e+00
9.30700e+02,3.26376e+01,-4.49533e+01,-1.55537e+00,6.37651e-01,1.90761e+00
9.30700e+02,3.17897e+01,-4.79502e+01,-1.55250e+00,6.28272e-01,1.89590e+00
9.30700e+02,3.08797e+01,-5.09471e+01,-1.54538e+00,6.18910e-01,1.88079e+00
9.30700e+02,2.98297e+01,-5.39440e+01,-1.52873e+00,6.09615e-01,1.85793e+00
9.30700e+02,2.87218e+01,-5.69409e+01,-1.50811e+00,6.00409e-01,1.83191e+00
9.30700e+02,2.74524e+01,-5.99378e+01,-1.47648e+00,5.91315e-01,1.79693e+00
9.30700e+02,2.60534e+01,-6.29347e+01,-1.43602e+00,5.82410e-01,1.75492e+00
9.30700e+02,2.45228e+01,-6.59316e+01,-1.38657e+00,5.73707e-01,1.70587e+00
9.30700e+02,2.27710e+01,-6.89285e+01,-1.32203e+00,5.65241e-01,1.64507e+00
9.30700e+02,2.07631e+01,-7.19254e+01,-1.24002e+00,5.57112e-01,1.57123e+00
9.30700e+02,1.84656e+01,-7.49222e+01,-1.13825e+00,5.49419e-01,1.48364e+00
9.30700e+02,1.57483e+01,-7.79191e+01,-1.00784e+00,5.42226e-01,1.37760e+00
9.30700e+02,1.22603e+01,-8.09160e+01,-8.24860e-01,5.35886e-01,1.24174e+00
9.30700e+02,7.54299e+00,-8.39129e+01,-5.58009e-01,5.32014e-01,1.07726e+00
9.30700e+02,-3.05636e+00,-8.69098e+01,1.10122e-01,5.33552e-01,9.30678e-01
9.30700e+02,-3.82132e+00,-8.69168e+01,1.62181e-01,5.38323e-01,9.46402e-01
9.30700e+02,-1.07906e+01,-8.38126e+01,6.94578e-01,5.47368e-01,1.17528e+00
9.30700e+02,-1.16345e+01,-8.07084e+01,8.09084e-01,5.54051e-01,1.25520e+00
9.30700e+02,-1.19256e+01,-7.76042e+01,8.85888e-01,5.61082e-01,1.31500e+00
9.30700e+02,-1.19698e+01,-7.45001e+01,9.45842e-01,5.68439e-01,1.36528e+00
9.30700e+02,-1.18279e+01,-7.13959e+01,9.93100e-01,5.76064e-01,1.40776e+00
9.30700e+02,-1.15692e+01,-6.82917e+01,1.03239e+00,5.83912e-01,1.44523e+00
9.30700e+02,-1.11933e+01,-6.51876e+01,1.06368e+00,5.91938e-01,1.47736e+00
9.30700e+02,-1.07458e+01,-6.20834e+01,1.09010e+00,6.00102e-01,1.50621e+00
9.30700e+02,-1.02569e+01,-5.89792e+01,1.11368e+00,6.08384e-01,1.53319e+00
9.30700e+02,-9.70544e+00,-5.58751e+01,1.13300e+00,6.16760e-01,1.55720e+00
9.30700e+02,-9.11493e+00,-5.27709e+01,1.14965e+00,6.25208e-01,1.57935e+00
9.30700e+02,-8.48637e+00,-4.96667e+01,1.16371e+00,6.33711e-01,1.59969e+00
9.30700e+02,-7.81993e+00,-4.65625e+01,1.17518e+00,6.42251e-01,1.61818e+00
9.30700e+02,-7.12973e+00,-4.34584e+01,1.18504e+00,6.50813e-01,1.63554e+00
9.30700e+02,-6.40909e+00,-4.03542e+01,1.19281e+00,6.59385e-01,1.65141e+00
9.30700e+02,-5.66897e+00,-3.72500e+01,1.19926e+00,6.67953e-01,1.66635e+00
9.30700e+02,-4.91137e+00,-3.41459e+01,1.20452e+00,6.76509e-01,1.68043e+00
9.30700e+02,-4.13818e+00,-3.10417e+01,1.20871e+00,6.85042e-01,1.69376e+00
9.30700e+02,-3.35837e+00,-2.79375e+01,1.21245e+00,6.93547e-01,1.70677e+00
9.30700e+02,-2.56834e+00,-2.48334e+01,1.21549e+00,7.02018e-01,1.71927e+00
9.30700e+02,-1.77660e+00,-2.17292e+01,1.21841e+00,7.10453e-01,1.73169e+00
9.30700e+02,-9.78745e-01,-1.86250e+01,1.22092e+00,7.18848e-01,1.74381e+00
9.30700e+02,-1.80973e-01,-1.55208e+01,1.22344e+00,7.27201e-01,1.75592e+00
9.30700e+02,6.13784e-01,-1.24167e+01,1.22616e+00,7.35512e-01,1.76816e+00
9.30700e+02,1.40854e+00,-9.31251e+00,1.22888e+00,7.43779e-01,1.78038e+00
9.30700e+02,2.18448e+00,-6.20834e+00,1.23288e+00,7.52006e-01,1.79347e+00
9.30700e+02,2.95691e+00,-3.10417e+00,1.23712e+00,7.60197e-01,1.80670e+00
1.02500e+03,3.90671e+01,0.00000e+00,-9.80121e-01,6.85688e-01,1.53985e+00
1.02500e+03,3.88704e+01,-2.96869e+00,-1.01431e+00,6.78706e-01,1.55266e+00
1.02500e+03,3.86086e+01,-5.93738e+00,-1.04483e+00,6.71555e-01,1.56353e+00
1.02500e+03,3.83443e+01,-8.90607e+00,-1.07520e+00,6.64241e-01,1.57471e+00
1.02500e+03,3.80226e+01,-1.18748e+01,-1.10233e+00,6.56779e-01,1.58404e+00
1.02500e+03,3.76875e+01,-1.48435e+01,-1.12870e+00,6.49179e-01,1.59319e+00
1.02500e+03,3.73084e+01,-1.78121e+01,-1.15258e+00,6.41452e-01,1.60088e+00
1.02500e+03,3.69079e+01,-2.07808e+01,-1.17526e+00,6.33609e-01,1.60799e+00
1.02500e+03,3.64721e+01,-2.37495e+01,-1.19594e+00,6.25660e-01,1.61388e+00
1.02500e+03,3.60071e+01,-2.67182e+01,-1.21497e+00,6.17616e-01,1.61880e+00
1.02500e+03,3.55102e+01,-2.96869e+01,-1.23220e+00,6.09488e-01,1.62257e+00
1.02500e+03,3.49746e+01,-3.26556e+01,-1.24724e+00,6.01286e-01,1.62488e+00
1.02500e+03,3.43994e+01,-3.56243e+01,-1.26004e+00,5.93021e-01,1.62564e+00
1.02500e+03,3.37680e+01,-3.85930e+01,-1.26966e+00,5.84707e-01,1.62410e+00
1.02500e+03,3.30819e+01,-4.15617e+01,-1.27620e+00,5.76360e-01,1.62027e+00
1.02500e+03,3.23305e+01,-4.45304e+01,-1.27904e+00,5.67993e-01,1.61363e+00
1.02500e+03,3.14906e+01,-4.74990e+01,-1.27688e+00,5.59635e-01,1.60312e+00
1.02500e+03,3.05891e+01,-5.04677e+01,-1.27125e+00,5.51292e-01,1.58992e+00
1.02500e+03,2.95491e+01,-5.34364e+01,-1.25778e+00,5.43009e-01,1.57053e+00
1.02500e+03,2.84516e+01,-5.64051e+01,-1.24106e+00,5.34805e-01,1.54864e+00
1.02500e+03,2.71940e+01,-5.93738e+01,-1.21530e+00,5.26701e-01,1.51960e+00
1.02500e+03,2.58083e+01,-6.23425e+01,-1.18229e+00,5.18765e-01,1.48498e+00
1.02500e+03,2.42920e+01,-6.53112e+01,-1.14191e+00,5.11009e-01,1.44477e+00
1.02500e+03,2.25567e+01,-6.82799e+01,-1.08915e+00,5.03464e-01,1.39523e+00
1.02500e+03,2.05677e+01,-7.12486e+01,-1.02205e+00,4.96220e-01,1.33540e+00
1.02500e+03,1.82919e+01,-7.42173e+01,-9.38736e-01,4.89365e-01,1.26478e+00
1.02500e+03,1.56001e+01,-7.71859e+01,-8.31917e-01,4.82955e-01,1.17976e+00
1.02500e+03,1.21450e+01,-8.01546e+01,-6.81958e-01,4.77305e-01,1.07169e+00
1.02500e+03,7.47201e+00,-8.31233e+01,-4.63173e-01,4.73855e-01,9.42415e-01
1.02500e+03,-3.02760e+00,-8.60920e+01,8.49106e-02,4.75226e-01,8.27483e-01
1.02500e+03,-3.78536e+00,-8.60989e+01,1.27631e-01,4.79477e-01,8.40229e-01
1.02500e+03,-1.06891e+01,-8.30239e+01,5.64733e-01,4.87539e-01,1.01588e+00
1.02500e+03,-1.15250e+01,-7.99490e+01,6.58905e-01,4.93493e-01,1.07924e+00
1.02500e+03,-1.18134e+01,-7.68740e+01,7.22138e-01,4.99760e-01,1.12728e+00
1.02500e+03,-1.18572e+01,-7.37991e+01,7.71544e-01,5.06316e-01,1.16805e+00
1.02500e+03,-1.17166e+01,-7.07241e+01,8.10531e-01,5.13111e-01,1.20283e+00
1.02500e+03,-1.14604e+01,-6.76491e+01,8.42981e-01,5.20105e-01,1.23375e+00
1.02500e+03,-1.10880e+01,-6.45742e+01,8.68866e-01,5.27257e-01,1.26053e+00
1.02500e+03,-1.06447e+01,-6.14992e+01,8.90747e-01,5.34533e-01,1.28476e+00
1.02500e+03,-1.01604e+01,-5.84243e+01,9.10305e-01,5.41913e-01,1.30754e+00
1.02500e+03,-9.61411e+00,-5.53493e+01,9.26365e-01,5.49378e-01,1.32801e+00
1.02500e+03,-9.02916e+00,-5.22743e+01,9.40237e-01,5.56906e-01,1.34703e+00
1.02500e+03,-8.40652e+00,-4.91994e+01,9.51980e-01,5.64483e-01,1.36462e+00
1.02500e+03,-7.74634e+00,-4.61244e+01,9.61602e-01,5.72093e-01,1.38078e+00
1.02500e+03,-7.06264e+00,-4.30495e+01,9.69893e-01,5.79724e-01,1.39604e+00
1.02500e+03,-6.34878e+00,-3.99745e+01,9.76481e-01,5.87363e-01,1.41014e+00
1.02500e+03,-5.61563e+00,-3.68995e+01,9.81978e-01,5.94998e-01,1.42350e+00
1.02500e+03,-4.86516e+00,-3.38246e+01,9.86496e-01,6.02622e-01,1.43619e+00
1.02500e+03,-4.09924e+00,-3.07496e+01,9.90142e-01,6.10227e-01,1.44828e+00
1.02500e+03,-3.32677e+00,-2.76746e+01,9.93417e-01,6.17806e-01,1.46011e+00
1.02500e+03,-2.54417e+00,-2.45997e+01,9.96119e-01,6.25355e-01,1.47155e+00
1.02500e+03,-1.75988e+00,-2.15247e+01,9.98726e-01,6.32871e-01,1.48291e+00
1.02500e+03,-9.69535e-01,-1.84498e+01,1.00099e+00,6.40353e-01,1.49403e+00
1.02500e+03,-1.79270e-01,-1.53748e+01,1.00326e+00,6.47796e-01,1.50514e+00
1.02500e+03,6.08008e-01,-1.22998e+01,1.00570e+00,6.55203e-01,1.51634e+00
1.02500e+03,1.39529e+00,-9.22488e+00,1.00814e+00,6.62569e-01,1.52753e+00
1.02500e+03,2.16392e+00,-6.14992e+00,1.01163e+00,6.69901e-01,1.53938e+00
1.02500e+03,2.92908e+00,-3.07496e+00,1.01532e+00,6.77200e-01,1.55134e+00
1.11650e+03,3.87070e+01,0.00000e+00,-7.92832e-01,6.03747e-01,1.31229e+00
1.11650e+03,3.85121e+01,-2.94133e+00,-8.20664e-01,5.97587e-01,1.32092e+00
1.11650e+03,3.82528e+01,-5.88266e+00,-8.45523e-01,5.91276e-01,1.32806e+00
1.11650e+03,3.79909e+01,-8.82398e+00,-8.70264e-01,5.84822e-01,1.33544e+00
1.11650e+03,3.76721e+01,-1.17653e+01,-8.92381e-01,5.78237e-01,1.34142e+00
1.11650e+03,3.73401e+01,-1.47066e+01,-9.13888e-01,5.71530e-01,1.34727e+00
1.11650e+03,3.69645e+01,-1.76480e+01,-9.33381e-01,5.64712e-01,1.35200e+00
1.11650e+03,3.65678e+01,-2.05893e+01,-9.51897e-01,5.57791e-01,1.35628e+00
1.11650e+03,3.61359e+01,-2.35306e+01,-9.68794e-01,5.50776e-01,1.35964e+00
1.11650e+03,3.56753e+01,-2.64720e+01,-9.84362e-01,5.43679e-01,1.36225e+00
1.11650e+03,3.51829e+01,-2.94133e+01,-9.98467e-01,5.36506e-01,1.36398e+00
1.11650e+03,3.46522e+01,-3.23546e+01,-1.01080e+00,5.29268e-01,1.36459e+00
1.11650e+03,3.40823e+01,-3.52959e+01,-1.02132e+00,5.21975e-01,1.36399e+00
1.11650e+03,3.34567e+01,-3.82373e+01,-1.02928e+00,5.14638e-01,1.36161e+00
1.11650e+03,3.27770e+01,-4.11786e+01,-1.03474e+00,5.07273e-01,1.35745e+00
1.11650e+03,3.20325e+01,-4.41199e+01,-1.03720e+00,4.99889e-01,1.35110e+00
1.11650e+03,3.12004e+01,-4.70612e+01,-1.03562e+00,4.92514e-01,1.34172e+00
1.11650e+03,3.03072e+01,-5.00026e+01,-1.03123e+00,4.85152e-01,1.33024e+00
1.11650e+03,2.92767e+01,-5.29439e+01,-1.02049e+00,4.77843e-01,1.31393e+00
1.11650e+03,2.81893e+01,-5.58852e+01,-1.00713e+00,4.70603e-01,1.29565e+00
1.11650e+03,2.69434e+01,-5.88266e+01,-9.86454e-01,4.63452e-01,1.27179e+00
1.11650e+03,2.55704e+01,-6.17679e+01,-9.59912e-01,4.56449e-01,1.24357e+00
1.11650e+03,2.40681e+01,-6.47092e+01,-9.27401e-01,4.49606e-01,1.21099e+00
1.11650e+03,2.23488e+01,-6.76505e+01,-8.84873e-01,4.42948e-01,1.17116e+00
1.11650e+03,2.03781e+01,-7.05919e+01,-8.30741e-01,4.36556e-01,1.12333e+00
1.11650e+03,1.81233e+01,-7.35332e+01,-7.63494e-01,4.30506e-01,1.06721e+00
1.11650e+03,1.54563e+01,-7.64745e+01,-6.77225e-01,4.24850e-01,1.00006e+00
1.11650e+03,1.20330e+01,-7.94159e+01,-5.56047e-01,4.19865e-01,9.15449e-01
1.11650e+03,7.40314e+00,-8.23572e+01,-3.79177e-01,4.16820e-01,8.15471e-01
1.11650e+03,-2.99970e+00,-8.52985e+01,6.41548e-02,4.18030e-01,7.26886e-01
1.11650e+03,-3.75047e+00,-8.53053e+01,9.87228e-02,4.21782e-01,7.37188e-01
1.11650e+03,-1.05906e+01,-8.22587e+01,4.52588e-01,4.28895e-01,8.69879e-01
1.11650e+03,-1.14188e+01,-7.92121e+01,5.28962e-01,4.34150e-01,9.19380e-01
1.11650e+03,-1.17045e+01,-7.61655e+01,5.80301e-01,4.39680e-01,9.57447e-01
1.11650e+03,-1.17479e+01,-7.31189e+01,6.20451e-01,4.45465e-01,9.90089e-01
1.11650e+03,-1.16086e+01,-7.00722e+01,6.52171e-01,4.51461e-01,1.01822e+00
1.11650e+03,-1.13547e+01,-6.70256e+01,6.78600e-01,4.57633e-01,1.04345e+00
1.11650e+03,-1.09858e+01,-6.39790e+01,6.99718e-01,4.63944e-01,1.06552e+00
1.11650e+03,-1.05466e+01,-6.09324e+01,7.17596e-01,4.70365e-01,1.08567e+00
1.11650e+03,-1.00667e+01,-5.78858e+01,7.33594e-01,4.76877e-01,1.10472e+00
1.11650e+03,-9.52550e+00,-5.48391e+01,7.46761e-01,4.83464e-01,1.12199e+00
1.11650e+03,-8.94594e+00,-5.17925e+01,7.58158e-01,4.90107e-01,1.13816e+00
1.11650e+03,-8.32904e+00,-4.87459e+01,7.67832e-01,4.96794e-01,1.15325e+00
1.11650e+03,-7.67495e+00,-4.56993e+01,7.75790e-01,5.03509e-01,1.16722e+00
1.11650e+03,-6.99754e+00,-4.26527e+01,7.82671e-01,5.10242e-01,1.18051e+00
1.11650e+03,-6.29027e+00,-3.96060e+01,7.88174e-01,5.16982e-01,1.19291e+00
1.11650e+03,-5.56387e+00,-3.65594e+01,7.92793e-01,5.23720e-01,1.20473e+00
1.11650e+03,-4.82031e+00,-3.35128e+01,7.96622e-01,5.30448e-01,1.21603e+00
1.11650e+03,-4.06146e+00,-3.04662e+01,7.99743e-01,5.37158e-01,1.22687e+00
1.11650e+03,-3.29611e+00,-2.74196e+01,8.02566e-01,5.43846e-01,1.23750e+00
1.11650e+03,-2.52072e+00,-2.43730e+01,8.04924e-01,5.50507e-01,1.24783e+00
1.11650e+03,-1.74366e+00,-2.13263e+01,8.07206e-01,5.57140e-01,1.25809e+00
1.11650e+03,-9.60599e-01,-1.82797e+01,8.09210e-01,5.63741e-01,1.26816e+00
1.11650e+03,-1.77618e-01,-1.52331e+01,8.11219e-01,5.70310e-01,1.27822e+00
1.11650e+03,6.02404e-01,-1.21865e+01,8.13363e-01,5.76845e-01,1.28834e+00
1.11650e+03,1.38243e+00,-9.13986e+00,8.15508e-01,5.83346e-01,1.29843e+00
1.11650e+03,2.14398e+00,-6.09324e+00,8.18506e-01,5.89815e-01,1.30904e+00
1.11650e+03,2.90209e+00,-3.04662e+00,8.21662e-01,5.96256e-01,1.31973e+00
1.20500e+03,3.76912e+01,0.00000e+00,-9.00642e-01,5.87164e-01,1.35847e+00
1.20500e+03,3.75014e+01,-2.86413e+00,-9.30930e-01,5.79602e-01,1.36910e+00
1.20500e+03,3.72488e+01,-5.72827e+00,-9.57833e-01,5.71856e-01,1.37786e+00
1.20500e+03,3.69938e+01,-8.59240e+00,-9.84600e-01,5.63933e-01,1.38690e+00
1.20500e+03,3.66834e+01,-1.14565e+01,-1.00838e+00,5.55849e-01,1.39418e+00
1.20500e+03,3.63602e+01,-1.43207e+01,-1.03146e+00,5.47614e-01,1.40127e+00
1.20500e+03,3.59944e+01,-1.71848e+01,-1.05225e+00,5.39241e-01,1.40698e+00
1.20500e+03,3.56080e+01,-2.00489e+01,-1.07193e+00,5.30743e-01,1.41213e+00
1.20500e+03,3.51875e+01,-2.29131e+01,-1.08977e+00,5.22128e-01,1.41614e+00
1.20500e+03,3.47390e+01,-2.57772e+01,-1.10609e+00,5.13412e-01,1.41922e+00
1.20500e+03,3.42596e+01,-2.86413e+01,-1.12074e+00,5.04602e-01,1.42124e+00
1.20500e+03,3.37428e+01,-3.15055e+01,-1.13338e+00,4.95712e-01,1.42188e+00
1.20500e+03,3.31878e+01,-3.43696e+01,-1.14395e+00,4.86753e-01,1.42106e+00
1.20500e+03,3.25787e+01,-3.72337e+01,-1.15160e+00,4.77741e-01,1.41806e+00
1.20500e+03,3.19168e+01,-4.00979e+01,-1.15641e+00,4.68693e-01,1.41290e+00
1.20500e+03,3.11919e+01,-4.29620e+01,-1.15781e+00,4.59622e-01,1.40509e+00
1.20500e+03,3.03815e+01,-4.58261e+01,-1.15460e+00,4.50560e-01,1.39359e+00
1.20500e+03,2.95118e+01,-4.86903e+01,-1.14818e+00,4.41515e-01,1.37954e+00
1.20500e+03,2.85084e+01,-5.15544e+01,-1.13454e+00,4.32534e-01,1.35958e+00
1.20500e+03,2.74495e+01,-5.44186e+01,-1.11792e+00,4.23638e-01,1.33722e+00
1.20500e+03,2.62363e+01,-5.72827e+01,-1.09296e+00,4.14850e-01,1.30800e+00
1.20500e+03,2.48993e+01,-6.01468e+01,-1.06132e+00,4.06243e-01,1.27338e+00
1.20500e+03,2.34365e+01,-6.30110e+01,-1.02288e+00,3.97832e-01,1.23333e+00
1.20500e+03,2.17623e+01,-6.58751e+01,-9.73036e-01,3.89649e-01,1.18418e+00
1.20500e+03,1.98433e+01,-6.87392e+01,-9.09975e-01,3.81791e-01,1.12488e+00
1.20500e+03,1.76476e+01,-7.16034e+01,-8.31977e-01,3.74355e-01,1.05480e+00
1.20500e+03,1.50506e+01,-7.44675e+01,-7.32315e-01,3.67400e-01,9.70172e-01
1.20500e+03,1.17172e+01,-7.73316e+01,-5.92895e-01,3.61268e-01,8.62014e-01
1.20500e+03,7.20885e+00,-8.01958e+01,-3.90047e-01,3.57517e-01,7.31842e-01
1.20500e+03,-2.92097e+00,-8.30599e+01,1.16274e-01,3.58996e-01,6.32578e-01
1.20500e+03,-3.65204e+00,-8.30665e+01,1.55647e-01,3.63602e-01,6.48725e-01
1.20500e+03,-1.03126e+01,-8.00999e+01,5.57205e-01,3.72338e-01,8.52281e-01
1.20500e+03,-1.11191e+01,-7.71332e+01,6.42727e-01,3.78792e-01,9.18449e-01
1.20500e+03,-1.13974e+01,-7.41666e+01,6.99737e-01,3.85585e-01,9.67295e-01
1.20500e+03,-1.14396e+01,-7.11999e+01,7.44003e-01,3.92693e-01,1.00805e+00
1.20500e+03,-1.13040e+01,-6.82332e+01,7.78668e-01,4.00061e-01,1.04234e+00
1.20500e+03,-1.10567e+01,-6.52666e+01,8.07308e-01,4.07645e-01,1.07251e+00
1.20500e+03,-1.06975e+01,-6.22999e+01,8.29899e-01,4.15401e-01,1.09836e+00
1.20500e+03,-1.02698e+01,-5.93332e+01,8.48799e-01,4.23291e-01,1.12160e+00
1.20500e+03,-9.80253e+00,-5.63666e+01,8.65559e-01,4.31295e-01,1.14334e+00
1.20500e+03,-9.27551e+00,-5.33999e+01,8.79094e-01,4.39391e-01,1.16275e+00
1.20500e+03,-8.71115e+00,-5.04333e+01,8.90614e-01,4.47557e-01,1.18073e+00
1.20500e+03,-8.11045e+00,-4.74666e+01,9.00171e-01,4.55776e-01,1.19729e+00
1.20500e+03,-7.47352e+00,-4.44999e+01,9.07773e-01,4.64032e-01,1.21245e+00
1.20500e+03,-6.81389e+00,-4.15333e+01,9.14150e-01,4.72309e-01,1.22674e+00
1.20500e+03,-6.12518e+00,-3.85666e+01,9.18956e-01,4.80597e-01,1.23992e+00
1.20500e+03,-5.41785e+00,-3.55999e+01,9.22757e-01,4.88882e-01,1.25240e+00
1.20500e+03,-4.69381e+00,-3.26333e+01,9.25656e-01,4.97155e-01,1.26425e+00
1.20500e+03,-3.95486e+00,-2.96666e+01,9.27751e-01,5.05406e-01,1.27555e+00
1.20500e+03,-3.20961e+00,-2.67000e+01,9.29505e-01,5.13631e-01,1.28664e+00
1.20500e+03,-2.45457e+00,-2.37333e+01,9.30731e-01,5.21824e-01,1.29737e+00
1.20500e+03,-1.69790e+00,-2.07666e+01,9.31868e-01,5.29982e-01,1.30806e+00
1.20500e+03,-9.35389e-01,-1.78000e+01,9.32691e-01,5.38103e-01,1.31855e+00
1.20500e+03,-1.72956e-01,-1.48333e+01,9.33518e-01,5.46183e-01,1.32906e+00
1.20500e+03,5.86594e-01,-1.18666e+01,9.34500e-01,5.54224e-01,1.33969e+00
1.20500e+03,1.34615e+00,-8.89999e+00,9.35482e-01,5.62221e-01,1.35034e+00
1.20500e+03,2.08771e+00,-5.93332e+00,9.37435e-01,5.70181e-01,1.36165e+00
1.20500e+03,2.82592e+00,-2.96666e+00,9.39569e-01,5.78107e-01,1.37310e+00
1.29010e+03,3.63234e+01,0.00000e+00,-7.29973e-01,5.26996e-01,1.16877e+00
1.29010e+03,3.61405e+01,-2.76019e+00,-7.54723e-01,5.20403e-01,1.17561e+00
1.29010e+03,3.58971e+01,-5.52039e+00,-7.76728e-01,5.13650e-01,1.18102e+00
1.29010e+03,3.56513e+01,-8.28058e+00,-7.98624e-01,5.06743e-01,1.18666e+00
1.29010e+03,3.53522e+01,-1.10408e+01,-8.18097e-01,4.99695e-01,1.19095e+00
1.29010e+03,3.50407e+01,-1.38010e+01,-8.37007e-01,4.92516e-01,1.19511e+00
1.29010e+03,3.46882e+01,-1.65612e+01,-8.54058e-01,4.85217e-01,1.19822e+00
1.29010e+03,3.43158e+01,-1.93214e+01,-8.70206e-01,4.77808e-01,1.20090e+00
1.29010e+03,3.39106e+01,-2.20816e+01,-8.84860e-01,4.70299e-01,1.20271e+00
1.29010e+03,3.34783e+01,-2.48418e+01,-8.98287e-01,4.62700e-01,1.20382e+00
1.29010e+03,3.30163e+01,-2.76019e+01,-9.10364e-01,4.55020e-01,1.20411e+00
1.29010e+03,3.25183e+01,-3.03621e+01,-9.20806e-01,4.47270e-01,1.20334e+00
1.29010e+03,3.19834e+01,-3.31223e+01,-9.29575e-01,4.39461e-01,1.20145e+00
1.29010e+03,3.13964e+01,-3.58825e+01,-9.35975e-01,4.31604e-01,1.19787e+00
1.29010e+03,3.07585e+01,-3.86427e+01,-9.40066e-01,4.23717e-01,1.19262e+00
1.29010e+03,3.00599e+01,-4.14029e+01,-9.41398e-01,4.15809e-01,1.18529e+00
1.29010e+03,2.92790e+01,-4.41631e+01,-9.38992e-01,4.07910e-01,1.17511e+00
1.29010e+03,2.84408e+01,-4.69233e+01,-9.33987e-01,4.00025e-01,1.16292e+00
1.29010e+03,2.74738e+01,-4.96835e+01,-9.23132e-01,3.92196e-01,1.14614e+00
1.29010e+03,2.64534e+01,-5.24437e+01,-9.09851e-01,3.84442e-01,1.12748e+00
1.29010e+03,2.52842e+01,-5.52039e+01,-8.89815e-01,3.76781e-01,1.10348e+00
1.29010e+03,2.39957e+01,-5.79641e+01,-8.64364e-01,3.69279e-01,1.07528e+00
1.29010e+03,2.25860e+01,-6.07243e+01,-8.33403e-01,3.61948e-01,1.04287e+00
1.29010e+03,2.09725e+01,-6.34845e+01,-7.93194e-01,3.54814e-01,1.00341e+00
1.29010e+03,1.91232e+01,-6.62447e+01,-7.42272e-01,3.47965e-01,9.56142e-01
1.29010e+03,1.70072e+01,-6.90049e+01,-6.79241e-01,3.41483e-01,9.00667e-01
1.29010e+03,1.45045e+01,-7.17651e+01,-5.98649e-01,3.35421e-01,8.34208e-01
1.29010e+03,1.12920e+01,-7.45253e+01,-4.85828e-01,3.30077e-01,7.50253e-01
1.29010e+03,6.94724e+00,-7.72855e+01,-3.21590e-01,3.26808e-01,6.51023e-01
1.29010e+03,-2.81497e+00,-8.00457e+01,8.86543e-02,3.28099e-01,5.75157e-01
1.29010e+03,-3.51951e+00,-8.00521e+01,1.20571e-01,3.32114e-01,5.87738e-01
1.29010e+03,-9.93839e+00,-7.71931e+01,4.46291e-01,3.39729e-01,7.38528e-01
1.29010e+03,-1.07156e+01,-7.43341e+01,5.15822e-01,3.45356e-01,7.89864e-01
1.29010e+03,-1.09838e+01,-7.14751e+01,5.62241e-01,3.51278e-01,8.28434e-01
1.29010e+03,-1.10244e+01,-6.86160e+01,5.98328e-01,3.57474e-01,8.61023e-01
1.29010e+03,-1.08937e+01,-6.57570e+01,6.26633e-01,3.63897e-01,8.88781e-01
1.29010e+03,-1.06555e+01,-6.28980e+01,6.50054e-01,3.70508e-01,9.13454e-01
1.29010e+03,-1.03093e+01,-6.00390e+01,6.68571e-01,3.77269e-01,9.34870e-01
1.29010e+03,-9.89713e+00,-5.71800e+01,6.84097e-01,3.84146e-01,9.54303e-01
1.29010e+03,-9.44680e+00,-5.43210e+01,6.97887e-01,3.91124e-01,9.72614e-01
1.29010e+03,-8.93890e+00,-5.14620e+01,7.09063e-01,3.98181e-01,9.89148e-01
1.29010e+03,-8.39503e+00,-4.86030e+01,7.18606e-01,4.05298e-01,1.00459e+00
1.29010e+03,-7.81612e+00,-4.57440e+01,7.26558e-01,4.12463e-01,1.01895e+00
1.29010e+03,-7.20231e+00,-4.28850e+01,7.32924e-01,4.19659e-01,1.03224e+00
1.29010e+03,-6.56662e+00,-4.00260e+01,7.38298e-01,4.26875e-01,1.04487e+00
1.29010e+03,-5.90290e+00,-3.71670e+01,7.42398e-01,4.34099e-01,1.05664e+00
1.29010e+03,-5.22123e+00,-3.43080e+01,7.45684e-01,4.41320e-01,1.06786e+00
1.29010e+03,-4.52347e+00,-3.14490e+01,7.48238e-01,4.48531e-01,1.07861e+00
1.29010e+03,-3.81134e+00,-2.85900e+01,7.50141e-01,4.55723e-01,1.08893e+00
1.29010e+03,-3.09313e+00,-2.57310e+01,7.51767e-01,4.62892e-01,1.09907e+00
1.29010e+03,-2.36549e+00,-2.28720e+01,7.52964e-01,4.70034e-01,1.10894e+00
1.29010e+03,-1.63628e+00,-2.00130e+01,7.54091e-01,4.77144e-01,1.11877e+00
1.29010e+03,-9.01444e-01,-1.71540e+01,7.54962e-01,4.84222e-01,1.12844e+00
1.29010e+03,-1.66680e-01,-1.42950e+01,7.55836e-01,4.91265e-01,1.13812e+00
1.29010e+03,5.65307e-01,-1.14360e+01,7.56837e-01,4.98273e-01,1.14788e+00
1.29010e+03,1.29729e+00,-8.57701e+00,7.57837e-01,5.05243e-01,1.15764e+00
1.29010e+03,2.01195e+00,-5.71800e+00,7.59625e-01,5.12181e-01,1.16791e+00
1.29010e+03,2.72337e+00,-2.85900e+00,7.61559e-01,5.19089e-01,1.17828e+00
1.37170e+03,3.50118e+01,0.00000e+00,-5.80371e-01,4.65838e-01,9.93904e-01
1.37170e+03,3.48355e+01,-2.66053e+00,-6.00217e-01,4.60161e-01,9.97749e-01
1.37170e+03,3.46009e+01,-5.32106e+00,-6.17881e-01,4.54345e-01,1.00053e+00
1.37170e+03,3.43640e+01,-7.98159e+00,-6.35458e-01,4.48397e-01,1.00349e+00
1.37170e+03,3.40757e+01,-1.06421e+01,-6.51108e-01,4.42328e-01,1.00544e+00
1.37170e+03,3.37754e+01,-1.33027e+01,-6.66311e-01,4.36145e-01,1.00729e+00
1.37170e+03,3.34357e+01,-1.59632e+01,-6.80035e-01,4.29860e-01,1.00836e+00
1.37170e+03,3.30768e+01,-1.86237e+01,-6.93041e-01,4.23480e-01,1.00911e+00
1.37170e+03,3.26861e+01,-2.12842e+01,-7.04859e-01,4.17013e-01,1.00922e+00
1.37170e+03,3.22695e+01,-2.39448e+01,-7.15702e-01,4.10470e-01,1.00880e+00
1.37170e+03,3.18241e+01,-2.66053e+01,-7.25470e-01,4.03857e-01,1.00777e+00
1.37170e+03,3.13441e+01,-2.92658e+01,-7.33939e-01,3.97183e-01,1.00595e+00
1.37170e+03,3.08286e+01,-3.19264e+01,-7.41078e-01,3.90458e-01,1.00328e+00
1.37170e+03,3.02627e+01,-3.45869e+01,-7.46332e-01,3.83693e-01,9.99336e-01
1.37170e+03,2.96479e+01,-3.72474e+01,-7.49751e-01,3.76901e-01,9.94128e-01
1.37170e+03,2.89745e+01,-3.99080e+01,-7.50975e-01,3.70093e-01,9.87355e-01
1.37170e+03,2.82218e+01,-4.25685e+01,-7.49228e-01,3.63291e-01,9.78408e-01
1.37170e+03,2.74139e+01,-4.52290e+01,-7.45413e-01,3.56501e-01,9.67946e-01
1.37170e+03,2.64818e+01,-4.78895e+01,-7.36946e-01,3.49760e-01,9.53984e-01
1.37170e+03,2.54982e+01,-5.05501e+01,-7.26550e-01,3.43083e-01,9.38612e-01
1.37170e+03,2.43712e+01,-5.32106e+01,-7.10783e-01,3.36487e-01,9.19175e-01
1.37170e+03,2.31293e+01,-5.58711e+01,-6.90710e-01,3.30027e-01,8.96568e-01
1.37170e+03,2.17704e+01,-5.85317e+01,-6.66255e-01,3.23715e-01,8.70787e-01
1.37170e+03,2.02153e+01,-6.11922e+01,-6.34447e-01,3.17573e-01,8.39690e-01
1.37170e+03,1.84327e+01,-6.38527e+01,-5.94119e-01,3.11675e-01,8.02747e-01
1.37170e+03,1.63931e+01,-6.65133e+01,-5.44163e-01,3.06094e-01,7.59733e-01
1.37170e+03,1.39807e+01,-6.91738e+01,-4.80241e-01,3.00875e-01,7.08667e-01
1.37170e+03,1.08843e+01,-7.18343e+01,-3.90692e-01,2.96273e-01,6.44960e-01
1.37170e+03,6.69639e+00,-7.44949e+01,-2.60255e-01,2.93460e-01,5.71042e-01
1.37170e+03,-2.71333e+00,-7.71554e+01,6.58038e-02,2.94572e-01,5.14440e-01
1.37170e+03,-3.39243e+00,-7.71616e+01,9.11833e-02,2.98030e-01,5.24194e-01
1.37170e+03,-9.57954e+00,-7.44058e+01,3.50366e-01,3.04588e-01,6.33307e-01
1.37170e+03,-1.03287e+01,-7.16500e+01,4.05829e-01,3.09433e-01,6.72268e-01
1.37170e+03,-1.05872e+01,-6.88942e+01,4.42911e-01,3.14532e-01,7.02113e-01
1.37170e+03,-1.06264e+01,-6.61385e+01,4.71779e-01,3.19868e-01,7.27683e-01
1.37170e+03,-1.05004e+01,-6.33827e+01,4.94459e-01,3.25398e-01,7.49761e-01
1.37170e+03,-1.02708e+01,-6.06269e+01,5.13254e-01,3.31091e-01,7.69606e-01
1.37170e+03,-9.93701e+00,-5.78712e+01,5.28150e-01,3.36912e-01,7.87066e-01
1.37170e+03,-9.53977e+00,-5.51154e+01,5.40667e-01,3.42835e-01,8.03074e-01
1.37170e+03,-9.10569e+00,-5.23596e+01,5.51804e-01,3.48842e-01,8.18267e-01
1.37170e+03,-8.61613e+00,-4.96039e+01,5.60863e-01,3.54919e-01,8.32148e-01
1.37170e+03,-8.09190e+00,-4.68481e+01,5.68623e-01,3.61048e-01,8.45221e-01
1.37170e+03,-7.53389e+00,-4.40923e+01,5.75117e-01,3.67217e-01,8.57499e-01
1.37170e+03,-6.94225e+00,-4.13365e+01,5.80351e-01,3.73413e-01,8.68976e-01
1.37170e+03,-6.32951e+00,-3.85808e+01,5.84795e-01,3.79625e-01,8.79961e-01
1.37170e+03,-5.68976e+00,-3.58250e+01,5.88227e-01,3.85845e-01,8.90304e-01
1.37170e+03,-5.03271e+00,-3.30692e+01,5.91011e-01,3.92063e-01,9.00241e-01
1.37170e+03,-4.36014e+00,-3.03135e+01,5.93214e-01,3.98272e-01,9.09815e-01
1.37170e+03,-3.67372e+00,-2.75577e+01,5.94898e-01,4.04464e-01,9.19063e-01
1.37170e+03,-2.98144e+00,-2.48019e+01,5.96362e-01,4.10637e-01,9.28178e-01
1.37170e+03,-2.28008e+00,-2.20462e+01,5.97486e-01,4.16785e-01,9.37080e-01
1.37170e+03,-1.57720e+00,-1.92904e+01,5.98553e-01,4.22907e-01,9.45948e-01
1.37170e+03,-8.68894e-01,-1.65346e+01,5.99417e-01,4.29001e-01,9.54687e-01
1.37170e+03,-1.60661e-01,-1.37788e+01,6.00283e-01,4.35065e-01,9.63423e-01
1.37170e+03,5.44895e-01,-1.10231e+01,6.01250e-01,4.41098e-01,9.72216e-01
1.37170e+03,1.25045e+00,-8.26731e+00,6.02217e-01,4.47100e-01,9.80999e-01
1.37170e+03,1.93930e+00,-5.51154e+00,6.03810e-01,4.53072e-01,9.90156e-01
1.37170e+03,2.62503e+00,-2.75577e+00,6.05519e-01,4.59020e-01,9.99375e-01
1.44960e+03,3.37597e+01,0.00000e+00,-4.51414e-01,4.06644e-01,8.36572e-01
1.44960e+03,3.35897e+01,-2.56538e+00,-4.66988e-01,4.01812e-01,8.38115e-01
1.44960e+03,3.33635e+01,-5.13077e+00,-4.80864e-01,3.96863e-01,8.38886e-01
1.44960e+03,3.31351e+01,-7.69615e+00,-4.94672e-01,3.91800e-01,8.39776e-01
1.44960e+03,3.28571e+01,-1.02615e+01,-5.06982e-01,3.86635e-01,8.39935e-01
1.44960e+03,3.25675e+01,-1.28269e+01,-5.18944e-01,3.81373e-01,8.40023e-01
1.44960e+03,3.22399e+01,-1.53923e+01,-5.29755e-01,3.76024e-01,8.39537e-01
1.44960e+03,3.18939e+01,-1.79577e+01,-5.40007e-01,3.70594e-01,8.38825e-01
1.44960e+03,3.15172e+01,-2.05231e+01,-5.49336e-01,3.65091e-01,8.37642e-01
1.44960e+03,3.11155e+01,-2.30885e+01,-5.57905e-01,3.59522e-01,8.36078e-01
1.44960e+03,3.06860e+01,-2.56538e+01,-5.65639e-01,3.53894e-01,8.34068e-01
1.44960e+03,3.02232e+01,-2.82192e+01,-5.72362e-01,3.48214e-01,8.31480e-01
1.44960e+03,2.97261e+01,-3.07846e+01,-5.78050e-01,3.42491e-01,8.28277e-01
1.44960e+03,2.91805e+01,-3.33500e+01,-5.82272e-01,3.36734e-01,8.24142e-01
1.44960e+03,2.85877e+01,-3.59154e+01,-5.85066e-01,3.30954e-01,8.19081e-01
1.44960e+03,2.79383e+01,-3.84808e+01,-5.86154e-01,3.25159e-01,8.12872e-01
1.44960e+03,2.72125e+01,-4.10462e+01,-5.84929e-01,3.19371e-01,8.05068e-01
1.44960e+03,2.64335e+01,-4.36115e+01,-5.82096e-01,3.13593e-01,7.96151e-01
1.44960e+03,2.55347e+01,-4.61769e+01,-5.75643e-01,3.07856e-01,7.84660e-01
1.44960e+03,2.45863e+01,-4.87423e+01,-5.67691e-01,3.02174e-01,7.72140e-01
1.44960e+03,2.34997e+01,-5.13077e+01,-5.55559e-01,2.96561e-01,7.56631e-01
1.44960e+03,2.23022e+01,-5.38731e+01,-5.40078e-01,2.91064e-01,7.38809e-01
1.44960e+03,2.09919e+01,-5.64385e+01,-5.21188e-01,2.85692e-01,7.18677e-01
1.44960e+03,1.94923e+01,-5.90039e+01,-4.96577e-01,2.80465e-01,6.94673e-01
1.44960e+03,1.77735e+01,-6.15692e+01,-4.65339e-01,2.75447e-01,6.66448e-01
1.44960e+03,1.58069e+01,-6.41346e+01,-4.26610e-01,2.70697e-01,6.33898e-01
1.44960e+03,1.34808e+01,-6.67000e+01,-3.77017e-01,2.66256e-01,5.95667e-01
1.44960e+03,1.04950e+01,-6.92654e+01,-3.07487e-01,2.62341e-01,5.48649e-01
1.44960e+03,6.45692e+00,-7.18308e+01,-2.06149e-01,2.59947e-01,4.95192e-01
1.44960e+03,-2.61629e+00,-7.43962e+01,4.73728e-02,2.60894e-01,4.54358e-01
1.44960e+03,-3.27111e+00,-7.44021e+01,6.71164e-02,2.63837e-01,4.61882e-01
1.44960e+03,-9.23696e+00,-7.17449e+01,2.68886e-01,2.69419e-01,5.38571e-01
1.44960e+03,-9.95928e+00,-6.90877e+01,3.12172e-01,2.73542e-01,5.67387e-01
1.44960e+03,-1.02085e+01,-6.64305e+01,3.41160e-01,2.77882e-01,5.89954e-01
1.44960e+03,-1.02464e+01,-6.37732e+01,3.63757e-01,2.82423e-01,6.09596e-01
1.44960e+03,-1.01249e+01,-6.11160e+01,3.81540e-01,2.87129e-01,6.26819e-01
1.44960e+03,-9.90345e+00,-5.84588e+01,3.96301e-01,2.91973e-01,6.42495e-01
1.44960e+03,-9.58164e+00,-5.58016e+01,4.08029e-01,2.96928e-01,6.56495e-01
1.44960e+03,-9.19861e+00,-5.31444e+01,4.17906e-01,3.01968e-01,6.69476e-01
1.44960e+03,-8.78006e+00,-5.04872e+01,4.26709e-01,3.07080e-01,6.81891e-01
1.44960e+03,-8.30801e+00,-4.78299e+01,4.33896e-01,3.12251e-01,6.93374e-01
1.44960e+03,-7.80252e+00,-4.51727e+01,4.40072e-01,3.17467e-01,7.04286e-01
1.44960e+03,-7.26447e+00,-4.25155e+01,4.45263e-01,3.22717e-01,7.14631e-01
1.44960e+03,-6.69398e+00,-3.98583e+01,4.49475e-01,3.27989e-01,7.24402e-01
1.44960e+03,-6.10316e+00,-3.72011e+01,4.53071e-01,3.33276e-01,7.33820e-01
1.44960e+03,-5.48628e+00,-3.45438e+01,4.55881e-01,3.38569e-01,7.42774e-01
1.44960e+03,-4.85273e+00,-3.18866e+01,4.58186e-01,3.43860e-01,7.51434e-01
1.44960e+03,-4.20421e+00,-2.92294e+01,4.60039e-01,3.49143e-01,7.59828e-01
1.44960e+03,-3.54234e+00,-2.65722e+01,4.61488e-01,3.54413e-01,7.67982e-01
1.44960e+03,-2.87482e+00,-2.39150e+01,4.62767e-01,3.59665e-01,7.76035e-01
1.44960e+03,-2.19854e+00,-2.12577e+01,4.63780e-01,3.64897e-01,7.83927e-01
1.44960e+03,-1.52080e+00,-1.86005e+01,4.64750e-01,3.70106e-01,7.91788e-01
1.44960e+03,-8.37821e-01,-1.59433e+01,4.65561e-01,3.75292e-01,7.99549e-01
1.44960e+03,-1.54916e-01,-1.32861e+01,4.66375e-01,3.80451e-01,8.07301e-01
1.44960e+03,5.25408e-01,-1.06289e+01,4.67266e-01,3.85585e-01,8.15086e-01
1.44960e+03,1.20573e+00,-7.97166e+00,4.68158e-01,3.90692e-01,8.22856e-01
1.44960e+03,1.86995e+00,-5.31444e+00,4.69536e-01,3.95774e-01,8.30888e-01
1.44960e+03,2.53116e+00,-2.65722e+00,4.71005e-01,4.00834e-01,8.38958e-01
1.52340e+03,3.25736e+01,0.00000e+00,-3.42682e-01,3.48702e-01,6.94413e-01
1.52340e+03,3.24095e+01,-2.47525e+00,-3.54611e-01,3.44655e-01,6.94341e-01
1.52340e+03,3.21913e+01,-4.95049e+00,-3.65251e-01,3.40509e-01,6.93721e-01
1.52340e+03,3.19709e+01,-7.42574e+00,-3.75839e-01,3.36270e-01,6.93172e-01
1.52340e+03,3.17026e+01,-9.90099e+00,-3.85290e-01,3.31944e-01,6.92104e-01
1.52340e+03,3.14232e+01,-1.23762e+01,-3.94476e-01,3.27537e-01,6.90980e-01
1.52340e+03,3.11072e+01,-1.48515e+01,-4.02788e-01,3.23057e-01,6.89446e-01
1.52340e+03,3.07733e+01,-1.73267e+01,-4.10677e-01,3.18510e-01,6.87751e-01
1.52340e+03,3.04098e+01,-1.98020e+01,-4.17864e-01,3.13901e-01,6.85720e-01
1.52340e+03,3.00222e+01,-2.22772e+01,-4.24475e-01,3.09237e-01,6.83419e-01
1.52340e+03,2.96079e+01,-2.47525e+01,-4.30451e-01,3.04524e-01,6.80803e-01
1.52340e+03,2.91613e+01,-2.72277e+01,-4.35660e-01,2.99768e-01,6.77777e-01
1.52340e+03,2.86816e+01,-2.97030e+01,-4.40083e-01,2.94975e-01,6.74317e-01
1.52340e+03,2.81552e+01,-3.21782e+01,-4.43392e-01,2.90153e-01,6.70197e-01
1.52340e+03,2.75832e+01,-3.46535e+01,-4.45618e-01,2.85313e-01,6.65421e-01
1.52340e+03,2.69567e+01,-3.71287e+01,-4.46548e-01,2.80460e-01,6.59832e-01
1.52340e+03,2.62564e+01,-3.96040e+01,-4.45722e-01,2.75613e-01,6.53112e-01
1.52340e+03,2.55047e+01,-4.20792e+01,-4.43675e-01,2.70774e-01,6.45603e-01
1.52340e+03,2.46375e+01,-4.45544e+01,-4.38880e-01,2.65970e-01,6.36267e-01
1.52340e+03,2.37225e+01,-4.70297e+01,-4.32946e-01,2.61212e-01,6.26208e-01
1.52340e+03,2.26740e+01,-4.95049e+01,-4.23839e-01,2.56511e-01,6.14031e-01
1.52340e+03,2.15185e+01,-5.19802e+01,-4.12189e-01,2.51908e-01,6.00227e-01
1.52340e+03,2.02543e+01,-5.44554e+01,-3.97951e-01,2.47409e-01,5.84807e-01
1.52340e+03,1.88075e+01,-5.69307e+01,-3.79369e-01,2.43033e-01,5.66670e-01
1.52340e+03,1.71490e+01,-5.94059e+01,-3.55755e-01,2.38830e-01,5.45602e-01
1.52340e+03,1.52515e+01,-6.18812e+01,-3.26453e-01,2.34853e-01,5.21575e-01
1.52340e+03,1.30071e+01,-6.43564e+01,-2.88903e-01,2.31135e-01,4.93695e-01
1.52340e+03,1.01263e+01,-6.68317e+01,-2.36215e-01,2.27856e-01,4.59949e-01
1.52340e+03,6.23005e+00,-6.93069e+01,-1.59377e-01,2.25853e-01,4.22409e-01
1.52340e+03,-2.52437e+00,-7.17822e+01,3.30094e-02,2.26646e-01,3.93948e-01
1.52340e+03,-3.15618e+00,-7.17879e+01,4.79998e-02,2.29111e-01,3.99724e-01
1.52340e+03,-8.91241e+00,-6.92241e+01,2.01305e-01,2.33785e-01,4.52206e-01
1.52340e+03,-9.60935e+00,-6.66602e+01,2.34278e-01,2.37239e-01,4.73004e-01
1.52340e+03,-9.84985e+00,-6.40963e+01,2.56396e-01,2.40873e-01,4.89692e-01
1.52340e+03,-9.88634e+00,-6.15325e+01,2.73661e-01,2.44676e-01,5.04469e-01
1.52340e+03,-9.76914e+00,-5.89686e+01,2.87270e-01,2.48617e-01,5.17644e-01
1.52340e+03,-9.55548e+00,-5.64048e+01,2.98586e-01,2.52674e-01,5.29798e-01
1.52340e+03,-9.24498e+00,-5.38409e+01,3.07598e-01,2.56823e-01,5.40824e-01
1.52340e+03,-8.87540e+00,-5.12771e+01,3.15205e-01,2.61043e-01,5.51167e-01
1.52340e+03,-8.47156e+00,-4.87132e+01,3.21997e-01,2.65324e-01,5.61136e-01
1.52340e+03,-8.01609e+00,-4.61494e+01,3.27562e-01,2.69655e-01,5.70471e-01
1.52340e+03,-7.52837e+00,-4.35855e+01,3.32359e-01,2.74022e-01,5.79419e-01
1.52340e+03,-7.00922e+00,-4.10217e+01,3.36409e-01,2.78418e-01,5.87981e-01
1.52340e+03,-6.45878e+00,-3.84578e+01,3.39714e-01,2.82834e-01,5.96146e-01
1.52340e+03,-5.88872e+00,-3.58940e+01,3.42553e-01,2.87261e-01,6.04068e-01
1.52340e+03,-5.29352e+00,-3.33301e+01,3.44793e-01,2.91693e-01,6.11667e-01
1.52340e+03,-4.68222e+00,-3.07662e+01,3.46652e-01,2.96123e-01,6.19059e-01
1.52340e+03,-4.05649e+00,-2.82024e+01,3.48166e-01,3.00547e-01,6.26263e-01
1.52340e+03,-3.41788e+00,-2.56385e+01,3.49375e-01,3.04960e-01,6.33296e-01
1.52340e+03,-2.77381e+00,-2.30747e+01,3.50453e-01,3.09358e-01,6.40254e-01
1.52340e+03,-2.12129e+00,-2.05108e+01,3.51331e-01,3.13739e-01,6.47093e-01
1.52340e+03,-1.46736e+00,-1.79470e+01,3.52175e-01,3.18101e-01,6.53905e-01
1.52340e+03,-8.08383e-01,-1.53831e+01,3.52899e-01,3.22443e-01,6.60640e-01
1.52340e+03,-1.49473e-01,-1.28193e+01,3.53624e-01,3.26763e-01,6.67362e-01
1.52340e+03,5.06948e-01,-1.02554e+01,3.54409e-01,3.31062e-01,6.74101e-01
1.52340e+03,1.16337e+00,-7.69156e+00,3.55194e-01,3.35338e-01,6.80821e-01
1.52340e+03,1.80424e+00,-5.12771e+00,3.56348e-01,3.39593e-01,6.87717e-01
1.52340e+03,2.44222e+00,-2.56385e+00,3.57572e-01,3.43830e-01,6.94633e-01
1.59310e+03,3.14533e+01,0.00000e+00,-2.52916e-01,2.94338e-01,5.69096e-01
1.59310e+03,3.12949e+01,-2.39012e+00,-2.61803e-01,2.91008e-01,5.67977e-01
1.59310e+03,3.10841e+01,-4.78023e+00,-2.69737e-01,2.87598e-01,5.66476e-01
1.59310e+03,3.08713e+01,-7.17035e+00,-2.77634e-01,2.84110e-01,5.65009e-01
1.59310e+03,3.06123e+01,-9.56047e+00,-2.84691e-01,2.80551e-01,5.63183e-01
1.59310e+03,3.03425e+01,-1.19506e+01,-2.91552e-01,2.76925e-01,5.61307e-01
1.59310e+03,3.00373e+01,-1.43407e+01,-2.97769e-01,2.73240e-01,5.59148e-01
1.59310e+03,2.97149e+01,-1.67308e+01,-3.03673e-01,2.69499e-01,5.56872e-01
1.59310e+03,2.93640e+01,-1.91209e+01,-3.09059e-01,2.65707e-01,5.54363e-01
1.59310e+03,2.89896e+01,-2.15111e+01,-3.14019e-01,2.61870e-01,5.51667e-01
1.59310e+03,2.85896e+01,-2.39012e+01,-3.18511e-01,2.57993e-01,5.48753e-01
1.59310e+03,2.81583e+01,-2.62913e+01,-3.22437e-01,2.54080e-01,5.45560e-01
1.59310e+03,2.76952e+01,-2.86814e+01,-3.25782e-01,2.50137e-01,5.42070e-01
1.59310e+03,2.71869e+01,-3.10715e+01,-3.28306e-01,2.46171e-01,5.38131e-01
1.59310e+03,2.66345e+01,-3.34616e+01,-3.30029e-01,2.42189e-01,5.33747e-01
1.59310e+03,2.60296e+01,-3.58518e+01,-3.30796e-01,2.38197e-01,5.28809e-01
1.59310e+03,2.53533e+01,-3.82419e+01,-3.30267e-01,2.34209e-01,5.23104e-01
1.59310e+03,2.46276e+01,-4.06320e+01,-3.28836e-01,2.30229e-01,5.16865e-01
1.59310e+03,2.37902e+01,-4.30221e+01,-3.25377e-01,2.26277e-01,5.09386e-01
1.59310e+03,2.29066e+01,-4.54122e+01,-3.21077e-01,2.22363e-01,5.01424e-01
1.59310e+03,2.18941e+01,-4.78023e+01,-3.14435e-01,2.18496e-01,4.92027e-01
1.59310e+03,2.07785e+01,-5.01925e+01,-3.05915e-01,2.14709e-01,4.81543e-01
1.59310e+03,1.95577e+01,-5.25826e+01,-2.95485e-01,2.11009e-01,4.69984e-01
1.59310e+03,1.81606e+01,-5.49727e+01,-2.81848e-01,2.07408e-01,4.56610e-01
1.59310e+03,1.65592e+01,-5.73628e+01,-2.64497e-01,2.03952e-01,4.41302e-01
1.59310e+03,1.47269e+01,-5.97529e+01,-2.42947e-01,2.00680e-01,4.24076e-01
1.59310e+03,1.25597e+01,-6.21430e+01,-2.15308e-01,1.97621e-01,4.04376e-01
1.59310e+03,9.77800e+00,-6.45332e+01,-1.76495e-01,1.94924e-01,3.80969e-01
1.59310e+03,6.01578e+00,-6.69233e+01,-1.19854e-01,1.93277e-01,3.55574e-01
1.59310e+03,-2.43755e+00,-6.93134e+01,2.20849e-02,1.93930e-01,3.36622e-01
1.59310e+03,-3.04763e+00,-6.93189e+01,3.31506e-02,1.95958e-01,3.41024e-01
1.59310e+03,-8.60589e+00,-6.68433e+01,1.46403e-01,1.99804e-01,3.75763e-01
1.59310e+03,-9.27886e+00,-6.43676e+01,1.70827e-01,2.02645e-01,3.90354e-01
1.59310e+03,-9.51109e+00,-6.18919e+01,1.87237e-01,2.05634e-01,4.02386e-01
1.59310e+03,-9.54632e+00,-5.94162e+01,2.00066e-01,2.08763e-01,4.13245e-01
1.59310e+03,-9.43315e+00,-5.69406e+01,2.10195e-01,2.12005e-01,4.23108e-01
1.59310e+03,-9.22684e+00,-5.44649e+01,2.18632e-01,2.15342e-01,4.32339e-01
1.59310e+03,-8.92702e+00,-5.19892e+01,2.25368e-01,2.18755e-01,4.40854e-01
1.59310e+03,-8.57016e+00,-4.95135e+01,2.31067e-01,2.22227e-01,4.48939e-01
1.59310e+03,-8.18020e+00,-4.70379e+01,2.36164e-01,2.25749e-01,4.56795e-01
1.59310e+03,-7.74040e+00,-4.45622e+01,2.40355e-01,2.29311e-01,4.64243e-01
1.59310e+03,-7.26945e+00,-4.20865e+01,2.43979e-01,2.32904e-01,4.71443e-01
1.59310e+03,-6.76816e+00,-3.96108e+01,2.47052e-01,2.36520e-01,4.78394e-01
1.59310e+03,-6.23665e+00,-3.71351e+01,2.49576e-01,2.40152e-01,4.85085e-01
1.59310e+03,-5.68619e+00,-3.46595e+01,2.51754e-01,2.43794e-01,4.91617e-01
1.59310e+03,-5.11146e+00,-3.21838e+01,2.53492e-01,2.47440e-01,4.97933e-01
1.59310e+03,-4.52119e+00,-2.97081e+01,2.54947e-01,2.51084e-01,5.04111e-01
1.59310e+03,-3.91698e+00,-2.72324e+01,2.56148e-01,2.54723e-01,5.10161e-01
1.59310e+03,-3.30033e+00,-2.47568e+01,2.57124e-01,2.58353e-01,5.16093e-01
1.59310e+03,-2.67841e+00,-2.22811e+01,2.58003e-01,2.61971e-01,5.21969e-01
1.59310e+03,-2.04833e+00,-1.98054e+01,2.58734e-01,2.65574e-01,5.27762e-01
1.59310e+03,-1.41689e+00,-1.73297e+01,2.59441e-01,2.69162e-01,5.33530e-01
1.59310e+03,-7.80581e-01,-1.48541e+01,2.60058e-01,2.72734e-01,5.39242e-01
1.59310e+03,-1.44332e-01,-1.23784e+01,2.60677e-01,2.76287e-01,5.44938e-01
1.59310e+03,4.89512e-01,-9.90271e+00,2.61340e-01,2.79823e-01,5.50638e-01
1.59310e+03,1.12336e+00,-7.42703e+00,2.62002e-01,2.83340e-01,5.56319e-01
1.59310e+03,1.74219e+00,-4.95135e+00,2.62938e-01,2.86841e-01,5.62111e-01
1.59310e+03,2.35823e+00,-2.47568e+00,2.63924e-01,2.90326e-01,5.67911e-01
1.65850e+03,3.04021e+01,0.00000e+00,-1.80751e-01,2.42129e-01,4.56674e-01
1.65850e+03,3.02490e+01,-2.31024e+00,-1.87164e-01,2.39444e-01,4.55007e-01
1.65850e+03,3.00453e+01,-4.62048e+00,-1.92897e-01,2.36694e-01,4.53080e-01
1.65850e+03,2.98396e+01,-6.93072e+00,-1.98603e-01,2.33881e-01,4.51158e-01
1.65850e+03,2.95892e+01,-9.24096e+00,-2.03708e-01,2.31010e-01,4.48993e-01
1.65850e+03,2.93285e+01,-1.15512e+01,-2.08674e-01,2.28087e-01,4.46784e-01
1.65850e+03,2.90335e+01,-1.38614e+01,-2.13179e-01,2.25115e-01,4.44382e-01
1.65850e+03,2.87218e+01,-1.61717e+01,-2.17460e-01,2.22098e-01,4.41895e-01
1.65850e+03,2.83826e+01,-1.84819e+01,-2.21371e-01,2.19040e-01,4.39250e-01
1.65850e+03,2.80208e+01,-2.07921e+01,-2.24978e-01,2.15946e-01,4.36478e-01
1.65850e+03,2.76341e+01,-2.31024e+01,-2.28250e-01,2.12819e-01,4.33559e-01
1.65850e+03,2.72173e+01,-2.54126e+01,-2.31117e-01,2.09664e-01,4.30455e-01
1.65850e+03,2.67696e+01,-2.77229e+01,-2.33570e-01,2.06484e-01,4.27155e-01
1.65850e+03,2.62783e+01,-3.00331e+01,-2.35435e-01,2.03285e-01,4.23562e-01
1.65850e+03,2.57444e+01,-3.23433e+01,-2.36728e-01,2.00074e-01,4.19677e-01
1.65850e+03,2.51597e+01,-3.46536e+01,-2.37337e-01,1.96855e-01,4.15433e-01
1.65850e+03,2.45060e+01,-3.69638e+01,-2.37019e-01,1.93640e-01,4.10691e-01
1.65850e+03,2.38045e+01,-3.92741e+01,-2.36058e-01,1.90430e-01,4.05603e-01
1.65850e+03,2.29951e+01,-4.15843e+01,-2.33646e-01,1.87243e-01,3.99713e-01
1.65850e+03,2.21410e+01,-4.38945e+01,-2.30633e-01,1.84086e-01,3.93516e-01
1.65850e+03,2.11624e+01,-4.62048e+01,-2.25946e-01,1.80968e-01,3.86394e-01
1.65850e+03,2.00840e+01,-4.85150e+01,-2.19917e-01,1.77915e-01,3.78582e-01
1.65850e+03,1.89041e+01,-5.08253e+01,-2.12522e-01,1.74931e-01,3.70092e-01
1.65850e+03,1.75537e+01,-5.31355e+01,-2.02835e-01,1.72027e-01,3.60448e-01
1.65850e+03,1.60058e+01,-5.54457e+01,-1.90493e-01,1.69240e-01,3.49591e-01
1.65850e+03,1.42348e+01,-5.77560e+01,-1.75150e-01,1.66602e-01,3.37559e-01
1.65850e+03,1.21400e+01,-6.00662e+01,-1.55453e-01,1.64136e-01,3.24017e-01
1.65850e+03,9.45122e+00,-6.23764e+01,-1.27769e-01,1.61961e-01,3.08252e-01
1.65850e+03,5.81473e+00,-6.46867e+01,-8.73411e-02,1.60633e-01,2.91612e-01
1.65850e+03,-2.35608e+00,-6.69969e+01,1.40604e-02,1.61160e-01,2.79491e-01
1.65850e+03,-2.94577e+00,-6.70023e+01,2.19703e-02,1.62795e-01,2.82825e-01
1.65850e+03,-8.31828e+00,-6.46093e+01,1.02990e-01,1.65897e-01,3.05241e-01
1.65850e+03,-8.96876e+00,-6.22164e+01,1.20513e-01,1.68188e-01,3.15254e-01
1.65850e+03,-9.19322e+00,-5.98235e+01,1.32306e-01,1.70599e-01,3.23755e-01
1.65850e+03,-9.22728e+00,-5.74305e+01,1.41540e-01,1.73122e-01,3.31582e-01
1.65850e+03,-9.11789e+00,-5.50376e+01,1.48844e-01,1.75736e-01,3.38828e-01
1.65850e+03,-8.91848e+00,-5.26447e+01,1.54938e-01,1.78428e-01,3.45710e-01
1.65850e+03,-8.62868e+00,-5.02517e+01,1.59816e-01,1.81180e-01,3.52164e-01
1.65850e+03,-8.28374e+00,-4.78588e+01,1.63953e-01,1.83980e-01,3.58366e-01
1.65850e+03,-7.90682e+00,-4.54658e+01,1.67660e-01,1.86820e-01,3.64438e-01
1.65850e+03,-7.48171e+00,-4.30729e+01,1.70719e-01,1.89692e-01,3.70263e-01
1.65850e+03,-7.02650e+00,-4.06800e+01,1.73373e-01,1.92589e-01,3.75939e-01
1.65850e+03,-6.54196e+00,-3.82870e+01,1.75633e-01,1.95505e-01,3.81463e-01
1.65850e+03,-6.02822e+00,-3.58941e+01,1.77500e-01,1.98434e-01,3.86826e-01
1.65850e+03,-5.49615e+00,-3.35011e+01,1.79121e-01,2.01371e-01,3.92090e-01
1.65850e+03,-4.94063e+00,-3.11082e+01,1.80426e-01,2.04311e-01,3.97218e-01
1.65850e+03,-4.37009e+00,-2.87153e+01,1.81529e-01,2.07249e-01,4.02256e-01
1.65850e+03,-3.78607e+00,-2.63223e+01,1.82451e-01,2.10184e-01,4.07210e-01
1.65850e+03,-3.19003e+00,-2.39294e+01,1.83211e-01,2.13111e-01,4.12086e-01
1.65850e+03,-2.58890e+00,-2.15364e+01,1.83903e-01,2.16028e-01,4.16923e-01
1.65850e+03,-1.97988e+00,-1.91435e+01,1.84489e-01,2.18933e-01,4.21701e-01
1.65850e+03,-1.36954e+00,-1.67506e+01,1.85057e-01,2.21827e-01,4.26459e-01
1.65850e+03,-7.54494e-01,-1.43576e+01,1.85562e-01,2.24706e-01,4.31175e-01
1.65850e+03,-1.39508e-01,-1.19647e+01,1.86068e-01,2.27572e-01,4.35876e-01
1.65850e+03,4.73153e-01,-9.57176e+00,1.86605e-01,2.30423e-01,4.40574e-01
1.65850e+03,1.08581e+00,-7.17882e+00,1.87141e-01,2.33259e-01,4.45253e-01
1.65850e+03,1.68397e+00,-4.78588e+00,1.87873e-01,2.36081e-01,4.49999e-01
1.65850e+03,2.27942e+00,-2.39294e+00,1.88642e-01,2.38891e-01,4.54744e-01
1.71930e+03,2.94249e+01,0.00000e+00,-1.24590e-01,1.93675e-01,3.57844e-01
1.71930e+03,2.92767e+01,-2.23598e+00,-1.29054e-01,1.91560e-01,3.56006e-01
1.71930e+03,2.90795e+01,-4.47196e+00,-1.33050e-01,1.89393e-01,3.53994e-01
1.71930e+03,2.88804e+01,-6.70794e+00,-1.37026e-01,1.87177e-01,3.51969e-01
1.71930e+03,2.86381e+01,-8.94392e+00,-1.40589e-01,1.84917e-01,3.49782e-01
1.71930e+03,2.83857e+01,-1.11799e+01,-1.44055e-01,1.82614e-01,3.47556e-01
1.71930e+03,2.81002e+01,-1.34159e+01,-1.47204e-01,1.80273e-01,3.45201e-01
1.71930e+03,2.77986e+01,-1.56519e+01,-1.50198e-01,1.77896e-01,3.42784e-01
1.71930e+03,2.74703e+01,-1.78878e+01,-1.52937e-01,1.75488e-01,3.40261e-01
1.71930e+03,2.71201e+01,-2.01238e+01,-1.55466e-01,1.73051e-01,3.37653e-01
1.71930e+03,2.67458e+01,-2.23598e+01,-1.57765e-01,1.70588e-01,3.34948e-01
1.71930e+03,2.63424e+01,-2.45958e+01,-1.59784e-01,1.68103e-01,3.32124e-01
1.71930e+03,2.59091e+01,-2.68317e+01,-1.61518e-01,1.65598e-01,3.29175e-01
1.71930e+03,2.54336e+01,-2.90677e+01,-1.62846e-01,1.63079e-01,3.26041e-01
1.71930e+03,2.49169e+01,-3.13037e+01,-1.63780e-01,1.60550e-01,3.22727e-01
1.71930e+03,2.43509e+01,-3.35397e+01,-1.64242e-01,1.58014e-01,3.19188e-01
1.71930e+03,2.37183e+01,-3.57757e+01,-1.64066e-01,1.55481e-01,3.15343e-01
1.71930e+03,2.30393e+01,-3.80116e+01,-1.63446e-01,1.52953e-01,3.11286e-01
1.71930e+03,2.22560e+01,-4.02476e+01,-1.61826e-01,1.50443e-01,3.06736e-01
1.71930e+03,2.14293e+01,-4.24836e+01,-1.59791e-01,1.47957e-01,3.02005e-01
1.71930e+03,2.04822e+01,-4.47196e+01,-1.56602e-01,1.45501e-01,2.96709e-01
1.71930e+03,1.94385e+01,-4.69556e+01,-1.52488e-01,1.43096e-01,2.91002e-01
1.71930e+03,1.82964e+01,-4.91915e+01,-1.47432e-01,1.40746e-01,2.84894e-01
1.71930e+03,1.69894e+01,-5.14275e+01,-1.40796e-01,1.38460e-01,2.78095e-01
1.71930e+03,1.54913e+01,-5.36635e+01,-1.32329e-01,1.36264e-01,2.70582e-01
1.71930e+03,1.37772e+01,-5.58995e+01,-1.21793e-01,1.34187e-01,2.62396e-01
1.71930e+03,1.17498e+01,-5.81355e+01,-1.08256e-01,1.32244e-01,2.53347e-01
1.71930e+03,9.14742e+00,-6.03714e+01,-8.92114e-02,1.30532e-01,2.43052e-01
1.71930e+03,5.62782e+00,-6.26074e+01,-6.13807e-02,1.29486e-01,2.32524e-01
1.71930e+03,-2.28035e+00,-6.48434e+01,8.48861e-03,1.29901e-01,2.25156e-01
1.71930e+03,-2.85109e+00,-6.48486e+01,1.39421e-02,1.31190e-01,2.27654e-01
1.71930e+03,-8.05090e+00,-6.25326e+01,6.98458e-02,1.33632e-01,2.41767e-01
1.71930e+03,-8.68047e+00,-6.02165e+01,8.19709e-02,1.35437e-01,2.48493e-01
1.71930e+03,-8.89772e+00,-5.79005e+01,9.01463e-02,1.37336e-01,2.54382e-01
1.71930e+03,-8.93068e+00,-5.55845e+01,9.65564e-02,1.39323e-01,2.59915e-01
1.71930e+03,-8.82481e+00,-5.32685e+01,1.01637e-01,1.41383e-01,2.65136e-01
1.71930e+03,-8.63181e+00,-5.09525e+01,1.05882e-01,1.43502e-01,2.70166e-01
1.71930e+03,-8.35132e+00,-4.86364e+01,1.09290e-01,1.45670e-01,2.74961e-01
1.71930e+03,-8.01747e+00,-4.63204e+01,1.12186e-01,1.47875e-01,2.79619e-01
1.71930e+03,-7.65266e+00,-4.40044e+01,1.14786e-01,1.50112e-01,2.84212e-01
1.71930e+03,-7.24122e+00,-4.16884e+01,1.16939e-01,1.52374e-01,2.88667e-01
1.71930e+03,-6.80064e+00,-3.93724e+01,1.18813e-01,1.54656e-01,2.93040e-01
1.71930e+03,-6.33168e+00,-3.70563e+01,1.20415e-01,1.56953e-01,2.97326e-01
1.71930e+03,-5.83445e+00,-3.47403e+01,1.21746e-01,1.59260e-01,3.01518e-01
1.71930e+03,-5.31949e+00,-3.24243e+01,1.22908e-01,1.61572e-01,3.05652e-01
1.71930e+03,-4.78182e+00,-3.01083e+01,1.23852e-01,1.63888e-01,3.09705e-01
1.71930e+03,-4.22962e+00,-2.77922e+01,1.24657e-01,1.66202e-01,3.13702e-01
1.71930e+03,-3.66437e+00,-2.54762e+01,1.25336e-01,1.68513e-01,3.17647e-01
1.71930e+03,-3.08749e+00,-2.31602e+01,1.25905e-01,1.70819e-01,3.21542e-01
1.71930e+03,-2.50568e+00,-2.08442e+01,1.26426e-01,1.73116e-01,3.25409e-01
1.71930e+03,-1.91624e+00,-1.85282e+01,1.26874e-01,1.75404e-01,3.29237e-01
1.71930e+03,-1.32552e+00,-1.62121e+01,1.27310e-01,1.77683e-01,3.33049e-01
1.71930e+03,-7.30242e-01,-1.38961e+01,1.27702e-01,1.79951e-01,3.36831e-01
1.71930e+03,-1.35024e-01,-1.15801e+01,1.28095e-01,1.82208e-01,3.40598e-01
1.71930e+03,4.57944e-01,-9.26408e+00,1.28509e-01,1.84453e-01,3.44359e-01
1.71930e+03,1.05091e+00,-6.94806e+00,1.28923e-01,1.86686e-01,3.48104e-01
1.71930e+03,1.62984e+00,-4.63204e+00,1.29472e-01,1.88909e-01,3.51884e-01
1.71930e+03,2.20615e+00,-2.31602e+00,1.30046e-01,1.91122e-01,3.55661e-01
1.77540e+03,2.77303e+01,0.00000e+00,-1.46915e-01,1.82107e-01,3.47956e-01
1.77540e+03,2.75906e+01,-2.10721e+00,-1.51853e-01,1.79282e-01,3.45666e-01
1.77540e+03,2.74048e+01,-4.21442e+00,-1.56236e-01,1.76386e-01,3.43141e-01
1.77540e+03,2.72172e+01,-6.32163e+00,-1.60596e-01,1.73425e-01,3.40616e-01
1.77540e+03,2.69888e+01,-8.42884e+00,-1.64465e-01,1.70402e-01,3.37875e-01
1.77540e+03,2.67510e+01,-1.05361e+01,-1.68220e-01,1.67324e-01,3.35096e-01
1.77540e+03,2.64819e+01,-1.26433e+01,-1.71598e-01,1.64193e-01,3.32150e-01
1.77540e+03,2.61977e+01,-1.47505e+01,-1.74794e-01,1.61014e-01,3.29135e-01
1.77540e+03,2.58883e+01,-1.68577e+01,-1.77686e-01,1.57793e-01,3.25988e-01
1.77540e+03,2.55583e+01,-1.89649e+01,-1.80330e-01,1.54532e-01,3.22737e-01
1.77540e+03,2.52056e+01,-2.10721e+01,-1.82701e-01,1.51237e-01,3.19370e-01
1.77540e+03,2.48254e+01,-2.31793e+01,-1.84740e-01,1.47911e-01,3.15851e-01
1.77540e+03,2.44171e+01,-2.52865e+01,-1.86440e-01,1.44559e-01,3.12172e-01
1.77540e+03,2.39689e+01,-2.73937e+01,-1.87660e-01,1.41186e-01,3.08248e-01
1.77540e+03,2.34819e+01,-2.95009e+01,-1.88412e-01,1.37801e-01,3.04082e-01
1.77540e+03,2.29486e+01,-3.16082e+01,-1.88605e-01,1.34406e-01,2.99611e-01
1.77540e+03,2.23524e+01,-3.37154e+01,-1.88040e-01,1.31014e-01,2.94709e-01
1.77540e+03,2.17125e+01,-3.58226e+01,-1.86949e-01,1.27629e-01,2.89512e-01
1.77540e+03,2.09743e+01,-3.79298e+01,-1.84673e-01,1.24267e-01,2.83603e-01
1.77540e+03,2.01952e+01,-4.00370e+01,-1.81904e-01,1.20936e-01,2.77428e-01
1.77540e+03,1.93026e+01,-4.21442e+01,-1.77767e-01,1.17646e-01,2.70413e-01
1.77540e+03,1.83190e+01,-4.42514e+01,-1.72533e-01,1.14424e-01,2.62766e-01
1.77540e+03,1.72428e+01,-4.63586e+01,-1.66182e-01,1.11274e-01,2.54484e-01
1.77540e+03,1.60110e+01,-4.84658e+01,-1.57957e-01,1.08209e-01,2.45109e-01
1.77540e+03,1.45992e+01,-5.05731e+01,-1.47561e-01,1.05266e-01,2.34557e-01
1.77540e+03,1.29838e+01,-5.26803e+01,-1.34711e-01,1.02480e-01,2.22831e-01
1.77540e+03,1.10731e+01,-5.47875e+01,-1.18303e-01,9.98741e-02,2.09571e-01
1.77540e+03,8.62063e+00,-5.68947e+01,-9.53637e-02,9.75750e-02,1.94054e-01
1.77540e+03,5.30372e+00,-5.90019e+01,-6.20051e-02,9.61647e-02,1.77729e-01
1.77540e+03,-2.14903e+00,-6.11091e+01,2.12049e-02,9.67140e-02,1.68850e-01
1.77540e+03,-2.68689e+00,-6.11140e+01,2.76727e-02,9.84350e-02,1.72726e-01
1.77540e+03,-7.58725e+00,-5.89314e+01,9.35980e-02,1.01702e-01,1.99475e-01
1.77540e+03,-8.18057e+00,-5.67487e+01,1.07608e-01,1.04117e-01,2.10001e-01
1.77540e+03,-8.38530e+00,-5.45661e+01,1.16935e-01,1.06658e-01,2.18636e-01
1.77540e+03,-8.41637e+00,-5.23834e+01,1.24168e-01,1.09318e-01,2.26427e-01
1.77540e+03,-8.31659e+00,-5.02008e+01,1.29824e-01,1.12076e-01,2.33532e-01
1.77540e+03,-8.13471e+00,-4.80181e+01,1.34491e-01,1.14914e-01,2.40216e-01
1.77540e+03,-7.87037e+00,-4.58355e+01,1.38163e-01,1.17818e-01,2.46439e-01
1.77540e+03,-7.55575e+00,-4.36529e+01,1.41230e-01,1.20771e-01,2.52395e-01
1.77540e+03,-7.21195e+00,-4.14702e+01,1.43945e-01,1.23768e-01,2.58217e-01
1.77540e+03,-6.82421e+00,-3.92876e+01,1.46130e-01,1.26800e-01,2.63797e-01
1.77540e+03,-6.40900e+00,-3.71049e+01,1.47984e-01,1.29858e-01,2.69237e-01
1.77540e+03,-5.96704e+00,-3.49223e+01,1.49516e-01,1.32936e-01,2.74538e-01
1.77540e+03,-5.49844e+00,-3.27396e+01,1.50726e-01,1.36029e-01,2.79696e-01
1.77540e+03,-5.01314e+00,-3.05570e+01,1.51735e-01,1.39129e-01,2.84771e-01
1.77540e+03,-4.50644e+00,-2.83744e+01,1.52487e-01,1.42234e-01,2.89731e-01
1.77540e+03,-3.98604e+00,-2.61917e+01,1.53073e-01,1.45338e-01,2.94620e-01
1.77540e+03,-3.45334e+00,-2.40091e+01,1.53511e-01,1.48438e-01,2.99445e-01
1.77540e+03,-2.90969e+00,-2.18264e+01,1.53817e-01,1.51531e-01,3.04211e-01
1.77540e+03,-2.36138e+00,-1.96438e+01,1.54066e-01,1.54613e-01,3.08953e-01
1.77540e+03,-1.80588e+00,-1.74611e+01,1.54229e-01,1.57684e-01,3.13655e-01
1.77540e+03,-1.24918e+00,-1.52785e+01,1.54378e-01,1.60742e-01,3.18350e-01
1.77540e+03,-6.88187e-01,-1.30959e+01,1.54475e-01,1.63787e-01,3.23018e-01
1.77540e+03,-1.27248e-01,-1.09132e+01,1.54572e-01,1.66816e-01,3.27682e-01
1.77540e+03,4.31571e-01,-8.73057e+00,1.54695e-01,1.69831e-01,3.32353e-01
1.77540e+03,9.90390e-01,-6.54793e+00,1.54819e-01,1.72831e-01,3.37016e-01
1.77540e+03,1.53598e+00,-4.36529e+00,1.55101e-01,1.75816e-01,3.41746e-01
1.77540e+03,2.07910e+00,-2.18264e+00,1.55413e-01,1.78789e-01,3.46482e-01
1.82660e+03,2.53092e+01,0.00000e+00,-1.00191e-01,1.48493e-01,2.76023e-01
1.82660e+03,2.51817e+01,-1.92323e+00,-1.03612e-01,1.46339e-01,2.73827e-01
1.82660e+03,2.50121e+01,-3.84646e+00,-1.06653e-01,1.44134e-01,2.71475e-01
1.82660e+03,2.48409e+01,-5.76969e+00,-1.09679e-01,1.41877e-01,2.69104e-01
1.82660e+03,2.46324e+01,-7.69292e+00,-1.12370e-01,1.39575e-01,2.66590e-01
1.82660e+03,2.44154e+01,-9.61614e+00,-1.14984e-01,1.37229e-01,2.64039e-01
1.82660e+03,2.41698e+01,-1.15394e+01,-1.17340e-01,1.34844e-01,2.61376e-01
1.82660e+03,2.39103e+01,-1.34626e+01,-1.19572e-01,1.32423e-01,2.58660e-01
1.82660e+03,2.36280e+01,-1.53858e+01,-1.21597e-01,1.29969e-01,2.55854e-01
1.82660e+03,2.33268e+01,-1.73091e+01,-1.23453e-01,1.27485e-01,2.52978e-01
1.82660e+03,2.30049e+01,-1.92323e+01,-1.25122e-01,1.24975e-01,2.50023e-01
1.82660e+03,2.26579e+01,-2.11555e+01,-1.26565e-01,1.22441e-01,2.46970e-01
1.82660e+03,2.22852e+01,-2.30787e+01,-1.27777e-01,1.19888e-01,2.43816e-01
1.82660e+03,2.18762e+01,-2.50020e+01,-1.28661e-01,1.17320e-01,2.40511e-01
1.82660e+03,2.14317e+01,-2.69252e+01,-1.29226e-01,1.14741e-01,2.37056e-01
1.82660e+03,2.09449e+01,-2.88484e+01,-1.29410e-01,1.12155e-01,2.33417e-01
1.82660e+03,2.04008e+01,-3.07717e+01,-1.29078e-01,1.09572e-01,2.29520e-01
1.82660e+03,1.98168e+01,-3.26949e+01,-1.28386e-01,1.06994e-01,2.25446e-01
1.82660e+03,1.91430e+01,-3.46181e+01,-1.26885e-01,1.04433e-01,2.20950e-01
1.82660e+03,1.84320e+01,-3.65413e+01,-1.25049e-01,1.01897e-01,2.16301e-01
1.82660e+03,1.76173e+01,-3.84646e+01,-1.22280e-01,9.93912e-02,2.11159e-01
1.82660e+03,1.67196e+01,-4.03878e+01,-1.18762e-01,9.69371e-02,2.05657e-01
1.82660e+03,1.57373e+01,-4.23110e+01,-1.14483e-01,9.45387e-02,1.99797e-01
1.82660e+03,1.46131e+01,-4.42343e+01,-1.08925e-01,9.22048e-02,1.93313e-01
1.82660e+03,1.33245e+01,-4.61575e+01,-1.01887e-01,8.99637e-02,1.86176e-01
1.82660e+03,1.18502e+01,-4.80807e+01,-9.31754e-02,8.78423e-02,1.78411e-01
1.82660e+03,1.01063e+01,-5.00040e+01,-8.20363e-02,8.58581e-02,1.69838e-01
1.82660e+03,7.86795e+00,-5.19272e+01,-6.64429e-02,8.41078e-02,1.60116e-01
1.82660e+03,4.84065e+00,-5.38504e+01,-4.37430e-02,8.30349e-02,1.50326e-01
1.82660e+03,-1.96139e+00,-5.57736e+01,1.29580e-02,8.34541e-02,1.45126e-01
1.82660e+03,-2.45230e+00,-5.57781e+01,1.73692e-02,8.47653e-02,1.47842e-01
1.82660e+03,-6.92480e+00,-5.37860e+01,6.23876e-02,8.72539e-02,1.63499e-01
1.82660e+03,-7.46632e+00,-5.17940e+01,7.19975e-02,8.90932e-02,1.70283e-01
1.82660e+03,-7.65318e+00,-4.98019e+01,7.84129e-02,9.10291e-02,1.76089e-01
1.82660e+03,-7.68153e+00,-4.78098e+01,8.34005e-02,9.30551e-02,1.81476e-01
1.82660e+03,-7.59047e+00,-4.58177e+01,8.73124e-02,9.51552e-02,1.86513e-01
1.82660e+03,-7.42446e+00,-4.38257e+01,9.05493e-02,9.73170e-02,1.91340e-01
1.82660e+03,-7.18321e+00,-4.18336e+01,9.31084e-02,9.95282e-02,1.95925e-01
1.82660e+03,-6.89605e+00,-3.98415e+01,9.52540e-02,1.01778e-01,2.00373e-01
1.82660e+03,-6.58227e+00,-3.78494e+01,9.71598e-02,1.04060e-01,2.04757e-01
1.82660e+03,-6.22838e+00,-3.58574e+01,9.87043e-02,1.06369e-01,2.09011e-01
1.82660e+03,-5.84943e+00,-3.38653e+01,1.00023e-01,1.08697e-01,2.13190e-01
1.82660e+03,-5.44606e+00,-3.18732e+01,1.01122e-01,1.11041e-01,2.17293e-01
1.82660e+03,-5.01837e+00,-2.98811e+01,1.02002e-01,1.13396e-01,2.21315e-01
1.82660e+03,-4.57544e+00,-2.78891e+01,1.02744e-01,1.15757e-01,2.25290e-01
1.82660e+03,-4.11298e+00,-2.58970e+01,1.03311e-01,1.18121e-01,2.29196e-01
1.82660e+03,-3.63801e+00,-2.39049e+01,1.03765e-01,1.20485e-01,2.33060e-01
1.82660e+03,-3.15183e+00,-2.19128e+01,1.04118e-01,1.22845e-01,2.36882e-01
1.82660e+03,-2.65564e+00,-1.99208e+01,1.04380e-01,1.25199e-01,2.40665e-01
1.82660e+03,-2.15521e+00,-1.79287e+01,1.04605e-01,1.27546e-01,2.44430e-01
1.82660e+03,-1.64821e+00,-1.59366e+01,1.04770e-01,1.29884e-01,2.48166e-01
1.82660e+03,-1.14012e+00,-1.39445e+01,1.04926e-01,1.32212e-01,2.51892e-01
1.82660e+03,-6.28101e-01,-1.19525e+01,1.05046e-01,1.34530e-01,2.55597e-01
1.82660e+03,-1.16138e-01,-9.96038e+00,1.05167e-01,1.36836e-01,2.59292e-01
1.82660e+03,3.93890e-01,-7.96830e+00,1.05305e-01,1.39131e-01,2.62986e-01
1.82660e+03,9.03919e-01,-5.97623e+00,1.05443e-01,1.41415e-01,2.66669e-01
1.82660e+03,1.40187e+00,-3.98415e+00,1.05690e-01,1.43687e-01,2.70385e-01
1.82660e+03,1.89757e+00,-1.99208e+00,1.05957e-01,1.45950e-01,2.74101e-01
1.87280e+03,2.31244e+01,0.00000e+00,-6.42122e-02,1.17545e-01,2.13480e-01
1.87280e+03,2.30080e+01,-1.75721e+00,-6.64580e-02,1.15963e-01,2.11564e-01
1.87280e+03,2.28531e+01,-3.51443e+00,-6.84604e-02,1.14343e-01,2.09546e-01
1.87280e+03,2.26966e+01,-5.27164e+00,-7.04531e-02,1.12685e-01,2.07503e-01
1.87280e+03,2.25061e+01,-7.02886e+00,-7.22310e-02,1.10994e-01,2.05369e-01
1.87280e+03,2.23078e+01,-8.78607e+00,-7.39591e-02,1.09271e-01,2.03200e-01
1.87280e+03,2.20834e+01,-1.05433e+01,-7.55222e-02,1.07519e-01,2.00959e-01
1.87280e+03,2.18464e+01,-1.23005e+01,-7.70053e-02,1.05741e-01,1.98678e-01
1.87280e+03,2.15884e+01,-1.40577e+01,-7.83559e-02,1.03938e-01,1.96339e-01
1.87280e+03,2.13132e+01,-1.58149e+01,-7.95977e-02,1.02114e-01,1.93952e-01
1.87280e+03,2.10191e+01,-1.75721e+01,-8.07198e-02,1.00270e-01,1.91515e-01
1.87280e+03,2.07020e+01,-1.93294e+01,-8.16969e-02,9.84094e-02,1.89018e-01
1.87280e+03,2.03615e+01,-2.10866e+01,-8.25258e-02,9.65343e-02,1.86459e-01
1.87280e+03,1.99878e+01,-2.28438e+01,-8.31445e-02,9.46478e-02,1.83814e-01
1.87280e+03,1.95817e+01,-2.46010e+01,-8.35585e-02,9.27539e-02,1.81085e-01
1.87280e+03,1.91369e+01,-2.63582e+01,-8.37279e-02,9.08551e-02,1.78253e-01
1.87280e+03,1.86398e+01,-2.81154e+01,-8.35659e-02,8.89582e-02,1.75282e-01
1.87280e+03,1.81062e+01,-2.98726e+01,-8.31734e-02,8.70645e-02,1.72216e-01
1.87280e+03,1.74905e+01,-3.16299e+01,-8.22621e-02,8.51843e-02,1.68926e-01
1.87280e+03,1.68409e+01,-3.33871e+01,-8.11358e-02,8.33218e-02,1.65561e-01
1.87280e+03,1.60966e+01,-3.51443e+01,-7.94105e-02,8.14818e-02,1.61938e-01
1.87280e+03,1.52763e+01,-3.69015e+01,-7.72052e-02,7.96797e-02,1.58137e-01
1.87280e+03,1.43788e+01,-3.86587e+01,-7.45112e-02,7.79186e-02,1.54162e-01
1.87280e+03,1.33517e+01,-4.04159e+01,-7.09973e-02,7.62049e-02,1.49874e-01
1.87280e+03,1.21743e+01,-4.21731e+01,-6.65334e-02,7.45594e-02,1.45272e-01
1.87280e+03,1.08272e+01,-4.39304e+01,-6.09960e-02,7.30018e-02,1.40386e-01
1.87280e+03,9.23393e+00,-4.56876e+01,-5.39013e-02,7.15451e-02,1.35135e-01
1.87280e+03,7.18879e+00,-4.74448e+01,-4.39491e-02,7.02602e-02,1.29387e-01
1.87280e+03,4.42280e+00,-4.92020e+01,-2.94378e-02,6.94732e-02,1.23880e-01
1.87280e+03,-1.79208e+00,-5.09592e+01,6.88617e-03,6.97816e-02,1.21061e-01
1.87280e+03,-2.24062e+00,-5.09633e+01,9.71600e-03,7.07449e-02,1.22918e-01
1.87280e+03,-6.32705e+00,-4.91432e+01,3.86499e-02,7.25728e-02,1.31508e-01
1.87280e+03,-6.82182e+00,-4.73231e+01,4.48681e-02,7.39237e-02,1.35673e-01
1.87280e+03,-6.99255e+00,-4.55029e+01,4.90370e-02,7.53455e-02,1.39411e-01
1.87280e+03,-7.01846e+00,-4.36828e+01,5.22899e-02,7.68333e-02,1.42984e-01
1.87280e+03,-6.93525e+00,-4.18627e+01,5.48528e-02,7.83756e-02,1.46414e-01
1.87280e+03,-6.78358e+00,-4.00426e+01,5.69826e-02,7.99631e-02,1.49764e-01
1.87280e+03,-6.56315e+00,-3.82225e+01,5.86775e-02,8.15869e-02,1.53011e-01
1.87280e+03,-6.30078e+00,-3.64024e+01,6.01073e-02,8.32388e-02,1.56202e-01
1.87280e+03,-6.01408e+00,-3.45822e+01,6.13831e-02,8.49147e-02,1.59372e-01
1.87280e+03,-5.69074e+00,-3.27621e+01,6.24272e-02,8.66098e-02,1.62484e-01
1.87280e+03,-5.34450e+00,-3.09420e+01,6.33265e-02,8.83197e-02,1.65564e-01
1.87280e+03,-4.97595e+00,-2.91219e+01,6.40846e-02,9.00409e-02,1.68609e-01
1.87280e+03,-4.58518e+00,-2.73018e+01,6.47023e-02,9.17697e-02,1.71614e-01
1.87280e+03,-4.18049e+00,-2.54816e+01,6.52318e-02,9.35033e-02,1.74596e-01
1.87280e+03,-3.75794e+00,-2.36615e+01,6.56485e-02,9.52390e-02,1.77542e-01
1.87280e+03,-3.32398e+00,-2.18414e+01,6.59929e-02,9.69742e-02,1.80463e-01
1.87280e+03,-2.87976e+00,-2.00213e+01,6.62726e-02,9.87070e-02,1.83361e-01
1.87280e+03,-2.42640e+00,-1.82012e+01,6.64944e-02,1.00436e-01,1.86235e-01
1.87280e+03,-1.96917e+00,-1.63811e+01,6.66916e-02,1.02158e-01,1.89095e-01
1.87280e+03,-1.50594e+00,-1.45609e+01,6.68510e-02,1.03875e-01,1.91935e-01
1.87280e+03,-1.04170e+00,-1.27408e+01,6.70040e-02,1.05584e-01,1.94765e-01
1.87280e+03,-5.73883e-01,-1.09207e+01,6.71343e-02,1.07285e-01,1.97579e-01
1.87280e+03,-1.06113e-01,-9.10059e+00,6.72650e-02,1.08978e-01,2.00383e-01
1.87280e+03,3.59890e-01,-7.28047e+00,6.74068e-02,1.10663e-01,2.03181e-01
1.87280e+03,8.25892e-01,-5.46035e+00,6.75486e-02,1.12339e-01,2.05968e-01
1.87280e+03,1.28086e+00,-3.64024e+00,6.77602e-02,1.14007e-01,2.08768e-01
1.87280e+03,1.73377e+00,-1.82012e+00,6.79848e-02,1.15668e-01,2.11563e-01
1.91380e+03,2.11856e+01,0.00000e+00,-3.80648e-02,8.99951e-02,1.60457e-01
1.91380e+03,2.10789e+01,-1.60989e+00,-3.94423e-02,8.88822e-02,1.58921e-01
1.91380e+03,2.09370e+01,-3.21977e+00,-4.06753e-02,8.77421e-02,1.57323e-01
1.91380e+03,2.07936e+01,-4.82966e+00,-4.19026e-02,8.65760e-02,1.55698e-01
1.91380e+03,2.06192e+01,-6.43954e+00,-4.30022e-02,8.53860e-02,1.54018e-01
1.91380e+03,2.04375e+01,-8.04943e+00,-4.40722e-02,8.41739e-02,1.52309e-01
1.91380e+03,2.02319e+01,-9.65931e+00,-4.50443e-02,8.29414e-02,1.50555e-01
1.91380e+03,2.00147e+01,-1.12692e+01,-4.59689e-02,8.16903e-02,1.48772e-01
1.91380e+03,1.97784e+01,-1.28791e+01,-4.68147e-02,8.04222e-02,1.46952e-01
1.91380e+03,1.95262e+01,-1.44890e+01,-4.75960e-02,7.91389e-02,1.45101e-01
1.91380e+03,1.92568e+01,-1.60989e+01,-4.83061e-02,7.78420e-02,1.43219e-01
1.91380e+03,1.89663e+01,-1.77087e+01,-4.89301e-02,7.65332e-02,1.41302e-01
1.91380e+03,1.86544e+01,-1.93186e+01,-4.94661e-02,7.52142e-02,1.39350e-01
1.91380e+03,1.83120e+01,-2.09285e+01,-4.98772e-02,7.38873e-02,1.37353e-01
1.91380e+03,1.79399e+01,-2.25384e+01,-5.01668e-02,7.25551e-02,1.35312e-01
1.91380e+03,1.75325e+01,-2.41483e+01,-5.03110e-02,7.12195e-02,1.33221e-01
1.91380e+03,1.70770e+01,-2.57582e+01,-5.02585e-02,6.98853e-02,1.31064e-01
1.91380e+03,1.65881e+01,-2.73680e+01,-5.00690e-02,6.85534e-02,1.28863e-01
1.91380e+03,1.60241e+01,-2.89779e+01,-4.95714e-02,6.72310e-02,1.26560e-01
1.91380e+03,1.54289e+01,-3.05878e+01,-4.89461e-02,6.59210e-02,1.24227e-01
1.91380e+03,1.47470e+01,-3.21977e+01,-4.79650e-02,6.46269e-02,1.21781e-01
1.91380e+03,1.39955e+01,-3.38076e+01,-4.66988e-02,6.33596e-02,1.19265e-01
1.91380e+03,1.31733e+01,-3.54175e+01,-4.51423e-02,6.21210e-02,1.16683e-01
1.91380e+03,1.22322e+01,-3.70274e+01,-4.30989e-02,6.09158e-02,1.13972e-01
1.91380e+03,1.11536e+01,-3.86372e+01,-4.04912e-02,5.97586e-02,1.11143e-01
1.91380e+03,9.91946e+00,-4.02471e+01,-3.72458e-02,5.86633e-02,1.08219e-01
1.91380e+03,8.45973e+00,-4.18570e+01,-3.30756e-02,5.76389e-02,1.05170e-01
1.91380e+03,6.58606e+00,-4.34669e+01,-2.72080e-02,5.67355e-02,1.01966e-01
1.91380e+03,4.05198e+00,-4.50768e+01,-1.86326e-02,5.61825e-02,9.90788e-02
1.91380e+03,-1.64183e+00,-4.66867e+01,2.89858e-03,5.63998e-02,9.77304e-02
1.91380e+03,-2.05276e+00,-4.66904e+01,4.57927e-03,5.70776e-02,9.89673e-02
1.91380e+03,-5.79657e+00,-4.50229e+01,2.18100e-02,5.83635e-02,1.03415e-01
1.91380e+03,-6.24986e+00,-4.33554e+01,2.55485e-02,5.93137e-02,1.05864e-01
1.91380e+03,-6.40628e+00,-4.16879e+01,2.80699e-02,6.03138e-02,1.08172e-01
1.91380e+03,-6.43001e+00,-4.00204e+01,3.00472e-02,6.13604e-02,1.10445e-01
1.91380e+03,-6.35378e+00,-3.83528e+01,3.16146e-02,6.24451e-02,1.12684e-01
1.91380e+03,-6.21483e+00,-3.66853e+01,3.29249e-02,6.35618e-02,1.14910e-01
1.91380e+03,-6.01288e+00,-3.50178e+01,3.39768e-02,6.47038e-02,1.17107e-01
1.91380e+03,-5.77251e+00,-3.33503e+01,3.48712e-02,6.58656e-02,1.19293e-01
1.91380e+03,-5.50985e+00,-3.16828e+01,3.56743e-02,6.70442e-02,1.21480e-01
1.91380e+03,-5.21362e+00,-3.00153e+01,3.63396e-02,6.82364e-02,1.23649e-01
1.91380e+03,-4.89640e+00,-2.83477e+01,3.69189e-02,6.94389e-02,1.25811e-01
1.91380e+03,-4.55876e+00,-2.66802e+01,3.74145e-02,7.06494e-02,1.27960e-01
1.91380e+03,-4.20075e+00,-2.50127e+01,3.78266e-02,7.18651e-02,1.30095e-01
1.91380e+03,-3.82998e+00,-2.33452e+01,3.81863e-02,7.30843e-02,1.32220e-01
1.91380e+03,-3.44287e+00,-2.16777e+01,3.84790e-02,7.43048e-02,1.34329e-01
1.91380e+03,-3.04529e+00,-2.00102e+01,3.87288e-02,7.55250e-02,1.36426e-01
1.91380e+03,-2.63832e+00,-1.83427e+01,3.89401e-02,7.67435e-02,1.38510e-01
1.91380e+03,-2.22297e+00,-1.66751e+01,3.91171e-02,7.79589e-02,1.40581e-01
1.91380e+03,-1.80407e+00,-1.50076e+01,3.92795e-02,7.91704e-02,1.42642e-01
1.91380e+03,-1.37967e+00,-1.33401e+01,3.94193e-02,8.03772e-02,1.44691e-01
1.91380e+03,-9.54362e-01,-1.16726e+01,3.95554e-02,8.15789e-02,1.46731e-01
1.91380e+03,-5.25768e-01,-1.00051e+01,3.96780e-02,8.27751e-02,1.48760e-01
1.91380e+03,-9.72161e-02,-8.33757e+00,3.98009e-02,8.39654e-02,1.50780e-01
1.91380e+03,3.29716e-01,-6.67006e+00,3.99303e-02,8.51499e-02,1.52794e-01
1.91380e+03,7.56647e-01,-5.00254e+00,4.00598e-02,8.63282e-02,1.54798e-01
1.91380e+03,1.17347e+00,-3.33503e+00,4.02307e-02,8.75008e-02,1.56805e-01
1.91380e+03,1.58841e+00,-1.66751e+00,4.04093e-02,8.86686e-02,1.58806e-01
1.94970e+03,1.94880e+01,0.00000e+00,-2.02943e-02,6.53292e-02,1.14959e-01
1.94970e+03,1.93899e+01,-1.48088e+00,-2.10641e-02,6.45915e-02,1.13841e-01
1.94970e+03,1.92593e+01,-2.96177e+00,-2.17565e-02,6.38358e-02,1.12687e-01
1.94970e+03,1.91274e+01,-4.44265e+00,-2.24459e-02,6.30628e-02,1.11510e-01
1.94970e+03,1.89669e+01,-5.92353e+00,-2.30670e-02,6.22741e-02,1.10301e-01
1.94970e+03,1.87998e+01,-7.40441e+00,-2.36723e-02,6.14707e-02,1.09070e-01
1.94970e+03,1.86107e+01,-8.88530e+00,-2.42251e-02,6.06538e-02,1.07812e-01
1.94970e+03,1.84109e+01,-1.03662e+01,-2.47526e-02,5.98246e-02,1.06535e-01
1.94970e+03,1.81935e+01,-1.18471e+01,-2.52380e-02,5.89842e-02,1.05235e-01
1.94970e+03,1.79616e+01,-1.33279e+01,-2.56888e-02,5.81337e-02,1.03916e-01
1.94970e+03,1.77137e+01,-1.48088e+01,-2.61015e-02,5.72742e-02,1.02578e-01
1.94970e+03,1.74465e+01,-1.62897e+01,-2.64683e-02,5.64068e-02,1.01221e-01
1.94970e+03,1.71596e+01,-1.77706e+01,-2.67879e-02,5.55327e-02,9.98461e-02
1.94970e+03,1.68446e+01,-1.92515e+01,-2.70408e-02,5.46534e-02,9.84489e-02
1.94970e+03,1.65024e+01,-2.07324e+01,-2.72286e-02,5.37705e-02,9.70320e-02
1.94970e+03,1.61276e+01,-2.22132e+01,-2.73387e-02,5.28855e-02,9.55930e-02
1.94970e+03,1.57086e+01,-2.36941e+01,-2.73436e-02,5.20013e-02,9.41281e-02
1.94970e+03,1.52589e+01,-2.51750e+01,-2.72752e-02,5.11188e-02,9.26462e-02
1.94970e+03,1.47401e+01,-2.66559e+01,-2.70420e-02,5.02424e-02,9.11273e-02
1.94970e+03,1.41926e+01,-2.81368e+01,-2.67405e-02,4.93744e-02,8.96022e-02
1.94970e+03,1.35653e+01,-2.96177e+01,-2.62487e-02,4.85169e-02,8.80379e-02
1.94970e+03,1.28740e+01,-3.10985e+01,-2.56044e-02,4.76772e-02,8.64576e-02
1.94970e+03,1.21177e+01,-3.25794e+01,-2.48049e-02,4.68565e-02,8.48638e-02
1.94970e+03,1.12521e+01,-3.40603e+01,-2.37449e-02,4.60579e-02,8.32336e-02
1.94970e+03,1.02599e+01,-3.55412e+01,-2.23832e-02,4.52912e-02,8.15775e-02
1.94970e+03,9.12460e+00,-3.70221e+01,-2.06803e-02,4.45655e-02,7.99120e-02
1.94970e+03,7.78184e+00,-3.85029e+01,-1.84828e-02,4.38869e-02,7.82291e-02
1.94970e+03,6.05831e+00,-3.99838e+01,-1.53775e-02,4.32884e-02,7.65385e-02
1.94970e+03,3.72729e+00,-4.14647e+01,-1.08238e-02,4.29223e-02,7.51274e-02
1.94970e+03,-1.51027e+00,-4.29456e+01,6.59272e-04,4.30665e-02,7.45963e-02
1.94970e+03,-1.88827e+00,-4.29490e+01,1.55812e-03,4.35158e-02,7.53876e-02
1.94970e+03,-5.33209e+00,-4.14151e+01,1.08082e-02,4.43681e-02,7.76041e-02
1.94970e+03,-5.74905e+00,-3.98812e+01,1.28419e-02,4.49978e-02,7.89894e-02
1.94970e+03,-5.89293e+00,-3.83473e+01,1.42246e-02,4.56606e-02,8.03555e-02
1.94970e+03,-5.91477e+00,-3.68135e+01,1.53163e-02,4.63541e-02,8.17355e-02
1.94970e+03,-5.84465e+00,-3.52796e+01,1.61888e-02,4.70729e-02,8.31244e-02
1.94970e+03,-5.71682e+00,-3.37457e+01,1.69237e-02,4.78129e-02,8.45259e-02
1.94970e+03,-5.53106e+00,-3.22118e+01,1.75205e-02,4.85696e-02,8.59302e-02
1.94970e+03,-5.30995e+00,-3.06779e+01,1.80330e-02,4.93395e-02,8.73404e-02
1.94970e+03,-5.06834e+00,-2.91440e+01,1.84967e-02,5.01205e-02,8.87599e-02
1.94970e+03,-4.79584e+00,-2.76101e+01,1.88867e-02,5.09104e-02,9.01794e-02
1.94970e+03,-4.50405e+00,-2.60762e+01,1.92307e-02,5.17072e-02,9.16009e-02
1.94970e+03,-4.19345e+00,-2.45423e+01,1.95299e-02,5.25092e-02,9.30219e-02
1.94970e+03,-3.86414e+00,-2.30084e+01,1.97844e-02,5.33147e-02,9.44394e-02
1.94970e+03,-3.52308e+00,-2.14745e+01,2.00110e-02,5.41225e-02,9.58549e-02
1.94970e+03,-3.16699e+00,-1.99406e+01,2.02017e-02,5.49312e-02,9.72646e-02
1.94970e+03,-2.80126e+00,-1.84067e+01,2.03694e-02,5.57396e-02,9.86692e-02
1.94970e+03,-2.42690e+00,-1.68728e+01,2.05166e-02,5.65468e-02,1.00068e-01
1.94970e+03,-2.04484e+00,-1.53389e+01,2.06453e-02,5.73520e-02,1.01459e-01
1.94970e+03,-1.65951e+00,-1.38050e+01,2.07663e-02,5.81546e-02,1.02845e-01
1.94970e+03,-1.26912e+00,-1.22712e+01,2.08753e-02,5.89541e-02,1.04224e-01
1.94970e+03,-8.77888e-01,-1.07373e+01,2.09822e-02,5.97502e-02,1.05596e-01
1.94970e+03,-4.83637e-01,-9.20336e+00,2.10819e-02,6.05427e-02,1.06961e-01
1.94970e+03,-8.94260e-02,-7.66947e+00,2.11818e-02,6.13312e-02,1.08320e-01
1.94970e+03,3.03295e-01,-6.13558e+00,2.12852e-02,6.21158e-02,1.09673e-01
1.94970e+03,6.96016e-01,-4.60168e+00,2.13885e-02,6.28963e-02,1.11019e-01
1.94970e+03,1.07944e+00,-3.06779e+00,2.15141e-02,6.36731e-02,1.12364e-01
1.94970e+03,1.46113e+00,-1.53389e+00,2.16438e-02,6.44465e-02,1.13704e-01
1.98010e+03,1.80504e+01,0.00000e+00,-9.42966e-03,4.42038e-02,7.71418e-02
1.98010e+03,1.79595e+01,-1.37164e+00,-9.81120e-03,4.37506e-02,7.64107e-02
1.98010e+03,1.78386e+01,-2.74329e+00,-1.01566e-02,4.32862e-02,7.56588e-02
1.98010e+03,1.77165e+01,-4.11493e+00,-1.05006e-02,4.28113e-02,7.48912e-02
1.98010e+03,1.75678e+01,-5.48657e+00,-1.08128e-02,4.23267e-02,7.41051e-02
1.98010e+03,1.74130e+01,-6.85822e+00,-1.11175e-02,4.18331e-02,7.33050e-02
1.98010e+03,1.72378e+01,-8.22986e+00,-1.13978e-02,4.13312e-02,7.24895e-02
1.98010e+03,1.70528e+01,-9.60150e+00,-1.16662e-02,4.08218e-02,7.16614e-02
1.98010e+03,1.68514e+01,-1.09731e+01,-1.19149e-02,4.03055e-02,7.08206e-02
1.98010e+03,1.66366e+01,-1.23448e+01,-1.21475e-02,3.97830e-02,6.99687e-02
1.98010e+03,1.64070e+01,-1.37164e+01,-1.23624e-02,3.92550e-02,6.91063e-02
1.98010e+03,1.61595e+01,-1.50881e+01,-1.25557e-02,3.87221e-02,6.82338e-02
1.98010e+03,1.58938e+01,-1.64597e+01,-1.27271e-02,3.81851e-02,6.73520e-02
1.98010e+03,1.56020e+01,-1.78314e+01,-1.28672e-02,3.76449e-02,6.64604e-02
1.98010e+03,1.52851e+01,-1.92030e+01,-1.29770e-02,3.71026e-02,6.55608e-02
1.98010e+03,1.49379e+01,-2.05747e+01,-1.30505e-02,3.65589e-02,6.46528e-02
1.98010e+03,1.45498e+01,-2.19463e+01,-1.30749e-02,3.60158e-02,6.37367e-02
1.98010e+03,1.41333e+01,-2.33179e+01,-1.30650e-02,3.54736e-02,6.28159e-02
1.98010e+03,1.36527e+01,-2.46896e+01,-1.29782e-02,3.49353e-02,6.18859e-02
1.98010e+03,1.31457e+01,-2.60612e+01,-1.28595e-02,3.44022e-02,6.09581e-02
1.98010e+03,1.25646e+01,-2.74329e+01,-1.26519e-02,3.38754e-02,6.00226e-02
1.98010e+03,1.19244e+01,-2.88045e+01,-1.23732e-02,3.33596e-02,5.90905e-02
1.98010e+03,1.12238e+01,-3.01762e+01,-1.20219e-02,3.28555e-02,5.81634e-02
1.98010e+03,1.04220e+01,-3.15478e+01,-1.15490e-02,3.23650e-02,5.72352e-02
1.98010e+03,9.50303e+00,-3.29194e+01,-1.09351e-02,3.18941e-02,5.63141e-02
1.98010e+03,8.45151e+00,-3.42911e+01,-1.01620e-02,3.14484e-02,5.54101e-02
1.98010e+03,7.20780e+00,-3.56627e+01,-9.15790e-03,3.10316e-02,5.45229e-02
1.98010e+03,5.61141e+00,-3.70344e+01,-7.72985e-03,3.06641e-02,5.36713e-02
1.98010e+03,3.45234e+00,-3.84060e+01,-5.62546e-03,3.04394e-02,5.30218e-02
1.98010e+03,-1.39886e+00,-3.97777e+01,-2.85135e-04,3.05281e-02,5.28770e-02
1.98010e+03,-1.74898e+00,-3.97808e+01,1.34562e-04,3.08041e-02,5.33545e-02
1.98010e+03,-4.93876e+00,-3.83601e+01,4.47705e-03,3.13278e-02,5.44456e-02
1.98010e+03,-5.32496e+00,-3.69394e+01,5.44965e-03,3.17146e-02,5.52010e-02
1.98010e+03,-5.45823e+00,-3.55186e+01,6.11822e-03,3.21218e-02,5.59720e-02
1.98010e+03,-5.47846e+00,-3.40979e+01,6.65091e-03,3.25478e-02,5.67654e-02
1.98010e+03,-5.41351e+00,-3.26771e+01,7.08122e-03,3.29894e-02,5.75764e-02
1.98010e+03,-5.29511e+00,-3.12564e+01,7.44729e-03,3.34439e-02,5.84034e-02
1.98010e+03,-5.12305e+00,-2.98356e+01,7.74885e-03,3.39088e-02,5.92407e-02
1.98010e+03,-4.91825e+00,-2.84149e+01,8.01106e-03,3.43817e-02,6.00872e-02
1.98010e+03,-4.69446e+00,-2.69941e+01,8.25045e-03,3.48614e-02,6.09428e-02
1.98010e+03,-4.44207e+00,-2.55734e+01,8.45546e-03,3.53466e-02,6.18033e-02
1.98010e+03,-4.17180e+00,-2.41527e+01,8.63897e-03,3.58360e-02,6.26681e-02
1.98010e+03,-3.88412e+00,-2.27319e+01,8.80156e-03,3.63286e-02,6.35356e-02
1.98010e+03,-3.57909e+00,-2.13112e+01,8.94330e-03,3.68234e-02,6.44040e-02
1.98010e+03,-3.26320e+00,-1.98904e+01,9.07197e-03,3.73195e-02,6.52728e-02
1.98010e+03,-2.93337e+00,-1.84697e+01,9.18390e-03,3.78162e-02,6.61403e-02
1.98010e+03,-2.59462e+00,-1.70489e+01,9.28511e-03,3.83127e-02,6.70060e-02
1.98010e+03,-2.24788e+00,-1.56282e+01,9.37670e-03,3.88085e-02,6.78692e-02
1.98010e+03,-1.89400e+00,-1.42074e+01,9.45972e-03,3.93030e-02,6.87290e-02
1.98010e+03,-1.53709e+00,-1.27867e+01,9.53910e-03,3.97960e-02,6.95856e-02
1.98010e+03,-1.17550e+00,-1.13660e+01,9.61284e-03,4.02870e-02,7.04381e-02
1.98010e+03,-8.13129e-01,-9.94521e+00,9.68565e-03,4.07759e-02,7.12869e-02
1.98010e+03,-4.47961e-01,-8.52447e+00,9.75510e-03,4.12625e-02,7.21315e-02
1.98010e+03,-8.28294e-02,-7.10372e+00,9.82460e-03,4.17467e-02,7.29719e-02
1.98010e+03,2.80922e-01,-5.68298e+00,9.89575e-03,4.22286e-02,7.38085e-02
1.98010e+03,6.44673e-01,-4.26223e+00,9.96690e-03,4.27079e-02,7.46406e-02
1.98010e+03,9.99811e-01,-2.84149e+00,1.00484e-02,4.31849e-02,7.54703e-02
1.98010e+03,1.35334e+00,-1.42074e+00,1.01318e-02,4.36598e-02,7.62968e-02
2.00520e+03,1.68635e+01,0.00000e+00,-3.56816e-03,2.68158e-02,4.65832e-02
2.00520e+03,1.67786e+01,-1.28145e+00,-3.72590e-03,2.65677e-02,4.61671e-02
2.00520e+03,1.66656e+01,-2.56290e+00,-3.86988e-03,2.63134e-02,4.57402e-02
2.00520e+03,1.65515e+01,-3.84435e+00,-4.01330e-03,2.60534e-02,4.53040e-02
2.00520e+03,1.64126e+01,-5.12580e+00,-4.14458e-03,2.57881e-02,4.48583e-02
2.00520e+03,1.62680e+01,-6.40725e+00,-4.27303e-03,2.55179e-02,4.44044e-02
2.00520e+03,1.61044e+01,-7.68870e+00,-4.39216e-03,2.52432e-02,4.39425e-02
2.00520e+03,1.59315e+01,-8.97015e+00,-4.50676e-03,2.49643e-02,4.34737e-02
2.00520e+03,1.57433e+01,-1.02516e+01,-4.61386e-03,2.46817e-02,4.29981e-02
2.00520e+03,1.55427e+01,-1.15330e+01,-4.71481e-03,2.43956e-02,4.25167e-02
2.00520e+03,1.53282e+01,-1.28145e+01,-4.80898e-03,2.41066e-02,4.20299e-02
2.00520e+03,1.50970e+01,-1.40959e+01,-4.89496e-03,2.38149e-02,4.15380e-02
2.00520e+03,1.48486e+01,-1.53774e+01,-4.97254e-03,2.35210e-02,4.10418e-02
2.00520e+03,1.45761e+01,-1.66588e+01,-5.03824e-03,2.32253e-02,4.05416e-02
2.00520e+03,1.42800e+01,-1.79403e+01,-5.09236e-03,2.29284e-02,4.00383e-02
2.00520e+03,1.39556e+01,-1.92217e+01,-5.13264e-03,2.26308e-02,3.95323e-02
2.00520e+03,1.35931e+01,-2.05032e+01,-5.15417e-03,2.23335e-02,3.90246e-02
2.00520e+03,1.32039e+01,-2.17846e+01,-5.16267e-03,2.20367e-02,3.85163e-02
2.00520e+03,1.27550e+01,-2.30661e+01,-5.14181e-03,2.17421e-02,3.80078e-02
2.00520e+03,1.22812e+01,-2.43475e+01,-5.10880e-03,2.14503e-02,3.75026e-02
2.00520e+03,1.17384e+01,-2.56290e+01,-5.04189e-03,2.11620e-02,3.69988e-02
2.00520e+03,1.11403e+01,-2.69104e+01,-4.94783e-03,2.08796e-02,3.65015e-02
2.00520e+03,1.04858e+01,-2.81919e+01,-4.82613e-03,2.06037e-02,3.60116e-02
2.00520e+03,9.73672e+00,-2.94733e+01,-4.65804e-03,2.03353e-02,3.55284e-02
2.00520e+03,8.87814e+00,-3.07548e+01,-4.43621e-03,2.00775e-02,3.50571e-02
2.00520e+03,7.89577e+00,-3.20362e+01,-4.15365e-03,1.98336e-02,3.46030e-02
2.00520e+03,6.73385e+00,-3.33177e+01,-3.78299e-03,1.96055e-02,3.41678e-02
2.00520e+03,5.24243e+00,-3.45991e+01,-3.25068e-03,1.94044e-02,3.37662e-02
2.00520e+03,3.22533e+00,-3.58806e+01,-2.46045e-03,1.92815e-02,3.34870e-02
2.00520e+03,-1.30688e+00,-3.71620e+01,-4.36261e-04,1.93301e-02,3.34835e-02
2.00520e+03,-1.63397e+00,-3.71650e+01,-2.76245e-04,1.94812e-02,3.37436e-02
2.00520e+03,-4.61400e+00,-3.58377e+01,1.39238e-03,1.97679e-02,3.42672e-02
2.00520e+03,-4.97481e+00,-3.45104e+01,1.77595e-03,1.99796e-02,3.46513e-02
2.00520e+03,-5.09932e+00,-3.31830e+01,2.04358e-03,2.02025e-02,3.50514e-02
2.00520e+03,-5.11821e+00,-3.18557e+01,2.25940e-03,2.04357e-02,3.54678e-02
2.00520e+03,-5.05754e+00,-3.05284e+01,2.43618e-03,2.06774e-02,3.58971e-02
2.00520e+03,-4.94693e+00,-2.92011e+01,2.58846e-03,2.09262e-02,3.63376e-02
2.00520e+03,-4.78618e+00,-2.78738e+01,2.71614e-03,2.11807e-02,3.67864e-02
2.00520e+03,-4.59485e+00,-2.65464e+01,2.82882e-03,2.14395e-02,3.72419e-02
2.00520e+03,-4.38577e+00,-2.52191e+01,2.93279e-03,2.17021e-02,3.77034e-02
2.00520e+03,-4.14998e+00,-2.38918e+01,3.02366e-03,2.19677e-02,3.81691e-02
2.00520e+03,-3.89748e+00,-2.25645e+01,3.10632e-03,2.22355e-02,3.86381e-02
2.00520e+03,-3.62871e+00,-2.12371e+01,3.18101e-03,2.25052e-02,3.91097e-02
2.00520e+03,-3.34375e+00,-1.99098e+01,3.24775e-03,2.27760e-02,3.95826e-02
2.00520e+03,-3.04862e+00,-1.85825e+01,3.30950e-03,2.30475e-02,4.00564e-02
2.00520e+03,-2.74048e+00,-1.72552e+01,3.36487e-03,2.33193e-02,4.05302e-02
2.00520e+03,-2.42401e+00,-1.59279e+01,3.41615e-03,2.35911e-02,4.10035e-02
2.00520e+03,-2.10007e+00,-1.46005e+01,3.46377e-03,2.38624e-02,4.14758e-02
2.00520e+03,-1.76946e+00,-1.32732e+01,3.50811e-03,2.41330e-02,4.19466e-02
2.00520e+03,-1.43602e+00,-1.19459e+01,3.55107e-03,2.44028e-02,4.24158e-02
2.00520e+03,-1.09820e+00,-1.06186e+01,3.59188e-03,2.46715e-02,4.28830e-02
2.00520e+03,-7.59661e-01,-9.29125e+00,3.63233e-03,2.49391e-02,4.33482e-02
2.00520e+03,-4.18505e-01,-7.96393e+00,3.67150e-03,2.52054e-02,4.38111e-02
2.00520e+03,-7.73829e-02,-6.63661e+00,3.71069e-03,2.54704e-02,4.42718e-02
2.00520e+03,2.62450e-01,-5.30929e+00,3.75051e-03,2.57341e-02,4.47302e-02
2.00520e+03,6.02282e-01,-3.98196e+00,3.79032e-03,2.59963e-02,4.51862e-02
2.00520e+03,9.34067e-01,-2.65464e+00,3.83409e-03,2.62574e-02,4.56404e-02
2.00520e+03,1.26435e+00,-1.32732e+00,3.87860e-03,2.65173e-02,4.60927e-02
2.02480e+03,1.59367e+01,0.00000e+00,-9.89156e-04,1.37546e-02,2.38442e-02
2.02480e+03,1.58564e+01,-1.21102e+00,-1.03871e-03,1.36412e-02,2.36500e-02
2.02480e+03,1.57496e+01,-2.42204e+00,-1.08440e-03,1.35250e-02,2.34510e-02
2.02480e+03,1.56418e+01,-3.63306e+00,-1.12993e-03,1.34061e-02,2.32475e-02
2.02480e+03,1.55106e+01,-4.84408e+00,-1.17205e-03,1.32848e-02,2.30398e-02
2.02480e+03,1.53739e+01,-6.05509e+00,-1.21338e-03,1.31613e-02,2.28283e-02
2.02480e+03,1.52192e+01,-7.26611e+00,-1.25210e-03,1.30357e-02,2.26132e-02
2.02480e+03,1.50559e+01,-8.47713e+00,-1.28954e-03,1.29082e-02,2.23949e-02
2.02480e+03,1.48781e+01,-9.68815e+00,-1.32488e-03,1.27790e-02,2.21736e-02
2.02480e+03,1.46884e+01,-1.08992e+01,-1.35849e-03,1.26483e-02,2.19496e-02
2.02480e+03,1.44857e+01,-1.21102e+01,-1.39019e-03,1.25162e-02,2.17232e-02
2.02480e+03,1.42672e+01,-1.33212e+01,-1.41960e-03,1.23829e-02,2.14947e-02
2.02480e+03,1.40325e+01,-1.45322e+01,-1.44665e-03,1.22485e-02,2.12643e-02
2.02480e+03,1.37750e+01,-1.57432e+01,-1.47037e-03,1.21133e-02,2.10324e-02
2.02480e+03,1.34951e+01,-1.69543e+01,-1.49083e-03,1.19776e-02,2.07994e-02
2.02480e+03,1.31886e+01,-1.81653e+01,-1.50741e-03,1.18416e-02,2.05656e-02
2.02480e+03,1.28460e+01,-1.93763e+01,-1.51873e-03,1.17057e-02,2.03317e-02
2.02480e+03,1.24782e+01,-2.05873e+01,-1.52639e-03,1.15701e-02,2.00980e-02
2.02480e+03,1.20540e+01,-2.17983e+01,-1.52581e-03,1.14354e-02,1.98654e-02
2.02480e+03,1.16063e+01,-2.30094e+01,-1.52181e-03,1.13020e-02,1.96348e-02
2.02480e+03,1.10933e+01,-2.42204e+01,-1.50831e-03,1.11703e-02,1.94062e-02
2.02480e+03,1.05280e+01,-2.54314e+01,-1.48718e-03,1.10412e-02,1.91817e-02
2.02480e+03,9.90946e+00,-2.66424e+01,-1.45829e-03,1.09151e-02,1.89617e-02
2.02480e+03,9.20158e+00,-2.78534e+01,-1.41638e-03,1.07924e-02,1.87466e-02
2.02480e+03,8.39019e+00,-2.90645e+01,-1.35938e-03,1.06746e-02,1.85389e-02
2.02480e+03,7.46181e+00,-3.02755e+01,-1.28534e-03,1.05631e-02,1.83410e-02
2.02480e+03,6.36374e+00,-3.14865e+01,-1.18657e-03,1.04589e-02,1.81542e-02
2.02480e+03,4.95429e+00,-3.26975e+01,-1.04242e-03,1.03670e-02,1.79864e-02
2.02480e+03,3.04806e+00,-3.39085e+01,-8.25874e-04,1.03108e-02,1.78780e-02
2.02480e+03,-1.23505e+00,-3.51195e+01,-2.62948e-04,1.03331e-02,1.78994e-02
2.02480e+03,-1.54416e+00,-3.51224e+01,-2.18044e-04,1.04022e-02,1.80184e-02
2.02480e+03,-4.36041e+00,-3.38680e+01,2.55807e-04,1.05332e-02,1.82459e-02
2.02480e+03,-4.70139e+00,-3.26136e+01,3.68938e-04,1.06300e-02,1.84154e-02
2.02480e+03,-4.81905e+00,-3.13592e+01,4.49527e-04,1.07319e-02,1.85936e-02
2.02480e+03,-4.83691e+00,-3.01049e+01,5.15570e-04,1.08385e-02,1.87799e-02
2.02480e+03,-4.77957e+00,-2.88505e+01,5.70654e-04,1.09490e-02,1.89728e-02
2.02480e+03,-4.67504e+00,-2.75961e+01,6.18863e-04,1.10627e-02,1.91711e-02
2.02480e+03,-4.52312e+00,-2.63418e+01,6.60166e-04,1.11790e-02,1.93738e-02
2.02480e+03,-4.34231e+00,-2.50874e+01,6.97257e-04,1.12973e-02,1.95799e-02
2.02480e+03,-4.14473e+00,-2.38330e+01,7.31904e-04,1.14173e-02,1.97889e-02
2.02480e+03,-3.92189e+00,-2.25787e+01,7.62872e-04,1.15387e-02,2.00002e-02
2.02480e+03,-3.68327e+00,-2.13243e+01,7.91539e-04,1.16611e-02,2.02132e-02
2.02480e+03,-3.42927e+00,-2.00699e+01,8.17966e-04,1.17843e-02,2.04275e-02
2.02480e+03,-3.15997e+00,-1.88155e+01,8.42162e-04,1.19081e-02,2.06426e-02
2.02480e+03,-2.88106e+00,-1.75612e+01,8.64958e-04,1.20322e-02,2.08583e-02
2.02480e+03,-2.58986e+00,-1.63068e+01,8.85963e-04,1.21564e-02,2.10742e-02
2.02480e+03,-2.29078e+00,-1.50524e+01,9.05820e-04,1.22806e-02,2.12900e-02
2.02480e+03,-1.98465e+00,-1.37981e+01,9.24647e-04,1.24046e-02,2.15054e-02
2.02480e+03,-1.67220e+00,-1.25437e+01,9.42557e-04,1.25283e-02,2.17202e-02
2.02480e+03,-1.35709e+00,-1.12893e+01,9.60077e-04,1.26516e-02,2.19343e-02
2.02480e+03,-1.03784e+00,-1.00350e+01,9.76995e-04,1.27744e-02,2.21475e-02
2.02480e+03,-7.17909e-01,-8.78059e+00,9.93812e-04,1.28967e-02,2.23598e-02
2.02480e+03,-3.95503e-01,-7.52622e+00,1.01027e-03,1.30184e-02,2.25711e-02
2.02480e+03,-7.31298e-02,-6.27185e+00,1.02673e-03,1.31395e-02,2.27814e-02
2.02480e+03,2.48025e-01,-5.01748e+00,1.04337e-03,1.32600e-02,2.29907e-02
2.02480e+03,5.69180e-01,-3.76311e+00,1.06001e-03,1.33798e-02,2.31988e-02
2.02480e+03,8.82730e-01,-2.50874e+00,1.07776e-03,1.34991e-02,2.34060e-02
2.02480e+03,1.19486e+00,-1.25437e+00,1.09571e-03,1.36179e-02,2.36123e-02
2.03880e+03,1.52746e+01,0.00000e+00,-1.65655e-04,5.27528e-03,9.13855e-03
2.03880e+03,1.51977e+01,-1.16071e+00,-1.75776e-04,5.23783e-03,9.07390e-03
2.03880e+03,1.50954e+01,-2.32142e+00,-1.85235e-04,5.19948e-03,9.00766e-03
2.03880e+03,1.49920e+01,-3.48213e+00,-1.94667e-04,5.16025e-03,8.93993e-03
2.03880e+03,1.48662e+01,-4.64285e+00,-2.03514e-04,5.12022e-03,8.87082e-03
2.03880e+03,1.47352e+01,-5.80356e+00,-2.12226e-04,5.07945e-03,8.80043e-03
2.03880e+03,1.45870e+01,-6.96427e+00,-2.20488e-04,5.03800e-03,8.72886e-03
2.03880e+03,1.44304e+01,-8.12498e+00,-2.28532e-04,4.99593e-03,8.65622e-03
2.03880e+03,1.42600e+01,-9.28569e+00,-2.36215e-04,4.95328e-03,8.58259e-03
2.03880e+03,1.40782e+01,-1.04464e+01,-2.43603e-04,4.91013e-03,8.50809e-03
2.03880e+03,1.38839e+01,-1.16071e+01,-2.50663e-04,4.86653e-03,8.43280e-03
2.03880e+03,1.36745e+01,-1.27678e+01,-2.57330e-04,4.82252e-03,8.35682e-03
2.03880e+03,1.34496e+01,-1.39285e+01,-2.63592e-04,4.77818e-03,8.28025e-03
2.03880e+03,1.32028e+01,-1.50892e+01,-2.69282e-04,4.73357e-03,8.20321e-03
2.03880e+03,1.29345e+01,-1.62500e+01,-2.74415e-04,4.68879e-03,8.12586e-03
2.03880e+03,1.26407e+01,-1.74107e+01,-2.78881e-04,4.64390e-03,8.04830e-03
2.03880e+03,1.23123e+01,-1.85714e+01,-2.82444e-04,4.59905e-03,7.97080e-03
2.03880e+03,1.19599e+01,-1.97321e+01,-2.85380e-04,4.55429e-03,7.89342e-03
2.03880e+03,1.15532e+01,-2.08928e+01,-2.86903e-04,4.50985e-03,7.81655e-03
2.03880e+03,1.11241e+01,-2.20535e+01,-2.87841e-04,4.46583e-03,7.74039e-03
2.03880e+03,1.06324e+01,-2.32142e+01,-2.87146e-04,4.42234e-03,7.66510e-03
2.03880e+03,1.00906e+01,-2.43749e+01,-2.85145e-04,4.37975e-03,7.59131e-03
2.03880e+03,9.49781e+00,-2.55357e+01,-2.81812e-04,4.33814e-03,7.51916e-03
2.03880e+03,8.81933e+00,-2.66964e+01,-2.76247e-04,4.29765e-03,7.44887e-03
2.03880e+03,8.04165e+00,-2.78571e+01,-2.68094e-04,4.25878e-03,7.38129e-03
2.03880e+03,7.15183e+00,-2.90178e+01,-2.57017e-04,4.22199e-03,7.31721e-03
2.03880e+03,6.09938e+00,-3.01785e+01,-2.41698e-04,4.18759e-03,7.25714e-03
2.03880e+03,4.74849e+00,-3.13392e+01,-2.18597e-04,4.15726e-03,7.20390e-03
2.03880e+03,2.92144e+00,-3.24999e+01,-1.83079e-04,4.13873e-03,7.17083e-03
2.03880e+03,-1.18374e+00,-3.36606e+01,-8.81516e-05,4.14608e-03,7.18176e-03
2.03880e+03,-1.48002e+00,-3.36633e+01,-8.04536e-05,4.16889e-03,7.22117e-03
2.03880e+03,-4.17927e+00,-3.24611e+01,2.49929e-06,4.21213e-03,7.29563e-03
2.03880e+03,-4.50609e+00,-3.12588e+01,2.35837e-05,4.24408e-03,7.35101e-03
2.03880e+03,-4.61886e+00,-3.00565e+01,3.90863e-05,4.27771e-03,7.40931e-03
2.03880e+03,-4.63598e+00,-2.88543e+01,5.20942e-05,4.31289e-03,7.47032e-03
2.03880e+03,-4.58102e+00,-2.76520e+01,6.32227e-05,4.34935e-03,7.53356e-03
2.03880e+03,-4.48083e+00,-2.64498e+01,7.31716e-05,4.38688e-03,7.59865e-03
2.03880e+03,-4.33523e+00,-2.52475e+01,8.19363e-05,4.42526e-03,7.66522e-03
2.03880e+03,-4.16192e+00,-2.40452e+01,8.99785e-05,4.46431e-03,7.73293e-03
2.03880e+03,-3.97255e+00,-2.28430e+01,9.76017e-05,4.50391e-03,7.80161e-03
2.03880e+03,-3.75897e+00,-2.16407e+01,1.04594e-04,4.54397e-03,7.87108e-03
2.03880e+03,-3.53026e+00,-2.04384e+01,1.11191e-04,4.58437e-03,7.94114e-03
2.03880e+03,-3.28682e+00,-1.92362e+01,1.17404e-04,4.62504e-03,8.01166e-03
2.03880e+03,-3.02870e+00,-1.80339e+01,1.23235e-04,4.66588e-03,8.08249e-03
2.03880e+03,-2.76138e+00,-1.68317e+01,1.28825e-04,4.70684e-03,8.15350e-03
2.03880e+03,-2.48228e+00,-1.56294e+01,1.34108e-04,4.74783e-03,8.22458e-03
2.03880e+03,-2.19562e+00,-1.44271e+01,1.39195e-04,4.78882e-03,8.29564e-03
2.03880e+03,-1.90220e+00,-1.32249e+01,1.44105e-04,4.82974e-03,8.36660e-03
2.03880e+03,-1.60274e+00,-1.20226e+01,1.48857e-04,4.87056e-03,8.43737e-03
2.03880e+03,-1.30072e+00,-1.08204e+01,1.53542e-04,4.91124e-03,8.50790e-03
2.03880e+03,-9.94731e-01,-9.61809e+00,1.58125e-04,4.95176e-03,8.57816e-03
2.03880e+03,-6.88086e-01,-8.41583e+00,1.62690e-04,4.99211e-03,8.64812e-03
2.03880e+03,-3.79073e-01,-7.21357e+00,1.67193e-04,5.03227e-03,8.71775e-03
2.03880e+03,-7.00919e-02,-6.01131e+00,1.71697e-04,5.07223e-03,8.78704e-03
2.03880e+03,2.37722e-01,-4.80905e+00,1.76231e-04,5.11199e-03,8.85599e-03
2.03880e+03,5.45535e-01,-3.60678e+00,1.80766e-04,5.15154e-03,8.92456e-03
2.03880e+03,8.46060e-01,-2.40452e+00,1.85490e-04,5.19090e-03,8.99282e-03
2.03880e+03,1.14523e+00,-1.20226e+00,1.90251e-04,5.23009e-03,9.06078e-03
2.04720e+03,1.48774e+01,0.00000e+00,-1.89964e-05,1.02108e-03,1.76867e-03
2.04720e+03,1.48025e+01,-1.13053e+00,-2.05617e-05,1.01560e-03,1.75920e-03
2.04720e+03,1.47028e+01,-2.26105e+00,-2.20474e-05,1.00999e-03,1.74949e-03
2.04720e+03,1.46021e+01,-3.39158e+00,-2.35299e-05,1.00425e-03,1.73957e-03
2.04720e+03,1.44796e+01,-4.52211e+00,-2.49422e-05,9.98389e-04,1.72944e-03
2.04720e+03,1.43520e+01,-5.65264e+00,-2.63383e-05,9.92422e-04,1.71913e-03
2.04720e+03,1.42077e+01,-6.78316e+00,-2.76804e-05,9.86355e-04,1.70864e-03
2.04720e+03,1.40552e+01,-7.91369e+00,-2.89963e-05,9.80197e-04,1.69800e-03
2.04720e+03,1.38892e+01,-9.04422e+00,-3.02690e-05,9.73955e-04,1.68721e-03
2.04720e+03,1.37121e+01,-1.01747e+01,-3.15061e-05,9.67640e-04,1.67630e-03
2.04720e+03,1.35229e+01,-1.13053e+01,-3.27040e-05,9.61258e-04,1.66527e-03
2.04720e+03,1.33189e+01,-1.24358e+01,-3.38546e-05,9.54817e-04,1.65414e-03
2.04720e+03,1.30998e+01,-1.35663e+01,-3.49567e-05,9.48327e-04,1.64292e-03
2.04720e+03,1.28594e+01,-1.46969e+01,-3.59901e-05,9.41799e-04,1.63164e-03
2.04720e+03,1.25982e+01,-1.58274e+01,-3.69566e-05,9.35244e-04,1.62031e-03
2.04720e+03,1.23120e+01,-1.69579e+01,-3.78431e-05,9.28674e-04,1.60896e-03
2.04720e+03,1.19922e+01,-1.80884e+01,-3.86213e-05,9.22111e-04,1.59761e-03
2.04720e+03,1.16489e+01,-1.92190e+01,-3.93241e-05,9.15559e-04,1.58628e-03
2.04720e+03,1.12528e+01,-2.03495e+01,-3.98574e-05,9.09054e-04,1.57503e-03
2.04720e+03,1.08348e+01,-2.14800e+01,-4.03204e-05,9.02612e-04,1.56389e-03
2.04720e+03,1.03559e+01,-2.26105e+01,-4.05876e-05,8.96247e-04,1.55288e-03
2.04720e+03,9.82823e+00,-2.37411e+01,-4.06978e-05,8.90015e-04,1.54209e-03
2.04720e+03,9.25081e+00,-2.48716e+01,-4.06484e-05,8.83924e-04,1.53154e-03
2.04720e+03,8.58998e+00,-2.60021e+01,-4.03309e-05,8.77998e-04,1.52127e-03
2.04720e+03,7.83252e+00,-2.71326e+01,-3.97029e-05,8.72309e-04,1.51141e-03
2.04720e+03,6.96585e+00,-2.82632e+01,-3.87239e-05,8.66925e-04,1.50206e-03
2.04720e+03,5.94077e+00,-2.93937e+01,-3.72359e-05,8.61891e-04,1.49330e-03
2.04720e+03,4.62500e+00,-3.05242e+01,-3.48138e-05,8.57452e-04,1.48556e-03
2.04720e+03,2.84547e+00,-3.16548e+01,-3.09015e-05,8.54742e-04,1.48078e-03
2.04720e+03,-1.15296e+00,-3.27853e+01,-1.98588e-05,8.55817e-04,1.48245e-03
2.04720e+03,-1.44153e+00,-3.27879e+01,-1.89357e-05,8.59155e-04,1.48822e-03
2.04720e+03,-4.07059e+00,-3.16169e+01,-8.61677e-06,8.65485e-04,1.49909e-03
2.04720e+03,-4.38891e+00,-3.04459e+01,-5.72320e-06,8.70162e-04,1.50718e-03
2.04720e+03,-4.49875e+00,-2.92749e+01,-3.49955e-06,8.75083e-04,1.51569e-03
2.04720e+03,-4.51542e+00,-2.81039e+01,-1.57531e-06,8.80232e-04,1.52461e-03
2.04720e+03,-4.46189e+00,-2.69329e+01,1.23354e-07,8.85568e-04,1.53385e-03
2.04720e+03,-4.36430e+00,-2.57619e+01,1.68046e-06,8.91061e-04,1.54336e-03
2.04720e+03,-4.22249e+00,-2.45909e+01,3.09542e-06,8.96679e-04,1.55310e-03
2.04720e+03,-4.05369e+00,-2.34199e+01,4.42368e-06,9.02393e-04,1.56300e-03
2.04720e+03,-3.86924e+00,-2.22489e+01,5.70165e-06,9.08190e-04,1.57304e-03
2.04720e+03,-3.66121e+00,-2.10779e+01,6.90386e-06,9.14052e-04,1.58320e-03
2.04720e+03,-3.43845e+00,-1.99069e+01,8.05872e-06,9.19965e-04,1.59345e-03
2.04720e+03,-3.20134e+00,-1.87359e+01,9.16746e-06,9.25917e-04,1.60376e-03
2.04720e+03,-2.94994e+00,-1.75649e+01,1.02303e-05,9.31895e-04,1.61412e-03
2.04720e+03,-2.68957e+00,-1.63940e+01,1.12643e-05,9.37888e-04,1.62451e-03
2.04720e+03,-2.41772e+00,-1.52230e+01,1.22614e-05,9.43889e-04,1.63491e-03
2.04720e+03,-2.13852e+00,-1.40520e+01,1.32349e-05,9.49887e-04,1.64530e-03
2.04720e+03,-1.85273e+00,-1.28810e+01,1.41872e-05,9.55876e-04,1.65569e-03
2.04720e+03,-1.56106e+00,-1.17100e+01,1.51206e-05,9.61849e-04,1.66604e-03
2.04720e+03,-1.26689e+00,-1.05390e+01,1.60460e-05,9.67803e-04,1.67636e-03
2.04720e+03,-9.68863e-01,-9.36797e+00,1.69590e-05,9.73733e-04,1.68664e-03
2.04720e+03,-6.70192e-01,-8.19698e+00,1.78699e-05,9.79638e-04,1.69688e-03
2.04720e+03,-3.69215e-01,-7.02598e+00,1.87734e-05,9.85516e-04,1.70707e-03
2.04720e+03,-6.82691e-02,-5.85498e+00,1.96770e-05,9.91364e-04,1.71720e-03
2.04720e+03,2.31540e-01,-4.68399e+00,2.05843e-05,9.97183e-04,1.72729e-03
2.04720e+03,5.31348e-01,-3.51299e+00,2.14916e-05,1.00297e-03,1.73733e-03
2.04720e+03,8.24058e-01,-2.34199e+00,2.24217e-05,1.00873e-03,1.74732e-03
2.04720e+03,1.11544e+00,-1.17100e+00,2.33560e-05,1.01447e-03,1.75726e-03
2.05000e+03,1.47450e+01,0.00000e+00,0.00000e+00,0.00000e+00,0.00000e+00
2.05000e+03,1.46708e+01,-1.12047e+00,0.00000e+00,0.00000e+00,0.00000e+00
2.05000e+03,1.45720e+01,-2.24093e+00,0.00000e+00,0.00000e+00,0.00000e+00
2.05000e+03,1.44722e+01,-3.36140e+00,0.00000e+00,0.00000e+00,0.00000e+00
2.05000e+03,1.43508e+01,-4.48186e+00,0.00000e+00,0.00000e+00,0.00000e+00
2.05000e+03,1.42243e+01,-5.60233e+00,0.00000e+00,0.00000e+00,0.00000e+00
2.05000e+03,1.40812e+01,-6.72279e+00,0.00000e+00,0.00000e+00,0.00000e+00
2.05000e+03,1.39301e+01,-7.84326e+00,0.00000e+00,0.00000e+00,0.00000e+00
2.05000e+03,1.37656e+01,-8.96372e+00,0.00000e+00,0.00000e+00,0.00000e+00
2.05000e+03,1.35901e+01,-1.00842e+01,0.00000e+00,0.00000e+00,0.00000e+00
2.05000e+03,1.34025e+01,-1.12047e+01,0.00000e+00,0.00000e+00,0.00000e+00
2.05000e+03,1.32004e+01,-1.23251e+01,0.00000e+00,0.00000e+00,0.00000e+00
2.05000e+03,1.29833e+01,-1.34456e+01,0.00000e+00,0.00000e+00,0.00000e+00
2.05000e+03,1.27450e+01,-1.45661e+01,0.00000e+00,0.00000e+00,0.00000e+00
2.05000e+03,1.24860e+01,-1.56865e+01,0.00000e+00,0.00000e+00,0.00000e+00
2.05000e+03,1.22024e+01,-1.68070e+01,0.00000e+00,0.00000e+00,0.00000e+00
2.05000e+03,1.18854e+01,-1.79274e+01,0.00000e+00,0.00000e+00,0.00000e+00
2.05000e+03,1.15452e+01,-1.90479e+01,0.00000e+00,0.00000e+00,0.00000e+00
2.05000e+03,1.11526e+01,-2.01684e+01,0.00000e+00,0.00000e+00,0.00000e+00
2.05000e+03,1.07384e+01,-2.12888e+01,0.00000e+00,0.00000e+00,0.00000e+00
2.05000e+03,1.02638e+01,-2.24093e+01,0.00000e+00,0.00000e+00,0.00000e+00
2.05000e+03,9.74076e+00,-2.35298e+01,0.00000e+00,0.00000e+00,0.00000e+00
2.05000e+03,9.16848e+00,-2.46502e+01,0.00000e+00,0.00000e+00,0.00000e+00
2.05000e+03,8.51353e+00,-2.57707e+01,0.00000e+00,0.00000e+00,0.00000e+00
2.05000e+03,7.76281e+00,-2.68912e+01,0.00000e+00,0.00000e+00,0.00000e+00
2.05000e+03,6.90385e+00,-2.80116e+01,0.00000e+00,0.00000e+00,0.00000e+00
2.05000e+03,5.88790e+00,-2.91321e+01,0.00000e+00,0.00000e+00,0.00000e+00
2.05000e+03,4.58384e+00,-3.02526e+01,0.00000e+00,0.00000e+00,0.00000e+00
2.05000e+03,2.82014e+00,-3.13730e+01,0.00000e+00,0.00000e+00,0.00000e+00
2.05000e+03,-1.14270e+00,-3.24935e+01,0.00000e+00,0.00000e+00,0.00000e+00
2.05000e+03,-1.42870e+00,-3.24961e+01,0.00000e+00,0.00000e+00,0.00000e+00
2.05000e+03,-4.03436e+00,-3.13355e+01,0.00000e+00,0.00000e+00,0.00000e+00
2.05000e+03,-4.34985e+00,-3.01749e+01,0.00000e+00,0.00000e+00,0.00000e+00
2.05000e+03,-4.45871e+00,-2.90144e+01,0.00000e+00,0.00000e+00,0.00000e+00
2.05000e+03,-4.47523e+00,-2.78538e+01,0.00000e+00,0.00000e+00,0.00000e+00
2.05000e+03,-4.42218e+00,-2.66932e+01,0.00000e+00,0.00000e+00,0.00000e+00
2.05000e+03,-4.32546e+00,-2.55327e+01,0.00000e+00,0.00000e+00,0.00000e+00
2.05000e+03,-4.18491e+00,-2.43721e+01,0.00000e+00,0.00000e+00,0.00000e+00
2.05000e+03,-4.01761e+00,-2.32115e+01,0.00000e+00,0.00000e+00,0.00000e+00
2.05000e+03,-3.83480e+00,-2.20509e+01,0.00000e+00,0.00000e+00,0.00000e+00
2.05000e+03,-3.62863e+00,-2.08903e+01,0.00000e+00,0.00000e+00,0.00000e+00
2.05000e+03,-3.40785e+00,-1.97298e+01,0.00000e+00,0.00000e+00,0.00000e+00
2.05000e+03,-3.17285e+00,-1.85692e+01,0.00000e+00,0.00000e+00,0.00000e+00
2.05000e+03,-2.92368e+00,-1.74086e+01,0.00000e+00,0.00000e+00,0.00000e+00
2.05000e+03,-2.66563e+00,-1.62480e+01,0.00000e+00,0.00000e+00,0.00000e+00
2.05000e+03,-2.39621e+00,-1.50875e+01,0.00000e+00,0.00000e+00,0.00000e+00
2.05000e+03,-2.11949e+00,-1.39269e+01,0.00000e+00,0.00000e+00,0.00000e+00
2.05000e+03,-1.83624e+00,-1.27663e+01,0.00000e+00,0.00000e+00,0.00000e+00
2.05000e+03,-1.54717e+00,-1.16057e+01,0.00000e+00,0.00000e+00,0.00000e+00
2.05000e+03,-1.25562e+00,-1.04452e+01,0.00000e+00,0.00000e+00,0.00000e+00
2.05000e+03,-9.60241e-01,-9.28460e+00,0.00000e+00,0.00000e+00,0.00000e+00
2.05000e+03,-6.64227e-01,-8.12402e+00,0.00000e+00,0.00000e+00,0.00000e+00
2.05000e+03,-3.65929e-01,-6.96345e+00,0.00000e+00,0.00000e+00,0.00000e+00
2.05000e+03,-6.76615e-02,-5.80287e+00,0.00000e+00,0.00000e+00,0.00000e+00
2.05000e+03,2.29479e-01,-4.64230e+00,0.00000e+00,0.00000e+00,0.00000e+00
2.05000e+03,5.26620e-01,-3.48173e+00,0.00000e+00,0.00000e+00,0.00000e+00
2.05000e+03,8.16724e-01,-2.32115e+00,0.00000e+00,0.00000e+00,0.00000e+00
2.05000e+03,1.10552e+00,-1.16058e+00,0.00000e+00,0.00000e+00,0.00000e+00
--------------------------------------------------------------------------------------------------------------------------------------------------------------------------------------------------------------------------------------------------------------------------------------------------------------------------------------------------------------------------------

LAMINADO 
--------------------------------------------------------------------------------------------------------------------------------------------------------------------------------------------------------------------------------------------------------------------------------------------------------------------------------------------------------------------------------
X,Y,Z,Sigma,Tau,Von Mises
0.00000e+00,4.31008e+01,0.00000e+00,0.00000e+00,0.00000e+00,0.00000e+00
0.00000e+00,4.28837e+01,-3.27521e+00,0.00000e+00,0.00000e+00,0.00000e+00
0.00000e+00,4.25950e+01,-6.55041e+00,0.00000e+00,0.00000e+00,0.00000e+00
0.00000e+00,4.23033e+01,-9.82562e+00,0.00000e+00,0.00000e+00,0.00000e+00
0.00000e+00,4.19484e+01,-1.31008e+01,0.00000e+00,0.00000e+00,0.00000e+00
0.00000e+00,4.15787e+01,-1.63760e+01,0.00000e+00,0.00000e+00,0.00000e+00
0.00000e+00,4.11605e+01,-1.96512e+01,0.00000e+00,0.00000e+00,0.00000e+00
0.00000e+00,4.07187e+01,-2.29264e+01,0.00000e+00,0.00000e+00,0.00000e+00
0.00000e+00,4.02378e+01,-2.62017e+01,0.00000e+00,0.00000e+00,0.00000e+00
0.00000e+00,3.97249e+01,-2.94769e+01,0.00000e+00,0.00000e+00,0.00000e+00
0.00000e+00,3.91766e+01,-3.27521e+01,0.00000e+00,0.00000e+00,0.00000e+00
0.00000e+00,3.85857e+01,-3.60273e+01,0.00000e+00,0.00000e+00,0.00000e+00
0.00000e+00,3.79511e+01,-3.93025e+01,0.00000e+00,0.00000e+00,0.00000e+00
0.00000e+00,3.72545e+01,-4.25777e+01,0.00000e+00,0.00000e+00,0.00000e+00
0.00000e+00,3.64976e+01,-4.58529e+01,0.00000e+00,0.00000e+00,0.00000e+00
0.00000e+00,3.56687e+01,-4.91281e+01,0.00000e+00,0.00000e+00,0.00000e+00
0.00000e+00,3.47420e+01,-5.24033e+01,0.00000e+00,0.00000e+00,0.00000e+00
0.00000e+00,3.37474e+01,-5.56785e+01,0.00000e+00,0.00000e+00,0.00000e+00
0.00000e+00,3.26000e+01,-5.89537e+01,0.00000e+00,0.00000e+00,0.00000e+00
0.00000e+00,3.13892e+01,-6.22289e+01,0.00000e+00,0.00000e+00,0.00000e+00
0.00000e+00,3.00018e+01,-6.55041e+01,0.00000e+00,0.00000e+00,0.00000e+00
0.00000e+00,2.84730e+01,-6.87793e+01,0.00000e+00,0.00000e+00,0.00000e+00
0.00000e+00,2.68002e+01,-7.20546e+01,0.00000e+00,0.00000e+00,0.00000e+00
0.00000e+00,2.48857e+01,-7.53298e+01,0.00000e+00,0.00000e+00,0.00000e+00
0.00000e+00,2.26913e+01,-7.86050e+01,0.00000e+00,0.00000e+00,0.00000e+00
0.00000e+00,2.01805e+01,-8.18802e+01,0.00000e+00,0.00000e+00,0.00000e+00
0.00000e+00,1.72108e+01,-8.51554e+01,0.00000e+00,0.00000e+00,0.00000e+00
0.00000e+00,1.33989e+01,-8.84306e+01,0.00000e+00,0.00000e+00,0.00000e+00
0.00000e+00,8.24350e+00,-9.17058e+01,0.00000e+00,0.00000e+00,0.00000e+00
0.00000e+00,-3.34020e+00,-9.49810e+01,0.00000e+00,0.00000e+00,0.00000e+00
0.00000e+00,-4.17620e+00,-9.49886e+01,0.00000e+00,0.00000e+00,0.00000e+00
0.00000e+00,-1.17928e+01,-9.15961e+01,0.00000e+00,0.00000e+00,0.00000e+00
0.00000e+00,-1.27149e+01,-8.82037e+01,0.00000e+00,0.00000e+00,0.00000e+00
0.00000e+00,-1.30332e+01,-8.48113e+01,0.00000e+00,0.00000e+00,0.00000e+00
0.00000e+00,-1.30814e+01,-8.14188e+01,0.00000e+00,0.00000e+00,0.00000e+00
0.00000e+00,-1.29264e+01,-7.80264e+01,0.00000e+00,0.00000e+00,0.00000e+00
0.00000e+00,-1.26437e+01,-7.46339e+01,0.00000e+00,0.00000e+00,0.00000e+00
0.00000e+00,-1.22328e+01,-7.12415e+01,0.00000e+00,0.00000e+00,0.00000e+00
0.00000e+00,-1.17438e+01,-6.78490e+01,0.00000e+00,0.00000e+00,0.00000e+00
0.00000e+00,-1.12094e+01,-6.44565e+01,0.00000e+00,0.00000e+00,0.00000e+00
0.00000e+00,-1.06068e+01,-6.10641e+01,0.00000e+00,0.00000e+00,0.00000e+00
0.00000e+00,-9.96142e+00,-5.76716e+01,0.00000e+00,0.00000e+00,0.00000e+00
0.00000e+00,-9.27449e+00,-5.42792e+01,0.00000e+00,0.00000e+00,0.00000e+00
0.00000e+00,-8.54615e+00,-5.08867e+01,0.00000e+00,0.00000e+00,0.00000e+00
0.00000e+00,-7.79185e+00,-4.74943e+01,0.00000e+00,0.00000e+00,0.00000e+00
0.00000e+00,-7.00429e+00,-4.41018e+01,0.00000e+00,0.00000e+00,0.00000e+00
0.00000e+00,-6.19544e+00,-4.07094e+01,0.00000e+00,0.00000e+00,0.00000e+00
0.00000e+00,-5.36748e+00,-3.73169e+01,0.00000e+00,0.00000e+00,0.00000e+00
0.00000e+00,-4.52248e+00,-3.39245e+01,0.00000e+00,0.00000e+00,0.00000e+00
0.00000e+00,-3.67026e+00,-3.05320e+01,0.00000e+00,0.00000e+00,0.00000e+00
0.00000e+00,-2.80686e+00,-2.71396e+01,0.00000e+00,0.00000e+00,0.00000e+00
0.00000e+00,-1.94159e+00,-2.37472e+01,0.00000e+00,0.00000e+00,0.00000e+00
0.00000e+00,-1.06964e+00,-2.03547e+01,0.00000e+00,0.00000e+00,0.00000e+00
0.00000e+00,-1.97780e-01,-1.69622e+01,0.00000e+00,0.00000e+00,0.00000e+00
0.00000e+00,6.70785e-01,-1.35698e+01,0.00000e+00,0.00000e+00,0.00000e+00
0.00000e+00,1.53935e+00,-1.01774e+01,0.00000e+00,0.00000e+00,0.00000e+00
0.00000e+00,2.38735e+00,-6.78490e+00,0.00000e+00,0.00000e+00,0.00000e+00
0.00000e+00,3.23151e+00,-3.39245e+00,0.00000e+00,0.00000e+00,0.00000e+00
1.07300e+02,4.26785e+01,0.00000e+00,0.00000e+00,0.00000e+00,0.00000e+00
1.07300e+02,4.24636e+01,-3.24312e+00,0.00000e+00,0.00000e+00,0.00000e+00
1.07300e+02,4.21777e+01,-6.48624e+00,0.00000e+00,0.00000e+00,0.00000e+00
1.07300e+02,4.18889e+01,-9.72936e+00,0.00000e+00,0.00000e+00,0.00000e+00
1.07300e+02,4.15374e+01,-1.29725e+01,0.00000e+00,0.00000e+00,0.00000e+00
1.07300e+02,4.11714e+01,-1.62156e+01,0.00000e+00,0.00000e+00,0.00000e+00
1.07300e+02,4.07572e+01,-1.94587e+01,0.00000e+00,0.00000e+00,0.00000e+00
1.07300e+02,4.03197e+01,-2.27018e+01,0.00000e+00,0.00000e+00,0.00000e+00
1.07300e+02,3.98436e+01,-2.59450e+01,0.00000e+00,0.00000e+00,0.00000e+00
1.07300e+02,3.93357e+01,-2.91881e+01,0.00000e+00,0.00000e+00,0.00000e+00
1.07300e+02,3.87928e+01,-3.24312e+01,0.00000e+00,0.00000e+00,0.00000e+00
1.07300e+02,3.82077e+01,-3.56743e+01,0.00000e+00,0.00000e+00,0.00000e+00
1.07300e+02,3.75793e+01,-3.89174e+01,0.00000e+00,0.00000e+00,0.00000e+00
1.07300e+02,3.68895e+01,-4.21606e+01,0.00000e+00,0.00000e+00,0.00000e+00
1.07300e+02,3.61401e+01,-4.54037e+01,0.00000e+00,0.00000e+00,0.00000e+00
1.07300e+02,3.53192e+01,-4.86468e+01,0.00000e+00,0.00000e+00,0.00000e+00
1.07300e+02,3.44016e+01,-5.18899e+01,0.00000e+00,0.00000e+00,0.00000e+00
1.07300e+02,3.34168e+01,-5.51330e+01,0.00000e+00,0.00000e+00,0.00000e+00
1.07300e+02,3.22806e+01,-5.83762e+01,0.00000e+00,0.00000e+00,0.00000e+00
1.07300e+02,3.10816e+01,-6.16193e+01,0.00000e+00,0.00000e+00,0.00000e+00
1.07300e+02,2.97079e+01,-6.48624e+01,0.00000e+00,0.00000e+00,0.00000e+00
1.07300e+02,2.81940e+01,-6.81055e+01,0.00000e+00,0.00000e+00,0.00000e+00
1.07300e+02,2.65376e+01,-7.13486e+01,0.00000e+00,0.00000e+00,0.00000e+00
1.07300e+02,2.46419e+01,-7.45918e+01,0.00000e+00,0.00000e+00,0.00000e+00
1.07300e+02,2.24690e+01,-7.78349e+01,0.00000e+00,0.00000e+00,0.00000e+00
1.07300e+02,1.99828e+01,-8.10780e+01,0.00000e+00,0.00000e+00,0.00000e+00
1.07300e+02,1.70422e+01,-8.43211e+01,0.00000e+00,0.00000e+00,0.00000e+00
1.07300e+02,1.32676e+01,-8.75642e+01,0.00000e+00,0.00000e+00,0.00000e+00
1.07300e+02,8.16273e+00,-9.08074e+01,0.00000e+00,0.00000e+00,0.00000e+00
1.07300e+02,-3.30748e+00,-9.40505e+01,0.00000e+00,0.00000e+00,0.00000e+00
1.07300e+02,-4.13529e+00,-9.40580e+01,0.00000e+00,0.00000e+00,0.00000e+00
1.07300e+02,-1.16772e+01,-9.06988e+01,0.00000e+00,0.00000e+00,0.00000e+00
1.07300e+02,-1.25904e+01,-8.73396e+01,0.00000e+00,0.00000e+00,0.00000e+00
1.07300e+02,-1.29055e+01,-8.39804e+01,0.00000e+00,0.00000e+00,0.00000e+00
1.07300e+02,-1.29533e+01,-8.06211e+01,0.00000e+00,0.00000e+00,0.00000e+00
1.07300e+02,-1.27997e+01,-7.72619e+01,0.00000e+00,0.00000e+00,0.00000e+00
1.07300e+02,-1.25198e+01,-7.39027e+01,0.00000e+00,0.00000e+00,0.00000e+00
1.07300e+02,-1.21130e+01,-7.05435e+01,0.00000e+00,0.00000e+00,0.00000e+00
1.07300e+02,-1.16287e+01,-6.71843e+01,0.00000e+00,0.00000e+00,0.00000e+00
1.07300e+02,-1.10996e+01,-6.38251e+01,0.00000e+00,0.00000e+00,0.00000e+00
1.07300e+02,-1.05029e+01,-6.04659e+01,0.00000e+00,0.00000e+00,0.00000e+00
1.07300e+02,-9.86382e+00,-5.71066e+01,0.00000e+00,0.00000e+00,0.00000e+00
1.07300e+02,-9.18363e+00,-5.37474e+01,0.00000e+00,0.00000e+00,0.00000e+00
1.07300e+02,-8.46243e+00,-5.03882e+01,0.00000e+00,0.00000e+00,0.00000e+00
1.07300e+02,-7.71552e+00,-4.70290e+01,0.00000e+00,0.00000e+00,0.00000e+00
1.07300e+02,-6.93567e+00,-4.36698e+01,0.00000e+00,0.00000e+00,0.00000e+00
1.07300e+02,-6.13474e+00,-4.03106e+01,0.00000e+00,0.00000e+00,0.00000e+00
1.07300e+02,-5.31490e+00,-3.69514e+01,0.00000e+00,0.00000e+00,0.00000e+00
1.07300e+02,-4.47818e+00,-3.35921e+01,0.00000e+00,0.00000e+00,0.00000e+00
1.07300e+02,-3.63431e+00,-3.02329e+01,0.00000e+00,0.00000e+00,0.00000e+00
1.07300e+02,-2.77936e+00,-2.68737e+01,0.00000e+00,0.00000e+00,0.00000e+00
1.07300e+02,-1.92257e+00,-2.35145e+01,0.00000e+00,0.00000e+00,0.00000e+00
1.07300e+02,-1.05916e+00,-2.01553e+01,0.00000e+00,0.00000e+00,0.00000e+00
1.07300e+02,-1.95842e-01,-1.67961e+01,0.00000e+00,0.00000e+00,0.00000e+00
1.07300e+02,6.64213e-01,-1.34369e+01,0.00000e+00,0.00000e+00,0.00000e+00
1.07300e+02,1.52427e+00,-1.00776e+01,0.00000e+00,0.00000e+00,0.00000e+00
1.07300e+02,2.36396e+00,-6.71843e+00,0.00000e+00,0.00000e+00,0.00000e+00
1.07300e+02,3.19985e+00,-3.35921e+00,0.00000e+00,0.00000e+00,0.00000e+00
2.14300e+02,4.22575e+01,0.00000e+00,0.00000e+00,0.00000e+00,0.00000e+00
2.14300e+02,4.20447e+01,-3.21112e+00,0.00000e+00,0.00000e+00,0.00000e+00
2.14300e+02,4.17615e+01,-6.42224e+00,0.00000e+00,0.00000e+00,0.00000e+00
2.14300e+02,4.14756e+01,-9.63337e+00,0.00000e+00,0.00000e+00,0.00000e+00
2.14300e+02,4.11276e+01,-1.28445e+01,0.00000e+00,0.00000e+00,0.00000e+00
2.14300e+02,4.07652e+01,-1.60556e+01,0.00000e+00,0.00000e+00,0.00000e+00
2.14300e+02,4.03551e+01,-1.92667e+01,0.00000e+00,0.00000e+00,0.00000e+00
2.14300e+02,3.99219e+01,-2.24779e+01,0.00000e+00,0.00000e+00,0.00000e+00
2.14300e+02,3.94505e+01,-2.56890e+01,0.00000e+00,0.00000e+00,0.00000e+00
2.14300e+02,3.89476e+01,-2.89001e+01,0.00000e+00,0.00000e+00,0.00000e+00
2.14300e+02,3.84101e+01,-3.21112e+01,0.00000e+00,0.00000e+00,0.00000e+00
2.14300e+02,3.78307e+01,-3.53223e+01,0.00000e+00,0.00000e+00,0.00000e+00
2.14300e+02,3.72085e+01,-3.85335e+01,0.00000e+00,0.00000e+00,0.00000e+00
2.14300e+02,3.65256e+01,-4.17446e+01,0.00000e+00,0.00000e+00,0.00000e+00
2.14300e+02,3.57835e+01,-4.49557e+01,0.00000e+00,0.00000e+00,0.00000e+00
2.14300e+02,3.49707e+01,-4.81668e+01,0.00000e+00,0.00000e+00,0.00000e+00
2.14300e+02,3.40622e+01,-5.13780e+01,0.00000e+00,0.00000e+00,0.00000e+00
2.14300e+02,3.30871e+01,-5.45891e+01,0.00000e+00,0.00000e+00,0.00000e+00
2.14300e+02,3.19621e+01,-5.78002e+01,0.00000e+00,0.00000e+00,0.00000e+00
2.14300e+02,3.07750e+01,-6.10113e+01,0.00000e+00,0.00000e+00,0.00000e+00
2.14300e+02,2.94148e+01,-6.42224e+01,0.00000e+00,0.00000e+00,0.00000e+00
2.14300e+02,2.79159e+01,-6.74336e+01,0.00000e+00,0.00000e+00,0.00000e+00
2.14300e+02,2.62758e+01,-7.06447e+01,0.00000e+00,0.00000e+00,0.00000e+00
2.14300e+02,2.43988e+01,-7.38558e+01,0.00000e+00,0.00000e+00,0.00000e+00
2.14300e+02,2.22473e+01,-7.70669e+01,0.00000e+00,0.00000e+00,0.00000e+00
2.14300e+02,1.97856e+01,-8.02781e+01,0.00000e+00,0.00000e+00,0.00000e+00
2.14300e+02,1.68740e+01,-8.34892e+01,0.00000e+00,0.00000e+00,0.00000e+00
2.14300e+02,1.31367e+01,-8.67003e+01,0.00000e+00,0.00000e+00,0.00000e+00
2.14300e+02,8.08220e+00,-8.99114e+01,0.00000e+00,0.00000e+00,0.00000e+00
2.14300e+02,-3.27484e+00,-9.31226e+01,0.00000e+00,0.00000e+00,0.00000e+00
2.14300e+02,-4.09449e+00,-9.31300e+01,0.00000e+00,0.00000e+00,0.00000e+00
2.14300e+02,-1.15620e+01,-8.98039e+01,0.00000e+00,0.00000e+00,0.00000e+00
2.14300e+02,-1.24661e+01,-8.64779e+01,0.00000e+00,0.00000e+00,0.00000e+00
2.14300e+02,-1.27781e+01,-8.31518e+01,0.00000e+00,0.00000e+00,0.00000e+00
2.14300e+02,-1.28255e+01,-7.98257e+01,0.00000e+00,0.00000e+00,0.00000e+00
2.14300e+02,-1.26734e+01,-7.64996e+01,0.00000e+00,0.00000e+00,0.00000e+00
2.14300e+02,-1.23963e+01,-7.31736e+01,0.00000e+00,0.00000e+00,0.00000e+00
2.14300e+02,-1.19935e+01,-6.98475e+01,0.00000e+00,0.00000e+00,0.00000e+00
2.14300e+02,-1.15140e+01,-6.65214e+01,0.00000e+00,0.00000e+00,0.00000e+00
2.14300e+02,-1.09901e+01,-6.31954e+01,0.00000e+00,0.00000e+00,0.00000e+00
2.14300e+02,-1.03992e+01,-5.98693e+01,0.00000e+00,0.00000e+00,0.00000e+00
2.14300e+02,-9.76651e+00,-5.65432e+01,0.00000e+00,0.00000e+00,0.00000e+00
2.14300e+02,-9.09302e+00,-5.32171e+01,0.00000e+00,0.00000e+00,0.00000e+00
2.14300e+02,-8.37893e+00,-4.98911e+01,0.00000e+00,0.00000e+00,0.00000e+00
2.14300e+02,-7.63939e+00,-4.65650e+01,0.00000e+00,0.00000e+00,0.00000e+00
2.14300e+02,-6.86724e+00,-4.32389e+01,0.00000e+00,0.00000e+00,0.00000e+00
2.14300e+02,-6.07421e+00,-3.99129e+01,0.00000e+00,0.00000e+00,0.00000e+00
2.14300e+02,-5.26246e+00,-3.65868e+01,0.00000e+00,0.00000e+00,0.00000e+00
2.14300e+02,-4.43399e+00,-3.32607e+01,0.00000e+00,0.00000e+00,0.00000e+00
2.14300e+02,-3.59845e+00,-2.99346e+01,0.00000e+00,0.00000e+00,0.00000e+00
2.14300e+02,-2.75194e+00,-2.66086e+01,0.00000e+00,0.00000e+00,0.00000e+00
2.14300e+02,-1.90360e+00,-2.32825e+01,0.00000e+00,0.00000e+00,0.00000e+00
2.14300e+02,-1.04871e+00,-1.99564e+01,0.00000e+00,0.00000e+00,0.00000e+00
2.14300e+02,-1.93910e-01,-1.66304e+01,0.00000e+00,0.00000e+00,0.00000e+00
2.14300e+02,6.57660e-01,-1.33043e+01,0.00000e+00,0.00000e+00,0.00000e+00
2.14300e+02,1.50923e+00,-9.97821e+00,0.00000e+00,0.00000e+00,0.00000e+00
2.14300e+02,2.34063e+00,-6.65214e+00,0.00000e+00,0.00000e+00,0.00000e+00
2.14300e+02,3.16828e+00,-3.32607e+00,0.00000e+00,0.00000e+00,0.00000e+00
3.20700e+02,4.18388e+01,0.00000e+00,0.00000e+00,0.00000e+00,0.00000e+00
3.20700e+02,4.16280e+01,-3.17930e+00,0.00000e+00,0.00000e+00,0.00000e+00
3.20700e+02,4.13477e+01,-6.35861e+00,0.00000e+00,0.00000e+00,0.00000e+00
3.20700e+02,4.10646e+01,-9.53791e+00,0.00000e+00,0.00000e+00,0.00000e+00
3.20700e+02,4.07201e+01,-1.27172e+01,0.00000e+00,0.00000e+00,0.00000e+00
3.20700e+02,4.03613e+01,-1.58965e+01,0.00000e+00,0.00000e+00,0.00000e+00
3.20700e+02,3.99553e+01,-1.90758e+01,0.00000e+00,0.00000e+00,0.00000e+00
3.20700e+02,3.95264e+01,-2.22551e+01,0.00000e+00,0.00000e+00,0.00000e+00
3.20700e+02,3.90596e+01,-2.54344e+01,0.00000e+00,0.00000e+00,0.00000e+00
3.20700e+02,3.85617e+01,-2.86137e+01,0.00000e+00,0.00000e+00,0.00000e+00
3.20700e+02,3.80295e+01,-3.17930e+01,0.00000e+00,0.00000e+00,0.00000e+00
3.20700e+02,3.74559e+01,-3.49724e+01,0.00000e+00,0.00000e+00,0.00000e+00
3.20700e+02,3.68398e+01,-3.81517e+01,0.00000e+00,0.00000e+00,0.00000e+00
3.20700e+02,3.61637e+01,-4.13310e+01,0.00000e+00,0.00000e+00,0.00000e+00
3.20700e+02,3.54289e+01,-4.45103e+01,0.00000e+00,0.00000e+00,0.00000e+00
3.20700e+02,3.46242e+01,-4.76896e+01,0.00000e+00,0.00000e+00,0.00000e+00
3.20700e+02,3.37247e+01,-5.08689e+01,0.00000e+00,0.00000e+00,0.00000e+00
3.20700e+02,3.27593e+01,-5.40482e+01,0.00000e+00,0.00000e+00,0.00000e+00
3.20700e+02,3.16454e+01,-5.72275e+01,0.00000e+00,0.00000e+00,0.00000e+00
3.20700e+02,3.04701e+01,-6.04068e+01,0.00000e+00,0.00000e+00,0.00000e+00
3.20700e+02,2.91233e+01,-6.35861e+01,0.00000e+00,0.00000e+00,0.00000e+00
3.20700e+02,2.76393e+01,-6.67654e+01,0.00000e+00,0.00000e+00,0.00000e+00
3.20700e+02,2.60154e+01,-6.99447e+01,0.00000e+00,0.00000e+00,0.00000e+00
3.20700e+02,2.41570e+01,-7.31240e+01,0.00000e+00,0.00000e+00,0.00000e+00
3.20700e+02,2.20269e+01,-7.63033e+01,0.00000e+00,0.00000e+00,0.00000e+00
3.20700e+02,1.95896e+01,-7.94826e+01,0.00000e+00,0.00000e+00,0.00000e+00
3.20700e+02,1.67068e+01,-8.26619e+01,0.00000e+00,0.00000e+00,0.00000e+00
3.20700e+02,1.30066e+01,-8.58412e+01,0.00000e+00,0.00000e+00,0.00000e+00
3.20700e+02,8.00212e+00,-8.90205e+01,0.00000e+00,0.00000e+00,0.00000e+00
3.20700e+02,-3.24239e+00,-9.21998e+01,0.00000e+00,0.00000e+00,0.00000e+00
3.20700e+02,-4.05392e+00,-9.22072e+01,0.00000e+00,0.00000e+00,0.00000e+00
3.20700e+02,-1.14474e+01,-8.89141e+01,0.00000e+00,0.00000e+00,0.00000e+00
3.20700e+02,-1.23426e+01,-8.56210e+01,0.00000e+00,0.00000e+00,0.00000e+00
3.20700e+02,-1.26515e+01,-8.23279e+01,0.00000e+00,0.00000e+00,0.00000e+00
3.20700e+02,-1.26984e+01,-7.90348e+01,0.00000e+00,0.00000e+00,0.00000e+00
3.20700e+02,-1.25479e+01,-7.57416e+01,0.00000e+00,0.00000e+00,0.00000e+00
3.20700e+02,-1.22734e+01,-7.24485e+01,0.00000e+00,0.00000e+00,0.00000e+00
3.20700e+02,-1.18746e+01,-6.91554e+01,0.00000e+00,0.00000e+00,0.00000e+00
3.20700e+02,-1.13999e+01,-6.58623e+01,0.00000e+00,0.00000e+00,0.00000e+00
3.20700e+02,-1.08812e+01,-6.25692e+01,0.00000e+00,0.00000e+00,0.00000e+00
3.20700e+02,-1.02962e+01,-5.92761e+01,0.00000e+00,0.00000e+00,0.00000e+00
3.20700e+02,-9.66973e+00,-5.59829e+01,0.00000e+00,0.00000e+00,0.00000e+00
3.20700e+02,-9.00292e+00,-5.26898e+01,0.00000e+00,0.00000e+00,0.00000e+00
3.20700e+02,-8.29591e+00,-4.93967e+01,0.00000e+00,0.00000e+00,0.00000e+00
3.20700e+02,-7.56370e+00,-4.61036e+01,0.00000e+00,0.00000e+00,0.00000e+00
3.20700e+02,-6.79920e+00,-4.28105e+01,0.00000e+00,0.00000e+00,0.00000e+00
3.20700e+02,-6.01403e+00,-3.95174e+01,0.00000e+00,0.00000e+00,0.00000e+00
3.20700e+02,-5.21032e+00,-3.62243e+01,0.00000e+00,0.00000e+00,0.00000e+00
3.20700e+02,-4.39006e+00,-3.29311e+01,0.00000e+00,0.00000e+00,0.00000e+00
3.20700e+02,-3.56279e+00,-2.96380e+01,0.00000e+00,0.00000e+00,0.00000e+00
3.20700e+02,-2.72467e+00,-2.63449e+01,0.00000e+00,0.00000e+00,0.00000e+00
3.20700e+02,-1.88474e+00,-2.30518e+01,0.00000e+00,0.00000e+00,0.00000e+00
3.20700e+02,-1.03832e+00,-1.97587e+01,0.00000e+00,0.00000e+00,0.00000e+00
3.20700e+02,-1.91989e-01,-1.64656e+01,0.00000e+00,0.00000e+00,0.00000e+00
3.20700e+02,6.51143e-01,-1.31725e+01,0.00000e+00,0.00000e+00,0.00000e+00
3.20700e+02,1.49428e+00,-9.87934e+00,0.00000e+00,0.00000e+00,0.00000e+00
3.20700e+02,2.31744e+00,-6.58623e+00,0.00000e+00,0.00000e+00,0.00000e+00
3.20700e+02,3.13689e+00,-3.29311e+00,0.00000e+00,0.00000e+00,0.00000e+00
4.26200e+02,4.14236e+01,0.00000e+00,0.00000e+00,0.00000e+00,0.00000e+00
4.26200e+02,4.12150e+01,-3.14776e+00,0.00000e+00,0.00000e+00,0.00000e+00
4.26200e+02,4.09374e+01,-6.29551e+00,0.00000e+00,0.00000e+00,0.00000e+00
4.26200e+02,4.06571e+01,-9.44327e+00,0.00000e+00,0.00000e+00,0.00000e+00
4.26200e+02,4.03160e+01,-1.25910e+01,0.00000e+00,0.00000e+00,0.00000e+00
4.26200e+02,3.99607e+01,-1.57388e+01,0.00000e+00,0.00000e+00,0.00000e+00
4.26200e+02,3.95588e+01,-1.88865e+01,0.00000e+00,0.00000e+00,0.00000e+00
4.26200e+02,3.91341e+01,-2.20343e+01,0.00000e+00,0.00000e+00,0.00000e+00
4.26200e+02,3.86720e+01,-2.51820e+01,0.00000e+00,0.00000e+00,0.00000e+00
4.26200e+02,3.81790e+01,-2.83298e+01,0.00000e+00,0.00000e+00,0.00000e+00
4.26200e+02,3.76521e+01,-3.14776e+01,0.00000e+00,0.00000e+00,0.00000e+00
4.26200e+02,3.70842e+01,-3.46253e+01,0.00000e+00,0.00000e+00,0.00000e+00
4.26200e+02,3.64743e+01,-3.77731e+01,0.00000e+00,0.00000e+00,0.00000e+00
4.26200e+02,3.58048e+01,-4.09208e+01,0.00000e+00,0.00000e+00,0.00000e+00
4.26200e+02,3.50774e+01,-4.40686e+01,0.00000e+00,0.00000e+00,0.00000e+00
4.26200e+02,3.42806e+01,-4.72163e+01,0.00000e+00,0.00000e+00,0.00000e+00
4.26200e+02,3.33901e+01,-5.03641e+01,0.00000e+00,0.00000e+00,0.00000e+00
4.26200e+02,3.24342e+01,-5.35118e+01,0.00000e+00,0.00000e+00,0.00000e+00
4.26200e+02,3.13314e+01,-5.66596e+01,0.00000e+00,0.00000e+00,0.00000e+00
4.26200e+02,3.01677e+01,-5.98074e+01,0.00000e+00,0.00000e+00,0.00000e+00
4.26200e+02,2.88343e+01,-6.29551e+01,0.00000e+00,0.00000e+00,0.00000e+00
4.26200e+02,2.73650e+01,-6.61029e+01,0.00000e+00,0.00000e+00,0.00000e+00
4.26200e+02,2.57573e+01,-6.92506e+01,0.00000e+00,0.00000e+00,0.00000e+00
4.26200e+02,2.39173e+01,-7.23984e+01,0.00000e+00,0.00000e+00,0.00000e+00
4.26200e+02,2.18083e+01,-7.55461e+01,0.00000e+00,0.00000e+00,0.00000e+00
4.26200e+02,1.93952e+01,-7.86939e+01,0.00000e+00,0.00000e+00,0.00000e+00
4.26200e+02,1.65410e+01,-8.18417e+01,0.00000e+00,0.00000e+00,0.00000e+00
4.26200e+02,1.28775e+01,-8.49894e+01,0.00000e+00,0.00000e+00,0.00000e+00
4.26200e+02,7.92271e+00,-8.81372e+01,0.00000e+00,0.00000e+00,0.00000e+00
4.26200e+02,-3.21022e+00,-9.12849e+01,0.00000e+00,0.00000e+00,0.00000e+00
4.26200e+02,-4.01369e+00,-9.12922e+01,0.00000e+00,0.00000e+00,0.00000e+00
4.26200e+02,-1.13339e+01,-8.80318e+01,0.00000e+00,0.00000e+00,0.00000e+00
4.26200e+02,-1.22201e+01,-8.47713e+01,0.00000e+00,0.00000e+00,0.00000e+00
4.26200e+02,-1.25260e+01,-8.15109e+01,0.00000e+00,0.00000e+00,0.00000e+00
4.26200e+02,-1.25724e+01,-7.82505e+01,0.00000e+00,0.00000e+00,0.00000e+00
4.26200e+02,-1.24233e+01,-7.49900e+01,0.00000e+00,0.00000e+00,0.00000e+00
4.26200e+02,-1.21516e+01,-7.17296e+01,0.00000e+00,0.00000e+00,0.00000e+00
4.26200e+02,-1.17568e+01,-6.84692e+01,0.00000e+00,0.00000e+00,0.00000e+00
4.26200e+02,-1.12868e+01,-6.52087e+01,0.00000e+00,0.00000e+00,0.00000e+00
4.26200e+02,-1.07732e+01,-6.19483e+01,0.00000e+00,0.00000e+00,0.00000e+00
4.26200e+02,-1.01940e+01,-5.86879e+01,0.00000e+00,0.00000e+00,0.00000e+00
4.26200e+02,-9.57378e+00,-5.54274e+01,0.00000e+00,0.00000e+00,0.00000e+00
4.26200e+02,-8.91358e+00,-5.21670e+01,0.00000e+00,0.00000e+00,0.00000e+00
4.26200e+02,-8.21359e+00,-4.89065e+01,0.00000e+00,0.00000e+00,0.00000e+00
4.26200e+02,-7.48864e+00,-4.56461e+01,0.00000e+00,0.00000e+00,0.00000e+00
4.26200e+02,-6.73173e+00,-4.23857e+01,0.00000e+00,0.00000e+00,0.00000e+00
4.26200e+02,-5.95435e+00,-3.91252e+01,0.00000e+00,0.00000e+00,0.00000e+00
4.26200e+02,-5.15861e+00,-3.58648e+01,0.00000e+00,0.00000e+00,0.00000e+00
4.26200e+02,-4.34650e+00,-3.26044e+01,0.00000e+00,0.00000e+00,0.00000e+00
4.26200e+02,-3.52744e+00,-2.93439e+01,0.00000e+00,0.00000e+00,0.00000e+00
4.26200e+02,-2.69763e+00,-2.60835e+01,0.00000e+00,0.00000e+00,0.00000e+00
4.26200e+02,-1.86603e+00,-2.28231e+01,0.00000e+00,0.00000e+00,0.00000e+00
4.26200e+02,-1.02802e+00,-1.95626e+01,0.00000e+00,0.00000e+00,0.00000e+00
4.26200e+02,-1.90083e-01,-1.63022e+01,0.00000e+00,0.00000e+00,0.00000e+00
4.26200e+02,6.44682e-01,-1.30417e+01,0.00000e+00,0.00000e+00,0.00000e+00
4.26200e+02,1.47945e+00,-9.78131e+00,0.00000e+00,0.00000e+00,0.00000e+00
4.26200e+02,2.29445e+00,-6.52087e+00,0.00000e+00,0.00000e+00,0.00000e+00
4.26200e+02,3.10576e+00,-3.26044e+00,0.00000e+00,0.00000e+00,0.00000e+00
5.30600e+02,4.10127e+01,0.00000e+00,0.00000e+00,0.00000e+00,0.00000e+00
5.30600e+02,4.08062e+01,-3.11654e+00,0.00000e+00,0.00000e+00,0.00000e+00
5.30600e+02,4.05314e+01,-6.23307e+00,0.00000e+00,0.00000e+00,0.00000e+00
5.30600e+02,4.02539e+01,-9.34961e+00,0.00000e+00,0.00000e+00,0.00000e+00
5.30600e+02,3.99161e+01,-1.24661e+01,0.00000e+00,0.00000e+00,0.00000e+00
5.30600e+02,3.95644e+01,-1.55827e+01,0.00000e+00,0.00000e+00,0.00000e+00
5.30600e+02,3.91664e+01,-1.86992e+01,0.00000e+00,0.00000e+00,0.00000e+00
5.30600e+02,3.87460e+01,-2.18158e+01,0.00000e+00,0.00000e+00,0.00000e+00
5.30600e+02,3.82884e+01,-2.49323e+01,0.00000e+00,0.00000e+00,0.00000e+00
5.30600e+02,3.78003e+01,-2.80488e+01,0.00000e+00,0.00000e+00,0.00000e+00
5.30600e+02,3.72787e+01,-3.11654e+01,0.00000e+00,0.00000e+00,0.00000e+00
5.30600e+02,3.67164e+01,-3.42819e+01,0.00000e+00,0.00000e+00,0.00000e+00
5.30600e+02,3.61125e+01,-3.73984e+01,0.00000e+00,0.00000e+00,0.00000e+00
5.30600e+02,3.54497e+01,-4.05150e+01,0.00000e+00,0.00000e+00,0.00000e+00
5.30600e+02,3.47295e+01,-4.36315e+01,0.00000e+00,0.00000e+00,0.00000e+00
5.30600e+02,3.39406e+01,-4.67480e+01,0.00000e+00,0.00000e+00,0.00000e+00
5.30600e+02,3.30589e+01,-4.98646e+01,0.00000e+00,0.00000e+00,0.00000e+00
5.30600e+02,3.21125e+01,-5.29811e+01,0.00000e+00,0.00000e+00,0.00000e+00
5.30600e+02,3.10206e+01,-5.60976e+01,0.00000e+00,0.00000e+00,0.00000e+00
5.30600e+02,2.98685e+01,-5.92142e+01,0.00000e+00,0.00000e+00,0.00000e+00
5.30600e+02,2.85484e+01,-6.23307e+01,0.00000e+00,0.00000e+00,0.00000e+00
5.30600e+02,2.70936e+01,-6.54473e+01,0.00000e+00,0.00000e+00,0.00000e+00
5.30600e+02,2.55018e+01,-6.85638e+01,0.00000e+00,0.00000e+00,0.00000e+00
5.30600e+02,2.36801e+01,-7.16803e+01,0.00000e+00,0.00000e+00,0.00000e+00
5.30600e+02,2.15920e+01,-7.47969e+01,0.00000e+00,0.00000e+00,0.00000e+00
5.30600e+02,1.92028e+01,-7.79134e+01,0.00000e+00,0.00000e+00,0.00000e+00
5.30600e+02,1.63770e+01,-8.10299e+01,0.00000e+00,0.00000e+00,0.00000e+00
5.30600e+02,1.27498e+01,-8.41465e+01,0.00000e+00,0.00000e+00,0.00000e+00
5.30600e+02,7.84413e+00,-8.72630e+01,0.00000e+00,0.00000e+00,0.00000e+00
5.30600e+02,-3.17838e+00,-9.03795e+01,0.00000e+00,0.00000e+00,0.00000e+00
5.30600e+02,-3.97388e+00,-9.03868e+01,0.00000e+00,0.00000e+00,0.00000e+00
5.30600e+02,-1.12214e+01,-8.71587e+01,0.00000e+00,0.00000e+00,0.00000e+00
5.30600e+02,-1.20989e+01,-8.39306e+01,0.00000e+00,0.00000e+00,0.00000e+00
5.30600e+02,-1.24018e+01,-8.07025e+01,0.00000e+00,0.00000e+00,0.00000e+00
5.30600e+02,-1.24477e+01,-7.74744e+01,0.00000e+00,0.00000e+00,0.00000e+00
5.30600e+02,-1.23001e+01,-7.42463e+01,0.00000e+00,0.00000e+00,0.00000e+00
5.30600e+02,-1.20311e+01,-7.10182e+01,0.00000e+00,0.00000e+00,0.00000e+00
5.30600e+02,-1.16402e+01,-6.77901e+01,0.00000e+00,0.00000e+00,0.00000e+00
5.30600e+02,-1.11748e+01,-6.45620e+01,0.00000e+00,0.00000e+00,0.00000e+00
5.30600e+02,-1.06664e+01,-6.13339e+01,0.00000e+00,0.00000e+00,0.00000e+00
5.30600e+02,-1.00929e+01,-5.81058e+01,0.00000e+00,0.00000e+00,0.00000e+00
5.30600e+02,-9.47882e+00,-5.48777e+01,0.00000e+00,0.00000e+00,0.00000e+00
5.30600e+02,-8.82518e+00,-5.16496e+01,0.00000e+00,0.00000e+00,0.00000e+00
5.30600e+02,-8.13212e+00,-4.84215e+01,0.00000e+00,0.00000e+00,0.00000e+00
5.30600e+02,-7.41437e+00,-4.51934e+01,0.00000e+00,0.00000e+00,0.00000e+00
5.30600e+02,-6.66496e+00,-4.19653e+01,0.00000e+00,0.00000e+00,0.00000e+00
5.30600e+02,-5.89529e+00,-3.87372e+01,0.00000e+00,0.00000e+00,0.00000e+00
5.30600e+02,-5.10745e+00,-3.55091e+01,0.00000e+00,0.00000e+00,0.00000e+00
5.30600e+02,-4.30339e+00,-3.22810e+01,0.00000e+00,0.00000e+00,0.00000e+00
5.30600e+02,-3.49245e+00,-2.90529e+01,0.00000e+00,0.00000e+00,0.00000e+00
5.30600e+02,-2.67088e+00,-2.58248e+01,0.00000e+00,0.00000e+00,0.00000e+00
5.30600e+02,-1.84753e+00,-2.25967e+01,0.00000e+00,0.00000e+00,0.00000e+00
5.30600e+02,-1.01782e+00,-1.93686e+01,0.00000e+00,0.00000e+00,0.00000e+00
5.30600e+02,-1.88198e-01,-1.61405e+01,0.00000e+00,0.00000e+00,0.00000e+00
5.30600e+02,6.38288e-01,-1.29124e+01,0.00000e+00,0.00000e+00,0.00000e+00
5.30600e+02,1.46477e+00,-9.68430e+00,0.00000e+00,0.00000e+00,0.00000e+00
5.30600e+02,2.27169e+00,-6.45620e+00,0.00000e+00,0.00000e+00,0.00000e+00
5.30600e+02,3.07496e+00,-3.22810e+00,0.00000e+00,0.00000e+00,0.00000e+00
6.33500e+02,4.06078e+01,0.00000e+00,0.00000e+00,0.00000e+00,0.00000e+00
6.33500e+02,4.04033e+01,-3.08576e+00,0.00000e+00,0.00000e+00,0.00000e+00
6.33500e+02,4.01312e+01,-6.17153e+00,0.00000e+00,0.00000e+00,0.00000e+00
6.33500e+02,3.98564e+01,-9.25729e+00,0.00000e+00,0.00000e+00,0.00000e+00
6.33500e+02,3.95220e+01,-1.23431e+01,0.00000e+00,0.00000e+00,0.00000e+00
6.33500e+02,3.91738e+01,-1.54288e+01,0.00000e+00,0.00000e+00,0.00000e+00
6.33500e+02,3.87797e+01,-1.85146e+01,0.00000e+00,0.00000e+00,0.00000e+00
6.33500e+02,3.83634e+01,-2.16004e+01,0.00000e+00,0.00000e+00,0.00000e+00
6.33500e+02,3.79104e+01,-2.46861e+01,0.00000e+00,0.00000e+00,0.00000e+00
6.33500e+02,3.74271e+01,-2.77719e+01,0.00000e+00,0.00000e+00,0.00000e+00
6.33500e+02,3.69106e+01,-3.08576e+01,0.00000e+00,0.00000e+00,0.00000e+00
6.33500e+02,3.63539e+01,-3.39434e+01,0.00000e+00,0.00000e+00,0.00000e+00
6.33500e+02,3.57559e+01,-3.70292e+01,0.00000e+00,0.00000e+00,0.00000e+00
6.33500e+02,3.50997e+01,-4.01149e+01,0.00000e+00,0.00000e+00,0.00000e+00
6.33500e+02,3.43866e+01,-4.32007e+01,0.00000e+00,0.00000e+00,0.00000e+00
6.33500e+02,3.36055e+01,-4.62865e+01,0.00000e+00,0.00000e+00,0.00000e+00
6.33500e+02,3.27325e+01,-4.93722e+01,0.00000e+00,0.00000e+00,0.00000e+00
6.33500e+02,3.17954e+01,-5.24580e+01,0.00000e+00,0.00000e+00,0.00000e+00
6.33500e+02,3.07144e+01,-5.55438e+01,0.00000e+00,0.00000e+00,0.00000e+00
6.33500e+02,2.95736e+01,-5.86295e+01,0.00000e+00,0.00000e+00,0.00000e+00
6.33500e+02,2.82665e+01,-6.17153e+01,0.00000e+00,0.00000e+00,0.00000e+00
6.33500e+02,2.68261e+01,-6.48011e+01,0.00000e+00,0.00000e+00,0.00000e+00
6.33500e+02,2.52500e+01,-6.78868e+01,0.00000e+00,0.00000e+00,0.00000e+00
6.33500e+02,2.34463e+01,-7.09726e+01,0.00000e+00,0.00000e+00,0.00000e+00
6.33500e+02,2.13788e+01,-7.40584e+01,0.00000e+00,0.00000e+00,0.00000e+00
6.33500e+02,1.90132e+01,-7.71441e+01,0.00000e+00,0.00000e+00,0.00000e+00
6.33500e+02,1.62153e+01,-8.02299e+01,0.00000e+00,0.00000e+00,0.00000e+00
6.33500e+02,1.26239e+01,-8.33156e+01,0.00000e+00,0.00000e+00,0.00000e+00
6.33500e+02,7.76668e+00,-8.64014e+01,0.00000e+00,0.00000e+00,0.00000e+00
6.33500e+02,-3.14700e+00,-8.94872e+01,0.00000e+00,0.00000e+00,0.00000e+00
6.33500e+02,-3.93464e+00,-8.94943e+01,0.00000e+00,0.00000e+00,0.00000e+00
6.33500e+02,-1.11106e+01,-8.62981e+01,0.00000e+00,0.00000e+00,0.00000e+00
6.33500e+02,-1.19795e+01,-8.31019e+01,0.00000e+00,0.00000e+00,0.00000e+00
6.33500e+02,-1.22793e+01,-7.99057e+01,0.00000e+00,0.00000e+00,0.00000e+00
6.33500e+02,-1.23248e+01,-7.67094e+01,0.00000e+00,0.00000e+00,0.00000e+00
6.33500e+02,-1.21787e+01,-7.35132e+01,0.00000e+00,0.00000e+00,0.00000e+00
6.33500e+02,-1.19123e+01,-7.03170e+01,0.00000e+00,0.00000e+00,0.00000e+00
6.33500e+02,-1.15252e+01,-6.71208e+01,0.00000e+00,0.00000e+00,0.00000e+00
6.33500e+02,-1.10645e+01,-6.39245e+01,0.00000e+00,0.00000e+00,0.00000e+00
6.33500e+02,-1.05611e+01,-6.07283e+01,0.00000e+00,0.00000e+00,0.00000e+00
6.33500e+02,-9.99326e+00,-5.75321e+01,0.00000e+00,0.00000e+00,0.00000e+00
6.33500e+02,-9.38524e+00,-5.43358e+01,0.00000e+00,0.00000e+00,0.00000e+00
6.33500e+02,-8.73804e+00,-5.11396e+01,0.00000e+00,0.00000e+00,0.00000e+00
6.33500e+02,-8.05183e+00,-4.79434e+01,0.00000e+00,0.00000e+00,0.00000e+00
6.33500e+02,-7.34116e+00,-4.47472e+01,0.00000e+00,0.00000e+00,0.00000e+00
6.33500e+02,-6.59916e+00,-4.15509e+01,0.00000e+00,0.00000e+00,0.00000e+00
6.33500e+02,-5.83709e+00,-3.83547e+01,0.00000e+00,0.00000e+00,0.00000e+00
6.33500e+02,-5.05702e+00,-3.51585e+01,0.00000e+00,0.00000e+00,0.00000e+00
6.33500e+02,-4.26090e+00,-3.19623e+01,0.00000e+00,0.00000e+00,0.00000e+00
6.33500e+02,-3.45797e+00,-2.87660e+01,0.00000e+00,0.00000e+00,0.00000e+00
6.33500e+02,-2.64450e+00,-2.55698e+01,0.00000e+00,0.00000e+00,0.00000e+00
6.33500e+02,-1.82928e+00,-2.23736e+01,0.00000e+00,0.00000e+00,0.00000e+00
6.33500e+02,-1.00777e+00,-1.91774e+01,0.00000e+00,0.00000e+00,0.00000e+00
6.33500e+02,-1.86340e-01,-1.59811e+01,0.00000e+00,0.00000e+00,0.00000e+00
6.33500e+02,6.31986e-01,-1.27849e+01,0.00000e+00,0.00000e+00,0.00000e+00
6.33500e+02,1.45031e+00,-9.58868e+00,0.00000e+00,0.00000e+00,0.00000e+00
6.33500e+02,2.24926e+00,-6.39245e+00,0.00000e+00,0.00000e+00,0.00000e+00
6.33500e+02,3.04460e+00,-3.19623e+00,0.00000e+00,0.00000e+00,0.00000e+00
7.34700e+02,4.02095e+01,0.00000e+00,0.00000e+00,0.00000e+00,0.00000e+00
7.34700e+02,4.00070e+01,-3.05550e+00,0.00000e+00,0.00000e+00,0.00000e+00
7.34700e+02,3.97376e+01,-6.11100e+00,0.00000e+00,0.00000e+00,0.00000e+00
7.34700e+02,3.94656e+01,-9.16651e+00,0.00000e+00,0.00000e+00,0.00000e+00
7.34700e+02,3.91344e+01,-1.22220e+01,0.00000e+00,0.00000e+00,0.00000e+00
7.34700e+02,3.87896e+01,-1.52775e+01,0.00000e+00,0.00000e+00,0.00000e+00
7.34700e+02,3.83994e+01,-1.83330e+01,0.00000e+00,0.00000e+00,0.00000e+00
7.34700e+02,3.79872e+01,-2.13885e+01,0.00000e+00,0.00000e+00,0.00000e+00
7.34700e+02,3.75386e+01,-2.44440e+01,0.00000e+00,0.00000e+00,0.00000e+00
7.34700e+02,3.70601e+01,-2.74995e+01,0.00000e+00,0.00000e+00,0.00000e+00
7.34700e+02,3.65486e+01,-3.05550e+01,0.00000e+00,0.00000e+00,0.00000e+00
7.34700e+02,3.59973e+01,-3.36105e+01,0.00000e+00,0.00000e+00,0.00000e+00
7.34700e+02,3.54053e+01,-3.66660e+01,0.00000e+00,0.00000e+00,0.00000e+00
7.34700e+02,3.47554e+01,-3.97215e+01,0.00000e+00,0.00000e+00,0.00000e+00
7.34700e+02,3.40493e+01,-4.27770e+01,0.00000e+00,0.00000e+00,0.00000e+00
7.34700e+02,3.32760e+01,-4.58325e+01,0.00000e+00,0.00000e+00,0.00000e+00
7.34700e+02,3.24115e+01,-4.88880e+01,0.00000e+00,0.00000e+00,0.00000e+00
7.34700e+02,3.14836e+01,-5.19435e+01,0.00000e+00,0.00000e+00,0.00000e+00
7.34700e+02,3.04131e+01,-5.49990e+01,0.00000e+00,0.00000e+00,0.00000e+00
7.34700e+02,2.92835e+01,-5.80545e+01,0.00000e+00,0.00000e+00,0.00000e+00
7.34700e+02,2.79893e+01,-6.11100e+01,0.00000e+00,0.00000e+00,0.00000e+00
7.34700e+02,2.65630e+01,-6.41655e+01,0.00000e+00,0.00000e+00,0.00000e+00
7.34700e+02,2.50024e+01,-6.72210e+01,0.00000e+00,0.00000e+00,0.00000e+00
7.34700e+02,2.32164e+01,-7.02765e+01,0.00000e+00,0.00000e+00,0.00000e+00
7.34700e+02,2.11691e+01,-7.33320e+01,0.00000e+00,0.00000e+00,0.00000e+00
7.34700e+02,1.88268e+01,-7.63875e+01,0.00000e+00,0.00000e+00,0.00000e+00
7.34700e+02,1.60563e+01,-7.94430e+01,0.00000e+00,0.00000e+00,0.00000e+00
7.34700e+02,1.25001e+01,-8.24985e+01,0.00000e+00,0.00000e+00,0.00000e+00
7.34700e+02,7.69051e+00,-8.55540e+01,0.00000e+00,0.00000e+00,0.00000e+00
7.34700e+02,-3.11614e+00,-8.86096e+01,0.00000e+00,0.00000e+00,0.00000e+00
7.34700e+02,-3.89606e+00,-8.86166e+01,0.00000e+00,0.00000e+00,0.00000e+00
7.34700e+02,-1.10017e+01,-8.54518e+01,0.00000e+00,0.00000e+00,0.00000e+00
7.34700e+02,-1.18620e+01,-8.22869e+01,0.00000e+00,0.00000e+00,0.00000e+00
7.34700e+02,-1.21589e+01,-7.91220e+01,0.00000e+00,0.00000e+00,0.00000e+00
7.34700e+02,-1.22039e+01,-7.59571e+01,0.00000e+00,0.00000e+00,0.00000e+00
7.34700e+02,-1.20592e+01,-7.27922e+01,0.00000e+00,0.00000e+00,0.00000e+00
7.34700e+02,-1.17955e+01,-6.96274e+01,0.00000e+00,0.00000e+00,0.00000e+00
7.34700e+02,-1.14122e+01,-6.64625e+01,0.00000e+00,0.00000e+00,0.00000e+00
7.34700e+02,-1.09560e+01,-6.32976e+01,0.00000e+00,0.00000e+00,0.00000e+00
7.34700e+02,-1.04575e+01,-6.01327e+01,0.00000e+00,0.00000e+00,0.00000e+00
7.34700e+02,-9.89525e+00,-5.69678e+01,0.00000e+00,0.00000e+00,0.00000e+00
7.34700e+02,-9.29319e+00,-5.38030e+01,0.00000e+00,0.00000e+00,0.00000e+00
7.34700e+02,-8.65235e+00,-5.06381e+01,0.00000e+00,0.00000e+00,0.00000e+00
7.34700e+02,-7.97287e+00,-4.74732e+01,0.00000e+00,0.00000e+00,0.00000e+00
7.34700e+02,-7.26917e+00,-4.43083e+01,0.00000e+00,0.00000e+00,0.00000e+00
7.34700e+02,-6.53444e+00,-4.11434e+01,0.00000e+00,0.00000e+00,0.00000e+00
7.34700e+02,-5.77984e+00,-3.79786e+01,0.00000e+00,0.00000e+00,0.00000e+00
7.34700e+02,-5.00742e+00,-3.48137e+01,0.00000e+00,0.00000e+00,0.00000e+00
7.34700e+02,-4.21911e+00,-3.16488e+01,0.00000e+00,0.00000e+00,0.00000e+00
7.34700e+02,-3.42406e+00,-2.84839e+01,0.00000e+00,0.00000e+00,0.00000e+00
7.34700e+02,-2.61857e+00,-2.53190e+01,0.00000e+00,0.00000e+00,0.00000e+00
7.34700e+02,-1.81134e+00,-2.21542e+01,0.00000e+00,0.00000e+00,0.00000e+00
7.34700e+02,-9.97887e-01,-1.89893e+01,0.00000e+00,0.00000e+00,0.00000e+00
7.34700e+02,-1.84513e-01,-1.58244e+01,0.00000e+00,0.00000e+00,0.00000e+00
7.34700e+02,6.25788e-01,-1.26595e+01,0.00000e+00,0.00000e+00,0.00000e+00
7.34700e+02,1.43609e+00,-9.49464e+00,0.00000e+00,0.00000e+00,0.00000e+00
7.34700e+02,2.22720e+00,-6.32976e+00,0.00000e+00,0.00000e+00,0.00000e+00
7.34700e+02,3.01474e+00,-3.16488e+00,0.00000e+00,0.00000e+00,0.00000e+00
8.33800e+02,3.98196e+01,0.00000e+00,0.00000e+00,0.00000e+00,0.00000e+00
8.33800e+02,3.96190e+01,-3.02587e+00,0.00000e+00,0.00000e+00,0.00000e+00
8.33800e+02,3.93522e+01,-6.05173e+00,0.00000e+00,0.00000e+00,0.00000e+00
8.33800e+02,3.90828e+01,-9.07760e+00,0.00000e+00,0.00000e+00,0.00000e+00
8.33800e+02,3.87549e+01,-1.21035e+01,0.00000e+00,0.00000e+00,0.00000e+00
8.33800e+02,3.84134e+01,-1.51293e+01,0.00000e+00,0.00000e+00,0.00000e+00
8.33800e+02,3.80270e+01,-1.81552e+01,0.00000e+00,0.00000e+00,0.00000e+00
8.33800e+02,3.76188e+01,-2.11811e+01,0.00000e+00,0.00000e+00,0.00000e+00
8.33800e+02,3.71745e+01,-2.42069e+01,0.00000e+00,0.00000e+00,0.00000e+00
8.33800e+02,3.67006e+01,-2.72328e+01,0.00000e+00,0.00000e+00,0.00000e+00
8.33800e+02,3.61941e+01,-3.02587e+01,0.00000e+00,0.00000e+00,0.00000e+00
8.33800e+02,3.56482e+01,-3.32845e+01,0.00000e+00,0.00000e+00,0.00000e+00
8.33800e+02,3.50619e+01,-3.63104e+01,0.00000e+00,0.00000e+00,0.00000e+00
8.33800e+02,3.44183e+01,-3.93363e+01,0.00000e+00,0.00000e+00,0.00000e+00
8.33800e+02,3.37191e+01,-4.23621e+01,0.00000e+00,0.00000e+00,0.00000e+00
8.33800e+02,3.29532e+01,-4.53880e+01,0.00000e+00,0.00000e+00,0.00000e+00
8.33800e+02,3.20971e+01,-4.84139e+01,0.00000e+00,0.00000e+00,0.00000e+00
8.33800e+02,3.11783e+01,-5.14397e+01,0.00000e+00,0.00000e+00,0.00000e+00
8.33800e+02,3.01182e+01,-5.44656e+01,0.00000e+00,0.00000e+00,0.00000e+00
8.33800e+02,2.89995e+01,-5.74915e+01,0.00000e+00,0.00000e+00,0.00000e+00
8.33800e+02,2.77178e+01,-6.05173e+01,0.00000e+00,0.00000e+00,0.00000e+00
8.33800e+02,2.63054e+01,-6.35432e+01,0.00000e+00,0.00000e+00,0.00000e+00
8.33800e+02,2.47599e+01,-6.65691e+01,0.00000e+00,0.00000e+00,0.00000e+00
8.33800e+02,2.29912e+01,-6.95949e+01,0.00000e+00,0.00000e+00,0.00000e+00
8.33800e+02,2.09638e+01,-7.26208e+01,0.00000e+00,0.00000e+00,0.00000e+00
8.33800e+02,1.86442e+01,-7.56467e+01,0.00000e+00,0.00000e+00,0.00000e+00
8.33800e+02,1.59005e+01,-7.86725e+01,0.00000e+00,0.00000e+00,0.00000e+00
8.33800e+02,1.23789e+01,-8.16984e+01,0.00000e+00,0.00000e+00,0.00000e+00
8.33800e+02,7.61592e+00,-8.47243e+01,0.00000e+00,0.00000e+00,0.00000e+00
8.33800e+02,-3.08591e+00,-8.77501e+01,0.00000e+00,0.00000e+00,0.00000e+00
8.33800e+02,-3.85827e+00,-8.77572e+01,0.00000e+00,0.00000e+00,0.00000e+00
8.33800e+02,-1.08950e+01,-8.46230e+01,0.00000e+00,0.00000e+00,0.00000e+00
8.33800e+02,-1.17470e+01,-8.14888e+01,0.00000e+00,0.00000e+00,0.00000e+00
8.33800e+02,-1.20409e+01,-7.83546e+01,0.00000e+00,0.00000e+00,0.00000e+00
8.33800e+02,-1.20856e+01,-7.52204e+01,0.00000e+00,0.00000e+00,0.00000e+00
8.33800e+02,-1.19423e+01,-7.20862e+01,0.00000e+00,0.00000e+00,0.00000e+00
8.33800e+02,-1.16811e+01,-6.89521e+01,0.00000e+00,0.00000e+00,0.00000e+00
8.33800e+02,-1.13015e+01,-6.58179e+01,0.00000e+00,0.00000e+00,0.00000e+00
8.33800e+02,-1.08497e+01,-6.26837e+01,0.00000e+00,0.00000e+00,0.00000e+00
8.33800e+02,-1.03561e+01,-5.95495e+01,0.00000e+00,0.00000e+00,0.00000e+00
8.33800e+02,-9.79928e+00,-5.64153e+01,0.00000e+00,0.00000e+00,0.00000e+00
8.33800e+02,-9.20306e+00,-5.32811e+01,0.00000e+00,0.00000e+00,0.00000e+00
8.33800e+02,-8.56843e+00,-5.01469e+01,0.00000e+00,0.00000e+00,0.00000e+00
8.33800e+02,-7.89554e+00,-4.70128e+01,0.00000e+00,0.00000e+00,0.00000e+00
8.33800e+02,-7.19866e+00,-4.38786e+01,0.00000e+00,0.00000e+00,0.00000e+00
8.33800e+02,-6.47106e+00,-4.07444e+01,0.00000e+00,0.00000e+00,0.00000e+00
8.33800e+02,-5.72378e+00,-3.76102e+01,0.00000e+00,0.00000e+00,0.00000e+00
8.33800e+02,-4.95886e+00,-3.44760e+01,0.00000e+00,0.00000e+00,0.00000e+00
8.33800e+02,-4.17819e+00,-3.13418e+01,0.00000e+00,0.00000e+00,0.00000e+00
8.33800e+02,-3.39085e+00,-2.82077e+01,0.00000e+00,0.00000e+00,0.00000e+00
8.33800e+02,-2.59317e+00,-2.50735e+01,0.00000e+00,0.00000e+00,0.00000e+00
8.33800e+02,-1.79378e+00,-2.19393e+01,0.00000e+00,0.00000e+00,0.00000e+00
8.33800e+02,-9.88209e-01,-1.88051e+01,0.00000e+00,0.00000e+00,0.00000e+00
8.33800e+02,-1.82723e-01,-1.56709e+01,0.00000e+00,0.00000e+00,0.00000e+00
8.33800e+02,6.19718e-01,-1.25367e+01,0.00000e+00,0.00000e+00,0.00000e+00
8.33800e+02,1.42216e+00,-9.40255e+00,0.00000e+00,0.00000e+00,0.00000e+00
8.33800e+02,2.20560e+00,-6.26837e+00,0.00000e+00,0.00000e+00,0.00000e+00
8.33800e+02,2.98550e+00,-3.13418e+00,0.00000e+00,0.00000e+00,0.00000e+00
9.30700e+02,3.94382e+01,0.00000e+00,0.00000e+00,0.00000e+00,0.00000e+00
9.30700e+02,3.92396e+01,-2.99689e+00,0.00000e+00,0.00000e+00,0.00000e+00
9.30700e+02,3.89754e+01,-5.99378e+00,0.00000e+00,0.00000e+00,0.00000e+00
9.30700e+02,3.87085e+01,-8.99067e+00,0.00000e+00,0.00000e+00,0.00000e+00
9.30700e+02,3.83837e+01,-1.19876e+01,0.00000e+00,0.00000e+00,0.00000e+00
9.30700e+02,3.80455e+01,-1.49844e+01,0.00000e+00,0.00000e+00,0.00000e+00
9.30700e+02,3.76628e+01,-1.79813e+01,0.00000e+00,0.00000e+00,0.00000e+00
9.30700e+02,3.72585e+01,-2.09782e+01,0.00000e+00,0.00000e+00,0.00000e+00
9.30700e+02,3.68185e+01,-2.39751e+01,0.00000e+00,0.00000e+00,0.00000e+00
9.30700e+02,3.63492e+01,-2.69720e+01,0.00000e+00,0.00000e+00,0.00000e+00
9.30700e+02,3.58475e+01,-2.99689e+01,0.00000e+00,0.00000e+00,0.00000e+00
9.30700e+02,3.53068e+01,-3.29658e+01,0.00000e+00,0.00000e+00,0.00000e+00
9.30700e+02,3.47261e+01,-3.59627e+01,0.00000e+00,0.00000e+00,0.00000e+00
9.30700e+02,3.40887e+01,-3.89596e+01,0.00000e+00,0.00000e+00,0.00000e+00
9.30700e+02,3.33962e+01,-4.19565e+01,0.00000e+00,0.00000e+00,0.00000e+00
9.30700e+02,3.26376e+01,-4.49533e+01,0.00000e+00,0.00000e+00,0.00000e+00
9.30700e+02,3.17897e+01,-4.79502e+01,0.00000e+00,0.00000e+00,0.00000e+00
9.30700e+02,3.08797e+01,-5.09471e+01,0.00000e+00,0.00000e+00,0.00000e+00
9.30700e+02,2.98297e+01,-5.39440e+01,0.00000e+00,0.00000e+00,0.00000e+00
9.30700e+02,2.87218e+01,-5.69409e+01,0.00000e+00,0.00000e+00,0.00000e+00
9.30700e+02,2.74524e+01,-5.99378e+01,0.00000e+00,0.00000e+00,0.00000e+00
9.30700e+02,2.60534e+01,-6.29347e+01,0.00000e+00,0.00000e+00,0.00000e+00
9.30700e+02,2.45228e+01,-6.59316e+01,0.00000e+00,0.00000e+00,0.00000e+00
9.30700e+02,2.27710e+01,-6.89285e+01,0.00000e+00,0.00000e+00,0.00000e+00
9.30700e+02,2.07631e+01,-7.19254e+01,0.00000e+00,0.00000e+00,0.00000e+00
9.30700e+02,1.84656e+01,-7.49222e+01,0.00000e+00,0.00000e+00,0.00000e+00
9.30700e+02,1.57483e+01,-7.79191e+01,0.00000e+00,0.00000e+00,0.00000e+00
9.30700e+02,1.22603e+01,-8.09160e+01,0.00000e+00,0.00000e+00,0.00000e+00
9.30700e+02,7.54299e+00,-8.39129e+01,0.00000e+00,0.00000e+00,0.00000e+00
9.30700e+02,-3.05636e+00,-8.69098e+01,0.00000e+00,0.00000e+00,0.00000e+00
9.30700e+02,-3.82132e+00,-8.69168e+01,0.00000e+00,0.00000e+00,0.00000e+00
9.30700e+02,-1.07906e+01,-8.38126e+01,0.00000e+00,0.00000e+00,0.00000e+00
9.30700e+02,-1.16345e+01,-8.07084e+01,0.00000e+00,0.00000e+00,0.00000e+00
9.30700e+02,-1.19256e+01,-7.76042e+01,0.00000e+00,0.00000e+00,0.00000e+00
9.30700e+02,-1.19698e+01,-7.45001e+01,0.00000e+00,0.00000e+00,0.00000e+00
9.30700e+02,-1.18279e+01,-7.13959e+01,0.00000e+00,0.00000e+00,0.00000e+00
9.30700e+02,-1.15692e+01,-6.82917e+01,0.00000e+00,0.00000e+00,0.00000e+00
9.30700e+02,-1.11933e+01,-6.51876e+01,0.00000e+00,0.00000e+00,0.00000e+00
9.30700e+02,-1.07458e+01,-6.20834e+01,0.00000e+00,0.00000e+00,0.00000e+00
9.30700e+02,-1.02569e+01,-5.89792e+01,0.00000e+00,0.00000e+00,0.00000e+00
9.30700e+02,-9.70544e+00,-5.58751e+01,0.00000e+00,0.00000e+00,0.00000e+00
9.30700e+02,-9.11493e+00,-5.27709e+01,0.00000e+00,0.00000e+00,0.00000e+00
9.30700e+02,-8.48637e+00,-4.96667e+01,0.00000e+00,0.00000e+00,0.00000e+00
9.30700e+02,-7.81993e+00,-4.65625e+01,0.00000e+00,0.00000e+00,0.00000e+00
9.30700e+02,-7.12973e+00,-4.34584e+01,0.00000e+00,0.00000e+00,0.00000e+00
9.30700e+02,-6.40909e+00,-4.03542e+01,0.00000e+00,0.00000e+00,0.00000e+00
9.30700e+02,-5.66897e+00,-3.72500e+01,0.00000e+00,0.00000e+00,0.00000e+00
9.30700e+02,-4.91137e+00,-3.41459e+01,0.00000e+00,0.00000e+00,0.00000e+00
9.30700e+02,-4.13818e+00,-3.10417e+01,0.00000e+00,0.00000e+00,0.00000e+00
9.30700e+02,-3.35837e+00,-2.79375e+01,0.00000e+00,0.00000e+00,0.00000e+00
9.30700e+02,-2.56834e+00,-2.48334e+01,0.00000e+00,0.00000e+00,0.00000e+00
9.30700e+02,-1.77660e+00,-2.17292e+01,0.00000e+00,0.00000e+00,0.00000e+00
9.30700e+02,-9.78745e-01,-1.86250e+01,0.00000e+00,0.00000e+00,0.00000e+00
9.30700e+02,-1.80973e-01,-1.55208e+01,0.00000e+00,0.00000e+00,0.00000e+00
9.30700e+02,6.13784e-01,-1.24167e+01,0.00000e+00,0.00000e+00,0.00000e+00
9.30700e+02,1.40854e+00,-9.31251e+00,0.00000e+00,0.00000e+00,0.00000e+00
9.30700e+02,2.18448e+00,-6.20834e+00,0.00000e+00,0.00000e+00,0.00000e+00
9.30700e+02,2.95691e+00,-3.10417e+00,0.00000e+00,0.00000e+00,0.00000e+00
1.02500e+03,3.90671e+01,0.00000e+00,0.00000e+00,0.00000e+00,0.00000e+00
1.02500e+03,3.88704e+01,-2.96869e+00,0.00000e+00,0.00000e+00,0.00000e+00
1.02500e+03,3.86086e+01,-5.93738e+00,0.00000e+00,0.00000e+00,0.00000e+00
1.02500e+03,3.83443e+01,-8.90607e+00,0.00000e+00,0.00000e+00,0.00000e+00
1.02500e+03,3.80226e+01,-1.18748e+01,0.00000e+00,0.00000e+00,0.00000e+00
1.02500e+03,3.76875e+01,-1.48435e+01,0.00000e+00,0.00000e+00,0.00000e+00
1.02500e+03,3.73084e+01,-1.78121e+01,0.00000e+00,0.00000e+00,0.00000e+00
1.02500e+03,3.69079e+01,-2.07808e+01,0.00000e+00,0.00000e+00,0.00000e+00
1.02500e+03,3.64721e+01,-2.37495e+01,0.00000e+00,0.00000e+00,0.00000e+00
1.02500e+03,3.60071e+01,-2.67182e+01,0.00000e+00,0.00000e+00,0.00000e+00
1.02500e+03,3.55102e+01,-2.96869e+01,0.00000e+00,0.00000e+00,0.00000e+00
1.02500e+03,3.49746e+01,-3.26556e+01,0.00000e+00,0.00000e+00,0.00000e+00
1.02500e+03,3.43994e+01,-3.56243e+01,0.00000e+00,0.00000e+00,0.00000e+00
1.02500e+03,3.37680e+01,-3.85930e+01,0.00000e+00,0.00000e+00,0.00000e+00
1.02500e+03,3.30819e+01,-4.15617e+01,0.00000e+00,0.00000e+00,0.00000e+00
1.02500e+03,3.23305e+01,-4.45304e+01,0.00000e+00,0.00000e+00,0.00000e+00
1.02500e+03,3.14906e+01,-4.74990e+01,0.00000e+00,0.00000e+00,0.00000e+00
1.02500e+03,3.05891e+01,-5.04677e+01,0.00000e+00,0.00000e+00,0.00000e+00
1.02500e+03,2.95491e+01,-5.34364e+01,0.00000e+00,0.00000e+00,0.00000e+00
1.02500e+03,2.84516e+01,-5.64051e+01,0.00000e+00,0.00000e+00,0.00000e+00
1.02500e+03,2.71940e+01,-5.93738e+01,0.00000e+00,0.00000e+00,0.00000e+00
1.02500e+03,2.58083e+01,-6.23425e+01,0.00000e+00,0.00000e+00,0.00000e+00
1.02500e+03,2.42920e+01,-6.53112e+01,0.00000e+00,0.00000e+00,0.00000e+00
1.02500e+03,2.25567e+01,-6.82799e+01,0.00000e+00,0.00000e+00,0.00000e+00
1.02500e+03,2.05677e+01,-7.12486e+01,0.00000e+00,0.00000e+00,0.00000e+00
1.02500e+03,1.82919e+01,-7.42173e+01,0.00000e+00,0.00000e+00,0.00000e+00
1.02500e+03,1.56001e+01,-7.71859e+01,0.00000e+00,0.00000e+00,0.00000e+00
1.02500e+03,1.21450e+01,-8.01546e+01,0.00000e+00,0.00000e+00,0.00000e+00
1.02500e+03,7.47201e+00,-8.31233e+01,0.00000e+00,0.00000e+00,0.00000e+00
1.02500e+03,-3.02760e+00,-8.60920e+01,0.00000e+00,0.00000e+00,0.00000e+00
1.02500e+03,-3.78536e+00,-8.60989e+01,0.00000e+00,0.00000e+00,0.00000e+00
1.02500e+03,-1.06891e+01,-8.30239e+01,0.00000e+00,0.00000e+00,0.00000e+00
1.02500e+03,-1.15250e+01,-7.99490e+01,0.00000e+00,0.00000e+00,0.00000e+00
1.02500e+03,-1.18134e+01,-7.68740e+01,0.00000e+00,0.00000e+00,0.00000e+00
1.02500e+03,-1.18572e+01,-7.37991e+01,0.00000e+00,0.00000e+00,0.00000e+00
1.02500e+03,-1.17166e+01,-7.07241e+01,0.00000e+00,0.00000e+00,0.00000e+00
1.02500e+03,-1.14604e+01,-6.76491e+01,0.00000e+00,0.00000e+00,0.00000e+00
1.02500e+03,-1.10880e+01,-6.45742e+01,0.00000e+00,0.00000e+00,0.00000e+00
1.02500e+03,-1.06447e+01,-6.14992e+01,0.00000e+00,0.00000e+00,0.00000e+00
1.02500e+03,-1.01604e+01,-5.84243e+01,0.00000e+00,0.00000e+00,0.00000e+00
1.02500e+03,-9.61411e+00,-5.53493e+01,0.00000e+00,0.00000e+00,0.00000e+00
1.02500e+03,-9.02916e+00,-5.22743e+01,0.00000e+00,0.00000e+00,0.00000e+00
1.02500e+03,-8.40652e+00,-4.91994e+01,0.00000e+00,0.00000e+00,0.00000e+00
1.02500e+03,-7.74634e+00,-4.61244e+01,0.00000e+00,0.00000e+00,0.00000e+00
1.02500e+03,-7.06264e+00,-4.30495e+01,0.00000e+00,0.00000e+00,0.00000e+00
1.02500e+03,-6.34878e+00,-3.99745e+01,0.00000e+00,0.00000e+00,0.00000e+00
1.02500e+03,-5.61563e+00,-3.68995e+01,0.00000e+00,0.00000e+00,0.00000e+00
1.02500e+03,-4.86516e+00,-3.38246e+01,0.00000e+00,0.00000e+00,0.00000e+00
1.02500e+03,-4.09924e+00,-3.07496e+01,0.00000e+00,0.00000e+00,0.00000e+00
1.02500e+03,-3.32677e+00,-2.76746e+01,0.00000e+00,0.00000e+00,0.00000e+00
1.02500e+03,-2.54417e+00,-2.45997e+01,0.00000e+00,0.00000e+00,0.00000e+00
1.02500e+03,-1.75988e+00,-2.15247e+01,0.00000e+00,0.00000e+00,0.00000e+00
1.02500e+03,-9.69535e-01,-1.84498e+01,0.00000e+00,0.00000e+00,0.00000e+00
1.02500e+03,-1.79270e-01,-1.53748e+01,0.00000e+00,0.00000e+00,0.00000e+00
1.02500e+03,6.08008e-01,-1.22998e+01,0.00000e+00,0.00000e+00,0.00000e+00
1.02500e+03,1.39529e+00,-9.22488e+00,0.00000e+00,0.00000e+00,0.00000e+00
1.02500e+03,2.16392e+00,-6.14992e+00,0.00000e+00,0.00000e+00,0.00000e+00
1.02500e+03,2.92908e+00,-3.07496e+00,0.00000e+00,0.00000e+00,0.00000e+00
1.11650e+03,3.87070e+01,0.00000e+00,0.00000e+00,0.00000e+00,0.00000e+00
1.11650e+03,3.85121e+01,-2.94133e+00,0.00000e+00,0.00000e+00,0.00000e+00
1.11650e+03,3.82528e+01,-5.88266e+00,0.00000e+00,0.00000e+00,0.00000e+00
1.11650e+03,3.79909e+01,-8.82398e+00,0.00000e+00,0.00000e+00,0.00000e+00
1.11650e+03,3.76721e+01,-1.17653e+01,0.00000e+00,0.00000e+00,0.00000e+00
1.11650e+03,3.73401e+01,-1.47066e+01,0.00000e+00,0.00000e+00,0.00000e+00
1.11650e+03,3.69645e+01,-1.76480e+01,0.00000e+00,0.00000e+00,0.00000e+00
1.11650e+03,3.65678e+01,-2.05893e+01,0.00000e+00,0.00000e+00,0.00000e+00
1.11650e+03,3.61359e+01,-2.35306e+01,0.00000e+00,0.00000e+00,0.00000e+00
1.11650e+03,3.56753e+01,-2.64720e+01,0.00000e+00,0.00000e+00,0.00000e+00
1.11650e+03,3.51829e+01,-2.94133e+01,0.00000e+00,0.00000e+00,0.00000e+00
1.11650e+03,3.46522e+01,-3.23546e+01,0.00000e+00,0.00000e+00,0.00000e+00
1.11650e+03,3.40823e+01,-3.52959e+01,0.00000e+00,0.00000e+00,0.00000e+00
1.11650e+03,3.34567e+01,-3.82373e+01,0.00000e+00,0.00000e+00,0.00000e+00
1.11650e+03,3.27770e+01,-4.11786e+01,0.00000e+00,0.00000e+00,0.00000e+00
1.11650e+03,3.20325e+01,-4.41199e+01,0.00000e+00,0.00000e+00,0.00000e+00
1.11650e+03,3.12004e+01,-4.70612e+01,0.00000e+00,0.00000e+00,0.00000e+00
1.11650e+03,3.03072e+01,-5.00026e+01,0.00000e+00,0.00000e+00,0.00000e+00
1.11650e+03,2.92767e+01,-5.29439e+01,0.00000e+00,0.00000e+00,0.00000e+00
1.11650e+03,2.81893e+01,-5.58852e+01,0.00000e+00,0.00000e+00,0.00000e+00
1.11650e+03,2.69434e+01,-5.88266e+01,0.00000e+00,0.00000e+00,0.00000e+00
1.11650e+03,2.55704e+01,-6.17679e+01,0.00000e+00,0.00000e+00,0.00000e+00
1.11650e+03,2.40681e+01,-6.47092e+01,0.00000e+00,0.00000e+00,0.00000e+00
1.11650e+03,2.23488e+01,-6.76505e+01,0.00000e+00,0.00000e+00,0.00000e+00
1.11650e+03,2.03781e+01,-7.05919e+01,0.00000e+00,0.00000e+00,0.00000e+00
1.11650e+03,1.81233e+01,-7.35332e+01,0.00000e+00,0.00000e+00,0.00000e+00
1.11650e+03,1.54563e+01,-7.64745e+01,0.00000e+00,0.00000e+00,0.00000e+00
1.11650e+03,1.20330e+01,-7.94159e+01,0.00000e+00,0.00000e+00,0.00000e+00
1.11650e+03,7.40314e+00,-8.23572e+01,0.00000e+00,0.00000e+00,0.00000e+00
1.11650e+03,-2.99970e+00,-8.52985e+01,0.00000e+00,0.00000e+00,0.00000e+00
1.11650e+03,-3.75047e+00,-8.53053e+01,0.00000e+00,0.00000e+00,0.00000e+00
1.11650e+03,-1.05906e+01,-8.22587e+01,0.00000e+00,0.00000e+00,0.00000e+00
1.11650e+03,-1.14188e+01,-7.92121e+01,0.00000e+00,0.00000e+00,0.00000e+00
1.11650e+03,-1.17045e+01,-7.61655e+01,0.00000e+00,0.00000e+00,0.00000e+00
1.11650e+03,-1.17479e+01,-7.31189e+01,0.00000e+00,0.00000e+00,0.00000e+00
1.11650e+03,-1.16086e+01,-7.00722e+01,0.00000e+00,0.00000e+00,0.00000e+00
1.11650e+03,-1.13547e+01,-6.70256e+01,0.00000e+00,0.00000e+00,0.00000e+00
1.11650e+03,-1.09858e+01,-6.39790e+01,0.00000e+00,0.00000e+00,0.00000e+00
1.11650e+03,-1.05466e+01,-6.09324e+01,0.00000e+00,0.00000e+00,0.00000e+00
1.11650e+03,-1.00667e+01,-5.78858e+01,0.00000e+00,0.00000e+00,0.00000e+00
1.11650e+03,-9.52550e+00,-5.48391e+01,0.00000e+00,0.00000e+00,0.00000e+00
1.11650e+03,-8.94594e+00,-5.17925e+01,0.00000e+00,0.00000e+00,0.00000e+00
1.11650e+03,-8.32904e+00,-4.87459e+01,0.00000e+00,0.00000e+00,0.00000e+00
1.11650e+03,-7.67495e+00,-4.56993e+01,0.00000e+00,0.00000e+00,0.00000e+00
1.11650e+03,-6.99754e+00,-4.26527e+01,0.00000e+00,0.00000e+00,0.00000e+00
1.11650e+03,-6.29027e+00,-3.96060e+01,0.00000e+00,0.00000e+00,0.00000e+00
1.11650e+03,-5.56387e+00,-3.65594e+01,0.00000e+00,0.00000e+00,0.00000e+00
1.11650e+03,-4.82031e+00,-3.35128e+01,0.00000e+00,0.00000e+00,0.00000e+00
1.11650e+03,-4.06146e+00,-3.04662e+01,0.00000e+00,0.00000e+00,0.00000e+00
1.11650e+03,-3.29611e+00,-2.74196e+01,0.00000e+00,0.00000e+00,0.00000e+00
1.11650e+03,-2.52072e+00,-2.43730e+01,0.00000e+00,0.00000e+00,0.00000e+00
1.11650e+03,-1.74366e+00,-2.13263e+01,0.00000e+00,0.00000e+00,0.00000e+00
1.11650e+03,-9.60599e-01,-1.82797e+01,0.00000e+00,0.00000e+00,0.00000e+00
1.11650e+03,-1.77618e-01,-1.52331e+01,0.00000e+00,0.00000e+00,0.00000e+00
1.11650e+03,6.02404e-01,-1.21865e+01,0.00000e+00,0.00000e+00,0.00000e+00
1.11650e+03,1.38243e+00,-9.13986e+00,0.00000e+00,0.00000e+00,0.00000e+00
1.11650e+03,2.14398e+00,-6.09324e+00,0.00000e+00,0.00000e+00,0.00000e+00
1.11650e+03,2.90209e+00,-3.04662e+00,0.00000e+00,0.00000e+00,0.00000e+00
1.20500e+03,3.76912e+01,0.00000e+00,0.00000e+00,0.00000e+00,0.00000e+00
1.20500e+03,3.75014e+01,-2.86413e+00,0.00000e+00,0.00000e+00,0.00000e+00
1.20500e+03,3.72488e+01,-5.72827e+00,0.00000e+00,0.00000e+00,0.00000e+00
1.20500e+03,3.69938e+01,-8.59240e+00,0.00000e+00,0.00000e+00,0.00000e+00
1.20500e+03,3.66834e+01,-1.14565e+01,0.00000e+00,0.00000e+00,0.00000e+00
1.20500e+03,3.63602e+01,-1.43207e+01,0.00000e+00,0.00000e+00,0.00000e+00
1.20500e+03,3.59944e+01,-1.71848e+01,0.00000e+00,0.00000e+00,0.00000e+00
1.20500e+03,3.56080e+01,-2.00489e+01,0.00000e+00,0.00000e+00,0.00000e+00
1.20500e+03,3.51875e+01,-2.29131e+01,0.00000e+00,0.00000e+00,0.00000e+00
1.20500e+03,3.47390e+01,-2.57772e+01,0.00000e+00,0.00000e+00,0.00000e+00
1.20500e+03,3.42596e+01,-2.86413e+01,0.00000e+00,0.00000e+00,0.00000e+00
1.20500e+03,3.37428e+01,-3.15055e+01,0.00000e+00,0.00000e+00,0.00000e+00
1.20500e+03,3.31878e+01,-3.43696e+01,0.00000e+00,0.00000e+00,0.00000e+00
1.20500e+03,3.25787e+01,-3.72337e+01,0.00000e+00,0.00000e+00,0.00000e+00
1.20500e+03,3.19168e+01,-4.00979e+01,0.00000e+00,0.00000e+00,0.00000e+00
1.20500e+03,3.11919e+01,-4.29620e+01,0.00000e+00,0.00000e+00,0.00000e+00
1.20500e+03,3.03815e+01,-4.58261e+01,0.00000e+00,0.00000e+00,0.00000e+00
1.20500e+03,2.95118e+01,-4.86903e+01,0.00000e+00,0.00000e+00,0.00000e+00
1.20500e+03,2.85084e+01,-5.15544e+01,0.00000e+00,0.00000e+00,0.00000e+00
1.20500e+03,2.74495e+01,-5.44186e+01,0.00000e+00,0.00000e+00,0.00000e+00
1.20500e+03,2.62363e+01,-5.72827e+01,0.00000e+00,0.00000e+00,0.00000e+00
1.20500e+03,2.48993e+01,-6.01468e+01,0.00000e+00,0.00000e+00,0.00000e+00
1.20500e+03,2.34365e+01,-6.30110e+01,0.00000e+00,0.00000e+00,0.00000e+00
1.20500e+03,2.17623e+01,-6.58751e+01,0.00000e+00,0.00000e+00,0.00000e+00
1.20500e+03,1.98433e+01,-6.87392e+01,0.00000e+00,0.00000e+00,0.00000e+00
1.20500e+03,1.76476e+01,-7.16034e+01,0.00000e+00,0.00000e+00,0.00000e+00
1.20500e+03,1.50506e+01,-7.44675e+01,0.00000e+00,0.00000e+00,0.00000e+00
1.20500e+03,1.17172e+01,-7.73316e+01,0.00000e+00,0.00000e+00,0.00000e+00
1.20500e+03,7.20885e+00,-8.01958e+01,0.00000e+00,0.00000e+00,0.00000e+00
1.20500e+03,-2.92097e+00,-8.30599e+01,0.00000e+00,0.00000e+00,0.00000e+00
1.20500e+03,-3.65204e+00,-8.30665e+01,0.00000e+00,0.00000e+00,0.00000e+00
1.20500e+03,-1.03126e+01,-8.00999e+01,0.00000e+00,0.00000e+00,0.00000e+00
1.20500e+03,-1.11191e+01,-7.71332e+01,0.00000e+00,0.00000e+00,0.00000e+00
1.20500e+03,-1.13974e+01,-7.41666e+01,0.00000e+00,0.00000e+00,0.00000e+00
1.20500e+03,-1.14396e+01,-7.11999e+01,0.00000e+00,0.00000e+00,0.00000e+00
1.20500e+03,-1.13040e+01,-6.82332e+01,0.00000e+00,0.00000e+00,0.00000e+00
1.20500e+03,-1.10567e+01,-6.52666e+01,0.00000e+00,0.00000e+00,0.00000e+00
1.20500e+03,-1.06975e+01,-6.22999e+01,0.00000e+00,0.00000e+00,0.00000e+00
1.20500e+03,-1.02698e+01,-5.93332e+01,0.00000e+00,0.00000e+00,0.00000e+00
1.20500e+03,-9.80253e+00,-5.63666e+01,0.00000e+00,0.00000e+00,0.00000e+00
1.20500e+03,-9.27551e+00,-5.33999e+01,0.00000e+00,0.00000e+00,0.00000e+00
1.20500e+03,-8.71115e+00,-5.04333e+01,0.00000e+00,0.00000e+00,0.00000e+00
1.20500e+03,-8.11045e+00,-4.74666e+01,0.00000e+00,0.00000e+00,0.00000e+00
1.20500e+03,-7.47352e+00,-4.44999e+01,0.00000e+00,0.00000e+00,0.00000e+00
1.20500e+03,-6.81389e+00,-4.15333e+01,0.00000e+00,0.00000e+00,0.00000e+00
1.20500e+03,-6.12518e+00,-3.85666e+01,0.00000e+00,0.00000e+00,0.00000e+00
1.20500e+03,-5.41785e+00,-3.55999e+01,0.00000e+00,0.00000e+00,0.00000e+00
1.20500e+03,-4.69381e+00,-3.26333e+01,0.00000e+00,0.00000e+00,0.00000e+00
1.20500e+03,-3.95486e+00,-2.96666e+01,0.00000e+00,0.00000e+00,0.00000e+00
1.20500e+03,-3.20961e+00,-2.67000e+01,0.00000e+00,0.00000e+00,0.00000e+00
1.20500e+03,-2.45457e+00,-2.37333e+01,0.00000e+00,0.00000e+00,0.00000e+00
1.20500e+03,-1.69790e+00,-2.07666e+01,0.00000e+00,0.00000e+00,0.00000e+00
1.20500e+03,-9.35389e-01,-1.78000e+01,0.00000e+00,0.00000e+00,0.00000e+00
1.20500e+03,-1.72956e-01,-1.48333e+01,0.00000e+00,0.00000e+00,0.00000e+00
1.20500e+03,5.86594e-01,-1.18666e+01,0.00000e+00,0.00000e+00,0.00000e+00
1.20500e+03,1.34615e+00,-8.89999e+00,0.00000e+00,0.00000e+00,0.00000e+00
1.20500e+03,2.08771e+00,-5.93332e+00,0.00000e+00,0.00000e+00,0.00000e+00
1.20500e+03,2.82592e+00,-2.96666e+00,0.00000e+00,0.00000e+00,0.00000e+00
1.29010e+03,3.63234e+01,0.00000e+00,0.00000e+00,0.00000e+00,0.00000e+00
1.29010e+03,3.61405e+01,-2.76019e+00,0.00000e+00,0.00000e+00,0.00000e+00
1.29010e+03,3.58971e+01,-5.52039e+00,0.00000e+00,0.00000e+00,0.00000e+00
1.29010e+03,3.56513e+01,-8.28058e+00,0.00000e+00,0.00000e+00,0.00000e+00
1.29010e+03,3.53522e+01,-1.10408e+01,0.00000e+00,0.00000e+00,0.00000e+00
1.29010e+03,3.50407e+01,-1.38010e+01,0.00000e+00,0.00000e+00,0.00000e+00
1.29010e+03,3.46882e+01,-1.65612e+01,0.00000e+00,0.00000e+00,0.00000e+00
1.29010e+03,3.43158e+01,-1.93214e+01,0.00000e+00,0.00000e+00,0.00000e+00
1.29010e+03,3.39106e+01,-2.20816e+01,0.00000e+00,0.00000e+00,0.00000e+00
1.29010e+03,3.34783e+01,-2.48418e+01,0.00000e+00,0.00000e+00,0.00000e+00
1.29010e+03,3.30163e+01,-2.76019e+01,0.00000e+00,0.00000e+00,0.00000e+00
1.29010e+03,3.25183e+01,-3.03621e+01,0.00000e+00,0.00000e+00,0.00000e+00
1.29010e+03,3.19834e+01,-3.31223e+01,0.00000e+00,0.00000e+00,0.00000e+00
1.29010e+03,3.13964e+01,-3.58825e+01,0.00000e+00,0.00000e+00,0.00000e+00
1.29010e+03,3.07585e+01,-3.86427e+01,0.00000e+00,0.00000e+00,0.00000e+00
1.29010e+03,3.00599e+01,-4.14029e+01,0.00000e+00,0.00000e+00,0.00000e+00
1.29010e+03,2.92790e+01,-4.41631e+01,0.00000e+00,0.00000e+00,0.00000e+00
1.29010e+03,2.84408e+01,-4.69233e+01,0.00000e+00,0.00000e+00,0.00000e+00
1.29010e+03,2.74738e+01,-4.96835e+01,0.00000e+00,0.00000e+00,0.00000e+00
1.29010e+03,2.64534e+01,-5.24437e+01,0.00000e+00,0.00000e+00,0.00000e+00
1.29010e+03,2.52842e+01,-5.52039e+01,0.00000e+00,0.00000e+00,0.00000e+00
1.29010e+03,2.39957e+01,-5.79641e+01,0.00000e+00,0.00000e+00,0.00000e+00
1.29010e+03,2.25860e+01,-6.07243e+01,0.00000e+00,0.00000e+00,0.00000e+00
1.29010e+03,2.09725e+01,-6.34845e+01,0.00000e+00,0.00000e+00,0.00000e+00
1.29010e+03,1.91232e+01,-6.62447e+01,0.00000e+00,0.00000e+00,0.00000e+00
1.29010e+03,1.70072e+01,-6.90049e+01,0.00000e+00,0.00000e+00,0.00000e+00
1.29010e+03,1.45045e+01,-7.17651e+01,0.00000e+00,0.00000e+00,0.00000e+00
1.29010e+03,1.12920e+01,-7.45253e+01,0.00000e+00,0.00000e+00,0.00000e+00
1.29010e+03,6.94724e+00,-7.72855e+01,0.00000e+00,0.00000e+00,0.00000e+00
1.29010e+03,-2.81497e+00,-8.00457e+01,0.00000e+00,0.00000e+00,0.00000e+00
1.29010e+03,-3.51951e+00,-8.00521e+01,0.00000e+00,0.00000e+00,0.00000e+00
1.29010e+03,-9.93839e+00,-7.71931e+01,0.00000e+00,0.00000e+00,0.00000e+00
1.29010e+03,-1.07156e+01,-7.43341e+01,0.00000e+00,0.00000e+00,0.00000e+00
1.29010e+03,-1.09838e+01,-7.14751e+01,0.00000e+00,0.00000e+00,0.00000e+00
1.29010e+03,-1.10244e+01,-6.86160e+01,0.00000e+00,0.00000e+00,0.00000e+00
1.29010e+03,-1.08937e+01,-6.57570e+01,0.00000e+00,0.00000e+00,0.00000e+00
1.29010e+03,-1.06555e+01,-6.28980e+01,0.00000e+00,0.00000e+00,0.00000e+00
1.29010e+03,-1.03093e+01,-6.00390e+01,0.00000e+00,0.00000e+00,0.00000e+00
1.29010e+03,-9.89713e+00,-5.71800e+01,0.00000e+00,0.00000e+00,0.00000e+00
1.29010e+03,-9.44680e+00,-5.43210e+01,0.00000e+00,0.00000e+00,0.00000e+00
1.29010e+03,-8.93890e+00,-5.14620e+01,0.00000e+00,0.00000e+00,0.00000e+00
1.29010e+03,-8.39503e+00,-4.86030e+01,0.00000e+00,0.00000e+00,0.00000e+00
1.29010e+03,-7.81612e+00,-4.57440e+01,0.00000e+00,0.00000e+00,0.00000e+00
1.29010e+03,-7.20231e+00,-4.28850e+01,0.00000e+00,0.00000e+00,0.00000e+00
1.29010e+03,-6.56662e+00,-4.00260e+01,0.00000e+00,0.00000e+00,0.00000e+00
1.29010e+03,-5.90290e+00,-3.71670e+01,0.00000e+00,0.00000e+00,0.00000e+00
1.29010e+03,-5.22123e+00,-3.43080e+01,0.00000e+00,0.00000e+00,0.00000e+00
1.29010e+03,-4.52347e+00,-3.14490e+01,0.00000e+00,0.00000e+00,0.00000e+00
1.29010e+03,-3.81134e+00,-2.85900e+01,0.00000e+00,0.00000e+00,0.00000e+00
1.29010e+03,-3.09313e+00,-2.57310e+01,0.00000e+00,0.00000e+00,0.00000e+00
1.29010e+03,-2.36549e+00,-2.28720e+01,0.00000e+00,0.00000e+00,0.00000e+00
1.29010e+03,-1.63628e+00,-2.00130e+01,0.00000e+00,0.00000e+00,0.00000e+00
1.29010e+03,-9.01444e-01,-1.71540e+01,0.00000e+00,0.00000e+00,0.00000e+00
1.29010e+03,-1.66680e-01,-1.42950e+01,0.00000e+00,0.00000e+00,0.00000e+00
1.29010e+03,5.65307e-01,-1.14360e+01,0.00000e+00,0.00000e+00,0.00000e+00
1.29010e+03,1.29729e+00,-8.57701e+00,0.00000e+00,0.00000e+00,0.00000e+00
1.29010e+03,2.01195e+00,-5.71800e+00,0.00000e+00,0.00000e+00,0.00000e+00
1.29010e+03,2.72337e+00,-2.85900e+00,0.00000e+00,0.00000e+00,0.00000e+00
1.37170e+03,3.50118e+01,0.00000e+00,0.00000e+00,0.00000e+00,0.00000e+00
1.37170e+03,3.48355e+01,-2.66053e+00,0.00000e+00,0.00000e+00,0.00000e+00
1.37170e+03,3.46009e+01,-5.32106e+00,0.00000e+00,0.00000e+00,0.00000e+00
1.37170e+03,3.43640e+01,-7.98159e+00,0.00000e+00,0.00000e+00,0.00000e+00
1.37170e+03,3.40757e+01,-1.06421e+01,0.00000e+00,0.00000e+00,0.00000e+00
1.37170e+03,3.37754e+01,-1.33027e+01,0.00000e+00,0.00000e+00,0.00000e+00
1.37170e+03,3.34357e+01,-1.59632e+01,0.00000e+00,0.00000e+00,0.00000e+00
1.37170e+03,3.30768e+01,-1.86237e+01,0.00000e+00,0.00000e+00,0.00000e+00
1.37170e+03,3.26861e+01,-2.12842e+01,0.00000e+00,0.00000e+00,0.00000e+00
1.37170e+03,3.22695e+01,-2.39448e+01,0.00000e+00,0.00000e+00,0.00000e+00
1.37170e+03,3.18241e+01,-2.66053e+01,0.00000e+00,0.00000e+00,0.00000e+00
1.37170e+03,3.13441e+01,-2.92658e+01,0.00000e+00,0.00000e+00,0.00000e+00
1.37170e+03,3.08286e+01,-3.19264e+01,0.00000e+00,0.00000e+00,0.00000e+00
1.37170e+03,3.02627e+01,-3.45869e+01,0.00000e+00,0.00000e+00,0.00000e+00
1.37170e+03,2.96479e+01,-3.72474e+01,0.00000e+00,0.00000e+00,0.00000e+00
1.37170e+03,2.89745e+01,-3.99080e+01,0.00000e+00,0.00000e+00,0.00000e+00
1.37170e+03,2.82218e+01,-4.25685e+01,0.00000e+00,0.00000e+00,0.00000e+00
1.37170e+03,2.74139e+01,-4.52290e+01,0.00000e+00,0.00000e+00,0.00000e+00
1.37170e+03,2.64818e+01,-4.78895e+01,0.00000e+00,0.00000e+00,0.00000e+00
1.37170e+03,2.54982e+01,-5.05501e+01,0.00000e+00,0.00000e+00,0.00000e+00
1.37170e+03,2.43712e+01,-5.32106e+01,0.00000e+00,0.00000e+00,0.00000e+00
1.37170e+03,2.31293e+01,-5.58711e+01,0.00000e+00,0.00000e+00,0.00000e+00
1.37170e+03,2.17704e+01,-5.85317e+01,0.00000e+00,0.00000e+00,0.00000e+00
1.37170e+03,2.02153e+01,-6.11922e+01,0.00000e+00,0.00000e+00,0.00000e+00
1.37170e+03,1.84327e+01,-6.38527e+01,0.00000e+00,0.00000e+00,0.00000e+00
1.37170e+03,1.63931e+01,-6.65133e+01,0.00000e+00,0.00000e+00,0.00000e+00
1.37170e+03,1.39807e+01,-6.91738e+01,0.00000e+00,0.00000e+00,0.00000e+00
1.37170e+03,1.08843e+01,-7.18343e+01,0.00000e+00,0.00000e+00,0.00000e+00
1.37170e+03,6.69639e+00,-7.44949e+01,0.00000e+00,0.00000e+00,0.00000e+00
1.37170e+03,-2.71333e+00,-7.71554e+01,0.00000e+00,0.00000e+00,0.00000e+00
1.37170e+03,-3.39243e+00,-7.71616e+01,0.00000e+00,0.00000e+00,0.00000e+00
1.37170e+03,-9.57954e+00,-7.44058e+01,0.00000e+00,0.00000e+00,0.00000e+00
1.37170e+03,-1.03287e+01,-7.16500e+01,0.00000e+00,0.00000e+00,0.00000e+00
1.37170e+03,-1.05872e+01,-6.88942e+01,0.00000e+00,0.00000e+00,0.00000e+00
1.37170e+03,-1.06264e+01,-6.61385e+01,0.00000e+00,0.00000e+00,0.00000e+00
1.37170e+03,-1.05004e+01,-6.33827e+01,0.00000e+00,0.00000e+00,0.00000e+00
1.37170e+03,-1.02708e+01,-6.06269e+01,0.00000e+00,0.00000e+00,0.00000e+00
1.37170e+03,-9.93701e+00,-5.78712e+01,0.00000e+00,0.00000e+00,0.00000e+00
1.37170e+03,-9.53977e+00,-5.51154e+01,0.00000e+00,0.00000e+00,0.00000e+00
1.37170e+03,-9.10569e+00,-5.23596e+01,0.00000e+00,0.00000e+00,0.00000e+00
1.37170e+03,-8.61613e+00,-4.96039e+01,0.00000e+00,0.00000e+00,0.00000e+00
1.37170e+03,-8.09190e+00,-4.68481e+01,0.00000e+00,0.00000e+00,0.00000e+00
1.37170e+03,-7.53389e+00,-4.40923e+01,0.00000e+00,0.00000e+00,0.00000e+00
1.37170e+03,-6.94225e+00,-4.13365e+01,0.00000e+00,0.00000e+00,0.00000e+00
1.37170e+03,-6.32951e+00,-3.85808e+01,0.00000e+00,0.00000e+00,0.00000e+00
1.37170e+03,-5.68976e+00,-3.58250e+01,0.00000e+00,0.00000e+00,0.00000e+00
1.37170e+03,-5.03271e+00,-3.30692e+01,0.00000e+00,0.00000e+00,0.00000e+00
1.37170e+03,-4.36014e+00,-3.03135e+01,0.00000e+00,0.00000e+00,0.00000e+00
1.37170e+03,-3.67372e+00,-2.75577e+01,0.00000e+00,0.00000e+00,0.00000e+00
1.37170e+03,-2.98144e+00,-2.48019e+01,0.00000e+00,0.00000e+00,0.00000e+00
1.37170e+03,-2.28008e+00,-2.20462e+01,0.00000e+00,0.00000e+00,0.00000e+00
1.37170e+03,-1.57720e+00,-1.92904e+01,0.00000e+00,0.00000e+00,0.00000e+00
1.37170e+03,-8.68894e-01,-1.65346e+01,0.00000e+00,0.00000e+00,0.00000e+00
1.37170e+03,-1.60661e-01,-1.37788e+01,0.00000e+00,0.00000e+00,0.00000e+00
1.37170e+03,5.44895e-01,-1.10231e+01,0.00000e+00,0.00000e+00,0.00000e+00
1.37170e+03,1.25045e+00,-8.26731e+00,0.00000e+00,0.00000e+00,0.00000e+00
1.37170e+03,1.93930e+00,-5.51154e+00,0.00000e+00,0.00000e+00,0.00000e+00
1.37170e+03,2.62503e+00,-2.75577e+00,0.00000e+00,0.00000e+00,0.00000e+00
1.44960e+03,3.37597e+01,0.00000e+00,0.00000e+00,0.00000e+00,0.00000e+00
1.44960e+03,3.35897e+01,-2.56538e+00,0.00000e+00,0.00000e+00,0.00000e+00
1.44960e+03,3.33635e+01,-5.13077e+00,0.00000e+00,0.00000e+00,0.00000e+00
1.44960e+03,3.31351e+01,-7.69615e+00,0.00000e+00,0.00000e+00,0.00000e+00
1.44960e+03,3.28571e+01,-1.02615e+01,0.00000e+00,0.00000e+00,0.00000e+00
1.44960e+03,3.25675e+01,-1.28269e+01,0.00000e+00,0.00000e+00,0.00000e+00
1.44960e+03,3.22399e+01,-1.53923e+01,0.00000e+00,0.00000e+00,0.00000e+00
1.44960e+03,3.18939e+01,-1.79577e+01,0.00000e+00,0.00000e+00,0.00000e+00
1.44960e+03,3.15172e+01,-2.05231e+01,0.00000e+00,0.00000e+00,0.00000e+00
1.44960e+03,3.11155e+01,-2.30885e+01,0.00000e+00,0.00000e+00,0.00000e+00
1.44960e+03,3.06860e+01,-2.56538e+01,0.00000e+00,0.00000e+00,0.00000e+00
1.44960e+03,3.02232e+01,-2.82192e+01,0.00000e+00,0.00000e+00,0.00000e+00
1.44960e+03,2.97261e+01,-3.07846e+01,0.00000e+00,0.00000e+00,0.00000e+00
1.44960e+03,2.91805e+01,-3.33500e+01,0.00000e+00,0.00000e+00,0.00000e+00
1.44960e+03,2.85877e+01,-3.59154e+01,0.00000e+00,0.00000e+00,0.00000e+00
1.44960e+03,2.79383e+01,-3.84808e+01,0.00000e+00,0.00000e+00,0.00000e+00
1.44960e+03,2.72125e+01,-4.10462e+01,0.00000e+00,0.00000e+00,0.00000e+00
1.44960e+03,2.64335e+01,-4.36115e+01,0.00000e+00,0.00000e+00,0.00000e+00
1.44960e+03,2.55347e+01,-4.61769e+01,0.00000e+00,0.00000e+00,0.00000e+00
1.44960e+03,2.45863e+01,-4.87423e+01,0.00000e+00,0.00000e+00,0.00000e+00
1.44960e+03,2.34997e+01,-5.13077e+01,0.00000e+00,0.00000e+00,0.00000e+00
1.44960e+03,2.23022e+01,-5.38731e+01,0.00000e+00,0.00000e+00,0.00000e+00
1.44960e+03,2.09919e+01,-5.64385e+01,0.00000e+00,0.00000e+00,0.00000e+00
1.44960e+03,1.94923e+01,-5.90039e+01,0.00000e+00,0.00000e+00,0.00000e+00
1.44960e+03,1.77735e+01,-6.15692e+01,0.00000e+00,0.00000e+00,0.00000e+00
1.44960e+03,1.58069e+01,-6.41346e+01,0.00000e+00,0.00000e+00,0.00000e+00
1.44960e+03,1.34808e+01,-6.67000e+01,0.00000e+00,0.00000e+00,0.00000e+00
1.44960e+03,1.04950e+01,-6.92654e+01,0.00000e+00,0.00000e+00,0.00000e+00
1.44960e+03,6.45692e+00,-7.18308e+01,0.00000e+00,0.00000e+00,0.00000e+00
1.44960e+03,-2.61629e+00,-7.43962e+01,0.00000e+00,0.00000e+00,0.00000e+00
1.44960e+03,-3.27111e+00,-7.44021e+01,0.00000e+00,0.00000e+00,0.00000e+00
1.44960e+03,-9.23696e+00,-7.17449e+01,0.00000e+00,0.00000e+00,0.00000e+00
1.44960e+03,-9.95928e+00,-6.90877e+01,0.00000e+00,0.00000e+00,0.00000e+00
1.44960e+03,-1.02085e+01,-6.64305e+01,0.00000e+00,0.00000e+00,0.00000e+00
1.44960e+03,-1.02464e+01,-6.37732e+01,0.00000e+00,0.00000e+00,0.00000e+00
1.44960e+03,-1.01249e+01,-6.11160e+01,0.00000e+00,0.00000e+00,0.00000e+00
1.44960e+03,-9.90345e+00,-5.84588e+01,0.00000e+00,0.00000e+00,0.00000e+00
1.44960e+03,-9.58164e+00,-5.58016e+01,0.00000e+00,0.00000e+00,0.00000e+00
1.44960e+03,-9.19861e+00,-5.31444e+01,0.00000e+00,0.00000e+00,0.00000e+00
1.44960e+03,-8.78006e+00,-5.04872e+01,0.00000e+00,0.00000e+00,0.00000e+00
1.44960e+03,-8.30801e+00,-4.78299e+01,0.00000e+00,0.00000e+00,0.00000e+00
1.44960e+03,-7.80252e+00,-4.51727e+01,0.00000e+00,0.00000e+00,0.00000e+00
1.44960e+03,-7.26447e+00,-4.25155e+01,0.00000e+00,0.00000e+00,0.00000e+00
1.44960e+03,-6.69398e+00,-3.98583e+01,0.00000e+00,0.00000e+00,0.00000e+00
1.44960e+03,-6.10316e+00,-3.72011e+01,0.00000e+00,0.00000e+00,0.00000e+00
1.44960e+03,-5.48628e+00,-3.45438e+01,0.00000e+00,0.00000e+00,0.00000e+00
1.44960e+03,-4.85273e+00,-3.18866e+01,0.00000e+00,0.00000e+00,0.00000e+00
1.44960e+03,-4.20421e+00,-2.92294e+01,0.00000e+00,0.00000e+00,0.00000e+00
1.44960e+03,-3.54234e+00,-2.65722e+01,0.00000e+00,0.00000e+00,0.00000e+00
1.44960e+03,-2.87482e+00,-2.39150e+01,0.00000e+00,0.00000e+00,0.00000e+00
1.44960e+03,-2.19854e+00,-2.12577e+01,0.00000e+00,0.00000e+00,0.00000e+00
1.44960e+03,-1.52080e+00,-1.86005e+01,0.00000e+00,0.00000e+00,0.00000e+00
1.44960e+03,-8.37821e-01,-1.59433e+01,0.00000e+00,0.00000e+00,0.00000e+00
1.44960e+03,-1.54916e-01,-1.32861e+01,0.00000e+00,0.00000e+00,0.00000e+00
1.44960e+03,5.25408e-01,-1.06289e+01,0.00000e+00,0.00000e+00,0.00000e+00
1.44960e+03,1.20573e+00,-7.97166e+00,0.00000e+00,0.00000e+00,0.00000e+00
1.44960e+03,1.86995e+00,-5.31444e+00,0.00000e+00,0.00000e+00,0.00000e+00
1.44960e+03,2.53116e+00,-2.65722e+00,0.00000e+00,0.00000e+00,0.00000e+00
1.52340e+03,3.25736e+01,0.00000e+00,0.00000e+00,0.00000e+00,0.00000e+00
1.52340e+03,3.24095e+01,-2.47525e+00,0.00000e+00,0.00000e+00,0.00000e+00
1.52340e+03,3.21913e+01,-4.95049e+00,0.00000e+00,0.00000e+00,0.00000e+00
1.52340e+03,3.19709e+01,-7.42574e+00,0.00000e+00,0.00000e+00,0.00000e+00
1.52340e+03,3.17026e+01,-9.90099e+00,0.00000e+00,0.00000e+00,0.00000e+00
1.52340e+03,3.14232e+01,-1.23762e+01,0.00000e+00,0.00000e+00,0.00000e+00
1.52340e+03,3.11072e+01,-1.48515e+01,0.00000e+00,0.00000e+00,0.00000e+00
1.52340e+03,3.07733e+01,-1.73267e+01,0.00000e+00,0.00000e+00,0.00000e+00
1.52340e+03,3.04098e+01,-1.98020e+01,0.00000e+00,0.00000e+00,0.00000e+00
1.52340e+03,3.00222e+01,-2.22772e+01,0.00000e+00,0.00000e+00,0.00000e+00
1.52340e+03,2.96079e+01,-2.47525e+01,0.00000e+00,0.00000e+00,0.00000e+00
1.52340e+03,2.91613e+01,-2.72277e+01,0.00000e+00,0.00000e+00,0.00000e+00
1.52340e+03,2.86816e+01,-2.97030e+01,0.00000e+00,0.00000e+00,0.00000e+00
1.52340e+03,2.81552e+01,-3.21782e+01,0.00000e+00,0.00000e+00,0.00000e+00
1.52340e+03,2.75832e+01,-3.46535e+01,0.00000e+00,0.00000e+00,0.00000e+00
1.52340e+03,2.69567e+01,-3.71287e+01,0.00000e+00,0.00000e+00,0.00000e+00
1.52340e+03,2.62564e+01,-3.96040e+01,0.00000e+00,0.00000e+00,0.00000e+00
1.52340e+03,2.55047e+01,-4.20792e+01,0.00000e+00,0.00000e+00,0.00000e+00
1.52340e+03,2.46375e+01,-4.45544e+01,0.00000e+00,0.00000e+00,0.00000e+00
1.52340e+03,2.37225e+01,-4.70297e+01,0.00000e+00,0.00000e+00,0.00000e+00
1.52340e+03,2.26740e+01,-4.95049e+01,0.00000e+00,0.00000e+00,0.00000e+00
1.52340e+03,2.15185e+01,-5.19802e+01,0.00000e+00,0.00000e+00,0.00000e+00
1.52340e+03,2.02543e+01,-5.44554e+01,0.00000e+00,0.00000e+00,0.00000e+00
1.52340e+03,1.88075e+01,-5.69307e+01,0.00000e+00,0.00000e+00,0.00000e+00
1.52340e+03,1.71490e+01,-5.94059e+01,0.00000e+00,0.00000e+00,0.00000e+00
1.52340e+03,1.52515e+01,-6.18812e+01,0.00000e+00,0.00000e+00,0.00000e+00
1.52340e+03,1.30071e+01,-6.43564e+01,0.00000e+00,0.00000e+00,0.00000e+00
1.52340e+03,1.01263e+01,-6.68317e+01,0.00000e+00,0.00000e+00,0.00000e+00
1.52340e+03,6.23005e+00,-6.93069e+01,0.00000e+00,0.00000e+00,0.00000e+00
1.52340e+03,-2.52437e+00,-7.17822e+01,0.00000e+00,0.00000e+00,0.00000e+00
1.52340e+03,-3.15618e+00,-7.17879e+01,0.00000e+00,0.00000e+00,0.00000e+00
1.52340e+03,-8.91241e+00,-6.92241e+01,0.00000e+00,0.00000e+00,0.00000e+00
1.52340e+03,-9.60935e+00,-6.66602e+01,0.00000e+00,0.00000e+00,0.00000e+00
1.52340e+03,-9.84985e+00,-6.40963e+01,0.00000e+00,0.00000e+00,0.00000e+00
1.52340e+03,-9.88634e+00,-6.15325e+01,0.00000e+00,0.00000e+00,0.00000e+00
1.52340e+03,-9.76914e+00,-5.89686e+01,0.00000e+00,0.00000e+00,0.00000e+00
1.52340e+03,-9.55548e+00,-5.64048e+01,0.00000e+00,0.00000e+00,0.00000e+00
1.52340e+03,-9.24498e+00,-5.38409e+01,0.00000e+00,0.00000e+00,0.00000e+00
1.52340e+03,-8.87540e+00,-5.12771e+01,0.00000e+00,0.00000e+00,0.00000e+00
1.52340e+03,-8.47156e+00,-4.87132e+01,0.00000e+00,0.00000e+00,0.00000e+00
1.52340e+03,-8.01609e+00,-4.61494e+01,0.00000e+00,0.00000e+00,0.00000e+00
1.52340e+03,-7.52837e+00,-4.35855e+01,0.00000e+00,0.00000e+00,0.00000e+00
1.52340e+03,-7.00922e+00,-4.10217e+01,0.00000e+00,0.00000e+00,0.00000e+00
1.52340e+03,-6.45878e+00,-3.84578e+01,0.00000e+00,0.00000e+00,0.00000e+00
1.52340e+03,-5.88872e+00,-3.58940e+01,0.00000e+00,0.00000e+00,0.00000e+00
1.52340e+03,-5.29352e+00,-3.33301e+01,0.00000e+00,0.00000e+00,0.00000e+00
1.52340e+03,-4.68222e+00,-3.07662e+01,0.00000e+00,0.00000e+00,0.00000e+00
1.52340e+03,-4.05649e+00,-2.82024e+01,0.00000e+00,0.00000e+00,0.00000e+00
1.52340e+03,-3.41788e+00,-2.56385e+01,0.00000e+00,0.00000e+00,0.00000e+00
1.52340e+03,-2.77381e+00,-2.30747e+01,0.00000e+00,0.00000e+00,0.00000e+00
1.52340e+03,-2.12129e+00,-2.05108e+01,0.00000e+00,0.00000e+00,0.00000e+00
1.52340e+03,-1.46736e+00,-1.79470e+01,0.00000e+00,0.00000e+00,0.00000e+00
1.52340e+03,-8.08383e-01,-1.53831e+01,0.00000e+00,0.00000e+00,0.00000e+00
1.52340e+03,-1.49473e-01,-1.28193e+01,0.00000e+00,0.00000e+00,0.00000e+00
1.52340e+03,5.06948e-01,-1.02554e+01,0.00000e+00,0.00000e+00,0.00000e+00
1.52340e+03,1.16337e+00,-7.69156e+00,0.00000e+00,0.00000e+00,0.00000e+00
1.52340e+03,1.80424e+00,-5.12771e+00,0.00000e+00,0.00000e+00,0.00000e+00
1.52340e+03,2.44222e+00,-2.56385e+00,0.00000e+00,0.00000e+00,0.00000e+00
1.59310e+03,3.14533e+01,0.00000e+00,0.00000e+00,0.00000e+00,0.00000e+00
1.59310e+03,3.12949e+01,-2.39012e+00,0.00000e+00,0.00000e+00,0.00000e+00
1.59310e+03,3.10841e+01,-4.78023e+00,0.00000e+00,0.00000e+00,0.00000e+00
1.59310e+03,3.08713e+01,-7.17035e+00,0.00000e+00,0.00000e+00,0.00000e+00
1.59310e+03,3.06123e+01,-9.56047e+00,0.00000e+00,0.00000e+00,0.00000e+00
1.59310e+03,3.03425e+01,-1.19506e+01,0.00000e+00,0.00000e+00,0.00000e+00
1.59310e+03,3.00373e+01,-1.43407e+01,0.00000e+00,0.00000e+00,0.00000e+00
1.59310e+03,2.97149e+01,-1.67308e+01,0.00000e+00,0.00000e+00,0.00000e+00
1.59310e+03,2.93640e+01,-1.91209e+01,0.00000e+00,0.00000e+00,0.00000e+00
1.59310e+03,2.89896e+01,-2.15111e+01,0.00000e+00,0.00000e+00,0.00000e+00
1.59310e+03,2.85896e+01,-2.39012e+01,0.00000e+00,0.00000e+00,0.00000e+00
1.59310e+03,2.81583e+01,-2.62913e+01,0.00000e+00,0.00000e+00,0.00000e+00
1.59310e+03,2.76952e+01,-2.86814e+01,0.00000e+00,0.00000e+00,0.00000e+00
1.59310e+03,2.71869e+01,-3.10715e+01,0.00000e+00,0.00000e+00,0.00000e+00
1.59310e+03,2.66345e+01,-3.34616e+01,0.00000e+00,0.00000e+00,0.00000e+00
1.59310e+03,2.60296e+01,-3.58518e+01,0.00000e+00,0.00000e+00,0.00000e+00
1.59310e+03,2.53533e+01,-3.82419e+01,0.00000e+00,0.00000e+00,0.00000e+00
1.59310e+03,2.46276e+01,-4.06320e+01,0.00000e+00,0.00000e+00,0.00000e+00
1.59310e+03,2.37902e+01,-4.30221e+01,0.00000e+00,0.00000e+00,0.00000e+00
1.59310e+03,2.29066e+01,-4.54122e+01,0.00000e+00,0.00000e+00,0.00000e+00
1.59310e+03,2.18941e+01,-4.78023e+01,0.00000e+00,0.00000e+00,0.00000e+00
1.59310e+03,2.07785e+01,-5.01925e+01,0.00000e+00,0.00000e+00,0.00000e+00
1.59310e+03,1.95577e+01,-5.25826e+01,0.00000e+00,0.00000e+00,0.00000e+00
1.59310e+03,1.81606e+01,-5.49727e+01,0.00000e+00,0.00000e+00,0.00000e+00
1.59310e+03,1.65592e+01,-5.73628e+01,0.00000e+00,0.00000e+00,0.00000e+00
1.59310e+03,1.47269e+01,-5.97529e+01,0.00000e+00,0.00000e+00,0.00000e+00
1.59310e+03,1.25597e+01,-6.21430e+01,0.00000e+00,0.00000e+00,0.00000e+00
1.59310e+03,9.77800e+00,-6.45332e+01,0.00000e+00,0.00000e+00,0.00000e+00
1.59310e+03,6.01578e+00,-6.69233e+01,0.00000e+00,0.00000e+00,0.00000e+00
1.59310e+03,-2.43755e+00,-6.93134e+01,0.00000e+00,0.00000e+00,0.00000e+00
1.59310e+03,-3.04763e+00,-6.93189e+01,0.00000e+00,0.00000e+00,0.00000e+00
1.59310e+03,-8.60589e+00,-6.68433e+01,0.00000e+00,0.00000e+00,0.00000e+00
1.59310e+03,-9.27886e+00,-6.43676e+01,0.00000e+00,0.00000e+00,0.00000e+00
1.59310e+03,-9.51109e+00,-6.18919e+01,0.00000e+00,0.00000e+00,0.00000e+00
1.59310e+03,-9.54632e+00,-5.94162e+01,0.00000e+00,0.00000e+00,0.00000e+00
1.59310e+03,-9.43315e+00,-5.69406e+01,0.00000e+00,0.00000e+00,0.00000e+00
1.59310e+03,-9.22684e+00,-5.44649e+01,0.00000e+00,0.00000e+00,0.00000e+00
1.59310e+03,-8.92702e+00,-5.19892e+01,0.00000e+00,0.00000e+00,0.00000e+00
1.59310e+03,-8.57016e+00,-4.95135e+01,0.00000e+00,0.00000e+00,0.00000e+00
1.59310e+03,-8.18020e+00,-4.70379e+01,0.00000e+00,0.00000e+00,0.00000e+00
1.59310e+03,-7.74040e+00,-4.45622e+01,0.00000e+00,0.00000e+00,0.00000e+00
1.59310e+03,-7.26945e+00,-4.20865e+01,0.00000e+00,0.00000e+00,0.00000e+00
1.59310e+03,-6.76816e+00,-3.96108e+01,0.00000e+00,0.00000e+00,0.00000e+00
1.59310e+03,-6.23665e+00,-3.71351e+01,0.00000e+00,0.00000e+00,0.00000e+00
1.59310e+03,-5.68619e+00,-3.46595e+01,0.00000e+00,0.00000e+00,0.00000e+00
1.59310e+03,-5.11146e+00,-3.21838e+01,0.00000e+00,0.00000e+00,0.00000e+00
1.59310e+03,-4.52119e+00,-2.97081e+01,0.00000e+00,0.00000e+00,0.00000e+00
1.59310e+03,-3.91698e+00,-2.72324e+01,0.00000e+00,0.00000e+00,0.00000e+00
1.59310e+03,-3.30033e+00,-2.47568e+01,0.00000e+00,0.00000e+00,0.00000e+00
1.59310e+03,-2.67841e+00,-2.22811e+01,0.00000e+00,0.00000e+00,0.00000e+00
1.59310e+03,-2.04833e+00,-1.98054e+01,0.00000e+00,0.00000e+00,0.00000e+00
1.59310e+03,-1.41689e+00,-1.73297e+01,0.00000e+00,0.00000e+00,0.00000e+00
1.59310e+03,-7.80581e-01,-1.48541e+01,0.00000e+00,0.00000e+00,0.00000e+00
1.59310e+03,-1.44332e-01,-1.23784e+01,0.00000e+00,0.00000e+00,0.00000e+00
1.59310e+03,4.89512e-01,-9.90271e+00,0.00000e+00,0.00000e+00,0.00000e+00
1.59310e+03,1.12336e+00,-7.42703e+00,0.00000e+00,0.00000e+00,0.00000e+00
1.59310e+03,1.74219e+00,-4.95135e+00,0.00000e+00,0.00000e+00,0.00000e+00
1.59310e+03,2.35823e+00,-2.47568e+00,0.00000e+00,0.00000e+00,0.00000e+00
1.65850e+03,3.04021e+01,0.00000e+00,0.00000e+00,0.00000e+00,0.00000e+00
1.65850e+03,3.02490e+01,-2.31024e+00,0.00000e+00,0.00000e+00,0.00000e+00
1.65850e+03,3.00453e+01,-4.62048e+00,0.00000e+00,0.00000e+00,0.00000e+00
1.65850e+03,2.98396e+01,-6.93072e+00,0.00000e+00,0.00000e+00,0.00000e+00
1.65850e+03,2.95892e+01,-9.24096e+00,0.00000e+00,0.00000e+00,0.00000e+00
1.65850e+03,2.93285e+01,-1.15512e+01,0.00000e+00,0.00000e+00,0.00000e+00
1.65850e+03,2.90335e+01,-1.38614e+01,0.00000e+00,0.00000e+00,0.00000e+00
1.65850e+03,2.87218e+01,-1.61717e+01,0.00000e+00,0.00000e+00,0.00000e+00
1.65850e+03,2.83826e+01,-1.84819e+01,0.00000e+00,0.00000e+00,0.00000e+00
1.65850e+03,2.80208e+01,-2.07921e+01,0.00000e+00,0.00000e+00,0.00000e+00
1.65850e+03,2.76341e+01,-2.31024e+01,0.00000e+00,0.00000e+00,0.00000e+00
1.65850e+03,2.72173e+01,-2.54126e+01,0.00000e+00,0.00000e+00,0.00000e+00
1.65850e+03,2.67696e+01,-2.77229e+01,0.00000e+00,0.00000e+00,0.00000e+00
1.65850e+03,2.62783e+01,-3.00331e+01,0.00000e+00,0.00000e+00,0.00000e+00
1.65850e+03,2.57444e+01,-3.23433e+01,0.00000e+00,0.00000e+00,0.00000e+00
1.65850e+03,2.51597e+01,-3.46536e+01,0.00000e+00,0.00000e+00,0.00000e+00
1.65850e+03,2.45060e+01,-3.69638e+01,0.00000e+00,0.00000e+00,0.00000e+00
1.65850e+03,2.38045e+01,-3.92741e+01,0.00000e+00,0.00000e+00,0.00000e+00
1.65850e+03,2.29951e+01,-4.15843e+01,0.00000e+00,0.00000e+00,0.00000e+00
1.65850e+03,2.21410e+01,-4.38945e+01,0.00000e+00,0.00000e+00,0.00000e+00
1.65850e+03,2.11624e+01,-4.62048e+01,0.00000e+00,0.00000e+00,0.00000e+00
1.65850e+03,2.00840e+01,-4.85150e+01,0.00000e+00,0.00000e+00,0.00000e+00
1.65850e+03,1.89041e+01,-5.08253e+01,0.00000e+00,0.00000e+00,0.00000e+00
1.65850e+03,1.75537e+01,-5.31355e+01,0.00000e+00,0.00000e+00,0.00000e+00
1.65850e+03,1.60058e+01,-5.54457e+01,0.00000e+00,0.00000e+00,0.00000e+00
1.65850e+03,1.42348e+01,-5.77560e+01,0.00000e+00,0.00000e+00,0.00000e+00
1.65850e+03,1.21400e+01,-6.00662e+01,0.00000e+00,0.00000e+00,0.00000e+00
1.65850e+03,9.45122e+00,-6.23764e+01,0.00000e+00,0.00000e+00,0.00000e+00
1.65850e+03,5.81473e+00,-6.46867e+01,0.00000e+00,0.00000e+00,0.00000e+00
1.65850e+03,-2.35608e+00,-6.69969e+01,0.00000e+00,0.00000e+00,0.00000e+00
1.65850e+03,-2.94577e+00,-6.70023e+01,0.00000e+00,0.00000e+00,0.00000e+00
1.65850e+03,-8.31828e+00,-6.46093e+01,0.00000e+00,0.00000e+00,0.00000e+00
1.65850e+03,-8.96876e+00,-6.22164e+01,0.00000e+00,0.00000e+00,0.00000e+00
1.65850e+03,-9.19322e+00,-5.98235e+01,0.00000e+00,0.00000e+00,0.00000e+00
1.65850e+03,-9.22728e+00,-5.74305e+01,0.00000e+00,0.00000e+00,0.00000e+00
1.65850e+03,-9.11789e+00,-5.50376e+01,0.00000e+00,0.00000e+00,0.00000e+00
1.65850e+03,-8.91848e+00,-5.26447e+01,0.00000e+00,0.00000e+00,0.00000e+00
1.65850e+03,-8.62868e+00,-5.02517e+01,0.00000e+00,0.00000e+00,0.00000e+00
1.65850e+03,-8.28374e+00,-4.78588e+01,0.00000e+00,0.00000e+00,0.00000e+00
1.65850e+03,-7.90682e+00,-4.54658e+01,0.00000e+00,0.00000e+00,0.00000e+00
1.65850e+03,-7.48171e+00,-4.30729e+01,0.00000e+00,0.00000e+00,0.00000e+00
1.65850e+03,-7.02650e+00,-4.06800e+01,0.00000e+00,0.00000e+00,0.00000e+00
1.65850e+03,-6.54196e+00,-3.82870e+01,0.00000e+00,0.00000e+00,0.00000e+00
1.65850e+03,-6.02822e+00,-3.58941e+01,0.00000e+00,0.00000e+00,0.00000e+00
1.65850e+03,-5.49615e+00,-3.35011e+01,0.00000e+00,0.00000e+00,0.00000e+00
1.65850e+03,-4.94063e+00,-3.11082e+01,0.00000e+00,0.00000e+00,0.00000e+00
1.65850e+03,-4.37009e+00,-2.87153e+01,0.00000e+00,0.00000e+00,0.00000e+00
1.65850e+03,-3.78607e+00,-2.63223e+01,0.00000e+00,0.00000e+00,0.00000e+00
1.65850e+03,-3.19003e+00,-2.39294e+01,0.00000e+00,0.00000e+00,0.00000e+00
1.65850e+03,-2.58890e+00,-2.15364e+01,0.00000e+00,0.00000e+00,0.00000e+00
1.65850e+03,-1.97988e+00,-1.91435e+01,0.00000e+00,0.00000e+00,0.00000e+00
1.65850e+03,-1.36954e+00,-1.67506e+01,0.00000e+00,0.00000e+00,0.00000e+00
1.65850e+03,-7.54494e-01,-1.43576e+01,0.00000e+00,0.00000e+00,0.00000e+00
1.65850e+03,-1.39508e-01,-1.19647e+01,0.00000e+00,0.00000e+00,0.00000e+00
1.65850e+03,4.73153e-01,-9.57176e+00,0.00000e+00,0.00000e+00,0.00000e+00
1.65850e+03,1.08581e+00,-7.17882e+00,0.00000e+00,0.00000e+00,0.00000e+00
1.65850e+03,1.68397e+00,-4.78588e+00,0.00000e+00,0.00000e+00,0.00000e+00
1.65850e+03,2.27942e+00,-2.39294e+00,0.00000e+00,0.00000e+00,0.00000e+00
1.71930e+03,2.94249e+01,0.00000e+00,0.00000e+00,0.00000e+00,0.00000e+00
1.71930e+03,2.92767e+01,-2.23598e+00,0.00000e+00,0.00000e+00,0.00000e+00
1.71930e+03,2.90795e+01,-4.47196e+00,0.00000e+00,0.00000e+00,0.00000e+00
1.71930e+03,2.88804e+01,-6.70794e+00,0.00000e+00,0.00000e+00,0.00000e+00
1.71930e+03,2.86381e+01,-8.94392e+00,0.00000e+00,0.00000e+00,0.00000e+00
1.71930e+03,2.83857e+01,-1.11799e+01,0.00000e+00,0.00000e+00,0.00000e+00
1.71930e+03,2.81002e+01,-1.34159e+01,0.00000e+00,0.00000e+00,0.00000e+00
1.71930e+03,2.77986e+01,-1.56519e+01,0.00000e+00,0.00000e+00,0.00000e+00
1.71930e+03,2.74703e+01,-1.78878e+01,0.00000e+00,0.00000e+00,0.00000e+00
1.71930e+03,2.71201e+01,-2.01238e+01,0.00000e+00,0.00000e+00,0.00000e+00
1.71930e+03,2.67458e+01,-2.23598e+01,0.00000e+00,0.00000e+00,0.00000e+00
1.71930e+03,2.63424e+01,-2.45958e+01,0.00000e+00,0.00000e+00,0.00000e+00
1.71930e+03,2.59091e+01,-2.68317e+01,0.00000e+00,0.00000e+00,0.00000e+00
1.71930e+03,2.54336e+01,-2.90677e+01,0.00000e+00,0.00000e+00,0.00000e+00
1.71930e+03,2.49169e+01,-3.13037e+01,0.00000e+00,0.00000e+00,0.00000e+00
1.71930e+03,2.43509e+01,-3.35397e+01,0.00000e+00,0.00000e+00,0.00000e+00
1.71930e+03,2.37183e+01,-3.57757e+01,0.00000e+00,0.00000e+00,0.00000e+00
1.71930e+03,2.30393e+01,-3.80116e+01,0.00000e+00,0.00000e+00,0.00000e+00
1.71930e+03,2.22560e+01,-4.02476e+01,0.00000e+00,0.00000e+00,0.00000e+00
1.71930e+03,2.14293e+01,-4.24836e+01,0.00000e+00,0.00000e+00,0.00000e+00
1.71930e+03,2.04822e+01,-4.47196e+01,0.00000e+00,0.00000e+00,0.00000e+00
1.71930e+03,1.94385e+01,-4.69556e+01,0.00000e+00,0.00000e+00,0.00000e+00
1.71930e+03,1.82964e+01,-4.91915e+01,0.00000e+00,0.00000e+00,0.00000e+00
1.71930e+03,1.69894e+01,-5.14275e+01,0.00000e+00,0.00000e+00,0.00000e+00
1.71930e+03,1.54913e+01,-5.36635e+01,0.00000e+00,0.00000e+00,0.00000e+00
1.71930e+03,1.37772e+01,-5.58995e+01,0.00000e+00,0.00000e+00,0.00000e+00
1.71930e+03,1.17498e+01,-5.81355e+01,0.00000e+00,0.00000e+00,0.00000e+00
1.71930e+03,9.14742e+00,-6.03714e+01,0.00000e+00,0.00000e+00,0.00000e+00
1.71930e+03,5.62782e+00,-6.26074e+01,0.00000e+00,0.00000e+00,0.00000e+00
1.71930e+03,-2.28035e+00,-6.48434e+01,0.00000e+00,0.00000e+00,0.00000e+00
1.71930e+03,-2.85109e+00,-6.48486e+01,0.00000e+00,0.00000e+00,0.00000e+00
1.71930e+03,-8.05090e+00,-6.25326e+01,0.00000e+00,0.00000e+00,0.00000e+00
1.71930e+03,-8.68047e+00,-6.02165e+01,0.00000e+00,0.00000e+00,0.00000e+00
1.71930e+03,-8.89772e+00,-5.79005e+01,0.00000e+00,0.00000e+00,0.00000e+00
1.71930e+03,-8.93068e+00,-5.55845e+01,0.00000e+00,0.00000e+00,0.00000e+00
1.71930e+03,-8.82481e+00,-5.32685e+01,0.00000e+00,0.00000e+00,0.00000e+00
1.71930e+03,-8.63181e+00,-5.09525e+01,0.00000e+00,0.00000e+00,0.00000e+00
1.71930e+03,-8.35132e+00,-4.86364e+01,0.00000e+00,0.00000e+00,0.00000e+00
1.71930e+03,-8.01747e+00,-4.63204e+01,0.00000e+00,0.00000e+00,0.00000e+00
1.71930e+03,-7.65266e+00,-4.40044e+01,0.00000e+00,0.00000e+00,0.00000e+00
1.71930e+03,-7.24122e+00,-4.16884e+01,0.00000e+00,0.00000e+00,0.00000e+00
1.71930e+03,-6.80064e+00,-3.93724e+01,0.00000e+00,0.00000e+00,0.00000e+00
1.71930e+03,-6.33168e+00,-3.70563e+01,0.00000e+00,0.00000e+00,0.00000e+00
1.71930e+03,-5.83445e+00,-3.47403e+01,0.00000e+00,0.00000e+00,0.00000e+00
1.71930e+03,-5.31949e+00,-3.24243e+01,0.00000e+00,0.00000e+00,0.00000e+00
1.71930e+03,-4.78182e+00,-3.01083e+01,0.00000e+00,0.00000e+00,0.00000e+00
1.71930e+03,-4.22962e+00,-2.77922e+01,0.00000e+00,0.00000e+00,0.00000e+00
1.71930e+03,-3.66437e+00,-2.54762e+01,0.00000e+00,0.00000e+00,0.00000e+00
1.71930e+03,-3.08749e+00,-2.31602e+01,0.00000e+00,0.00000e+00,0.00000e+00
1.71930e+03,-2.50568e+00,-2.08442e+01,0.00000e+00,0.00000e+00,0.00000e+00
1.71930e+03,-1.91624e+00,-1.85282e+01,0.00000e+00,0.00000e+00,0.00000e+00
1.71930e+03,-1.32552e+00,-1.62121e+01,0.00000e+00,0.00000e+00,0.00000e+00
1.71930e+03,-7.30242e-01,-1.38961e+01,0.00000e+00,0.00000e+00,0.00000e+00
1.71930e+03,-1.35024e-01,-1.15801e+01,0.00000e+00,0.00000e+00,0.00000e+00
1.71930e+03,4.57944e-01,-9.26408e+00,0.00000e+00,0.00000e+00,0.00000e+00
1.71930e+03,1.05091e+00,-6.94806e+00,0.00000e+00,0.00000e+00,0.00000e+00
1.71930e+03,1.62984e+00,-4.63204e+00,0.00000e+00,0.00000e+00,0.00000e+00
1.71930e+03,2.20615e+00,-2.31602e+00,0.00000e+00,0.00000e+00,0.00000e+00
1.77540e+03,2.77303e+01,0.00000e+00,0.00000e+00,0.00000e+00,0.00000e+00
1.77540e+03,2.75906e+01,-2.10721e+00,0.00000e+00,0.00000e+00,0.00000e+00
1.77540e+03,2.74048e+01,-4.21442e+00,0.00000e+00,0.00000e+00,0.00000e+00
1.77540e+03,2.72172e+01,-6.32163e+00,0.00000e+00,0.00000e+00,0.00000e+00
1.77540e+03,2.69888e+01,-8.42884e+00,0.00000e+00,0.00000e+00,0.00000e+00
1.77540e+03,2.67510e+01,-1.05361e+01,0.00000e+00,0.00000e+00,0.00000e+00
1.77540e+03,2.64819e+01,-1.26433e+01,0.00000e+00,0.00000e+00,0.00000e+00
1.77540e+03,2.61977e+01,-1.47505e+01,0.00000e+00,0.00000e+00,0.00000e+00
1.77540e+03,2.58883e+01,-1.68577e+01,0.00000e+00,0.00000e+00,0.00000e+00
1.77540e+03,2.55583e+01,-1.89649e+01,0.00000e+00,0.00000e+00,0.00000e+00
1.77540e+03,2.52056e+01,-2.10721e+01,0.00000e+00,0.00000e+00,0.00000e+00
1.77540e+03,2.48254e+01,-2.31793e+01,0.00000e+00,0.00000e+00,0.00000e+00
1.77540e+03,2.44171e+01,-2.52865e+01,0.00000e+00,0.00000e+00,0.00000e+00
1.77540e+03,2.39689e+01,-2.73937e+01,0.00000e+00,0.00000e+00,0.00000e+00
1.77540e+03,2.34819e+01,-2.95009e+01,0.00000e+00,0.00000e+00,0.00000e+00
1.77540e+03,2.29486e+01,-3.16082e+01,0.00000e+00,0.00000e+00,0.00000e+00
1.77540e+03,2.23524e+01,-3.37154e+01,0.00000e+00,0.00000e+00,0.00000e+00
1.77540e+03,2.17125e+01,-3.58226e+01,0.00000e+00,0.00000e+00,0.00000e+00
1.77540e+03,2.09743e+01,-3.79298e+01,0.00000e+00,0.00000e+00,0.00000e+00
1.77540e+03,2.01952e+01,-4.00370e+01,0.00000e+00,0.00000e+00,0.00000e+00
1.77540e+03,1.93026e+01,-4.21442e+01,0.00000e+00,0.00000e+00,0.00000e+00
1.77540e+03,1.83190e+01,-4.42514e+01,0.00000e+00,0.00000e+00,0.00000e+00
1.77540e+03,1.72428e+01,-4.63586e+01,0.00000e+00,0.00000e+00,0.00000e+00
1.77540e+03,1.60110e+01,-4.84658e+01,0.00000e+00,0.00000e+00,0.00000e+00
1.77540e+03,1.45992e+01,-5.05731e+01,0.00000e+00,0.00000e+00,0.00000e+00
1.77540e+03,1.29838e+01,-5.26803e+01,0.00000e+00,0.00000e+00,0.00000e+00
1.77540e+03,1.10731e+01,-5.47875e+01,0.00000e+00,0.00000e+00,0.00000e+00
1.77540e+03,8.62063e+00,-5.68947e+01,0.00000e+00,0.00000e+00,0.00000e+00
1.77540e+03,5.30372e+00,-5.90019e+01,0.00000e+00,0.00000e+00,0.00000e+00
1.77540e+03,-2.14903e+00,-6.11091e+01,0.00000e+00,0.00000e+00,0.00000e+00
1.77540e+03,-2.68689e+00,-6.11140e+01,0.00000e+00,0.00000e+00,0.00000e+00
1.77540e+03,-7.58725e+00,-5.89314e+01,0.00000e+00,0.00000e+00,0.00000e+00
1.77540e+03,-8.18057e+00,-5.67487e+01,0.00000e+00,0.00000e+00,0.00000e+00
1.77540e+03,-8.38530e+00,-5.45661e+01,0.00000e+00,0.00000e+00,0.00000e+00
1.77540e+03,-8.41637e+00,-5.23834e+01,0.00000e+00,0.00000e+00,0.00000e+00
1.77540e+03,-8.31659e+00,-5.02008e+01,0.00000e+00,0.00000e+00,0.00000e+00
1.77540e+03,-8.13471e+00,-4.80181e+01,0.00000e+00,0.00000e+00,0.00000e+00
1.77540e+03,-7.87037e+00,-4.58355e+01,0.00000e+00,0.00000e+00,0.00000e+00
1.77540e+03,-7.55575e+00,-4.36529e+01,0.00000e+00,0.00000e+00,0.00000e+00
1.77540e+03,-7.21195e+00,-4.14702e+01,0.00000e+00,0.00000e+00,0.00000e+00
1.77540e+03,-6.82421e+00,-3.92876e+01,0.00000e+00,0.00000e+00,0.00000e+00
1.77540e+03,-6.40900e+00,-3.71049e+01,0.00000e+00,0.00000e+00,0.00000e+00
1.77540e+03,-5.96704e+00,-3.49223e+01,0.00000e+00,0.00000e+00,0.00000e+00
1.77540e+03,-5.49844e+00,-3.27396e+01,0.00000e+00,0.00000e+00,0.00000e+00
1.77540e+03,-5.01314e+00,-3.05570e+01,0.00000e+00,0.00000e+00,0.00000e+00
1.77540e+03,-4.50644e+00,-2.83744e+01,0.00000e+00,0.00000e+00,0.00000e+00
1.77540e+03,-3.98604e+00,-2.61917e+01,0.00000e+00,0.00000e+00,0.00000e+00
1.77540e+03,-3.45334e+00,-2.40091e+01,0.00000e+00,0.00000e+00,0.00000e+00
1.77540e+03,-2.90969e+00,-2.18264e+01,0.00000e+00,0.00000e+00,0.00000e+00
1.77540e+03,-2.36138e+00,-1.96438e+01,0.00000e+00,0.00000e+00,0.00000e+00
1.77540e+03,-1.80588e+00,-1.74611e+01,0.00000e+00,0.00000e+00,0.00000e+00
1.77540e+03,-1.24918e+00,-1.52785e+01,0.00000e+00,0.00000e+00,0.00000e+00
1.77540e+03,-6.88187e-01,-1.30959e+01,0.00000e+00,0.00000e+00,0.00000e+00
1.77540e+03,-1.27248e-01,-1.09132e+01,0.00000e+00,0.00000e+00,0.00000e+00
1.77540e+03,4.31571e-01,-8.73057e+00,0.00000e+00,0.00000e+00,0.00000e+00
1.77540e+03,9.90390e-01,-6.54793e+00,0.00000e+00,0.00000e+00,0.00000e+00
1.77540e+03,1.53598e+00,-4.36529e+00,0.00000e+00,0.00000e+00,0.00000e+00
1.77540e+03,2.07910e+00,-2.18264e+00,0.00000e+00,0.00000e+00,0.00000e+00
1.82660e+03,2.53092e+01,0.00000e+00,0.00000e+00,0.00000e+00,0.00000e+00
1.82660e+03,2.51817e+01,-1.92323e+00,0.00000e+00,0.00000e+00,0.00000e+00
1.82660e+03,2.50121e+01,-3.84646e+00,0.00000e+00,0.00000e+00,0.00000e+00
1.82660e+03,2.48409e+01,-5.76969e+00,0.00000e+00,0.00000e+00,0.00000e+00
1.82660e+03,2.46324e+01,-7.69292e+00,0.00000e+00,0.00000e+00,0.00000e+00
1.82660e+03,2.44154e+01,-9.61614e+00,0.00000e+00,0.00000e+00,0.00000e+00
1.82660e+03,2.41698e+01,-1.15394e+01,0.00000e+00,0.00000e+00,0.00000e+00
1.82660e+03,2.39103e+01,-1.34626e+01,0.00000e+00,0.00000e+00,0.00000e+00
1.82660e+03,2.36280e+01,-1.53858e+01,0.00000e+00,0.00000e+00,0.00000e+00
1.82660e+03,2.33268e+01,-1.73091e+01,0.00000e+00,0.00000e+00,0.00000e+00
1.82660e+03,2.30049e+01,-1.92323e+01,0.00000e+00,0.00000e+00,0.00000e+00
1.82660e+03,2.26579e+01,-2.11555e+01,0.00000e+00,0.00000e+00,0.00000e+00
1.82660e+03,2.22852e+01,-2.30787e+01,0.00000e+00,0.00000e+00,0.00000e+00
1.82660e+03,2.18762e+01,-2.50020e+01,0.00000e+00,0.00000e+00,0.00000e+00
1.82660e+03,2.14317e+01,-2.69252e+01,0.00000e+00,0.00000e+00,0.00000e+00
1.82660e+03,2.09449e+01,-2.88484e+01,0.00000e+00,0.00000e+00,0.00000e+00
1.82660e+03,2.04008e+01,-3.07717e+01,0.00000e+00,0.00000e+00,0.00000e+00
1.82660e+03,1.98168e+01,-3.26949e+01,0.00000e+00,0.00000e+00,0.00000e+00
1.82660e+03,1.91430e+01,-3.46181e+01,0.00000e+00,0.00000e+00,0.00000e+00
1.82660e+03,1.84320e+01,-3.65413e+01,0.00000e+00,0.00000e+00,0.00000e+00
1.82660e+03,1.76173e+01,-3.84646e+01,0.00000e+00,0.00000e+00,0.00000e+00
1.82660e+03,1.67196e+01,-4.03878e+01,0.00000e+00,0.00000e+00,0.00000e+00
1.82660e+03,1.57373e+01,-4.23110e+01,0.00000e+00,0.00000e+00,0.00000e+00
1.82660e+03,1.46131e+01,-4.42343e+01,0.00000e+00,0.00000e+00,0.00000e+00
1.82660e+03,1.33245e+01,-4.61575e+01,0.00000e+00,0.00000e+00,0.00000e+00
1.82660e+03,1.18502e+01,-4.80807e+01,0.00000e+00,0.00000e+00,0.00000e+00
1.82660e+03,1.01063e+01,-5.00040e+01,0.00000e+00,0.00000e+00,0.00000e+00
1.82660e+03,7.86795e+00,-5.19272e+01,0.00000e+00,0.00000e+00,0.00000e+00
1.82660e+03,4.84065e+00,-5.38504e+01,0.00000e+00,0.00000e+00,0.00000e+00
1.82660e+03,-1.96139e+00,-5.57736e+01,0.00000e+00,0.00000e+00,0.00000e+00
1.82660e+03,-2.45230e+00,-5.57781e+01,0.00000e+00,0.00000e+00,0.00000e+00
1.82660e+03,-6.92480e+00,-5.37860e+01,0.00000e+00,0.00000e+00,0.00000e+00
1.82660e+03,-7.46632e+00,-5.17940e+01,0.00000e+00,0.00000e+00,0.00000e+00
1.82660e+03,-7.65318e+00,-4.98019e+01,0.00000e+00,0.00000e+00,0.00000e+00
1.82660e+03,-7.68153e+00,-4.78098e+01,0.00000e+00,0.00000e+00,0.00000e+00
1.82660e+03,-7.59047e+00,-4.58177e+01,0.00000e+00,0.00000e+00,0.00000e+00
1.82660e+03,-7.42446e+00,-4.38257e+01,0.00000e+00,0.00000e+00,0.00000e+00
1.82660e+03,-7.18321e+00,-4.18336e+01,0.00000e+00,0.00000e+00,0.00000e+00
1.82660e+03,-6.89605e+00,-3.98415e+01,0.00000e+00,0.00000e+00,0.00000e+00
1.82660e+03,-6.58227e+00,-3.78494e+01,0.00000e+00,0.00000e+00,0.00000e+00
1.82660e+03,-6.22838e+00,-3.58574e+01,0.00000e+00,0.00000e+00,0.00000e+00
1.82660e+03,-5.84943e+00,-3.38653e+01,0.00000e+00,0.00000e+00,0.00000e+00
1.82660e+03,-5.44606e+00,-3.18732e+01,0.00000e+00,0.00000e+00,0.00000e+00
1.82660e+03,-5.01837e+00,-2.98811e+01,0.00000e+00,0.00000e+00,0.00000e+00
1.82660e+03,-4.57544e+00,-2.78891e+01,0.00000e+00,0.00000e+00,0.00000e+00
1.82660e+03,-4.11298e+00,-2.58970e+01,0.00000e+00,0.00000e+00,0.00000e+00
1.82660e+03,-3.63801e+00,-2.39049e+01,0.00000e+00,0.00000e+00,0.00000e+00
1.82660e+03,-3.15183e+00,-2.19128e+01,0.00000e+00,0.00000e+00,0.00000e+00
1.82660e+03,-2.65564e+00,-1.99208e+01,0.00000e+00,0.00000e+00,0.00000e+00
1.82660e+03,-2.15521e+00,-1.79287e+01,0.00000e+00,0.00000e+00,0.00000e+00
1.82660e+03,-1.64821e+00,-1.59366e+01,0.00000e+00,0.00000e+00,0.00000e+00
1.82660e+03,-1.14012e+00,-1.39445e+01,0.00000e+00,0.00000e+00,0.00000e+00
1.82660e+03,-6.28101e-01,-1.19525e+01,0.00000e+00,0.00000e+00,0.00000e+00
1.82660e+03,-1.16138e-01,-9.96038e+00,0.00000e+00,0.00000e+00,0.00000e+00
1.82660e+03,3.93890e-01,-7.96830e+00,0.00000e+00,0.00000e+00,0.00000e+00
1.82660e+03,9.03919e-01,-5.97623e+00,0.00000e+00,0.00000e+00,0.00000e+00
1.82660e+03,1.40187e+00,-3.98415e+00,0.00000e+00,0.00000e+00,0.00000e+00
1.82660e+03,1.89757e+00,-1.99208e+00,0.00000e+00,0.00000e+00,0.00000e+00
1.87280e+03,2.31244e+01,0.00000e+00,0.00000e+00,0.00000e+00,0.00000e+00
1.87280e+03,2.30080e+01,-1.75721e+00,0.00000e+00,0.00000e+00,0.00000e+00
1.87280e+03,2.28531e+01,-3.51443e+00,0.00000e+00,0.00000e+00,0.00000e+00
1.87280e+03,2.26966e+01,-5.27164e+00,0.00000e+00,0.00000e+00,0.00000e+00
1.87280e+03,2.25061e+01,-7.02886e+00,0.00000e+00,0.00000e+00,0.00000e+00
1.87280e+03,2.23078e+01,-8.78607e+00,0.00000e+00,0.00000e+00,0.00000e+00
1.87280e+03,2.20834e+01,-1.05433e+01,0.00000e+00,0.00000e+00,0.00000e+00
1.87280e+03,2.18464e+01,-1.23005e+01,0.00000e+00,0.00000e+00,0.00000e+00
1.87280e+03,2.15884e+01,-1.40577e+01,0.00000e+00,0.00000e+00,0.00000e+00
1.87280e+03,2.13132e+01,-1.58149e+01,0.00000e+00,0.00000e+00,0.00000e+00
1.87280e+03,2.10191e+01,-1.75721e+01,0.00000e+00,0.00000e+00,0.00000e+00
1.87280e+03,2.07020e+01,-1.93294e+01,0.00000e+00,0.00000e+00,0.00000e+00
1.87280e+03,2.03615e+01,-2.10866e+01,0.00000e+00,0.00000e+00,0.00000e+00
1.87280e+03,1.99878e+01,-2.28438e+01,0.00000e+00,0.00000e+00,0.00000e+00
1.87280e+03,1.95817e+01,-2.46010e+01,0.00000e+00,0.00000e+00,0.00000e+00
1.87280e+03,1.91369e+01,-2.63582e+01,0.00000e+00,0.00000e+00,0.00000e+00
1.87280e+03,1.86398e+01,-2.81154e+01,0.00000e+00,0.00000e+00,0.00000e+00
1.87280e+03,1.81062e+01,-2.98726e+01,0.00000e+00,0.00000e+00,0.00000e+00
1.87280e+03,1.74905e+01,-3.16299e+01,0.00000e+00,0.00000e+00,0.00000e+00
1.87280e+03,1.68409e+01,-3.33871e+01,0.00000e+00,0.00000e+00,0.00000e+00
1.87280e+03,1.60966e+01,-3.51443e+01,0.00000e+00,0.00000e+00,0.00000e+00
1.87280e+03,1.52763e+01,-3.69015e+01,0.00000e+00,0.00000e+00,0.00000e+00
1.87280e+03,1.43788e+01,-3.86587e+01,0.00000e+00,0.00000e+00,0.00000e+00
1.87280e+03,1.33517e+01,-4.04159e+01,0.00000e+00,0.00000e+00,0.00000e+00
1.87280e+03,1.21743e+01,-4.21731e+01,0.00000e+00,0.00000e+00,0.00000e+00
1.87280e+03,1.08272e+01,-4.39304e+01,0.00000e+00,0.00000e+00,0.00000e+00
1.87280e+03,9.23393e+00,-4.56876e+01,0.00000e+00,0.00000e+00,0.00000e+00
1.87280e+03,7.18879e+00,-4.74448e+01,0.00000e+00,0.00000e+00,0.00000e+00
1.87280e+03,4.42280e+00,-4.92020e+01,0.00000e+00,0.00000e+00,0.00000e+00
1.87280e+03,-1.79208e+00,-5.09592e+01,0.00000e+00,0.00000e+00,0.00000e+00
1.87280e+03,-2.24062e+00,-5.09633e+01,0.00000e+00,0.00000e+00,0.00000e+00
1.87280e+03,-6.32705e+00,-4.91432e+01,0.00000e+00,0.00000e+00,0.00000e+00
1.87280e+03,-6.82182e+00,-4.73231e+01,0.00000e+00,0.00000e+00,0.00000e+00
1.87280e+03,-6.99255e+00,-4.55029e+01,0.00000e+00,0.00000e+00,0.00000e+00
1.87280e+03,-7.01846e+00,-4.36828e+01,0.00000e+00,0.00000e+00,0.00000e+00
1.87280e+03,-6.93525e+00,-4.18627e+01,0.00000e+00,0.00000e+00,0.00000e+00
1.87280e+03,-6.78358e+00,-4.00426e+01,0.00000e+00,0.00000e+00,0.00000e+00
1.87280e+03,-6.56315e+00,-3.82225e+01,0.00000e+00,0.00000e+00,0.00000e+00
1.87280e+03,-6.30078e+00,-3.64024e+01,0.00000e+00,0.00000e+00,0.00000e+00
1.87280e+03,-6.01408e+00,-3.45822e+01,0.00000e+00,0.00000e+00,0.00000e+00
1.87280e+03,-5.69074e+00,-3.27621e+01,0.00000e+00,0.00000e+00,0.00000e+00
1.87280e+03,-5.34450e+00,-3.09420e+01,0.00000e+00,0.00000e+00,0.00000e+00
1.87280e+03,-4.97595e+00,-2.91219e+01,0.00000e+00,0.00000e+00,0.00000e+00
1.87280e+03,-4.58518e+00,-2.73018e+01,0.00000e+00,0.00000e+00,0.00000e+00
1.87280e+03,-4.18049e+00,-2.54816e+01,0.00000e+00,0.00000e+00,0.00000e+00
1.87280e+03,-3.75794e+00,-2.36615e+01,0.00000e+00,0.00000e+00,0.00000e+00
1.87280e+03,-3.32398e+00,-2.18414e+01,0.00000e+00,0.00000e+00,0.00000e+00
1.87280e+03,-2.87976e+00,-2.00213e+01,0.00000e+00,0.00000e+00,0.00000e+00
1.87280e+03,-2.42640e+00,-1.82012e+01,0.00000e+00,0.00000e+00,0.00000e+00
1.87280e+03,-1.96917e+00,-1.63811e+01,0.00000e+00,0.00000e+00,0.00000e+00
1.87280e+03,-1.50594e+00,-1.45609e+01,0.00000e+00,0.00000e+00,0.00000e+00
1.87280e+03,-1.04170e+00,-1.27408e+01,0.00000e+00,0.00000e+00,0.00000e+00
1.87280e+03,-5.73883e-01,-1.09207e+01,0.00000e+00,0.00000e+00,0.00000e+00
1.87280e+03,-1.06113e-01,-9.10059e+00,0.00000e+00,0.00000e+00,0.00000e+00
1.87280e+03,3.59890e-01,-7.28047e+00,0.00000e+00,0.00000e+00,0.00000e+00
1.87280e+03,8.25892e-01,-5.46035e+00,0.00000e+00,0.00000e+00,0.00000e+00
1.87280e+03,1.28086e+00,-3.64024e+00,0.00000e+00,0.00000e+00,0.00000e+00
1.87280e+03,1.73377e+00,-1.82012e+00,0.00000e+00,0.00000e+00,0.00000e+00
1.91380e+03,2.11856e+01,0.00000e+00,0.00000e+00,0.00000e+00,0.00000e+00
1.91380e+03,2.10789e+01,-1.60989e+00,0.00000e+00,0.00000e+00,0.00000e+00
1.91380e+03,2.09370e+01,-3.21977e+00,0.00000e+00,0.00000e+00,0.00000e+00
1.91380e+03,2.07936e+01,-4.82966e+00,0.00000e+00,0.00000e+00,0.00000e+00
1.91380e+03,2.06192e+01,-6.43954e+00,0.00000e+00,0.00000e+00,0.00000e+00
1.91380e+03,2.04375e+01,-8.04943e+00,0.00000e+00,0.00000e+00,0.00000e+00
1.91380e+03,2.02319e+01,-9.65931e+00,0.00000e+00,0.00000e+00,0.00000e+00
1.91380e+03,2.00147e+01,-1.12692e+01,0.00000e+00,0.00000e+00,0.00000e+00
1.91380e+03,1.97784e+01,-1.28791e+01,0.00000e+00,0.00000e+00,0.00000e+00
1.91380e+03,1.95262e+01,-1.44890e+01,0.00000e+00,0.00000e+00,0.00000e+00
1.91380e+03,1.92568e+01,-1.60989e+01,0.00000e+00,0.00000e+00,0.00000e+00
1.91380e+03,1.89663e+01,-1.77087e+01,0.00000e+00,0.00000e+00,0.00000e+00
1.91380e+03,1.86544e+01,-1.93186e+01,0.00000e+00,0.00000e+00,0.00000e+00
1.91380e+03,1.83120e+01,-2.09285e+01,0.00000e+00,0.00000e+00,0.00000e+00
1.91380e+03,1.79399e+01,-2.25384e+01,0.00000e+00,0.00000e+00,0.00000e+00
1.91380e+03,1.75325e+01,-2.41483e+01,0.00000e+00,0.00000e+00,0.00000e+00
1.91380e+03,1.70770e+01,-2.57582e+01,0.00000e+00,0.00000e+00,0.00000e+00
1.91380e+03,1.65881e+01,-2.73680e+01,0.00000e+00,0.00000e+00,0.00000e+00
1.91380e+03,1.60241e+01,-2.89779e+01,0.00000e+00,0.00000e+00,0.00000e+00
1.91380e+03,1.54289e+01,-3.05878e+01,0.00000e+00,0.00000e+00,0.00000e+00
1.91380e+03,1.47470e+01,-3.21977e+01,0.00000e+00,0.00000e+00,0.00000e+00
1.91380e+03,1.39955e+01,-3.38076e+01,0.00000e+00,0.00000e+00,0.00000e+00
1.91380e+03,1.31733e+01,-3.54175e+01,0.00000e+00,0.00000e+00,0.00000e+00
1.91380e+03,1.22322e+01,-3.70274e+01,0.00000e+00,0.00000e+00,0.00000e+00
1.91380e+03,1.11536e+01,-3.86372e+01,0.00000e+00,0.00000e+00,0.00000e+00
1.91380e+03,9.91946e+00,-4.02471e+01,0.00000e+00,0.00000e+00,0.00000e+00
1.91380e+03,8.45973e+00,-4.18570e+01,0.00000e+00,0.00000e+00,0.00000e+00
1.91380e+03,6.58606e+00,-4.34669e+01,0.00000e+00,0.00000e+00,0.00000e+00
1.91380e+03,4.05198e+00,-4.50768e+01,0.00000e+00,0.00000e+00,0.00000e+00
1.91380e+03,-1.64183e+00,-4.66867e+01,0.00000e+00,0.00000e+00,0.00000e+00
1.91380e+03,-2.05276e+00,-4.66904e+01,0.00000e+00,0.00000e+00,0.00000e+00
1.91380e+03,-5.79657e+00,-4.50229e+01,0.00000e+00,0.00000e+00,0.00000e+00
1.91380e+03,-6.24986e+00,-4.33554e+01,0.00000e+00,0.00000e+00,0.00000e+00
1.91380e+03,-6.40628e+00,-4.16879e+01,0.00000e+00,0.00000e+00,0.00000e+00
1.91380e+03,-6.43001e+00,-4.00204e+01,0.00000e+00,0.00000e+00,0.00000e+00
1.91380e+03,-6.35378e+00,-3.83528e+01,0.00000e+00,0.00000e+00,0.00000e+00
1.91380e+03,-6.21483e+00,-3.66853e+01,0.00000e+00,0.00000e+00,0.00000e+00
1.91380e+03,-6.01288e+00,-3.50178e+01,0.00000e+00,0.00000e+00,0.00000e+00
1.91380e+03,-5.77251e+00,-3.33503e+01,0.00000e+00,0.00000e+00,0.00000e+00
1.91380e+03,-5.50985e+00,-3.16828e+01,0.00000e+00,0.00000e+00,0.00000e+00
1.91380e+03,-5.21362e+00,-3.00153e+01,0.00000e+00,0.00000e+00,0.00000e+00
1.91380e+03,-4.89640e+00,-2.83477e+01,0.00000e+00,0.00000e+00,0.00000e+00
1.91380e+03,-4.55876e+00,-2.66802e+01,0.00000e+00,0.00000e+00,0.00000e+00
1.91380e+03,-4.20075e+00,-2.50127e+01,0.00000e+00,0.00000e+00,0.00000e+00
1.91380e+03,-3.82998e+00,-2.33452e+01,0.00000e+00,0.00000e+00,0.00000e+00
1.91380e+03,-3.44287e+00,-2.16777e+01,0.00000e+00,0.00000e+00,0.00000e+00
1.91380e+03,-3.04529e+00,-2.00102e+01,0.00000e+00,0.00000e+00,0.00000e+00
1.91380e+03,-2.63832e+00,-1.83427e+01,0.00000e+00,0.00000e+00,0.00000e+00
1.91380e+03,-2.22297e+00,-1.66751e+01,0.00000e+00,0.00000e+00,0.00000e+00
1.91380e+03,-1.80407e+00,-1.50076e+01,0.00000e+00,0.00000e+00,0.00000e+00
1.91380e+03,-1.37967e+00,-1.33401e+01,0.00000e+00,0.00000e+00,0.00000e+00
1.91380e+03,-9.54362e-01,-1.16726e+01,0.00000e+00,0.00000e+00,0.00000e+00
1.91380e+03,-5.25768e-01,-1.00051e+01,0.00000e+00,0.00000e+00,0.00000e+00
1.91380e+03,-9.72161e-02,-8.33757e+00,0.00000e+00,0.00000e+00,0.00000e+00
1.91380e+03,3.29716e-01,-6.67006e+00,0.00000e+00,0.00000e+00,0.00000e+00
1.91380e+03,7.56647e-01,-5.00254e+00,0.00000e+00,0.00000e+00,0.00000e+00
1.91380e+03,1.17347e+00,-3.33503e+00,0.00000e+00,0.00000e+00,0.00000e+00
1.91380e+03,1.58841e+00,-1.66751e+00,0.00000e+00,0.00000e+00,0.00000e+00
1.94970e+03,1.94880e+01,0.00000e+00,0.00000e+00,0.00000e+00,0.00000e+00
1.94970e+03,1.93899e+01,-1.48088e+00,0.00000e+00,0.00000e+00,0.00000e+00
1.94970e+03,1.92593e+01,-2.96177e+00,0.00000e+00,0.00000e+00,0.00000e+00
1.94970e+03,1.91274e+01,-4.44265e+00,0.00000e+00,0.00000e+00,0.00000e+00
1.94970e+03,1.89669e+01,-5.92353e+00,0.00000e+00,0.00000e+00,0.00000e+00
1.94970e+03,1.87998e+01,-7.40441e+00,0.00000e+00,0.00000e+00,0.00000e+00
1.94970e+03,1.86107e+01,-8.88530e+00,0.00000e+00,0.00000e+00,0.00000e+00
1.94970e+03,1.84109e+01,-1.03662e+01,0.00000e+00,0.00000e+00,0.00000e+00
1.94970e+03,1.81935e+01,-1.18471e+01,0.00000e+00,0.00000e+00,0.00000e+00
1.94970e+03,1.79616e+01,-1.33279e+01,0.00000e+00,0.00000e+00,0.00000e+00
1.94970e+03,1.77137e+01,-1.48088e+01,0.00000e+00,0.00000e+00,0.00000e+00
1.94970e+03,1.74465e+01,-1.62897e+01,0.00000e+00,0.00000e+00,0.00000e+00
1.94970e+03,1.71596e+01,-1.77706e+01,0.00000e+00,0.00000e+00,0.00000e+00
1.94970e+03,1.68446e+01,-1.92515e+01,0.00000e+00,0.00000e+00,0.00000e+00
1.94970e+03,1.65024e+01,-2.07324e+01,0.00000e+00,0.00000e+00,0.00000e+00
1.94970e+03,1.61276e+01,-2.22132e+01,0.00000e+00,0.00000e+00,0.00000e+00
1.94970e+03,1.57086e+01,-2.36941e+01,0.00000e+00,0.00000e+00,0.00000e+00
1.94970e+03,1.52589e+01,-2.51750e+01,0.00000e+00,0.00000e+00,0.00000e+00
1.94970e+03,1.47401e+01,-2.66559e+01,0.00000e+00,0.00000e+00,0.00000e+00
1.94970e+03,1.41926e+01,-2.81368e+01,0.00000e+00,0.00000e+00,0.00000e+00
1.94970e+03,1.35653e+01,-2.96177e+01,0.00000e+00,0.00000e+00,0.00000e+00
1.94970e+03,1.28740e+01,-3.10985e+01,0.00000e+00,0.00000e+00,0.00000e+00
1.94970e+03,1.21177e+01,-3.25794e+01,0.00000e+00,0.00000e+00,0.00000e+00
1.94970e+03,1.12521e+01,-3.40603e+01,0.00000e+00,0.00000e+00,0.00000e+00
1.94970e+03,1.02599e+01,-3.55412e+01,0.00000e+00,0.00000e+00,0.00000e+00
1.94970e+03,9.12460e+00,-3.70221e+01,0.00000e+00,0.00000e+00,0.00000e+00
1.94970e+03,7.78184e+00,-3.85029e+01,0.00000e+00,0.00000e+00,0.00000e+00
1.94970e+03,6.05831e+00,-3.99838e+01,0.00000e+00,0.00000e+00,0.00000e+00
1.94970e+03,3.72729e+00,-4.14647e+01,0.00000e+00,0.00000e+00,0.00000e+00
1.94970e+03,-1.51027e+00,-4.29456e+01,0.00000e+00,0.00000e+00,0.00000e+00
1.94970e+03,-1.88827e+00,-4.29490e+01,0.00000e+00,0.00000e+00,0.00000e+00
1.94970e+03,-5.33209e+00,-4.14151e+01,0.00000e+00,0.00000e+00,0.00000e+00
1.94970e+03,-5.74905e+00,-3.98812e+01,0.00000e+00,0.00000e+00,0.00000e+00
1.94970e+03,-5.89293e+00,-3.83473e+01,0.00000e+00,0.00000e+00,0.00000e+00
1.94970e+03,-5.91477e+00,-3.68135e+01,0.00000e+00,0.00000e+00,0.00000e+00
1.94970e+03,-5.84465e+00,-3.52796e+01,0.00000e+00,0.00000e+00,0.00000e+00
1.94970e+03,-5.71682e+00,-3.37457e+01,0.00000e+00,0.00000e+00,0.00000e+00
1.94970e+03,-5.53106e+00,-3.22118e+01,0.00000e+00,0.00000e+00,0.00000e+00
1.94970e+03,-5.30995e+00,-3.06779e+01,0.00000e+00,0.00000e+00,0.00000e+00
1.94970e+03,-5.06834e+00,-2.91440e+01,0.00000e+00,0.00000e+00,0.00000e+00
1.94970e+03,-4.79584e+00,-2.76101e+01,0.00000e+00,0.00000e+00,0.00000e+00
1.94970e+03,-4.50405e+00,-2.60762e+01,0.00000e+00,0.00000e+00,0.00000e+00
1.94970e+03,-4.19345e+00,-2.45423e+01,0.00000e+00,0.00000e+00,0.00000e+00
1.94970e+03,-3.86414e+00,-2.30084e+01,0.00000e+00,0.00000e+00,0.00000e+00
1.94970e+03,-3.52308e+00,-2.14745e+01,0.00000e+00,0.00000e+00,0.00000e+00
1.94970e+03,-3.16699e+00,-1.99406e+01,0.00000e+00,0.00000e+00,0.00000e+00
1.94970e+03,-2.80126e+00,-1.84067e+01,0.00000e+00,0.00000e+00,0.00000e+00
1.94970e+03,-2.42690e+00,-1.68728e+01,0.00000e+00,0.00000e+00,0.00000e+00
1.94970e+03,-2.04484e+00,-1.53389e+01,0.00000e+00,0.00000e+00,0.00000e+00
1.94970e+03,-1.65951e+00,-1.38050e+01,0.00000e+00,0.00000e+00,0.00000e+00
1.94970e+03,-1.26912e+00,-1.22712e+01,0.00000e+00,0.00000e+00,0.00000e+00
1.94970e+03,-8.77888e-01,-1.07373e+01,0.00000e+00,0.00000e+00,0.00000e+00
1.94970e+03,-4.83637e-01,-9.20336e+00,0.00000e+00,0.00000e+00,0.00000e+00
1.94970e+03,-8.94260e-02,-7.66947e+00,0.00000e+00,0.00000e+00,0.00000e+00
1.94970e+03,3.03295e-01,-6.13558e+00,0.00000e+00,0.00000e+00,0.00000e+00
1.94970e+03,6.96016e-01,-4.60168e+00,0.00000e+00,0.00000e+00,0.00000e+00
1.94970e+03,1.07944e+00,-3.06779e+00,0.00000e+00,0.00000e+00,0.00000e+00
1.94970e+03,1.46113e+00,-1.53389e+00,0.00000e+00,0.00000e+00,0.00000e+00
1.98010e+03,1.80504e+01,0.00000e+00,0.00000e+00,0.00000e+00,0.00000e+00
1.98010e+03,1.79595e+01,-1.37164e+00,0.00000e+00,0.00000e+00,0.00000e+00
1.98010e+03,1.78386e+01,-2.74329e+00,0.00000e+00,0.00000e+00,0.00000e+00
1.98010e+03,1.77165e+01,-4.11493e+00,0.00000e+00,0.00000e+00,0.00000e+00
1.98010e+03,1.75678e+01,-5.48657e+00,0.00000e+00,0.00000e+00,0.00000e+00
1.98010e+03,1.74130e+01,-6.85822e+00,0.00000e+00,0.00000e+00,0.00000e+00
1.98010e+03,1.72378e+01,-8.22986e+00,0.00000e+00,0.00000e+00,0.00000e+00
1.98010e+03,1.70528e+01,-9.60150e+00,0.00000e+00,0.00000e+00,0.00000e+00
1.98010e+03,1.68514e+01,-1.09731e+01,0.00000e+00,0.00000e+00,0.00000e+00
1.98010e+03,1.66366e+01,-1.23448e+01,0.00000e+00,0.00000e+00,0.00000e+00
1.98010e+03,1.64070e+01,-1.37164e+01,0.00000e+00,0.00000e+00,0.00000e+00
1.98010e+03,1.61595e+01,-1.50881e+01,0.00000e+00,0.00000e+00,0.00000e+00
1.98010e+03,1.58938e+01,-1.64597e+01,0.00000e+00,0.00000e+00,0.00000e+00
1.98010e+03,1.56020e+01,-1.78314e+01,0.00000e+00,0.00000e+00,0.00000e+00
1.98010e+03,1.52851e+01,-1.92030e+01,0.00000e+00,0.00000e+00,0.00000e+00
1.98010e+03,1.49379e+01,-2.05747e+01,0.00000e+00,0.00000e+00,0.00000e+00
1.98010e+03,1.45498e+01,-2.19463e+01,0.00000e+00,0.00000e+00,0.00000e+00
1.98010e+03,1.41333e+01,-2.33179e+01,0.00000e+00,0.00000e+00,0.00000e+00
1.98010e+03,1.36527e+01,-2.46896e+01,0.00000e+00,0.00000e+00,0.00000e+00
1.98010e+03,1.31457e+01,-2.60612e+01,0.00000e+00,0.00000e+00,0.00000e+00
1.98010e+03,1.25646e+01,-2.74329e+01,0.00000e+00,0.00000e+00,0.00000e+00
1.98010e+03,1.19244e+01,-2.88045e+01,0.00000e+00,0.00000e+00,0.00000e+00
1.98010e+03,1.12238e+01,-3.01762e+01,0.00000e+00,0.00000e+00,0.00000e+00
1.98010e+03,1.04220e+01,-3.15478e+01,0.00000e+00,0.00000e+00,0.00000e+00
1.98010e+03,9.50303e+00,-3.29194e+01,0.00000e+00,0.00000e+00,0.00000e+00
1.98010e+03,8.45151e+00,-3.42911e+01,0.00000e+00,0.00000e+00,0.00000e+00
1.98010e+03,7.20780e+00,-3.56627e+01,0.00000e+00,0.00000e+00,0.00000e+00
1.98010e+03,5.61141e+00,-3.70344e+01,0.00000e+00,0.00000e+00,0.00000e+00
1.98010e+03,3.45234e+00,-3.84060e+01,0.00000e+00,0.00000e+00,0.00000e+00
1.98010e+03,-1.39886e+00,-3.97777e+01,0.00000e+00,0.00000e+00,0.00000e+00
1.98010e+03,-1.74898e+00,-3.97808e+01,0.00000e+00,0.00000e+00,0.00000e+00
1.98010e+03,-4.93876e+00,-3.83601e+01,0.00000e+00,0.00000e+00,0.00000e+00
1.98010e+03,-5.32496e+00,-3.69394e+01,0.00000e+00,0.00000e+00,0.00000e+00
1.98010e+03,-5.45823e+00,-3.55186e+01,0.00000e+00,0.00000e+00,0.00000e+00
1.98010e+03,-5.47846e+00,-3.40979e+01,0.00000e+00,0.00000e+00,0.00000e+00
1.98010e+03,-5.41351e+00,-3.26771e+01,0.00000e+00,0.00000e+00,0.00000e+00
1.98010e+03,-5.29511e+00,-3.12564e+01,0.00000e+00,0.00000e+00,0.00000e+00
1.98010e+03,-5.12305e+00,-2.98356e+01,0.00000e+00,0.00000e+00,0.00000e+00
1.98010e+03,-4.91825e+00,-2.84149e+01,0.00000e+00,0.00000e+00,0.00000e+00
1.98010e+03,-4.69446e+00,-2.69941e+01,0.00000e+00,0.00000e+00,0.00000e+00
1.98010e+03,-4.44207e+00,-2.55734e+01,0.00000e+00,0.00000e+00,0.00000e+00
1.98010e+03,-4.17180e+00,-2.41527e+01,0.00000e+00,0.00000e+00,0.00000e+00
1.98010e+03,-3.88412e+00,-2.27319e+01,0.00000e+00,0.00000e+00,0.00000e+00
1.98010e+03,-3.57909e+00,-2.13112e+01,0.00000e+00,0.00000e+00,0.00000e+00
1.98010e+03,-3.26320e+00,-1.98904e+01,0.00000e+00,0.00000e+00,0.00000e+00
1.98010e+03,-2.93337e+00,-1.84697e+01,0.00000e+00,0.00000e+00,0.00000e+00
1.98010e+03,-2.59462e+00,-1.70489e+01,0.00000e+00,0.00000e+00,0.00000e+00
1.98010e+03,-2.24788e+00,-1.56282e+01,0.00000e+00,0.00000e+00,0.00000e+00
1.98010e+03,-1.89400e+00,-1.42074e+01,0.00000e+00,0.00000e+00,0.00000e+00
1.98010e+03,-1.53709e+00,-1.27867e+01,0.00000e+00,0.00000e+00,0.00000e+00
1.98010e+03,-1.17550e+00,-1.13660e+01,0.00000e+00,0.00000e+00,0.00000e+00
1.98010e+03,-8.13129e-01,-9.94521e+00,0.00000e+00,0.00000e+00,0.00000e+00
1.98010e+03,-4.47961e-01,-8.52447e+00,0.00000e+00,0.00000e+00,0.00000e+00
1.98010e+03,-8.28294e-02,-7.10372e+00,0.00000e+00,0.00000e+00,0.00000e+00
1.98010e+03,2.80922e-01,-5.68298e+00,0.00000e+00,0.00000e+00,0.00000e+00
1.98010e+03,6.44673e-01,-4.26223e+00,0.00000e+00,0.00000e+00,0.00000e+00
1.98010e+03,9.99811e-01,-2.84149e+00,0.00000e+00,0.00000e+00,0.00000e+00
1.98010e+03,1.35334e+00,-1.42074e+00,0.00000e+00,0.00000e+00,0.00000e+00
2.00520e+03,1.68635e+01,0.00000e+00,0.00000e+00,0.00000e+00,0.00000e+00
2.00520e+03,1.67786e+01,-1.28145e+00,0.00000e+00,0.00000e+00,0.00000e+00
2.00520e+03,1.66656e+01,-2.56290e+00,0.00000e+00,0.00000e+00,0.00000e+00
2.00520e+03,1.65515e+01,-3.84435e+00,0.00000e+00,0.00000e+00,0.00000e+00
2.00520e+03,1.64126e+01,-5.12580e+00,0.00000e+00,0.00000e+00,0.00000e+00
2.00520e+03,1.62680e+01,-6.40725e+00,0.00000e+00,0.00000e+00,0.00000e+00
2.00520e+03,1.61044e+01,-7.68870e+00,0.00000e+00,0.00000e+00,0.00000e+00
2.00520e+03,1.59315e+01,-8.97015e+00,0.00000e+00,0.00000e+00,0.00000e+00
2.00520e+03,1.57433e+01,-1.02516e+01,0.00000e+00,0.00000e+00,0.00000e+00
2.00520e+03,1.55427e+01,-1.15330e+01,0.00000e+00,0.00000e+00,0.00000e+00
2.00520e+03,1.53282e+01,-1.28145e+01,0.00000e+00,0.00000e+00,0.00000e+00
2.00520e+03,1.50970e+01,-1.40959e+01,0.00000e+00,0.00000e+00,0.00000e+00
2.00520e+03,1.48486e+01,-1.53774e+01,0.00000e+00,0.00000e+00,0.00000e+00
2.00520e+03,1.45761e+01,-1.66588e+01,0.00000e+00,0.00000e+00,0.00000e+00
2.00520e+03,1.42800e+01,-1.79403e+01,0.00000e+00,0.00000e+00,0.00000e+00
2.00520e+03,1.39556e+01,-1.92217e+01,0.00000e+00,0.00000e+00,0.00000e+00
2.00520e+03,1.35931e+01,-2.05032e+01,0.00000e+00,0.00000e+00,0.00000e+00
2.00520e+03,1.32039e+01,-2.17846e+01,0.00000e+00,0.00000e+00,0.00000e+00
2.00520e+03,1.27550e+01,-2.30661e+01,0.00000e+00,0.00000e+00,0.00000e+00
2.00520e+03,1.22812e+01,-2.43475e+01,0.00000e+00,0.00000e+00,0.00000e+00
2.00520e+03,1.17384e+01,-2.56290e+01,0.00000e+00,0.00000e+00,0.00000e+00
2.00520e+03,1.11403e+01,-2.69104e+01,0.00000e+00,0.00000e+00,0.00000e+00
2.00520e+03,1.04858e+01,-2.81919e+01,0.00000e+00,0.00000e+00,0.00000e+00
2.00520e+03,9.73672e+00,-2.94733e+01,0.00000e+00,0.00000e+00,0.00000e+00
2.00520e+03,8.87814e+00,-3.07548e+01,0.00000e+00,0.00000e+00,0.00000e+00
2.00520e+03,7.89577e+00,-3.20362e+01,0.00000e+00,0.00000e+00,0.00000e+00
2.00520e+03,6.73385e+00,-3.33177e+01,0.00000e+00,0.00000e+00,0.00000e+00
2.00520e+03,5.24243e+00,-3.45991e+01,0.00000e+00,0.00000e+00,0.00000e+00
2.00520e+03,3.22533e+00,-3.58806e+01,0.00000e+00,0.00000e+00,0.00000e+00
2.00520e+03,-1.30688e+00,-3.71620e+01,0.00000e+00,0.00000e+00,0.00000e+00
2.00520e+03,-1.63397e+00,-3.71650e+01,0.00000e+00,0.00000e+00,0.00000e+00
2.00520e+03,-4.61400e+00,-3.58377e+01,0.00000e+00,0.00000e+00,0.00000e+00
2.00520e+03,-4.97481e+00,-3.45104e+01,0.00000e+00,0.00000e+00,0.00000e+00
2.00520e+03,-5.09932e+00,-3.31830e+01,0.00000e+00,0.00000e+00,0.00000e+00
2.00520e+03,-5.11821e+00,-3.18557e+01,0.00000e+00,0.00000e+00,0.00000e+00
2.00520e+03,-5.05754e+00,-3.05284e+01,0.00000e+00,0.00000e+00,0.00000e+00
2.00520e+03,-4.94693e+00,-2.92011e+01,0.00000e+00,0.00000e+00,0.00000e+00
2.00520e+03,-4.78618e+00,-2.78738e+01,0.00000e+00,0.00000e+00,0.00000e+00
2.00520e+03,-4.59485e+00,-2.65464e+01,0.00000e+00,0.00000e+00,0.00000e+00
2.00520e+03,-4.38577e+00,-2.52191e+01,0.00000e+00,0.00000e+00,0.00000e+00
2.00520e+03,-4.14998e+00,-2.38918e+01,0.00000e+00,0.00000e+00,0.00000e+00
2.00520e+03,-3.89748e+00,-2.25645e+01,0.00000e+00,0.00000e+00,0.00000e+00
2.00520e+03,-3.62871e+00,-2.12371e+01,0.00000e+00,0.00000e+00,0.00000e+00
2.00520e+03,-3.34375e+00,-1.99098e+01,0.00000e+00,0.00000e+00,0.00000e+00
2.00520e+03,-3.04862e+00,-1.85825e+01,0.00000e+00,0.00000e+00,0.00000e+00
2.00520e+03,-2.74048e+00,-1.72552e+01,0.00000e+00,0.00000e+00,0.00000e+00
2.00520e+03,-2.42401e+00,-1.59279e+01,0.00000e+00,0.00000e+00,0.00000e+00
2.00520e+03,-2.10007e+00,-1.46005e+01,0.00000e+00,0.00000e+00,0.00000e+00
2.00520e+03,-1.76946e+00,-1.32732e+01,0.00000e+00,0.00000e+00,0.00000e+00
2.00520e+03,-1.43602e+00,-1.19459e+01,0.00000e+00,0.00000e+00,0.00000e+00
2.00520e+03,-1.09820e+00,-1.06186e+01,0.00000e+00,0.00000e+00,0.00000e+00
2.00520e+03,-7.59661e-01,-9.29125e+00,0.00000e+00,0.00000e+00,0.00000e+00
2.00520e+03,-4.18505e-01,-7.96393e+00,0.00000e+00,0.00000e+00,0.00000e+00
2.00520e+03,-7.73829e-02,-6.63661e+00,0.00000e+00,0.00000e+00,0.00000e+00
2.00520e+03,2.62450e-01,-5.30929e+00,0.00000e+00,0.00000e+00,0.00000e+00
2.00520e+03,6.02282e-01,-3.98196e+00,0.00000e+00,0.00000e+00,0.00000e+00
2.00520e+03,9.34067e-01,-2.65464e+00,0.00000e+00,0.00000e+00,0.00000e+00
2.00520e+03,1.26435e+00,-1.32732e+00,0.00000e+00,0.00000e+00,0.00000e+00
2.02480e+03,1.59367e+01,0.00000e+00,0.00000e+00,0.00000e+00,0.00000e+00
2.02480e+03,1.58564e+01,-1.21102e+00,0.00000e+00,0.00000e+00,0.00000e+00
2.02480e+03,1.57496e+01,-2.42204e+00,0.00000e+00,0.00000e+00,0.00000e+00
2.02480e+03,1.56418e+01,-3.63306e+00,0.00000e+00,0.00000e+00,0.00000e+00
2.02480e+03,1.55106e+01,-4.84408e+00,0.00000e+00,0.00000e+00,0.00000e+00
2.02480e+03,1.53739e+01,-6.05509e+00,0.00000e+00,0.00000e+00,0.00000e+00
2.02480e+03,1.52192e+01,-7.26611e+00,0.00000e+00,0.00000e+00,0.00000e+00
2.02480e+03,1.50559e+01,-8.47713e+00,0.00000e+00,0.00000e+00,0.00000e+00
2.02480e+03,1.48781e+01,-9.68815e+00,0.00000e+00,0.00000e+00,0.00000e+00
2.02480e+03,1.46884e+01,-1.08992e+01,0.00000e+00,0.00000e+00,0.00000e+00
2.02480e+03,1.44857e+01,-1.21102e+01,0.00000e+00,0.00000e+00,0.00000e+00
2.02480e+03,1.42672e+01,-1.33212e+01,0.00000e+00,0.00000e+00,0.00000e+00
2.02480e+03,1.40325e+01,-1.45322e+01,0.00000e+00,0.00000e+00,0.00000e+00
2.02480e+03,1.37750e+01,-1.57432e+01,0.00000e+00,0.00000e+00,0.00000e+00
2.02480e+03,1.34951e+01,-1.69543e+01,0.00000e+00,0.00000e+00,0.00000e+00
2.02480e+03,1.31886e+01,-1.81653e+01,0.00000e+00,0.00000e+00,0.00000e+00
2.02480e+03,1.28460e+01,-1.93763e+01,0.00000e+00,0.00000e+00,0.00000e+00
2.02480e+03,1.24782e+01,-2.05873e+01,0.00000e+00,0.00000e+00,0.00000e+00
2.02480e+03,1.20540e+01,-2.17983e+01,0.00000e+00,0.00000e+00,0.00000e+00
2.02480e+03,1.16063e+01,-2.30094e+01,0.00000e+00,0.00000e+00,0.00000e+00
2.02480e+03,1.10933e+01,-2.42204e+01,0.00000e+00,0.00000e+00,0.00000e+00
2.02480e+03,1.05280e+01,-2.54314e+01,0.00000e+00,0.00000e+00,0.00000e+00
2.02480e+03,9.90946e+00,-2.66424e+01,0.00000e+00,0.00000e+00,0.00000e+00
2.02480e+03,9.20158e+00,-2.78534e+01,0.00000e+00,0.00000e+00,0.00000e+00
2.02480e+03,8.39019e+00,-2.90645e+01,0.00000e+00,0.00000e+00,0.00000e+00
2.02480e+03,7.46181e+00,-3.02755e+01,0.00000e+00,0.00000e+00,0.00000e+00
2.02480e+03,6.36374e+00,-3.14865e+01,0.00000e+00,0.00000e+00,0.00000e+00
2.02480e+03,4.95429e+00,-3.26975e+01,0.00000e+00,0.00000e+00,0.00000e+00
2.02480e+03,3.04806e+00,-3.39085e+01,0.00000e+00,0.00000e+00,0.00000e+00
2.02480e+03,-1.23505e+00,-3.51195e+01,0.00000e+00,0.00000e+00,0.00000e+00
2.02480e+03,-1.54416e+00,-3.51224e+01,0.00000e+00,0.00000e+00,0.00000e+00
2.02480e+03,-4.36041e+00,-3.38680e+01,0.00000e+00,0.00000e+00,0.00000e+00
2.02480e+03,-4.70139e+00,-3.26136e+01,0.00000e+00,0.00000e+00,0.00000e+00
2.02480e+03,-4.81905e+00,-3.13592e+01,0.00000e+00,0.00000e+00,0.00000e+00
2.02480e+03,-4.83691e+00,-3.01049e+01,0.00000e+00,0.00000e+00,0.00000e+00
2.02480e+03,-4.77957e+00,-2.88505e+01,0.00000e+00,0.00000e+00,0.00000e+00
2.02480e+03,-4.67504e+00,-2.75961e+01,0.00000e+00,0.00000e+00,0.00000e+00
2.02480e+03,-4.52312e+00,-2.63418e+01,0.00000e+00,0.00000e+00,0.00000e+00
2.02480e+03,-4.34231e+00,-2.50874e+01,0.00000e+00,0.00000e+00,0.00000e+00
2.02480e+03,-4.14473e+00,-2.38330e+01,0.00000e+00,0.00000e+00,0.00000e+00
2.02480e+03,-3.92189e+00,-2.25787e+01,0.00000e+00,0.00000e+00,0.00000e+00
2.02480e+03,-3.68327e+00,-2.13243e+01,0.00000e+00,0.00000e+00,0.00000e+00
2.02480e+03,-3.42927e+00,-2.00699e+01,0.00000e+00,0.00000e+00,0.00000e+00
2.02480e+03,-3.15997e+00,-1.88155e+01,0.00000e+00,0.00000e+00,0.00000e+00
2.02480e+03,-2.88106e+00,-1.75612e+01,0.00000e+00,0.00000e+00,0.00000e+00
2.02480e+03,-2.58986e+00,-1.63068e+01,0.00000e+00,0.00000e+00,0.00000e+00
2.02480e+03,-2.29078e+00,-1.50524e+01,0.00000e+00,0.00000e+00,0.00000e+00
2.02480e+03,-1.98465e+00,-1.37981e+01,0.00000e+00,0.00000e+00,0.00000e+00
2.02480e+03,-1.67220e+00,-1.25437e+01,0.00000e+00,0.00000e+00,0.00000e+00
2.02480e+03,-1.35709e+00,-1.12893e+01,0.00000e+00,0.00000e+00,0.00000e+00
2.02480e+03,-1.03784e+00,-1.00350e+01,0.00000e+00,0.00000e+00,0.00000e+00
2.02480e+03,-7.17909e-01,-8.78059e+00,0.00000e+00,0.00000e+00,0.00000e+00
2.02480e+03,-3.95503e-01,-7.52622e+00,0.00000e+00,0.00000e+00,0.00000e+00
2.02480e+03,-7.31298e-02,-6.27185e+00,0.00000e+00,0.00000e+00,0.00000e+00
2.02480e+03,2.48025e-01,-5.01748e+00,0.00000e+00,0.00000e+00,0.00000e+00
2.02480e+03,5.69180e-01,-3.76311e+00,0.00000e+00,0.00000e+00,0.00000e+00
2.02480e+03,8.82730e-01,-2.50874e+00,0.00000e+00,0.00000e+00,0.00000e+00
2.02480e+03,1.19486e+00,-1.25437e+00,0.00000e+00,0.00000e+00,0.00000e+00
2.03880e+03,1.52746e+01,0.00000e+00,0.00000e+00,0.00000e+00,0.00000e+00
2.03880e+03,1.51977e+01,-1.16071e+00,0.00000e+00,0.00000e+00,0.00000e+00
2.03880e+03,1.50954e+01,-2.32142e+00,0.00000e+00,0.00000e+00,0.00000e+00
2.03880e+03,1.49920e+01,-3.48213e+00,0.00000e+00,0.00000e+00,0.00000e+00
2.03880e+03,1.48662e+01,-4.64285e+00,0.00000e+00,0.00000e+00,0.00000e+00
2.03880e+03,1.47352e+01,-5.80356e+00,0.00000e+00,0.00000e+00,0.00000e+00
2.03880e+03,1.45870e+01,-6.96427e+00,0.00000e+00,0.00000e+00,0.00000e+00
2.03880e+03,1.44304e+01,-8.12498e+00,0.00000e+00,0.00000e+00,0.00000e+00
2.03880e+03,1.42600e+01,-9.28569e+00,0.00000e+00,0.00000e+00,0.00000e+00
2.03880e+03,1.40782e+01,-1.04464e+01,0.00000e+00,0.00000e+00,0.00000e+00
2.03880e+03,1.38839e+01,-1.16071e+01,0.00000e+00,0.00000e+00,0.00000e+00
2.03880e+03,1.36745e+01,-1.27678e+01,0.00000e+00,0.00000e+00,0.00000e+00
2.03880e+03,1.34496e+01,-1.39285e+01,0.00000e+00,0.00000e+00,0.00000e+00
2.03880e+03,1.32028e+01,-1.50892e+01,0.00000e+00,0.00000e+00,0.00000e+00
2.03880e+03,1.29345e+01,-1.62500e+01,0.00000e+00,0.00000e+00,0.00000e+00
2.03880e+03,1.26407e+01,-1.74107e+01,0.00000e+00,0.00000e+00,0.00000e+00
2.03880e+03,1.23123e+01,-1.85714e+01,0.00000e+00,0.00000e+00,0.00000e+00
2.03880e+03,1.19599e+01,-1.97321e+01,0.00000e+00,0.00000e+00,0.00000e+00
2.03880e+03,1.15532e+01,-2.08928e+01,0.00000e+00,0.00000e+00,0.00000e+00
2.03880e+03,1.11241e+01,-2.20535e+01,0.00000e+00,0.00000e+00,0.00000e+00
2.03880e+03,1.06324e+01,-2.32142e+01,0.00000e+00,0.00000e+00,0.00000e+00
2.03880e+03,1.00906e+01,-2.43749e+01,0.00000e+00,0.00000e+00,0.00000e+00
2.03880e+03,9.49781e+00,-2.55357e+01,0.00000e+00,0.00000e+00,0.00000e+00
2.03880e+03,8.81933e+00,-2.66964e+01,0.00000e+00,0.00000e+00,0.00000e+00
2.03880e+03,8.04165e+00,-2.78571e+01,0.00000e+00,0.00000e+00,0.00000e+00
2.03880e+03,7.15183e+00,-2.90178e+01,0.00000e+00,0.00000e+00,0.00000e+00
2.03880e+03,6.09938e+00,-3.01785e+01,0.00000e+00,0.00000e+00,0.00000e+00
2.03880e+03,4.74849e+00,-3.13392e+01,0.00000e+00,0.00000e+00,0.00000e+00
2.03880e+03,2.92144e+00,-3.24999e+01,0.00000e+00,0.00000e+00,0.00000e+00
2.03880e+03,-1.18374e+00,-3.36606e+01,0.00000e+00,0.00000e+00,0.00000e+00
2.03880e+03,-1.48002e+00,-3.36633e+01,0.00000e+00,0.00000e+00,0.00000e+00
2.03880e+03,-4.17927e+00,-3.24611e+01,0.00000e+00,0.00000e+00,0.00000e+00
2.03880e+03,-4.50609e+00,-3.12588e+01,0.00000e+00,0.00000e+00,0.00000e+00
2.03880e+03,-4.61886e+00,-3.00565e+01,0.00000e+00,0.00000e+00,0.00000e+00
2.03880e+03,-4.63598e+00,-2.88543e+01,0.00000e+00,0.00000e+00,0.00000e+00
2.03880e+03,-4.58102e+00,-2.76520e+01,0.00000e+00,0.00000e+00,0.00000e+00
2.03880e+03,-4.48083e+00,-2.64498e+01,0.00000e+00,0.00000e+00,0.00000e+00
2.03880e+03,-4.33523e+00,-2.52475e+01,0.00000e+00,0.00000e+00,0.00000e+00
2.03880e+03,-4.16192e+00,-2.40452e+01,0.00000e+00,0.00000e+00,0.00000e+00
2.03880e+03,-3.97255e+00,-2.28430e+01,0.00000e+00,0.00000e+00,0.00000e+00
2.03880e+03,-3.75897e+00,-2.16407e+01,0.00000e+00,0.00000e+00,0.00000e+00
2.03880e+03,-3.53026e+00,-2.04384e+01,0.00000e+00,0.00000e+00,0.00000e+00
2.03880e+03,-3.28682e+00,-1.92362e+01,0.00000e+00,0.00000e+00,0.00000e+00
2.03880e+03,-3.02870e+00,-1.80339e+01,0.00000e+00,0.00000e+00,0.00000e+00
2.03880e+03,-2.76138e+00,-1.68317e+01,0.00000e+00,0.00000e+00,0.00000e+00
2.03880e+03,-2.48228e+00,-1.56294e+01,0.00000e+00,0.00000e+00,0.00000e+00
2.03880e+03,-2.19562e+00,-1.44271e+01,0.00000e+00,0.00000e+00,0.00000e+00
2.03880e+03,-1.90220e+00,-1.32249e+01,0.00000e+00,0.00000e+00,0.00000e+00
2.03880e+03,-1.60274e+00,-1.20226e+01,0.00000e+00,0.00000e+00,0.00000e+00
2.03880e+03,-1.30072e+00,-1.08204e+01,0.00000e+00,0.00000e+00,0.00000e+00
2.03880e+03,-9.94731e-01,-9.61809e+00,0.00000e+00,0.00000e+00,0.00000e+00
2.03880e+03,-6.88086e-01,-8.41583e+00,0.00000e+00,0.00000e+00,0.00000e+00
2.03880e+03,-3.79073e-01,-7.21357e+00,0.00000e+00,0.00000e+00,0.00000e+00
2.03880e+03,-7.00919e-02,-6.01131e+00,0.00000e+00,0.00000e+00,0.00000e+00
2.03880e+03,2.37722e-01,-4.80905e+00,0.00000e+00,0.00000e+00,0.00000e+00
2.03880e+03,5.45535e-01,-3.60678e+00,0.00000e+00,0.00000e+00,0.00000e+00
2.03880e+03,8.46060e-01,-2.40452e+00,0.00000e+00,0.00000e+00,0.00000e+00
2.03880e+03,1.14523e+00,-1.20226e+00,0.00000e+00,0.00000e+00,0.00000e+00
2.04720e+03,1.48774e+01,0.00000e+00,0.00000e+00,0.00000e+00,0.00000e+00
2.04720e+03,1.48025e+01,-1.13053e+00,0.00000e+00,0.00000e+00,0.00000e+00
2.04720e+03,1.47028e+01,-2.26105e+00,0.00000e+00,0.00000e+00,0.00000e+00
2.04720e+03,1.46021e+01,-3.39158e+00,0.00000e+00,0.00000e+00,0.00000e+00
2.04720e+03,1.44796e+01,-4.52211e+00,0.00000e+00,0.00000e+00,0.00000e+00
2.04720e+03,1.43520e+01,-5.65264e+00,0.00000e+00,0.00000e+00,0.00000e+00
2.04720e+03,1.42077e+01,-6.78316e+00,0.00000e+00,0.00000e+00,0.00000e+00
2.04720e+03,1.40552e+01,-7.91369e+00,0.00000e+00,0.00000e+00,0.00000e+00
2.04720e+03,1.38892e+01,-9.04422e+00,0.00000e+00,0.00000e+00,0.00000e+00
2.04720e+03,1.37121e+01,-1.01747e+01,0.00000e+00,0.00000e+00,0.00000e+00
2.04720e+03,1.35229e+01,-1.13053e+01,0.00000e+00,0.00000e+00,0.00000e+00
2.04720e+03,1.33189e+01,-1.24358e+01,0.00000e+00,0.00000e+00,0.00000e+00
2.04720e+03,1.30998e+01,-1.35663e+01,0.00000e+00,0.00000e+00,0.00000e+00
2.04720e+03,1.28594e+01,-1.46969e+01,0.00000e+00,0.00000e+00,0.00000e+00
2.04720e+03,1.25982e+01,-1.58274e+01,0.00000e+00,0.00000e+00,0.00000e+00
2.04720e+03,1.23120e+01,-1.69579e+01,0.00000e+00,0.00000e+00,0.00000e+00
2.04720e+03,1.19922e+01,-1.80884e+01,0.00000e+00,0.00000e+00,0.00000e+00
2.04720e+03,1.16489e+01,-1.92190e+01,0.00000e+00,0.00000e+00,0.00000e+00
2.04720e+03,1.12528e+01,-2.03495e+01,0.00000e+00,0.00000e+00,0.00000e+00
2.04720e+03,1.08348e+01,-2.14800e+01,0.00000e+00,0.00000e+00,0.00000e+00
2.04720e+03,1.03559e+01,-2.26105e+01,0.00000e+00,0.00000e+00,0.00000e+00
2.04720e+03,9.82823e+00,-2.37411e+01,0.00000e+00,0.00000e+00,0.00000e+00
2.04720e+03,9.25081e+00,-2.48716e+01,0.00000e+00,0.00000e+00,0.00000e+00
2.04720e+03,8.58998e+00,-2.60021e+01,0.00000e+00,0.00000e+00,0.00000e+00
2.04720e+03,7.83252e+00,-2.71326e+01,0.00000e+00,0.00000e+00,0.00000e+00
2.04720e+03,6.96585e+00,-2.82632e+01,0.00000e+00,0.00000e+00,0.00000e+00
2.04720e+03,5.94077e+00,-2.93937e+01,0.00000e+00,0.00000e+00,0.00000e+00
2.04720e+03,4.62500e+00,-3.05242e+01,0.00000e+00,0.00000e+00,0.00000e+00
2.04720e+03,2.84547e+00,-3.16548e+01,0.00000e+00,0.00000e+00,0.00000e+00
2.04720e+03,-1.15296e+00,-3.27853e+01,0.00000e+00,0.00000e+00,0.00000e+00
2.04720e+03,-1.44153e+00,-3.27879e+01,0.00000e+00,0.00000e+00,0.00000e+00
2.04720e+03,-4.07059e+00,-3.16169e+01,0.00000e+00,0.00000e+00,0.00000e+00
2.04720e+03,-4.38891e+00,-3.04459e+01,0.00000e+00,0.00000e+00,0.00000e+00
2.04720e+03,-4.49875e+00,-2.92749e+01,0.00000e+00,0.00000e+00,0.00000e+00
2.04720e+03,-4.51542e+00,-2.81039e+01,0.00000e+00,0.00000e+00,0.00000e+00
2.04720e+03,-4.46189e+00,-2.69329e+01,0.00000e+00,0.00000e+00,0.00000e+00
2.04720e+03,-4.36430e+00,-2.57619e+01,0.00000e+00,0.00000e+00,0.00000e+00
2.04720e+03,-4.22249e+00,-2.45909e+01,0.00000e+00,0.00000e+00,0.00000e+00
2.04720e+03,-4.05369e+00,-2.34199e+01,0.00000e+00,0.00000e+00,0.00000e+00
2.04720e+03,-3.86924e+00,-2.22489e+01,0.00000e+00,0.00000e+00,0.00000e+00
2.04720e+03,-3.66121e+00,-2.10779e+01,0.00000e+00,0.00000e+00,0.00000e+00
2.04720e+03,-3.43845e+00,-1.99069e+01,0.00000e+00,0.00000e+00,0.00000e+00
2.04720e+03,-3.20134e+00,-1.87359e+01,0.00000e+00,0.00000e+00,0.00000e+00
2.04720e+03,-2.94994e+00,-1.75649e+01,0.00000e+00,0.00000e+00,0.00000e+00
2.04720e+03,-2.68957e+00,-1.63940e+01,0.00000e+00,0.00000e+00,0.00000e+00
2.04720e+03,-2.41772e+00,-1.52230e+01,0.00000e+00,0.00000e+00,0.00000e+00
2.04720e+03,-2.13852e+00,-1.40520e+01,0.00000e+00,0.00000e+00,0.00000e+00
2.04720e+03,-1.85273e+00,-1.28810e+01,0.00000e+00,0.00000e+00,0.00000e+00
2.04720e+03,-1.56106e+00,-1.17100e+01,0.00000e+00,0.00000e+00,0.00000e+00
2.04720e+03,-1.26689e+00,-1.05390e+01,0.00000e+00,0.00000e+00,0.00000e+00
2.04720e+03,-9.68863e-01,-9.36797e+00,0.00000e+00,0.00000e+00,0.00000e+00
2.04720e+03,-6.70192e-01,-8.19698e+00,0.00000e+00,0.00000e+00,0.00000e+00
2.04720e+03,-3.69215e-01,-7.02598e+00,0.00000e+00,0.00000e+00,0.00000e+00
2.04720e+03,-6.82691e-02,-5.85498e+00,0.00000e+00,0.00000e+00,0.00000e+00
2.04720e+03,2.31540e-01,-4.68399e+00,0.00000e+00,0.00000e+00,0.00000e+00
2.04720e+03,5.31348e-01,-3.51299e+00,0.00000e+00,0.00000e+00,0.00000e+00
2.04720e+03,8.24058e-01,-2.34199e+00,0.00000e+00,0.00000e+00,0.00000e+00
2.04720e+03,1.11544e+00,-1.17100e+00,0.00000e+00,0.00000e+00,0.00000e+00
2.05000e+03,1.47450e+01,0.00000e+00,0.00000e+00,0.00000e+00,0.00000e+00
2.05000e+03,1.46708e+01,-1.12047e+00,0.00000e+00,0.00000e+00,0.00000e+00
2.05000e+03,1.45720e+01,-2.24093e+00,0.00000e+00,0.00000e+00,0.00000e+00
2.05000e+03,1.44722e+01,-3.36140e+00,0.00000e+00,0.00000e+00,0.00000e+00
2.05000e+03,1.43508e+01,-4.48186e+00,0.00000e+00,0.00000e+00,0.00000e+00
2.05000e+03,1.42243e+01,-5.60233e+00,0.00000e+00,0.00000e+00,0.00000e+00
2.05000e+03,1.40812e+01,-6.72279e+00,0.00000e+00,0.00000e+00,0.00000e+00
2.05000e+03,1.39301e+01,-7.84326e+00,0.00000e+00,0.00000e+00,0.00000e+00
2.05000e+03,1.37656e+01,-8.96372e+00,0.00000e+00,0.00000e+00,0.00000e+00
2.05000e+03,1.35901e+01,-1.00842e+01,0.00000e+00,0.00000e+00,0.00000e+00
2.05000e+03,1.34025e+01,-1.12047e+01,0.00000e+00,0.00000e+00,0.00000e+00
2.05000e+03,1.32004e+01,-1.23251e+01,0.00000e+00,0.00000e+00,0.00000e+00
2.05000e+03,1.29833e+01,-1.34456e+01,0.00000e+00,0.00000e+00,0.00000e+00
2.05000e+03,1.27450e+01,-1.45661e+01,0.00000e+00,0.00000e+00,0.00000e+00
2.05000e+03,1.24860e+01,-1.56865e+01,0.00000e+00,0.00000e+00,0.00000e+00
2.05000e+03,1.22024e+01,-1.68070e+01,0.00000e+00,0.00000e+00,0.00000e+00
2.05000e+03,1.18854e+01,-1.79274e+01,0.00000e+00,0.00000e+00,0.00000e+00
2.05000e+03,1.15452e+01,-1.90479e+01,0.00000e+00,0.00000e+00,0.00000e+00
2.05000e+03,1.11526e+01,-2.01684e+01,0.00000e+00,0.00000e+00,0.00000e+00
2.05000e+03,1.07384e+01,-2.12888e+01,0.00000e+00,0.00000e+00,0.00000e+00
2.05000e+03,1.02638e+01,-2.24093e+01,0.00000e+00,0.00000e+00,0.00000e+00
2.05000e+03,9.74076e+00,-2.35298e+01,0.00000e+00,0.00000e+00,0.00000e+00
2.05000e+03,9.16848e+00,-2.46502e+01,0.00000e+00,0.00000e+00,0.00000e+00
2.05000e+03,8.51353e+00,-2.57707e+01,0.00000e+00,0.00000e+00,0.00000e+00
2.05000e+03,7.76281e+00,-2.68912e+01,0.00000e+00,0.00000e+00,0.00000e+00
2.05000e+03,6.90385e+00,-2.80116e+01,0.00000e+00,0.00000e+00,0.00000e+00
2.05000e+03,5.88790e+00,-2.91321e+01,0.00000e+00,0.00000e+00,0.00000e+00
2.05000e+03,4.58384e+00,-3.02526e+01,0.00000e+00,0.00000e+00,0.00000e+00
2.05000e+03,2.82014e+00,-3.13730e+01,0.00000e+00,0.00000e+00,0.00000e+00
2.05000e+03,-1.14270e+00,-3.24935e+01,0.00000e+00,0.00000e+00,0.00000e+00
2.05000e+03,-1.42870e+00,-3.24961e+01,0.00000e+00,0.00000e+00,0.00000e+00
2.05000e+03,-4.03436e+00,-3.13355e+01,0.00000e+00,0.00000e+00,0.00000e+00
2.05000e+03,-4.34985e+00,-3.01749e+01,0.00000e+00,0.00000e+00,0.00000e+00
2.05000e+03,-4.45871e+00,-2.90144e+01,0.00000e+00,0.00000e+00,0.00000e+00
2.05000e+03,-4.47523e+00,-2.78538e+01,0.00000e+00,0.00000e+00,0.00000e+00
2.05000e+03,-4.42218e+00,-2.66932e+01,0.00000e+00,0.00000e+00,0.00000e+00
2.05000e+03,-4.32546e+00,-2.55327e+01,0.00000e+00,0.00000e+00,0.00000e+00
2.05000e+03,-4.18491e+00,-2.43721e+01,0.00000e+00,0.00000e+00,0.00000e+00
2.05000e+03,-4.01761e+00,-2.32115e+01,0.00000e+00,0.00000e+00,0.00000e+00
2.05000e+03,-3.83480e+00,-2.20509e+01,0.00000e+00,0.00000e+00,0.00000e+00
2.05000e+03,-3.62863e+00,-2.08903e+01,0.00000e+00,0.00000e+00,0.00000e+00
2.05000e+03,-3.40785e+00,-1.97298e+01,0.00000e+00,0.00000e+00,0.00000e+00
2.05000e+03,-3.17285e+00,-1.85692e+01,0.00000e+00,0.00000e+00,0.00000e+00
2.05000e+03,-2.92368e+00,-1.74086e+01,0.00000e+00,0.00000e+00,0.00000e+00
2.05000e+03,-2.66563e+00,-1.62480e+01,0.00000e+00,0.00000e+00,0.00000e+00
2.05000e+03,-2.39621e+00,-1.50875e+01,0.00000e+00,0.00000e+00,0.00000e+00
2.05000e+03,-2.11949e+00,-1.39269e+01,0.00000e+00,0.00000e+00,0.00000e+00
2.05000e+03,-1.83624e+00,-1.27663e+01,0.00000e+00,0.00000e+00,0.00000e+00
2.05000e+03,-1.54717e+00,-1.16057e+01,0.00000e+00,0.00000e+00,0.00000e+00
2.05000e+03,-1.25562e+00,-1.04452e+01,0.00000e+00,0.00000e+00,0.00000e+00
2.05000e+03,-9.60241e-01,-9.28460e+00,0.00000e+00,0.00000e+00,0.00000e+00
2.05000e+03,-6.64227e-01,-8.12402e+00,0.00000e+00,0.00000e+00,0.00000e+00
2.05000e+03,-3.65929e-01,-6.96345e+00,0.00000e+00,0.00000e+00,0.00000e+00
2.05000e+03,-6.76615e-02,-5.80287e+00,0.00000e+00,0.00000e+00,0.00000e+00
2.05000e+03,2.29479e-01,-4.64230e+00,0.00000e+00,0.00000e+00,0.00000e+00
2.05000e+03,5.26620e-01,-3.48173e+00,0.00000e+00,0.00000e+00,0.00000e+00
2.05000e+03,8.16724e-01,-2.32115e+00,0.00000e+00,0.00000e+00,0.00000e+00
2.05000e+03,1.10552e+00,-1.16058e+00,0.00000e+00,0.00000e+00,0.00000e+00
--------------------------------------------------------------------------------------------------------------------------------------------------------------------------------------------------------------------------------------------------------------------------------------------------------------------------------------------------------------------------------

ALMA 
--------------------------------------------------------------------------------------------------------------------------------------------------------------------------------------------------------------------------------------------------------------------------------------------------------------------------------------------------------------------------------
X,Y,Z,Sigma,Tau,Von Mises
0.00000e+00,4.05613e+00,0.00000e+00,3.21931e-01,1.32119e+00,2.31090e+00
0.00000e+00,1.70710e+01,0.00000e+00,1.11027e-01,1.32273e+00,2.29372e+00
0.00000e+00,3.00859e+01,0.00000e+00,-9.98781e-02,1.32273e+00,2.29321e+00
0.00000e+00,4.31008e+01,0.00000e+00,-3.10783e-01,1.32122e+00,2.30943e+00
1.07300e+02,4.01639e+00,0.00000e+00,2.87733e-01,1.24845e+00,2.18145e+00
1.07300e+02,1.69038e+01,0.00000e+00,9.92573e-02,1.24990e+00,2.16716e+00
1.07300e+02,2.97912e+01,0.00000e+00,-8.92189e-02,1.24990e+00,2.16672e+00
1.07300e+02,4.26785e+01,0.00000e+00,-2.77695e-01,1.24848e+00,2.18020e+00
2.14300e+02,3.97676e+00,0.00000e+00,2.55364e-01,1.17499e+00,2.05111e+00
2.14300e+02,1.67370e+01,0.00000e+00,8.81164e-02,1.17634e+00,2.03939e+00
2.14300e+02,2.94972e+01,0.00000e+00,-7.91307e-02,1.17634e+00,2.03902e+00
2.14300e+02,4.22575e+01,0.00000e+00,-2.46378e-01,1.17502e+00,2.05006e+00
3.20700e+02,3.93736e+00,0.00000e+00,2.24946e-01,1.09999e+00,1.91847e+00
3.20700e+02,1.65712e+01,0.00000e+00,7.76464e-02,1.10124e+00,1.90898e+00
3.20700e+02,2.92050e+01,0.00000e+00,-6.96533e-02,1.10124e+00,1.90868e+00
3.20700e+02,4.18388e+01,0.00000e+00,-2.16953e-01,1.10001e+00,1.91759e+00
4.26200e+02,3.89829e+00,0.00000e+00,1.96592e-01,1.02458e+00,1.78549e+00
4.26200e+02,1.64067e+01,0.00000e+00,6.78849e-02,1.02574e+00,1.77793e+00
4.26200e+02,2.89151e+01,0.00000e+00,-6.08226e-02,1.02574e+00,1.77767e+00
4.26200e+02,4.14236e+01,0.00000e+00,-1.89530e-01,1.02461e+00,1.78476e+00
5.30600e+02,3.85963e+00,0.00000e+00,1.70347e-01,9.49189e-01,1.65284e+00
5.30600e+02,1.62440e+01,0.00000e+00,5.88469e-02,9.50251e-01,1.64693e+00
5.30600e+02,2.86284e+01,0.00000e+00,-5.26528e-02,9.50251e-01,1.64672e+00
5.30600e+02,4.10127e+01,0.00000e+00,-1.64153e-01,9.49210e-01,1.65225e+00
6.33500e+02,3.82152e+00,0.00000e+00,1.46274e-01,8.74710e-01,1.52209e+00
6.33500e+02,1.60836e+01,0.00000e+00,5.05546e-02,8.75680e-01,1.51756e+00
6.33500e+02,2.83457e+01,0.00000e+00,-4.51648e-02,8.75680e-01,1.51739e+00
6.33500e+02,4.06078e+01,0.00000e+00,-1.40884e-01,8.74729e-01,1.52161e+00
7.34700e+02,3.78404e+00,0.00000e+00,1.24363e-01,8.01348e-01,1.39354e+00
7.34700e+02,1.59259e+01,0.00000e+00,4.30035e-02,8.02230e-01,1.39017e+00
7.34700e+02,2.80677e+01,0.00000e+00,-3.83559e-02,8.02230e-01,1.39003e+00
7.34700e+02,4.02095e+01,0.00000e+00,-1.19715e-01,8.01365e-01,1.39316e+00
8.33800e+02,3.74734e+00,0.00000e+00,1.04622e-01,7.29494e-01,1.26785e+00
8.33800e+02,1.57714e+01,0.00000e+00,3.61967e-02,7.30291e-01,1.26542e+00
8.33800e+02,2.77955e+01,0.00000e+00,-3.22288e-02,7.30291e-01,1.26531e+00
8.33800e+02,3.98196e+01,0.00000e+00,-1.00654e-01,7.29510e-01,1.26755e+00
9.30700e+02,3.71145e+00,0.00000e+00,8.69812e-02,6.59043e-01,1.14481e+00
9.30700e+02,1.56204e+01,0.00000e+00,3.01101e-02,6.59758e-01,1.14313e+00
9.30700e+02,2.75293e+01,0.00000e+00,-2.67610e-02,6.59758e-01,1.14305e+00
9.30700e+02,3.94382e+01,0.00000e+00,-8.36320e-02,6.59057e-01,1.14458e+00
1.02500e+03,3.67653e+00,0.00000e+00,7.14004e-02,5.90853e-01,1.02587e+00
1.02500e+03,1.54734e+01,0.00000e+00,2.47308e-02,5.91489e-01,1.02479e+00
1.02500e+03,2.72703e+01,0.00000e+00,-2.19388e-02,5.91489e-01,1.02472e+00
1.02500e+03,3.90671e+01,0.00000e+00,-6.86085e-02,5.90865e-01,1.02570e+00
1.11650e+03,3.64264e+00,0.00000e+00,5.77940e-02,5.24143e-01,9.09681e-01
1.11650e+03,1.53308e+01,0.00000e+00,2.00299e-02,5.24705e-01,9.09037e-01
1.11650e+03,2.70189e+01,0.00000e+00,-1.77341e-02,5.24705e-01,9.08989e-01
1.11650e+03,3.87070e+01,0.00000e+00,-5.54982e-02,5.24154e-01,9.09556e-01
1.20500e+03,3.54704e+00,0.00000e+00,6.59838e-02,4.64955e-01,8.08024e-01
1.20500e+03,1.49284e+01,0.00000e+00,2.29742e-02,4.65648e-01,8.06853e-01
1.20500e+03,2.63098e+01,0.00000e+00,-2.00354e-02,4.65648e-01,8.06775e-01
1.20500e+03,3.76912e+01,0.00000e+00,-6.30449e-02,4.64973e-01,8.07822e-01
1.29010e+03,3.41832e+00,0.00000e+00,5.34969e-02,4.19308e-01,7.28230e-01
1.29010e+03,1.43867e+01,0.00000e+00,1.86319e-02,4.19912e-01,7.27547e-01
1.29010e+03,2.53550e+01,0.00000e+00,-1.62331e-02,4.19912e-01,7.27490e-01
1.29010e+03,3.63234e+01,0.00000e+00,-5.10981e-02,4.19324e-01,7.28085e-01
1.37170e+03,3.29489e+00,0.00000e+00,4.25476e-02,3.73075e-01,6.47584e-01
1.37170e+03,1.38672e+01,0.00000e+00,1.48231e-02,3.73595e-01,6.47255e-01
1.37170e+03,2.44395e+01,0.00000e+00,-1.29014e-02,3.73595e-01,6.47214e-01
1.37170e+03,3.50118e+01,0.00000e+00,-4.06260e-02,3.73088e-01,6.47483e-01
1.44960e+03,3.17706e+00,0.00000e+00,3.31056e-02,3.27901e-01,5.68905e-01
1.44960e+03,1.33713e+01,0.00000e+00,1.15374e-02,3.28343e-01,5.68823e-01
1.44960e+03,2.35655e+01,0.00000e+00,-1.00308e-02,3.28343e-01,5.68795e-01
1.44960e+03,3.37597e+01,0.00000e+00,-3.15990e-02,3.27911e-01,5.68837e-01
1.52340e+03,3.06543e+00,0.00000e+00,2.51402e-02,2.83307e-01,4.91346e-01
1.52340e+03,1.29015e+01,0.00000e+00,8.76424e-03,2.83677e-01,4.91422e-01
1.52340e+03,2.27375e+01,0.00000e+00,-7.61176e-03,2.83677e-01,4.91402e-01
1.52340e+03,3.25736e+01,0.00000e+00,-2.39878e-02,2.83316e-01,4.91303e-01
1.59310e+03,2.96000e+00,0.00000e+00,1.85619e-02,2.40527e-01,4.17019e-01
1.59310e+03,1.24578e+01,0.00000e+00,6.47322e-03,2.40832e-01,4.17183e-01
1.59310e+03,2.19555e+01,0.00000e+00,-5.61546e-03,2.40832e-01,4.17170e-01
1.59310e+03,3.14533e+01,0.00000e+00,-1.77041e-02,2.40534e-01,4.16993e-01
1.65850e+03,2.86108e+00,0.00000e+00,1.32717e-02,1.99630e-01,3.46023e-01
1.65850e+03,1.20414e+01,0.00000e+00,4.63026e-03,1.99875e-01,3.46225e-01
1.65850e+03,2.12218e+01,0.00000e+00,-4.01115e-03,1.99875e-01,3.46217e-01
1.65850e+03,3.04021e+01,0.00000e+00,-1.26526e-02,1.99635e-01,3.46009e-01
1.71930e+03,2.76911e+00,0.00000e+00,9.15231e-03,1.61438e-01,2.79769e-01
1.71930e+03,1.16544e+01,0.00000e+00,3.19444e-03,1.61631e-01,2.79972e-01
1.71930e+03,2.05396e+01,0.00000e+00,-2.76343e-03,1.61631e-01,2.79968e-01
1.71930e+03,2.94249e+01,0.00000e+00,-8.72131e-03,1.61442e-01,2.79762e-01
1.77540e+03,2.60964e+00,0.00000e+00,1.09114e-02,2.13464e-01,3.69892e-01
1.77540e+03,1.09832e+01,0.00000e+00,3.84626e-03,2.13726e-01,3.70203e-01
1.77540e+03,1.93567e+01,0.00000e+00,-3.21889e-03,2.13726e-01,3.70197e-01
1.77540e+03,2.77303e+01,0.00000e+00,-1.02840e-02,2.13474e-01,3.69892e-01
1.82660e+03,2.38179e+00,0.00000e+00,7.44292e-03,1.76369e-01,3.05571e-01
1.82660e+03,1.00242e+01,0.00000e+00,2.62415e-03,1.76568e-01,3.05836e-01
1.82660e+03,1.76667e+01,0.00000e+00,-2.19462e-03,1.76568e-01,3.05832e-01
1.82660e+03,2.53092e+01,0.00000e+00,-7.01340e-03,1.76376e-01,3.05573e-01
1.87280e+03,2.17619e+00,0.00000e+00,4.77931e-03,1.40836e-01,2.43982e-01
1.87280e+03,9.15894e+00,0.00000e+00,1.68792e-03,1.40982e-01,2.44194e-01
1.87280e+03,1.61417e+01,0.00000e+00,-1.40347e-03,1.40982e-01,2.44192e-01
1.87280e+03,2.31244e+01,0.00000e+00,-4.49486e-03,1.40841e-01,2.43985e-01
1.91380e+03,1.99374e+00,0.00000e+00,2.84391e-03,1.07988e-01,1.87062e-01
1.91380e+03,8.39104e+00,0.00000e+00,1.00776e-03,1.08090e-01,1.87220e-01
1.91380e+03,1.47883e+01,0.00000e+00,-8.28385e-04,1.08090e-01,1.87220e-01
1.91380e+03,2.11856e+01,0.00000e+00,-2.66453e-03,1.07991e-01,1.87065e-01
1.94970e+03,1.83398e+00,0.00000e+00,1.52562e-03,7.80347e-02,1.35169e-01
1.94970e+03,7.71865e+00,0.00000e+00,5.43543e-04,7.81024e-02,1.35278e-01
1.94970e+03,1.36033e+01,0.00000e+00,-4.38530e-04,7.81024e-02,1.35278e-01
1.94970e+03,1.94880e+01,0.00000e+00,-1.42060e-03,7.80366e-02,1.35171e-01
1.98010e+03,1.69869e+00,0.00000e+00,7.15758e-04,5.21877e-02,9.03946e-02
1.98010e+03,7.14927e+00,0.00000e+00,2.57146e-04,5.22292e-02,9.04641e-02
1.98010e+03,1.25999e+01,0.00000e+00,-2.01465e-04,5.22292e-02,9.04639e-02
1.98010e+03,1.80504e+01,0.00000e+00,-6.60076e-04,5.21888e-02,9.03960e-02
2.00520e+03,1.58699e+00,0.00000e+00,2.74880e-04,3.10332e-02,5.37517e-02
2.00520e+03,6.67917e+00,0.00000e+00,9.99961e-05,3.10559e-02,5.37904e-02
2.00520e+03,1.17713e+01,0.00000e+00,-7.48874e-05,3.10559e-02,5.37904e-02
2.00520e+03,1.68635e+01,0.00000e+00,-2.49771e-04,3.10337e-02,5.37525e-02
2.02480e+03,1.49977e+00,0.00000e+00,7.80304e-05,1.54012e-02,2.66757e-02
2.02480e+03,6.31207e+00,0.00000e+00,2.89400e-05,1.54115e-02,2.66936e-02
2.02480e+03,1.11244e+01,0.00000e+00,-2.01505e-05,1.54115e-02,2.66936e-02
2.02480e+03,1.59367e+01,0.00000e+00,-6.92409e-05,1.54014e-02,2.66761e-02
2.03880e+03,1.43746e+00,0.00000e+00,1.36634e-05,5.57248e-03,9.65182e-03
2.03880e+03,6.04986e+00,0.00000e+00,5.24365e-06,5.57590e-03,9.65774e-03
2.03880e+03,1.06622e+01,0.00000e+00,-3.17609e-06,5.57590e-03,9.65774e-03
2.03880e+03,1.52746e+01,0.00000e+00,-1.15958e-05,5.57255e-03,9.65195e-03
2.04720e+03,1.40008e+00,0.00000e+00,1.70184e-06,9.51531e-04,1.64810e-03
2.04720e+03,5.89253e+00,0.00000e+00,6.91311e-07,9.52032e-04,1.64897e-03
2.04720e+03,1.03850e+01,0.00000e+00,-3.19219e-07,9.52032e-04,1.64897e-03
2.04720e+03,1.48774e+01,0.00000e+00,-1.32975e-06,9.51542e-04,1.64812e-03
2.05000e+03,1.38762e+00,0.00000e+00,0.00000e+00,0.00000e+00,0.00000e+00
2.05000e+03,5.84009e+00,0.00000e+00,0.00000e+00,0.00000e+00,0.00000e+00
2.05000e+03,1.02925e+01,0.00000e+00,0.00000e+00,0.00000e+00,0.00000e+00
2.05000e+03,1.47450e+01,0.00000e+00,0.00000e+00,0.00000e+00,0.00000e+00
MESA INFERIOR 
--------------------------------------------------------------------------------------------------------------------------------------------------------------------------------------------------------------------------------------------------------------------------------------------------------------------------------------------------------------------------------
X,Y,Z,Sigma,Von Mises
0.00000e+00,4.05613e+00,0.00000e+00,0.00000e+00,0.00000e+00
1.07300e+02,4.01639e+00,0.00000e+00,0.00000e+00,0.00000e+00
2.14300e+02,3.97676e+00,0.00000e+00,0.00000e+00,0.00000e+00
3.20700e+02,3.93736e+00,0.00000e+00,0.00000e+00,0.00000e+00
4.26200e+02,3.89829e+00,0.00000e+00,0.00000e+00,0.00000e+00
5.30600e+02,3.85963e+00,0.00000e+00,0.00000e+00,0.00000e+00
6.33500e+02,3.82152e+00,0.00000e+00,0.00000e+00,0.00000e+00
7.34700e+02,3.78404e+00,0.00000e+00,0.00000e+00,0.00000e+00
8.33800e+02,3.74734e+00,0.00000e+00,0.00000e+00,0.00000e+00
9.30700e+02,3.71145e+00,0.00000e+00,0.00000e+00,0.00000e+00
1.02500e+03,3.67653e+00,0.00000e+00,0.00000e+00,0.00000e+00
1.11650e+03,3.64264e+00,0.00000e+00,0.00000e+00,0.00000e+00
1.20500e+03,3.54704e+00,0.00000e+00,0.00000e+00,0.00000e+00
1.29010e+03,3.41832e+00,0.00000e+00,0.00000e+00,0.00000e+00
1.37170e+03,3.29489e+00,0.00000e+00,0.00000e+00,0.00000e+00
1.44960e+03,3.17706e+00,0.00000e+00,0.00000e+00,0.00000e+00
1.52340e+03,3.06543e+00,0.00000e+00,0.00000e+00,0.00000e+00
1.59310e+03,2.96000e+00,0.00000e+00,0.00000e+00,0.00000e+00
1.65850e+03,2.86108e+00,0.00000e+00,0.00000e+00,0.00000e+00
1.71930e+03,2.76911e+00,0.00000e+00,0.00000e+00,0.00000e+00
1.77540e+03,2.60964e+00,0.00000e+00,0.00000e+00,0.00000e+00
1.82660e+03,2.38179e+00,0.00000e+00,0.00000e+00,0.00000e+00
1.87280e+03,2.17619e+00,0.00000e+00,0.00000e+00,0.00000e+00
1.91380e+03,1.99374e+00,0.00000e+00,0.00000e+00,0.00000e+00
1.94970e+03,1.83398e+00,0.00000e+00,0.00000e+00,0.00000e+00
1.98010e+03,1.69869e+00,0.00000e+00,0.00000e+00,0.00000e+00
2.00520e+03,1.58699e+00,0.00000e+00,0.00000e+00,0.00000e+00
2.02480e+03,1.49977e+00,0.00000e+00,0.00000e+00,0.00000e+00
2.03880e+03,1.43746e+00,0.00000e+00,0.00000e+00,0.00000e+00
2.04720e+03,1.40008e+00,0.00000e+00,0.00000e+00,0.00000e+00
2.05000e+03,1.38762e+00,0.00000e+00,0.00000e+00,0.00000e+00
--------------------------------------------------------------------------------------------------------------------------------------------------------------------------------------------------------------------------------------------------------------------------------------------------------------------------------------------------------------------------------

MESA SUPERIOR 
--------------------------------------------------------------------------------------------------------------------------------------------------------------------------------------------------------------------------------------------------------------------------------------------------------------------------------------------------------------------------------
X,Y,Z,Sigma,Von Mises
0.00000e+00,4.31008e+01,0.00000e+00,0.00000e+00,0.00000e+00
1.07300e+02,4.26785e+01,0.00000e+00,0.00000e+00,0.00000e+00
2.14300e+02,4.22575e+01,0.00000e+00,0.00000e+00,0.00000e+00
3.20700e+02,4.18388e+01,0.00000e+00,0.00000e+00,0.00000e+00
4.26200e+02,4.14236e+01,0.00000e+00,0.00000e+00,0.00000e+00
5.30600e+02,4.10127e+01,0.00000e+00,0.00000e+00,0.00000e+00
6.33500e+02,4.06078e+01,0.00000e+00,0.00000e+00,0.00000e+00
7.34700e+02,4.02095e+01,0.00000e+00,0.00000e+00,0.00000e+00
8.33800e+02,3.98196e+01,0.00000e+00,0.00000e+00,0.00000e+00
9.30700e+02,3.94382e+01,0.00000e+00,0.00000e+00,0.00000e+00
1.02500e+03,3.90671e+01,0.00000e+00,0.00000e+00,0.00000e+00
1.11650e+03,3.87070e+01,0.00000e+00,0.00000e+00,0.00000e+00
1.20500e+03,3.76912e+01,0.00000e+00,0.00000e+00,0.00000e+00
1.29010e+03,3.63234e+01,0.00000e+00,0.00000e+00,0.00000e+00
1.37170e+03,3.50118e+01,0.00000e+00,0.00000e+00,0.00000e+00
1.44960e+03,3.37597e+01,0.00000e+00,0.00000e+00,0.00000e+00
1.52340e+03,3.25736e+01,0.00000e+00,0.00000e+00,0.00000e+00
1.59310e+03,3.14533e+01,0.00000e+00,0.00000e+00,0.00000e+00
1.65850e+03,3.04021e+01,0.00000e+00,0.00000e+00,0.00000e+00
1.71930e+03,2.94249e+01,0.00000e+00,0.00000e+00,0.00000e+00
1.77540e+03,2.77303e+01,0.00000e+00,0.00000e+00,0.00000e+00
1.82660e+03,2.53092e+01,0.00000e+00,0.00000e+00,0.00000e+00
1.87280e+03,2.31244e+01,0.00000e+00,0.00000e+00,0.00000e+00
1.91380e+03,2.11856e+01,0.00000e+00,0.00000e+00,0.00000e+00
1.94970e+03,1.94880e+01,0.00000e+00,0.00000e+00,0.00000e+00
1.98010e+03,1.80504e+01,0.00000e+00,0.00000e+00,0.00000e+00
2.00520e+03,1.68635e+01,0.00000e+00,0.00000e+00,0.00000e+00
2.02480e+03,1.59367e+01,0.00000e+00,0.00000e+00,0.00000e+00
2.03880e+03,1.52746e+01,0.00000e+00,0.00000e+00,0.00000e+00
2.04720e+03,1.48774e+01,0.00000e+00,0.00000e+00,0.00000e+00
2.05000e+03,1.47450e+01,0.00000e+00,0.00000e+00,0.00000e+00
--------------------------------------------------------------------------------------------------------------------------------------------------------------------------------------------------------------------------------------------------------------------------------------------------------------------------------------------------------------------------------

