----------------------------------------------
LOG MATLAB Estruturas Copyright Charles 2020
----------------------------------------------

VISÃO GERAL POR SEÇÃO
--------------------------------------------------------------------------------------------------------------------------------------------------------------------------------------------------------------------------------------------------------------------------------------------------------------------------------------------------------------------------------
SEÇÃO,POSIÇÃO .25c,, ESFORÇOS,,,,,INÉRCIAS,,,,CENTROS GEOMÉTRICOS,,,DEFLEXÇOES,,,,,TENSÕES NORMAIS,,,,,,,,TENSÕES CISALHAMENTO,,,TENSÕES DE VON MISES
NUMERO,X,Y,MFz,MFy,MTx,Vz,Vy,EIzz,EIyy,EIzy,GJ,Zcg,Ycg,Zcc,Z,Y,Z´,Y´,Theta,Sigma_Chap+,Sigma_Chap-,Sigma_Lam+,Sigma_Lam-,Sigma_Mesa+,Sigma_Mesa-,Sigma_Alma+,Sigma_Alma-,  Tau_Alma,  Tau_Chap,  Tau_Lam, Von Mises_Alma,  Von Mises_Chap,  Von Mises_Lam
--------------------------------------------------------------------------------------------------------------------------------------------------------------------------------------------------------------------------------------------------------------------------------------------------------------------------------------------------------------------------------
01,0.00000e+00,0.00000e+00,1.03711e+05,6.26600e+03,-8.47039e+03,6.55440e+00,1.17060e+02,2.43720e+09,3.02407e+09,6.88619e+08,4.30101e+07,8.66395e+01,2.17434e+01,7.43235e+01,0.00000e+00,0.00000e+00,0.00000e+00,0.00000e+00,0.00000e+00,1.37392e+00,-1.73176e+00,0.00000e+00,0.00000e+00,7.72674e+01,-7.38275e+01,9.66601e-02,-9.23569e-02,4.00447e-01,4.90887e-01,0.00000e+00,6.99506e-01,1.86891e+00,0.00000e+00
02,1.07300e+02,0.00000e+00,9.15624e+04,5.58410e+03,-7.82635e+03,6.15581e+00,1.09384e+02,2.38487e+09,2.93941e+09,6.69313e+08,4.17576e+07,8.58583e+01,2.15452e+01,7.36225e+01,-4.44739e-02,2.45516e-01,-8.28964e-04,4.57625e-03,-2.06211e-02,1.22704e+00,-1.54870e+00,0.00000e+00,0.00000e+00,6.90154e+01,-6.59263e+01,8.63371e-02,-8.24727e-02,3.77844e-01,4.61872e-01,0.00000e+00,6.59374e-01,1.68434e+00,0.00000e+00
03,2.14300e+02,0.00000e+00,8.02611e+04,4.94658e+03,-7.19196e+03,5.76034e+00,1.01854e+02,2.33333e+09,2.85653e+09,6.50412e+08,4.05161e+07,8.50782e+01,2.13473e+01,7.29231e+01,-1.72739e-01,9.54589e-01,-1.56852e-03,8.67745e-03,-4.01449e-02,1.08816e+00,-1.37539e+00,0.00000e+00,0.00000e+00,6.12124e+01,-5.84552e+01,7.65757e-02,-7.31264e-02,3.55106e-01,4.32447e-01,0.00000e+00,6.19118e-01,1.50913e+00,0.00000e+00
04,3.20700e+02,0.00000e+00,6.98257e+04,4.35405e+03,-6.58230e+03,5.37747e+00,9.43003e+01,2.28273e+09,2.77562e+09,6.31961e+08,3.93216e+07,8.43013e+01,2.11503e+01,7.22271e+01,-3.74365e-01,2.07145e+00,-2.22143e-03,1.23161e-02,-5.84939e-02,9.57804e-01,-1.21251e+00,0.00000e+00,0.00000e+00,5.38876e+01,-5.14424e+01,6.74125e-02,-6.43536e-02,3.32006e-01,4.03139e-01,0.00000e+00,5.78347e-01,1.34416e+00,0.00000e+00
05,4.26200e+02,0.00000e+00,6.02677e+04,3.80645e+03,-5.99700e+03,5.00365e+00,8.68933e+01,2.23318e+09,2.69686e+09,6.14002e+08,3.81623e+07,8.35299e+01,2.09548e+01,7.15366e+01,-6.38798e-01,3.53931e+00,-2.79154e-03,1.55106e-02,-7.56134e-02,8.36442e-01,-1.06063e+00,0.00000e+00,0.00000e+00,4.70671e+01,-4.49136e+01,5.88801e-02,-5.61862e-02,3.08962e-01,3.74108e-01,0.00000e+00,5.37775e-01,1.18993e+00,0.00000e+00
06,5.30600e+02,0.00000e+00,5.15735e+04,3.30313e+03,-5.43565e+03,4.63841e+00,7.96627e+01,2.18477e+09,2.62035e+09,5.96558e+08,3.70371e+07,8.27655e+01,2.07610e+01,7.08528e+01,-9.55944e-01,5.30352e+00,-3.28406e-03,1.82866e-02,-9.14774e-02,7.24224e-01,-9.19958e-01,0.00000e+00,0.00000e+00,4.07596e+01,-3.88772e+01,5.09895e-02,-4.86347e-02,2.86053e-01,3.45387e-01,0.00000e+00,4.97531e-01,1.04658e+00,0.00000e+00
07,6.33500e+02,0.00000e+00,4.37370e+04,2.84375e+03,-4.89785e+03,4.29019e+00,7.26507e+01,2.13765e+09,2.54632e+09,5.79679e+08,3.59443e+07,8.20110e+01,2.05698e+01,7.01785e+01,-1.31548e+00,7.30773e+00,-3.70391e-03,2.06680e-02,-1.06039e-01,6.21406e-01,-7.90838e-01,0.00000e+00,0.00000e+00,3.49795e+01,-3.33473e+01,4.37587e-02,-4.17169e-02,2.63390e-01,3.17017e-01,0.00000e+00,4.57801e-01,9.14317e-01,0.00000e+00
08,7.34700e+02,0.00000e+00,3.67275e+04,2.42645e+03,-4.38469e+03,3.95702e+00,6.58768e+01,2.09189e+09,2.47483e+09,5.63383e+08,3.48842e+07,8.12680e+01,2.03815e+01,6.95148e+01,-1.70820e+00,9.50151e+00,-4.05747e-03,2.26873e-02,-1.19294e-01,5.27925e-01,-6.73200e-01,0.00000e+00,0.00000e+00,2.97232e+01,-2.83208e+01,3.71832e-02,-3.54288e-02,2.41062e-01,2.89112e-01,0.00000e+00,4.18732e-01,7.93031e-01,0.00000e+00
09,8.33800e+02,0.00000e+00,3.05213e+04,2.05010e+03,-3.89814e+03,3.63825e+00,5.93748e+01,2.04762e+09,2.40610e+09,5.47713e+08,3.38586e+07,8.05393e+01,2.01969e+01,6.88645e+01,-2.12483e+00,1.18334e+01,-4.35076e-03,2.43746e-02,-1.31227e-01,4.43799e-01,-5.67093e-01,0.00000e+00,0.00000e+00,2.49919e+01,-2.37988e+01,3.12645e-02,-2.97719e-02,2.19212e-01,2.61845e-01,0.00000e+00,3.80562e-01,6.82798e-01,0.00000e+00
10,9.30700e+02,0.00000e+00,2.50701e+04,1.71268e+03,-3.43533e+03,3.32610e+00,5.31375e+01,2.00486e+09,2.34009e+09,5.32666e+08,3.28618e+07,7.98259e+01,2.00162e+01,6.82283e+01,-2.55805e+00,1.42628e+01,-4.59090e-03,2.57666e-02,-1.41870e-01,3.68708e-01,-4.72143e-01,0.00000e+00,0.00000e+00,2.07677e+01,-1.97642e+01,2.59800e-02,-2.47247e-02,1.97811e-01,2.35119e-01,0.00000e+00,3.43236e-01,5.83252e-01,0.00000e+00
11,1.02500e+03,0.00000e+00,2.03361e+04,1.41350e+03,-2.99675e+03,3.01916e+00,4.72644e+01,1.96375e+09,2.27699e+09,5.18282e+08,3.18797e+07,7.91308e+01,1.98401e+01,6.76088e+01,-3.00008e+00,1.67458e+01,-4.78412e-03,2.68957e-02,-1.51231e-01,3.02452e-01,-3.88157e-01,0.00000e+00,0.00000e+00,1.70396e+01,-1.62058e+01,2.13162e-02,-2.02732e-02,1.77170e-01,2.09104e-01,0.00000e+00,3.07280e-01,4.93749e-01,0.00000e+00
12,1.11650e+03,0.00000e+00,1.62699e+04,1.15105e+03,-2.58261e+03,2.71734e+00,4.16136e+01,1.92432e+09,2.21681e+09,5.04566e+08,3.09293e+07,7.84554e+01,1.96691e+01,6.70073e+01,-3.44482e+00,1.92480e+01,-4.93700e-03,2.77965e-02,-1.59352e-01,2.44648e-01,-3.14738e-01,0.00000e+00,0.00000e+00,1.37862e+01,-1.31028e+01,1.72463e-02,-1.63914e-02,1.56950e-01,1.83743e-01,0.00000e+00,2.72105e-01,4.14030e-01,0.00000e+00
13,1.20500e+03,0.00000e+00,1.28208e+04,9.23592e+02,-2.19656e+03,2.42307e+00,3.63326e+01,1.32148e+09,1.95268e+09,4.45208e+08,2.82065e+07,7.39632e+01,1.86188e+01,6.42675e+01,-3.88836e+00,2.17455e+01,-5.08648e-03,2.86454e-02,-1.66492e-01,2.79858e-01,-3.49121e-01,0.00000e+00,0.00000e+00,1.57374e+01,-1.48748e+01,1.96872e-02,-1.86082e-02,1.39110e-01,1.77944e-01,0.00000e+00,2.41394e-01,4.28918e-01,0.00000e+00
14,1.29010e+03,0.00000e+00,9.93793e+03,7.29242e+02,-1.84709e+03,2.14449e+00,3.14205e+01,1.21619e+09,1.75686e+09,4.00479e+08,2.53331e+07,7.15330e+01,1.79989e+01,6.20379e+01,-4.32747e+00,2.42177e+01,-5.23322e-03,2.94548e-02,-1.72908e-01,2.26757e-01,-2.83938e-01,0.00000e+00,0.00000e+00,1.27554e+01,-1.20524e+01,1.59568e-02,-1.50773e-02,1.25304e-01,1.59440e-01,0.00000e+00,2.17309e-01,3.62897e-01,0.00000e+00
15,1.37170e+03,0.00000e+00,7.56033e+03,5.65108e+02,-1.53090e+03,1.87841e+00,2.68542e+01,1.12002e+09,1.58132e+09,3.60391e+08,2.27484e+07,6.91884e+01,1.74013e+01,5.98941e+01,-4.75922e+00,2.66476e+01,-5.34908e-03,3.01014e-02,-1.78629e-01,1.80243e-01,-2.26580e-01,0.00000e+00,0.00000e+00,1.01424e+01,-9.57997e+00,1.26879e-02,-1.19844e-02,1.11431e-01,1.40899e-01,0.00000e+00,1.93156e-01,3.03980e-01,0.00000e+00
16,1.44960e+03,0.00000e+00,5.63007e+03,4.28440e+02,-1.25313e+03,1.63038e+00,2.27032e+01,1.03251e+09,1.42458e+09,3.24609e+08,2.04392e+07,6.69366e+01,1.68278e+01,5.78421e+01,-5.17939e+00,2.90121e+01,-5.43823e-03,3.06051e-02,-1.83638e-01,1.40154e-01,-1.76899e-01,0.00000e+00,0.00000e+00,7.88928e+00,-7.44918e+00,9.86936e-03,-9.31880e-03,9.79308e-02,1.22977e-01,0.00000e+00,1.69682e-01,2.52723e-01,0.00000e+00
17,1.52340e+03,0.00000e+00,4.09552e+03,3.16910e+02,-1.00870e+03,1.39212e+00,1.88833e+01,9.53418e+08,1.28561e+09,2.92889e+08,1.83943e+07,6.47909e+01,1.62818e+01,5.58929e+01,-5.58319e+00,3.12848e+01,-5.50471e-03,3.09855e-02,-1.87924e-01,1.06352e-01,-1.34786e-01,0.00000e+00,0.00000e+00,5.98866e+00,-5.65274e+00,7.49172e-03,-7.07148e-03,8.45874e-02,1.05473e-01,0.00000e+00,1.46533e-01,2.09235e-01,0.00000e+00
18,1.59310e+03,0.00000e+00,2.89984e+03,2.28412e+02,-8.00134e+02,1.14727e+00,1.54261e+01,8.82075e+08,1.16263e+09,2.64824e+08,1.66011e+07,6.27531e+01,1.57637e+01,5.40474e+01,-5.96854e+00,3.34542e+01,-5.55281e-03,3.12644e-02,-1.91515e-01,7.84697e-02,-9.98766e-02,0.00000e+00,0.00000e+00,4.42026e+00,-4.17059e+00,5.52966e-03,-5.21734e-03,7.17528e-02,8.89797e-02,0.00000e+00,1.24295e-01,1.71194e-01,0.00000e+00
19,1.65850e+03,0.00000e+00,1.99110e+03,1.60027e+02,-6.20017e+02,9.44009e-01,1.23641e+01,8.18049e+08,1.05434e+09,2.40117e+08,1.50087e+07,6.08309e+01,1.52752e+01,5.23116e+01,-6.33279e+00,3.55053e+01,-5.58631e-03,3.14614e-02,-1.94442e-01,5.60745e-02,-7.17173e-02,0.00000e+00,0.00000e+00,3.16001e+00,-2.97984e+00,3.95312e-03,-3.72772e-03,5.95639e-02,7.33016e-02,0.00000e+00,1.03177e-01,1.37678e-01,0.00000e+00
20,1.71930e+03,0.00000e+00,1.32082e+03,1.08248e+02,-4.67709e+02,7.59248e-01,9.68460e+00,7.61023e+08,9.59670e+08,2.18523e+08,1.36061e+07,5.90349e+01,1.48192e+01,5.06943e+01,-6.67311e+00,3.74222e+01,-5.60860e-03,3.15947e-02,-1.96742e-01,3.86476e-02,-4.96732e-02,0.00000e+00,0.00000e+00,2.17884e+00,-2.05343e+00,2.72569e-03,-2.56880e-03,4.81842e-02,5.87219e-02,0.00000e+00,8.34629e-02,1.08127e-01,0.00000e+00
21,1.77540e+03,0.00000e+00,8.41560e+02,7.05208e+01,-3.40177e+02,5.85751e-01,7.40146e+00,3.98519e+08,7.29057e+08,1.66652e+08,9.61658e+06,5.21005e+01,1.31900e+01,4.07358e+01,-6.98833e+00,3.91979e+01,-5.62905e-03,3.17100e-02,-1.98699e-01,4.62314e-02,-5.65400e-02,0.00000e+00,0.00000e+00,2.59833e+00,-2.41909e+00,3.25047e-03,-3.02624e-03,6.37879e-02,5.51503e-02,0.00000e+00,1.10490e-01,1.04851e-01,0.00000e+00
22,1.82660e+03,0.00000e+00,5.11220e+02,4.44856e+01,-2.39322e+02,4.31250e-01,5.50246e+00,3.22692e+08,5.63581e+08,1.28741e+08,7.41232e+06,4.80842e+01,1.21552e+01,3.73499e+01,-7.27702e+00,4.08241e+01,-5.64795e-03,3.18124e-02,-2.00431e-01,3.15065e-02,-3.88247e-02,0.00000e+00,0.00000e+00,1.77182e+00,-1.64924e+00,2.21652e-03,-2.06317e-03,5.27158e-02,4.50606e-02,0.00000e+00,9.13098e-02,8.34271e-02,0.00000e+00
23,1.87280e+03,0.00000e+00,2.92817e+02,2.71884e+01,-1.64176e+02,3.17547e-01,3.95220e+00,2.62353e+08,4.36581e+08,9.96683e+07,5.74215e+06,4.43938e+01,1.12070e+01,3.42731e+01,-7.53824e+00,4.22954e+01,-5.66001e-03,3.18795e-02,-2.01837e-01,2.02108e-02,-2.51475e-02,0.00000e+00,0.00000e+00,1.13761e+00,-1.05674e+00,1.42313e-03,-1.32197e-03,4.21476e-02,3.58143e-02,0.00000e+00,7.30035e-02,6.48433e-02,0.00000e+00
24,1.91380e+03,0.00000e+00,1.55933e+02,1.58453e+01,-1.09417e+02,2.35774e-01,2.72506e+00,2.14932e+08,3.40501e+08,7.76906e+07,4.49271e+06,4.10625e+01,1.03532e+01,3.15244e+01,-7.77044e+00,4.36033e+01,-5.66699e-03,3.19199e-02,-2.02923e-01,1.20116e-02,-1.51370e-02,0.00000e+00,0.00000e+00,6.76949e-01,-6.26306e-01,8.46851e-04,-7.83498e-04,3.23565e-02,2.75145e-02,0.00000e+00,5.60439e-02,4.89533e-02,0.00000e+00
25,1.94970e+03,0.00000e+00,7.51748e+01,8.59159e+00,-6.96775e+01,1.68335e-01,1.77401e+00,1.77937e+08,2.68420e+08,6.12136e+07,3.56203e+06,3.80992e+01,9.59536e+00,2.91026e+01,-7.97395e+00,4.47496e+01,-5.67057e-03,3.19417e-02,-2.03711e-01,6.43330e-03,-8.24939e-03,0.00000e+00,0.00000e+00,3.63193e-01,-3.33826e-01,4.54348e-04,-4.17610e-04,2.34233e-02,2.00633e-02,0.00000e+00,4.05707e-02,3.52590e-02,0.00000e+00
26,1.98010e+03,0.00000e+00,3.18981e+01,4.24341e+00,-4.16676e+01,1.17729e-01,1.07313e+00,1.49784e+08,2.15653e+08,4.91590e+07,2.88250e+06,3.55543e+01,8.94582e+00,2.70403e+01,-8.14636e+00,4.57208e+01,-5.67211e-03,3.19519e-02,-2.04228e-01,3.01184e-03,-3.95655e-03,0.00000e+00,0.00000e+00,1.70449e-01,-1.55048e-01,2.13229e-04,-1.93962e-04,1.56730e-02,1.35924e-02,0.00000e+00,2.71465e-02,2.37052e-02,0.00000e+00
27,2.00520e+03,0.00000e+00,1.11535e+01,1.79640e+00,-2.27028e+01,7.72515e-02,5.79826e-01,1.28656e+08,1.77484e+08,4.04436e+07,2.39710e+06,3.34272e+01,8.40385e+00,2.53292e+01,-8.28873e+00,4.65228e+01,-5.67263e-03,3.19558e-02,-2.04528e-01,1.15333e-03,-1.56799e-03,0.00000e+00,0.00000e+00,6.54993e-02,-5.86315e-02,8.19386e-05,-7.33470e-05,9.32849e-03,8.26093e-03,0.00000e+00,1.61574e-02,1.43467e-02,0.00000e+00
28,2.02480e+03,0.00000e+00,2.90109e+00,5.97849e-01,-1.07084e+01,4.50498e-02,2.62259e-01,1.13447e+08,1.50904e+08,3.43767e+07,2.07023e+06,3.17493e+01,7.97693e+00,2.39876e+01,-8.39992e+00,4.71492e+01,-5.67275e-03,3.19570e-02,-2.04672e-01,3.26032e-04,-4.66359e-04,0.00000e+00,0.00000e+00,1.86144e-02,-1.62328e-02,2.32862e-05,-2.03069e-05,4.63710e-03,4.24944e-03,0.00000e+00,8.03171e-03,7.36597e-03,0.00000e+00
29,2.03880e+03,0.00000e+00,4.64554e-01,1.36091e-01,-3.91422e+00,2.09156e-02,8.58167e-02,1.03260e+08,1.33576e+08,3.04229e+07,1.88119e+06,3.05414e+01,7.66993e+00,2.30264e+01,-8.47934e+00,4.75966e+01,-5.67276e-03,3.19572e-02,-2.04723e-01,5.66676e-05,-8.88640e-05,0.00000e+00,0.00000e+00,3.26575e-03,-2.70881e-03,4.08540e-06,-3.38868e-06,1.68441e-03,1.64116e-03,0.00000e+00,2.91748e-03,2.84299e-03,0.00000e+00
30,2.04720e+03,0.00000e+00,5.20620e-02,2.41228e-02,-7.57748e-01,5.74352e-03,1.23957e-02,9.74134e+07,1.23821e+08,2.81976e+07,1.83349e+06,2.98129e+01,7.48488e+00,2.24484e+01,-8.52699e+00,4.78650e+01,-5.67276e-03,3.19572e-02,-2.04733e-01,6.96232e-06,-1.28035e-05,0.00000e+00,0.00000e+00,4.07778e-04,-3.07748e-04,5.10123e-07,-3.84988e-07,2.89035e-04,3.20763e-04,0.00000e+00,5.00624e-04,5.55605e-04,0.00000e+00
31,2.05000e+03,0.00000e+00,0.00000e+00,0.00000e+00,0.00000e+00,0.00000e+00,0.00000e+00,5.74754e+07,1.08343e+08,2.47732e+07,NaN,2.74871e+01,6.96602e+00,2.15905e+01,-8.54287e+00,4.79545e+01,-5.67276e-03,3.19572e-02,-2.04734e-01,0.00000e+00,0.00000e+00,0.00000e+00,0.00000e+00,0.00000e+00,0.00000e+00,0.00000e+00,0.00000e+00,0.00000e+00,0.00000e+00,0.00000e+00,0.00000e+00,0.00000e+00,0.00000e+00
--------------------------------------------------------------------------------------------------------------------------------------------------------------------------------------------------------------------------------------------------------------------------------------------------------------------------------------------------------------------------------

CHAPEADO 
--------------------------------------------------------------------------------------------------------------------------------------------------------------------------------------------------------------------------------------------------------------------------------------------------------------------------------------------------------------------------------
X,Y,Z,Sigma,Tau,Von Mises
0.00000e+00,4.31008e+01,0.00000e+00,-1.31938e+00,4.90887e-01,1.56961e+00
0.00000e+00,4.28837e+01,-3.27521e+00,-1.36613e+00,4.85835e-01,1.60450e+00
0.00000e+00,4.25950e+01,-6.55041e+00,-1.40792e+00,4.80661e-01,1.63565e+00
0.00000e+00,4.23033e+01,-9.82562e+00,-1.44951e+00,4.75368e-01,1.66703e+00
0.00000e+00,4.19484e+01,-1.31008e+01,-1.48672e+00,4.69968e-01,1.69497e+00
0.00000e+00,4.15787e+01,-1.63760e+01,-1.52291e+00,4.64468e-01,1.72234e+00
0.00000e+00,4.11605e+01,-1.96512e+01,-1.55574e+00,4.58876e-01,1.74701e+00
0.00000e+00,4.07187e+01,-2.29264e+01,-1.58695e+00,4.53200e-01,1.77047e+00
0.00000e+00,4.02378e+01,-2.62017e+01,-1.61545e+00,4.47448e-01,1.79173e+00
0.00000e+00,3.97249e+01,-2.94769e+01,-1.64173e+00,4.41627e-01,1.81118e+00
0.00000e+00,3.91766e+01,-3.27521e+01,-1.66558e+00,4.35744e-01,1.82860e+00
0.00000e+00,3.85857e+01,-3.60273e+01,-1.68647e+00,4.29809e-01,1.84347e+00
0.00000e+00,3.79511e+01,-3.93025e+01,-1.70434e+00,4.23827e-01,1.85571e+00
0.00000e+00,3.72545e+01,-4.25777e+01,-1.71792e+00,4.17809e-01,1.86412e+00
0.00000e+00,3.64976e+01,-4.58529e+01,-1.72733e+00,4.11769e-01,1.86878e+00
0.00000e+00,3.56687e+01,-4.91281e+01,-1.73176e+00,4.05713e-01,1.86891e+00
0.00000e+00,3.47420e+01,-5.24033e+01,-1.72944e+00,3.99663e-01,1.86283e+00
0.00000e+00,3.37474e+01,-5.56785e+01,-1.72241e+00,3.93625e-01,1.85244e+00
0.00000e+00,3.26000e+01,-5.89537e+01,-1.70481e+00,3.87630e-01,1.83226e+00
0.00000e+00,3.13892e+01,-6.22289e+01,-1.68283e+00,3.81692e-01,1.80804e+00
0.00000e+00,3.00018e+01,-6.55041e+01,-1.64865e+00,3.75826e-01,1.77250e+00
0.00000e+00,2.84730e+01,-6.87793e+01,-1.60467e+00,3.70081e-01,1.72796e+00
0.00000e+00,2.68002e+01,-7.20546e+01,-1.55074e+00,3.64468e-01,1.67431e+00
0.00000e+00,2.48857e+01,-7.53298e+01,-1.48010e+00,3.59007e-01,1.60541e+00
0.00000e+00,2.26913e+01,-7.86050e+01,-1.39010e+00,3.53763e-01,1.51915e+00
0.00000e+00,2.01805e+01,-8.18802e+01,-1.27821e+00,3.48800e-01,1.41379e+00
0.00000e+00,1.72108e+01,-8.51554e+01,-1.13459e+00,3.44160e-01,1.28165e+00
0.00000e+00,1.33989e+01,-8.84306e+01,-9.32731e-01,3.40070e-01,1.10314e+00
0.00000e+00,8.24350e+00,-9.17058e+01,-6.37951e-01,3.37571e-01,8.65357e-01
0.00000e+00,-3.34020e+00,-9.49810e+01,1.01394e-01,3.38562e-01,5.95107e-01
0.00000e+00,-4.17620e+00,-9.49886e+01,1.59067e-01,3.41638e-01,6.12741e-01
0.00000e+00,-1.17928e+01,-9.15961e+01,7.49779e-01,3.47471e-01,9.61446e-01
0.00000e+00,-1.27149e+01,-8.82037e+01,8.77524e-01,3.51781e-01,1.06832e+00
0.00000e+00,-1.30332e+01,-8.48113e+01,9.63500e-01,3.56316e-01,1.14421e+00
0.00000e+00,-1.30814e+01,-8.14188e+01,1.03081e+00,3.61061e-01,1.20568e+00
0.00000e+00,-1.29264e+01,-7.80264e+01,1.08405e+00,3.65979e-01,1.25578e+00
0.00000e+00,-1.26437e+01,-7.46339e+01,1.12847e+00,3.71041e-01,1.29864e+00
0.00000e+00,-1.22328e+01,-7.12415e+01,1.16402e+00,3.76218e-01,1.33401e+00
0.00000e+00,-1.17438e+01,-6.78490e+01,1.19417e+00,3.81484e-01,1.36479e+00
0.00000e+00,-1.12094e+01,-6.44565e+01,1.22119e+00,3.86826e-01,1.39291e+00
0.00000e+00,-1.06068e+01,-6.10641e+01,1.24348e+00,3.92229e-01,1.41696e+00
0.00000e+00,-9.96142e+00,-5.76716e+01,1.26281e+00,3.97678e-01,1.43845e+00
0.00000e+00,-9.27449e+00,-5.42792e+01,1.27928e+00,4.03163e-01,1.45745e+00
0.00000e+00,-8.54615e+00,-5.08867e+01,1.29288e+00,4.08671e-01,1.47396e+00
0.00000e+00,-7.79185e+00,-4.74943e+01,1.30468e+00,4.14195e-01,1.48891e+00
0.00000e+00,-7.00429e+00,-4.41018e+01,1.31418e+00,4.19724e-01,1.50186e+00
0.00000e+00,-6.19544e+00,-4.07094e+01,1.32221e+00,4.25251e-01,1.51353e+00
0.00000e+00,-5.36748e+00,-3.73169e+01,1.32892e+00,4.30771e-01,1.52405e+00
0.00000e+00,-4.52248e+00,-3.39245e+01,1.33445e+00,4.36275e-01,1.53355e+00
0.00000e+00,-3.67026e+00,-3.05320e+01,1.33948e+00,4.41762e-01,1.54262e+00
0.00000e+00,-2.80686e+00,-2.71396e+01,1.34374e+00,4.47227e-01,1.55102e+00
0.00000e+00,-1.94159e+00,-2.37472e+01,1.34787e+00,4.52669e-01,1.55932e+00
0.00000e+00,-1.06964e+00,-2.03547e+01,1.35153e+00,4.58085e-01,1.56722e+00
0.00000e+00,-1.97780e-01,-1.69622e+01,1.35521e+00,4.63474e-01,1.57512e+00
0.00000e+00,6.70785e-01,-1.35698e+01,1.35911e+00,4.68836e-01,1.58322e+00
0.00000e+00,1.53935e+00,-1.01774e+01,1.36301e+00,4.74169e-01,1.59132e+00
0.00000e+00,2.38735e+00,-6.78490e+00,1.36833e+00,4.79477e-01,1.60063e+00
0.00000e+00,3.23151e+00,-3.39245e+00,1.37392e+00,4.84762e-01,1.61017e+00
1.07300e+02,4.26785e+01,0.00000e+00,-1.17818e+00,4.61872e-01,1.42411e+00
1.07300e+02,4.24636e+01,-3.24312e+00,-1.22008e+00,4.57145e-01,1.45449e+00
1.07300e+02,4.21777e+01,-6.48624e+00,-1.25755e+00,4.52301e-01,1.48161e+00
1.07300e+02,4.18889e+01,-9.72936e+00,-1.29484e+00,4.47348e-01,1.50896e+00
1.07300e+02,4.15374e+01,-1.29725e+01,-1.32822e+00,4.42295e-01,1.53331e+00
1.07300e+02,4.11714e+01,-1.62156e+01,-1.36069e+00,4.37147e-01,1.55717e+00
1.07300e+02,4.07572e+01,-1.94587e+01,-1.39016e+00,4.31914e-01,1.57867e+00
1.07300e+02,4.03197e+01,-2.27018e+01,-1.41818e+00,4.26602e-01,1.59912e+00
1.07300e+02,3.98436e+01,-2.59450e+01,-1.44378e+00,4.21218e-01,1.61765e+00
1.07300e+02,3.93357e+01,-2.91881e+01,-1.46740e+00,4.15770e-01,1.63459e+00
1.07300e+02,3.87928e+01,-3.24312e+01,-1.48885e+00,4.10265e-01,1.64973e+00
1.07300e+02,3.82077e+01,-3.56743e+01,-1.50765e+00,4.04709e-01,1.66264e+00
1.07300e+02,3.75793e+01,-3.89174e+01,-1.52376e+00,3.99111e-01,1.67323e+00
1.07300e+02,3.68895e+01,-4.21606e+01,-1.53604e+00,3.93480e-01,1.68045e+00
1.07300e+02,3.61401e+01,-4.54037e+01,-1.54460e+00,3.87826e-01,1.68434e+00
1.07300e+02,3.53192e+01,-4.86468e+01,-1.54870e+00,3.82158e-01,1.68422e+00
1.07300e+02,3.44016e+01,-5.18899e+01,-1.54677e+00,3.76497e-01,1.67861e+00
1.07300e+02,3.34168e+01,-5.51330e+01,-1.54064e+00,3.70846e-01,1.66918e+00
1.07300e+02,3.22806e+01,-5.83762e+01,-1.52508e+00,3.65235e-01,1.65107e+00
1.07300e+02,3.10816e+01,-6.16193e+01,-1.50559e+00,3.59678e-01,1.62939e+00
1.07300e+02,2.97079e+01,-6.48624e+01,-1.47521e+00,3.54188e-01,1.59768e+00
1.07300e+02,2.81940e+01,-6.81055e+01,-1.43609e+00,3.48812e-01,1.55800e+00
1.07300e+02,2.65376e+01,-7.13486e+01,-1.38807e+00,3.43558e-01,1.51024e+00
1.07300e+02,2.46419e+01,-7.45918e+01,-1.32513e+00,3.38447e-01,1.44900e+00
1.07300e+02,2.24690e+01,-7.78349e+01,-1.24489e+00,3.33540e-01,1.37241e+00
1.07300e+02,1.99828e+01,-8.10780e+01,-1.14512e+00,3.28896e-01,1.27899e+00
1.07300e+02,1.70422e+01,-8.43211e+01,-1.01700e+00,3.24553e-01,1.16202e+00
1.07300e+02,1.32676e+01,-8.75642e+01,-8.36868e-01,3.20725e-01,1.00446e+00
1.07300e+02,8.16273e+00,-9.08074e+01,-5.73750e-01,3.18386e-01,7.95801e-01
1.07300e+02,-3.30748e+00,-9.40505e+01,8.64053e-02,3.19314e-01,5.59776e-01
1.07300e+02,-4.13529e+00,-9.40580e+01,1.37912e-01,3.22193e-01,5.74843e-01
1.07300e+02,-1.16772e+01,-9.06988e+01,6.65627e-01,3.27652e-01,8.74716e-01
1.07300e+02,-1.25904e+01,-8.73396e+01,7.79869e-01,3.31686e-01,9.68628e-01
1.07300e+02,-1.29055e+01,-8.39804e+01,8.56807e-01,3.35930e-01,1.03570e+00
1.07300e+02,-1.29533e+01,-8.06211e+01,9.17073e-01,3.40371e-01,1.09022e+00
1.07300e+02,-1.27997e+01,-7.72619e+01,9.64778e-01,3.44973e-01,1.13482e+00
1.07300e+02,-1.25198e+01,-7.39027e+01,1.00460e+00,3.49711e-01,1.17308e+00
1.07300e+02,-1.21130e+01,-7.05435e+01,1.03651e+00,3.54556e-01,1.20477e+00
1.07300e+02,-1.16287e+01,-6.71843e+01,1.06359e+00,3.59484e-01,1.23244e+00
1.07300e+02,-1.10996e+01,-6.38251e+01,1.08787e+00,3.64483e-01,1.25778e+00
1.07300e+02,-1.05029e+01,-6.04659e+01,1.10793e+00,3.69540e-01,1.27952e+00
1.07300e+02,-9.86382e+00,-5.71066e+01,1.12535e+00,3.74640e-01,1.29903e+00
1.07300e+02,-9.18363e+00,-5.37474e+01,1.14021e+00,3.79773e-01,1.31634e+00
1.07300e+02,-8.46243e+00,-5.03882e+01,1.15251e+00,3.84928e-01,1.33146e+00
1.07300e+02,-7.71552e+00,-4.70290e+01,1.16320e+00,3.90097e-01,1.34520e+00
1.07300e+02,-6.93567e+00,-4.36698e+01,1.17184e+00,3.95272e-01,1.35718e+00
1.07300e+02,-6.13474e+00,-4.03106e+01,1.17917e+00,4.00445e-01,1.36803e+00
1.07300e+02,-5.31490e+00,-3.69514e+01,1.18531e+00,4.05610e-01,1.37787e+00
1.07300e+02,-4.47818e+00,-3.35921e+01,1.19040e+00,4.10762e-01,1.38681e+00
1.07300e+02,-3.63431e+00,-3.02329e+01,1.19505e+00,4.15897e-01,1.39537e+00
1.07300e+02,-2.77936e+00,-2.68737e+01,1.19901e+00,4.21011e-01,1.40334e+00
1.07300e+02,-1.92257e+00,-2.35145e+01,1.20285e+00,4.26104e-01,1.41122e+00
1.07300e+02,-1.05916e+00,-2.01553e+01,1.20628e+00,4.31172e-01,1.41874e+00
1.07300e+02,-1.95842e-01,-1.67961e+01,1.20971e+00,4.36216e-01,1.42627e+00
1.07300e+02,6.64213e-01,-1.34369e+01,1.21335e+00,4.41234e-01,1.43397e+00
1.07300e+02,1.52427e+00,-1.00776e+01,1.21698e+00,4.46225e-01,1.44167e+00
1.07300e+02,2.36396e+00,-6.71843e+00,1.22189e+00,4.51193e-01,1.45043e+00
1.07300e+02,3.19985e+00,-3.35921e+00,1.22704e+00,4.56138e-01,1.45938e+00
2.14300e+02,4.22575e+01,0.00000e+00,-1.04466e+00,4.32447e-01,1.28544e+00
2.14300e+02,4.20447e+01,-3.21112e+00,-1.08196e+00,4.28038e-01,1.31160e+00
2.14300e+02,4.17615e+01,-6.42224e+00,-1.11533e+00,4.23521e-01,1.33494e+00
2.14300e+02,4.14756e+01,-9.63337e+00,-1.14855e+00,4.18902e-01,1.35853e+00
2.14300e+02,4.11276e+01,-1.28445e+01,-1.17829e+00,4.14188e-01,1.37950e+00
2.14300e+02,4.07652e+01,-1.60556e+01,-1.20723e+00,4.09388e-01,1.40007e+00
2.14300e+02,4.03551e+01,-1.92667e+01,-1.23351e+00,4.04507e-01,1.41860e+00
2.14300e+02,3.99219e+01,-2.24779e+01,-1.25850e+00,3.99553e-01,1.43623e+00
2.14300e+02,3.94505e+01,-2.56890e+01,-1.28135e+00,3.94532e-01,1.45218e+00
2.14300e+02,3.89476e+01,-2.89001e+01,-1.30244e+00,3.89451e-01,1.46675e+00
2.14300e+02,3.84101e+01,-3.21112e+01,-1.32160e+00,3.84317e-01,1.47977e+00
2.14300e+02,3.78307e+01,-3.53223e+01,-1.33842e+00,3.79136e-01,1.49084e+00
2.14300e+02,3.72085e+01,-3.85335e+01,-1.35285e+00,3.73915e-01,1.49988e+00
2.14300e+02,3.65256e+01,-4.17446e+01,-1.36388e+00,3.68663e-01,1.50596e+00
2.14300e+02,3.57835e+01,-4.49557e+01,-1.37161e+00,3.63390e-01,1.50913e+00
2.14300e+02,3.49707e+01,-4.81668e+01,-1.37539e+00,3.58104e-01,1.50878e+00
2.14300e+02,3.40622e+01,-5.13780e+01,-1.37383e+00,3.52825e-01,1.50361e+00
2.14300e+02,3.30871e+01,-5.45891e+01,-1.36854e+00,3.47554e-01,1.49509e+00
2.14300e+02,3.19621e+01,-5.78002e+01,-1.35488e+00,3.42322e-01,1.47893e+00
2.14300e+02,3.07750e+01,-6.10113e+01,-1.33774e+00,3.37139e-01,1.45964e+00
2.14300e+02,2.94148e+01,-6.42224e+01,-1.31094e+00,3.32019e-01,1.43153e+00
2.14300e+02,2.79159e+01,-6.74336e+01,-1.27639e+00,3.27005e-01,1.39641e+00
2.14300e+02,2.62758e+01,-7.06447e+01,-1.23395e+00,3.22106e-01,1.35421e+00
2.14300e+02,2.43988e+01,-7.38558e+01,-1.17828e+00,3.17339e-01,1.30018e+00
2.14300e+02,2.22473e+01,-7.70669e+01,-1.10727e+00,3.12763e-01,1.23269e+00
2.14300e+02,1.97856e+01,-8.02781e+01,-1.01893e+00,3.08431e-01,1.15049e+00
2.14300e+02,1.68740e+01,-8.34892e+01,-9.05461e-01,3.04382e-01,1.04776e+00
2.14300e+02,1.31367e+01,-8.67003e+01,-7.45861e-01,3.00812e-01,9.09819e-01
2.14300e+02,8.08220e+00,-8.99114e+01,-5.12670e-01,2.98631e-01,7.28266e-01
2.14300e+02,-3.27484e+00,-9.31226e+01,7.26186e-02,2.99496e-01,5.23800e-01
2.14300e+02,-4.09449e+00,-9.31300e+01,1.18295e-01,3.02181e-01,5.36594e-01
2.14300e+02,-1.15620e+01,-8.98039e+01,5.86426e-01,3.07273e-01,7.91925e-01
2.14300e+02,-1.24661e+01,-8.64779e+01,6.87885e-01,3.11034e-01,8.73735e-01
2.14300e+02,-1.27781e+01,-8.31518e+01,7.56264e-01,3.14992e-01,9.32521e-01
2.14300e+02,-1.28255e+01,-7.98257e+01,8.09857e-01,3.19134e-01,9.80514e-01
2.14300e+02,-1.26734e+01,-7.64996e+01,8.52311e-01,3.23427e-01,1.01993e+00
2.14300e+02,-1.23963e+01,-7.31736e+01,8.87775e-01,3.27845e-01,1.05385e+00
2.14300e+02,-1.19935e+01,-6.98475e+01,9.16219e-01,3.32363e-01,1.08206e+00
2.14300e+02,-1.15140e+01,-6.65214e+01,9.40383e-01,3.36959e-01,1.10677e+00
2.14300e+02,-1.09901e+01,-6.31954e+01,9.62063e-01,3.41622e-01,1.12946e+00
2.14300e+02,-1.03992e+01,-5.98693e+01,9.80001e-01,3.46337e-01,1.14902e+00
2.14300e+02,-9.76651e+00,-5.65432e+01,9.95602e-01,3.51093e-01,1.16663e+00
2.14300e+02,-9.09302e+00,-5.32171e+01,1.00892e+00,3.55881e-01,1.18232e+00
2.14300e+02,-8.37893e+00,-4.98911e+01,1.01998e+00,3.60688e-01,1.19610e+00
2.14300e+02,-7.63939e+00,-4.65650e+01,1.02961e+00,3.65509e-01,1.20867e+00
2.14300e+02,-6.86724e+00,-4.32389e+01,1.03742e+00,3.70335e-01,1.21971e+00
2.14300e+02,-6.07421e+00,-3.99129e+01,1.04407e+00,3.75159e-01,1.22976e+00
2.14300e+02,-5.26246e+00,-3.65868e+01,1.04967e+00,3.79976e-01,1.23893e+00
2.14300e+02,-4.43399e+00,-3.32607e+01,1.05433e+00,3.84781e-01,1.24731e+00
2.14300e+02,-3.59845e+00,-2.99346e+01,1.05860e+00,3.89569e-01,1.25536e+00
2.14300e+02,-2.75194e+00,-2.66086e+01,1.06226e+00,3.94339e-01,1.26289e+00
2.14300e+02,-1.90360e+00,-2.32825e+01,1.06581e+00,3.99088e-01,1.27034e+00
2.14300e+02,-1.04871e+00,-1.99564e+01,1.06900e+00,4.03815e-01,1.27748e+00
2.14300e+02,-1.93910e-01,-1.66304e+01,1.07220e+00,4.08518e-01,1.28463e+00
2.14300e+02,6.57660e-01,-1.33043e+01,1.07557e+00,4.13198e-01,1.29192e+00
2.14300e+02,1.50923e+00,-9.97821e+00,1.07894e+00,4.17853e-01,1.29920e+00
2.14300e+02,2.34063e+00,-6.65214e+00,1.08345e+00,4.22486e-01,1.30742e+00
2.14300e+02,3.16828e+00,-3.32607e+00,1.08816e+00,4.27098e-01,1.31580e+00
3.20700e+02,4.18388e+01,0.00000e+00,-9.19337e-01,4.03139e-01,1.15445e+00
3.20700e+02,4.16280e+01,-3.17930e+00,-9.52305e-01,3.99051e-01,1.17669e+00
3.20700e+02,4.13477e+01,-6.35861e+00,-9.81815e-01,3.94862e-01,1.19654e+00
3.20700e+02,4.10646e+01,-9.53791e+00,-1.01119e+00,3.90579e-01,1.21662e+00
3.20700e+02,4.07201e+01,-1.27172e+01,-1.03751e+00,3.86208e-01,1.23446e+00
3.20700e+02,4.03613e+01,-1.58965e+01,-1.06312e+00,3.81757e-01,1.25197e+00
3.20700e+02,3.99553e+01,-1.90758e+01,-1.08639e+00,3.77231e-01,1.26773e+00
3.20700e+02,3.95264e+01,-2.22551e+01,-1.10852e+00,3.72637e-01,1.28273e+00
3.20700e+02,3.90596e+01,-2.54344e+01,-1.12877e+00,3.67981e-01,1.29628e+00
3.20700e+02,3.85617e+01,-2.86137e+01,-1.14747e+00,3.63270e-01,1.30866e+00
3.20700e+02,3.80295e+01,-3.17930e+01,-1.16447e+00,3.58509e-01,1.31969e+00
3.20700e+02,3.74559e+01,-3.49724e+01,-1.17942e+00,3.53704e-01,1.32904e+00
3.20700e+02,3.68398e+01,-3.81517e+01,-1.19225e+00,3.48863e-01,1.33663e+00
3.20700e+02,3.61637e+01,-4.13310e+01,-1.20210e+00,3.43993e-01,1.34166e+00
3.20700e+02,3.54289e+01,-4.45103e+01,-1.20904e+00,3.39104e-01,1.34416e+00
3.20700e+02,3.46242e+01,-4.76896e+01,-1.21251e+00,3.34203e-01,1.34360e+00
3.20700e+02,3.37247e+01,-5.08689e+01,-1.21127e+00,3.29307e-01,1.33884e+00
3.20700e+02,3.27593e+01,-5.40482e+01,-1.20675e+00,3.24420e-01,1.33116e+00
3.20700e+02,3.16454e+01,-5.72275e+01,-1.19486e+00,3.19567e-01,1.31684e+00
3.20700e+02,3.04701e+01,-6.04068e+01,-1.17992e+00,3.14762e-01,1.29978e+00
3.20700e+02,2.91233e+01,-6.35861e+01,-1.15647e+00,3.10014e-01,1.27505e+00
3.20700e+02,2.76393e+01,-6.67654e+01,-1.12620e+00,3.05365e-01,1.24421e+00
3.20700e+02,2.60154e+01,-6.99447e+01,-1.08898e+00,3.00822e-01,1.20721e+00
3.20700e+02,2.41570e+01,-7.31240e+01,-1.04011e+00,2.96402e-01,1.15991e+00
3.20700e+02,2.20269e+01,-7.63033e+01,-9.77752e-01,2.92159e-01,1.10094e+00
3.20700e+02,1.95896e+01,-7.94826e+01,-9.00137e-01,2.88142e-01,1.02923e+00
3.20700e+02,1.67068e+01,-8.26619e+01,-8.00396e-01,2.84387e-01,9.39821e-01
3.20700e+02,1.30066e+01,-8.58412e+01,-6.60056e-01,2.81077e-01,8.20175e-01
3.20700e+02,8.00212e+00,-8.90205e+01,-4.54941e-01,2.79055e-01,6.63767e-01
3.20700e+02,-3.24239e+00,-9.21998e+01,6.00849e-02,2.79857e-01,4.88436e-01
3.20700e+02,-4.05392e+00,-9.22072e+01,1.00288e-01,2.82347e-01,4.99216e-01
3.20700e+02,-1.14474e+01,-8.89141e+01,5.12475e-01,2.87068e-01,7.14042e-01
3.20700e+02,-1.23426e+01,-8.56210e+01,6.01921e-01,2.90556e-01,7.84588e-01
3.20700e+02,-1.26515e+01,-8.23279e+01,6.62250e-01,2.94227e-01,8.35633e-01
3.20700e+02,-1.26984e+01,-7.90348e+01,7.09565e-01,2.98067e-01,8.77504e-01
3.20700e+02,-1.25479e+01,-7.57416e+01,7.47075e-01,3.02048e-01,9.12041e-01
3.20700e+02,-1.22734e+01,-7.24485e+01,7.78432e-01,3.06144e-01,9.41876e-01
3.20700e+02,-1.18746e+01,-6.91554e+01,8.03612e-01,3.10334e-01,9.66806e-01
3.20700e+02,-1.13999e+01,-6.58623e+01,8.25023e-01,3.14596e-01,9.88724e-01
3.20700e+02,-1.08812e+01,-6.25692e+01,8.44248e-01,3.18919e-01,1.00890e+00
3.20700e+02,-1.02962e+01,-5.92761e+01,8.60180e-01,3.23292e-01,1.02638e+00
3.20700e+02,-9.66973e+00,-5.59829e+01,8.74054e-01,3.27702e-01,1.04218e+00
3.20700e+02,-9.00292e+00,-5.26898e+01,8.85924e-01,3.32141e-01,1.05632e+00
3.20700e+02,-8.29591e+00,-4.93967e+01,8.95797e-01,3.36599e-01,1.06881e+00
3.20700e+02,-7.56370e+00,-4.61036e+01,9.04418e-01,3.41069e-01,1.08026e+00
3.20700e+02,-6.79920e+00,-4.28105e+01,9.11437e-01,3.45544e-01,1.09038e+00
3.20700e+02,-6.01403e+00,-3.95174e+01,9.17428e-01,3.50017e-01,1.09964e+00
3.20700e+02,-5.21032e+00,-3.62243e+01,9.22499e-01,3.54484e-01,1.10814e+00
3.20700e+02,-4.39006e+00,-3.29311e+01,9.26747e-01,3.58939e-01,1.11596e+00
3.20700e+02,-3.56279e+00,-2.96380e+01,9.30648e-01,3.63379e-01,1.12349e+00
3.20700e+02,-2.72467e+00,-2.63449e+01,9.34010e-01,3.67802e-01,1.13058e+00
3.20700e+02,-1.88474e+00,-2.30518e+01,9.37281e-01,3.72206e-01,1.13759e+00
3.20700e+02,-1.03832e+00,-1.97587e+01,9.40231e-01,3.76589e-01,1.14433e+00
3.20700e+02,-1.91989e-01,-1.64656e+01,9.43185e-01,3.80950e-01,1.15107e+00
3.20700e+02,6.51143e-01,-1.31725e+01,9.46298e-01,3.85289e-01,1.15794e+00
3.20700e+02,1.49428e+00,-9.87934e+00,9.49410e-01,3.89606e-01,1.16480e+00
3.20700e+02,2.31744e+00,-6.58623e+00,9.53515e-01,3.93901e-01,1.17246e+00
3.20700e+02,3.13689e+00,-3.29311e+00,9.57804e-01,3.98178e-01,1.18026e+00
4.26200e+02,4.14236e+01,0.00000e+00,-8.02660e-01,3.74108e-01,1.03157e+00
4.26200e+02,4.12150e+01,-3.14776e+00,-8.31579e-01,3.70334e-01,1.05022e+00
4.26200e+02,4.09374e+01,-6.29551e+00,-8.57479e-01,3.66469e-01,1.06685e+00
4.26200e+02,4.06571e+01,-9.44327e+00,-8.83259e-01,3.62515e-01,1.08370e+00
4.26200e+02,4.03160e+01,-1.25910e+01,-9.06373e-01,3.58482e-01,1.09865e+00
4.26200e+02,3.99607e+01,-1.57388e+01,-9.28869e-01,3.54374e-01,1.11335e+00
4.26200e+02,3.95588e+01,-1.88865e+01,-9.49318e-01,3.50197e-01,1.12655e+00
4.26200e+02,3.91341e+01,-2.20343e+01,-9.68775e-01,3.45957e-01,1.13912e+00
4.26200e+02,3.86720e+01,-2.51820e+01,-9.86588e-01,3.41660e-01,1.15046e+00
4.26200e+02,3.81790e+01,-2.83298e+01,-1.00305e+00,3.37312e-01,1.16080e+00
4.26200e+02,3.76521e+01,-3.14776e+01,-1.01803e+00,3.32918e-01,1.16999e+00
4.26200e+02,3.70842e+01,-3.46253e+01,-1.03121e+00,3.28485e-01,1.17775e+00
4.26200e+02,3.64743e+01,-3.77731e+01,-1.04255e+00,3.24017e-01,1.18400e+00
4.26200e+02,3.58048e+01,-4.09208e+01,-1.05128e+00,3.19522e-01,1.18805e+00
4.26200e+02,3.50774e+01,-4.40686e+01,-1.05747e+00,3.15010e-01,1.18993e+00
4.26200e+02,3.42806e+01,-4.72163e+01,-1.06063e+00,3.10487e-01,1.18918e+00
4.26200e+02,3.33901e+01,-5.03641e+01,-1.05967e+00,3.05969e-01,1.18480e+00
4.26200e+02,3.24342e+01,-5.35118e+01,-1.05586e+00,3.01459e-01,1.17791e+00
4.26200e+02,3.13314e+01,-5.66596e+01,-1.04561e+00,2.96981e-01,1.16529e+00
4.26200e+02,3.01677e+01,-5.98074e+01,-1.03269e+00,2.92546e-01,1.15030e+00
4.26200e+02,2.88343e+01,-6.29551e+01,-1.01234e+00,2.88164e-01,1.12869e+00
4.26200e+02,2.73650e+01,-6.61029e+01,-9.86033e-01,2.83874e-01,1.10182e+00
4.26200e+02,2.57573e+01,-6.92506e+01,-9.53664e-01,2.79681e-01,1.06965e+00
4.26200e+02,2.39173e+01,-7.23984e+01,-9.11122e-01,2.75602e-01,1.02860e+00
4.26200e+02,2.18083e+01,-7.55461e+01,-8.56794e-01,2.71686e-01,9.77515e-01
4.26200e+02,1.93952e+01,-7.86939e+01,-7.89145e-01,2.67980e-01,9.15527e-01
4.26200e+02,1.65410e+01,-8.18417e+01,-7.02176e-01,2.64514e-01,8.38424e-01
4.26200e+02,1.28775e+01,-8.49894e+01,-5.79752e-01,2.61459e-01,7.35660e-01
4.26200e+02,7.92271e+00,-8.81372e+01,-4.00763e-01,2.59593e-01,6.02310e-01
4.26200e+02,-3.21022e+00,-9.12849e+01,4.88595e-02,2.60334e-01,4.53551e-01
4.26200e+02,-4.01369e+00,-9.12922e+01,8.39673e-02,2.62632e-01,4.62576e-01
4.26200e+02,-1.13339e+01,-8.80318e+01,4.44049e-01,2.66989e-01,6.41115e-01
4.26200e+02,-1.22201e+01,-8.47713e+01,5.22294e-01,2.70208e-01,7.01304e-01
4.26200e+02,-1.25260e+01,-8.15109e+01,5.75111e-01,2.73595e-01,7.45195e-01
4.26200e+02,-1.25724e+01,-7.82505e+01,6.16564e-01,2.77140e-01,7.81390e-01
4.26200e+02,-1.24233e+01,-7.49900e+01,6.49455e-01,2.80813e-01,8.11394e-01
4.26200e+02,-1.21516e+01,-7.17296e+01,6.76973e-01,2.84594e-01,8.37421e-01
4.26200e+02,-1.17568e+01,-6.84692e+01,6.99096e-01,2.88460e-01,8.59281e-01
4.26200e+02,-1.12868e+01,-6.52087e+01,7.17928e-01,2.92394e-01,8.78580e-01
4.26200e+02,-1.07732e+01,-6.19483e+01,7.34852e-01,2.96383e-01,8.96402e-01
4.26200e+02,-1.01940e+01,-5.86879e+01,7.48899e-01,3.00419e-01,9.11924e-01
4.26200e+02,-9.57378e+00,-5.54274e+01,7.61150e-01,3.04489e-01,9.26007e-01
4.26200e+02,-8.91358e+00,-5.21670e+01,7.71650e-01,3.08585e-01,9.38679e-01
4.26200e+02,-8.21359e+00,-4.89065e+01,7.80407e-01,3.12700e-01,9.49935e-01
4.26200e+02,-7.48864e+00,-4.56461e+01,7.88070e-01,3.16825e-01,9.60306e-01
4.26200e+02,-6.73173e+00,-4.23857e+01,7.94334e-01,3.20955e-01,9.69537e-01
4.26200e+02,-5.95435e+00,-3.91252e+01,7.99700e-01,3.25083e-01,9.78037e-01
4.26200e+02,-5.15861e+00,-3.58648e+01,8.04263e-01,3.29205e-01,9.85884e-01
4.26200e+02,-4.34650e+00,-3.26044e+01,8.08108e-01,3.33316e-01,9.93145e-01
4.26200e+02,-3.52744e+00,-2.93439e+01,8.11649e-01,3.37414e-01,1.00016e+00
4.26200e+02,-2.69763e+00,-2.60835e+01,8.14720e-01,3.41495e-01,1.00679e+00
4.26200e+02,-1.86603e+00,-2.28231e+01,8.17711e-01,3.45559e-01,1.01335e+00
4.26200e+02,-1.02802e+00,-1.95626e+01,8.20422e-01,3.49604e-01,1.01969e+00
4.26200e+02,-1.90083e-01,-1.63022e+01,8.23136e-01,3.53629e-01,1.02602e+00
4.26200e+02,6.44682e-01,-1.30417e+01,8.25989e-01,3.57633e-01,1.03245e+00
4.26200e+02,1.47945e+00,-9.78131e+00,8.28842e-01,3.61616e-01,1.03888e+00
4.26200e+02,2.29445e+00,-6.52087e+00,8.32561e-01,3.65580e-01,1.04599e+00
4.26200e+02,3.10576e+00,-3.26044e+00,8.36442e-01,3.69527e-01,1.05323e+00
5.30600e+02,4.10127e+01,0.00000e+00,-6.94782e-01,3.45387e-01,9.16841e-01
5.30600e+02,4.08062e+01,-3.11654e+00,-7.19942e-01,3.41922e-01,9.32227e-01
5.30600e+02,4.05314e+01,-6.23307e+00,-7.42488e-01,3.38372e-01,9.45926e-01
5.30600e+02,4.02539e+01,-9.34961e+00,-7.64930e-01,3.34742e-01,9.59831e-01
5.30600e+02,3.99161e+01,-1.24661e+01,-7.85064e-01,3.31039e-01,9.72155e-01
5.30600e+02,3.95644e+01,-1.55827e+01,-8.04663e-01,3.27267e-01,9.84272e-01
5.30600e+02,3.91664e+01,-1.86992e+01,-8.22489e-01,3.23431e-01,9.95144e-01
5.30600e+02,3.87460e+01,-2.18158e+01,-8.39457e-01,3.19539e-01,1.00549e+00
5.30600e+02,3.82884e+01,-2.49323e+01,-8.55001e-01,3.15593e-01,1.01480e+00
5.30600e+02,3.78003e+01,-2.80488e+01,-8.69376e-01,3.11601e-01,1.02328e+00
5.30600e+02,3.72787e+01,-3.11654e+01,-8.82466e-01,3.07567e-01,1.03079e+00
5.30600e+02,3.67164e+01,-3.42819e+01,-8.93998e-01,3.03496e-01,1.03709e+00
5.30600e+02,3.61125e+01,-3.73984e+01,-9.03937e-01,2.99393e-01,1.04212e+00
5.30600e+02,3.54497e+01,-4.05150e+01,-9.11619e-01,2.95266e-01,1.04527e+00
5.30600e+02,3.47295e+01,-4.36315e+01,-9.17103e-01,2.91123e-01,1.04658e+00
5.30600e+02,3.39406e+01,-4.67480e+01,-9.19958e-01,2.86970e-01,1.04565e+00
5.30600e+02,3.30589e+01,-4.98646e+01,-9.19253e-01,2.82822e-01,1.04163e+00
5.30600e+02,3.21125e+01,-5.29811e+01,-9.16073e-01,2.78680e-01,1.03546e+00
5.30600e+02,3.10206e+01,-5.60976e+01,-9.07320e-01,2.74569e-01,1.02440e+00
5.30600e+02,2.98685e+01,-5.92142e+01,-8.96257e-01,2.70497e-01,1.01133e+00
5.30600e+02,2.85484e+01,-6.23307e+01,-8.78759e-01,2.66474e-01,9.92594e-01
5.30600e+02,2.70936e+01,-6.54473e+01,-8.56105e-01,2.62535e-01,9.69375e-01
5.30600e+02,2.55018e+01,-6.85638e+01,-8.28202e-01,2.58685e-01,9.41633e-01
5.30600e+02,2.36801e+01,-7.16803e+01,-7.91491e-01,2.54940e-01,9.06333e-01
5.30600e+02,2.15920e+01,-7.47969e+01,-7.44575e-01,2.51344e-01,8.62504e-01
5.30600e+02,1.92028e+01,-7.79134e+01,-6.86126e-01,2.47941e-01,8.09440e-01
5.30600e+02,1.63770e+01,-8.10299e+01,-6.10950e-01,2.44759e-01,7.43627e-01
5.30600e+02,1.27498e+01,-8.41465e+01,-5.05078e-01,2.41954e-01,6.56299e-01
5.30600e+02,7.84413e+00,-8.72630e+01,-3.50232e-01,2.40241e-01,5.43884e-01
5.30600e+02,-3.17838e+00,-9.03795e+01,3.89294e-02,2.40921e-01,4.19099e-01
5.30600e+02,-3.97388e+00,-9.03868e+01,6.93254e-02,2.43031e-01,4.26612e-01
5.30600e+02,-1.12214e+01,-8.71587e+01,3.81210e-01,2.47032e-01,5.73058e-01
5.30600e+02,-1.20989e+01,-8.39306e+01,4.49080e-01,2.49987e-01,6.23822e-01
5.30600e+02,-1.24018e+01,-8.07025e+01,4.94936e-01,2.53098e-01,6.61163e-01
5.30600e+02,-1.24477e+01,-7.74744e+01,5.30952e-01,2.56352e-01,6.92141e-01
5.30600e+02,-1.23001e+01,-7.42463e+01,5.59555e-01,2.59725e-01,7.17964e-01
5.30600e+02,-1.20311e+01,-7.10182e+01,5.83506e-01,2.63196e-01,7.40470e-01
5.30600e+02,-1.16402e+01,-6.77901e+01,6.02787e-01,2.66747e-01,7.59482e-01
5.30600e+02,-1.11748e+01,-6.45620e+01,6.19218e-01,2.70358e-01,7.76344e-01
5.30600e+02,-1.06664e+01,-6.13339e+01,6.33996e-01,2.74021e-01,7.91968e-01
5.30600e+02,-1.00929e+01,-5.81058e+01,6.46284e-01,2.77727e-01,8.05655e-01
5.30600e+02,-9.47882e+00,-5.48777e+01,6.57017e-01,2.81463e-01,8.18130e-01
5.30600e+02,-8.82518e+00,-5.16496e+01,6.66234e-01,2.85225e-01,8.29414e-01
5.30600e+02,-8.13212e+00,-4.84215e+01,6.73942e-01,2.89002e-01,8.39503e-01
5.30600e+02,-7.41437e+00,-4.51934e+01,6.80703e-01,2.92790e-01,8.48843e-01
5.30600e+02,-6.66496e+00,-4.19653e+01,6.86252e-01,2.96582e-01,8.57219e-01
5.30600e+02,-5.89529e+00,-3.87372e+01,6.91025e-01,3.00372e-01,8.64978e-01
5.30600e+02,-5.10745e+00,-3.55091e+01,6.95102e-01,3.04157e-01,8.72182e-01
5.30600e+02,-4.30339e+00,-3.22810e+01,6.98557e-01,3.07932e-01,8.78890e-01
5.30600e+02,-3.49245e+00,-2.90529e+01,7.01749e-01,3.11694e-01,8.85388e-01
5.30600e+02,-2.67088e+00,-2.58248e+01,7.04533e-01,3.15442e-01,8.91559e-01
5.30600e+02,-1.84753e+00,-2.25967e+01,7.07250e-01,3.19173e-01,8.97673e-01
5.30600e+02,-1.01782e+00,-1.93686e+01,7.09723e-01,3.22887e-01,9.03590e-01
5.30600e+02,-1.88198e-01,-1.61405e+01,7.12199e-01,3.26582e-01,9.09503e-01
5.30600e+02,6.38288e-01,-1.29124e+01,7.14795e-01,3.30259e-01,9.15503e-01
5.30600e+02,1.46477e+00,-9.68430e+00,7.17392e-01,3.33916e-01,9.21494e-01
5.30600e+02,2.27169e+00,-6.45620e+00,7.20738e-01,3.37556e-01,9.28060e-01
5.30600e+02,3.07496e+00,-3.22810e+00,7.24224e-01,3.41180e-01,9.34725e-01
6.33500e+02,4.06078e+01,0.00000e+00,-5.95956e-01,3.17017e-01,8.10348e-01
6.33500e+02,4.04033e+01,-3.08576e+00,-6.17655e-01,3.13853e-01,8.22805e-01
6.33500e+02,4.01312e+01,-6.17153e+00,-6.37112e-01,3.10611e-01,8.33876e-01
6.33500e+02,3.98564e+01,-9.25729e+00,-6.56479e-01,3.07295e-01,8.45136e-01
6.33500e+02,3.95220e+01,-1.23431e+01,-6.73866e-01,3.03913e-01,8.55093e-01
6.33500e+02,3.91738e+01,-1.54288e+01,-6.90793e-01,3.00467e-01,8.64891e-01
6.33500e+02,3.87797e+01,-1.85146e+01,-7.06201e-01,2.96964e-01,8.73660e-01
6.33500e+02,3.83634e+01,-2.16004e+01,-7.20871e-01,2.93409e-01,8.81998e-01
6.33500e+02,3.79104e+01,-2.46861e+01,-7.34320e-01,2.89805e-01,8.89487e-01
6.33500e+02,3.74271e+01,-2.77719e+01,-7.46766e-01,2.86159e-01,8.96281e-01
6.33500e+02,3.69106e+01,-3.08576e+01,-7.58108e-01,2.82474e-01,9.02276e-01
6.33500e+02,3.63539e+01,-3.39434e+01,-7.68116e-01,2.78756e-01,9.07257e-01
6.33500e+02,3.57559e+01,-3.70292e+01,-7.76755e-01,2.75008e-01,9.11174e-01
6.33500e+02,3.50997e+01,-4.01149e+01,-7.83459e-01,2.71239e-01,9.13521e-01
6.33500e+02,3.43866e+01,-4.32007e+01,-7.88276e-01,2.67455e-01,9.14317e-01
6.33500e+02,3.36055e+01,-4.62865e+01,-7.90838e-01,2.63662e-01,9.13224e-01
6.33500e+02,3.27325e+01,-4.93722e+01,-7.90346e-01,2.59873e-01,9.09532e-01
6.33500e+02,3.17954e+01,-5.24580e+01,-7.87729e-01,2.56091e-01,9.04027e-01
6.33500e+02,3.07144e+01,-5.55438e+01,-7.80332e-01,2.52335e-01,8.94392e-01
6.33500e+02,2.95736e+01,-5.86295e+01,-7.70952e-01,2.48616e-01,8.83061e-01
6.33500e+02,2.82665e+01,-6.17153e+01,-7.56052e-01,2.44942e-01,8.66951e-01
6.33500e+02,2.68261e+01,-6.48011e+01,-7.36727e-01,2.41344e-01,8.47058e-01
6.33500e+02,2.52500e+01,-6.78868e+01,-7.12899e-01,2.37828e-01,8.23354e-01
6.33500e+02,2.34463e+01,-7.09726e+01,-6.81514e-01,2.34407e-01,7.93285e-01
6.33500e+02,2.13788e+01,-7.40584e+01,-6.41374e-01,2.31123e-01,7.56051e-01
6.33500e+02,1.90132e+01,-7.71441e+01,-5.91338e-01,2.28015e-01,7.11093e-01
6.33500e+02,1.62153e+01,-8.02299e+01,-5.26951e-01,2.25109e-01,6.55514e-01
6.33500e+02,1.26239e+01,-8.33156e+01,-4.36227e-01,2.22547e-01,5.82130e-01
6.33500e+02,7.76668e+00,-8.64014e+01,-3.03484e-01,2.20982e-01,4.88469e-01
6.33500e+02,-3.14700e+00,-8.94872e+01,3.02961e-02,2.21603e-01,3.85022e-01
6.33500e+02,-3.93464e+00,-8.94943e+01,5.63750e-02,2.23530e-01,3.91249e-01
6.33500e+02,-1.11106e+01,-8.62981e+01,3.24082e-01,2.27185e-01,5.09773e-01
6.33500e+02,-1.19795e+01,-8.31019e+01,3.82430e-01,2.29884e-01,5.52081e-01
6.33500e+02,-1.22793e+01,-7.99057e+01,4.21889e-01,2.32725e-01,5.83501e-01
6.33500e+02,-1.23248e+01,-7.67094e+01,4.52907e-01,2.35697e-01,6.09741e-01
6.33500e+02,-1.21787e+01,-7.35132e+01,4.77564e-01,2.38778e-01,6.31753e-01
6.33500e+02,-1.19123e+01,-7.03170e+01,4.98230e-01,2.41949e-01,6.51038e-01
6.33500e+02,-1.15252e+01,-6.71208e+01,5.14889e-01,2.45191e-01,6.67433e-01
6.33500e+02,-1.10645e+01,-6.39245e+01,5.29103e-01,2.48490e-01,6.82049e-01
6.33500e+02,-1.05611e+01,-6.07283e+01,5.41898e-01,2.51836e-01,6.95642e-01
6.33500e+02,-9.99326e+00,-5.75321e+01,5.52558e-01,2.55220e-01,7.07624e-01
6.33500e+02,-9.38524e+00,-5.43358e+01,5.61883e-01,2.58633e-01,7.18600e-01
6.33500e+02,-8.73804e+00,-5.11396e+01,5.69907e-01,2.62068e-01,7.28584e-01
6.33500e+02,-8.05183e+00,-4.79434e+01,5.76637e-01,2.65519e-01,7.37571e-01
6.33500e+02,-7.34116e+00,-4.47472e+01,5.82554e-01,2.68978e-01,7.45934e-01
6.33500e+02,-6.59916e+00,-4.15509e+01,5.87432e-01,2.72441e-01,7.53491e-01
6.33500e+02,-5.83709e+00,-3.83547e+01,5.91643e-01,2.75903e-01,7.60532e-01
6.33500e+02,-5.05702e+00,-3.51585e+01,5.95257e-01,2.79360e-01,7.67109e-01
6.33500e+02,-4.26090e+00,-3.19623e+01,5.98338e-01,2.82808e-01,7.73271e-01
6.33500e+02,-3.45797e+00,-2.87660e+01,6.01193e-01,2.86244e-01,7.79256e-01
6.33500e+02,-2.64450e+00,-2.55698e+01,6.03698e-01,2.89667e-01,7.84966e-01
6.33500e+02,-1.82928e+00,-2.23736e+01,6.06145e-01,2.93075e-01,7.90626e-01
6.33500e+02,-1.00777e+00,-1.91774e+01,6.08383e-01,2.96467e-01,7.96120e-01
6.33500e+02,-1.86340e-01,-1.59811e+01,6.10624e-01,2.99842e-01,8.01609e-01
6.33500e+02,6.31986e-01,-1.27849e+01,6.12968e-01,3.03200e-01,8.07168e-01
6.33500e+02,1.45031e+00,-9.58868e+00,6.15312e-01,3.06540e-01,8.12717e-01
6.33500e+02,2.24926e+00,-6.39245e+00,6.18299e-01,3.09864e-01,8.18744e-01
6.33500e+02,3.04460e+00,-3.19623e+00,6.21406e-01,3.13174e-01,8.24851e-01
7.34700e+02,4.02095e+01,0.00000e+00,-5.06126e-01,2.89112e-01,7.11984e-01
7.34700e+02,4.00070e+01,-3.05550e+00,-5.24661e-01,2.86238e-01,7.21849e-01
7.34700e+02,3.97376e+01,-6.11100e+00,-5.41291e-01,2.83294e-01,7.30591e-01
7.34700e+02,3.94656e+01,-9.16651e+00,-5.57844e-01,2.80283e-01,7.39504e-01
7.34700e+02,3.91344e+01,-1.22220e+01,-5.72716e-01,2.77212e-01,7.47357e-01
7.34700e+02,3.87896e+01,-1.52775e+01,-5.87198e-01,2.74083e-01,7.55093e-01
7.34700e+02,3.83994e+01,-1.83330e+01,-6.00388e-01,2.70901e-01,7.61990e-01
7.34700e+02,3.79872e+01,-2.13885e+01,-6.12952e-01,2.67673e-01,7.68541e-01
7.34700e+02,3.75386e+01,-2.44440e+01,-6.24478e-01,2.64400e-01,7.74400e-01
7.34700e+02,3.70601e+01,-2.74995e+01,-6.35152e-01,2.61089e-01,7.79693e-01
7.34700e+02,3.65486e+01,-3.05550e+01,-6.44889e-01,2.57743e-01,7.84332e-01
7.34700e+02,3.59973e+01,-3.36105e+01,-6.53492e-01,2.54366e-01,7.88136e-01
7.34700e+02,3.54053e+01,-3.66660e+01,-6.60933e-01,2.50963e-01,7.91063e-01
7.34700e+02,3.47554e+01,-3.97215e+01,-6.66729e-01,2.47540e-01,7.92689e-01
7.34700e+02,3.40493e+01,-4.27770e+01,-6.70923e-01,2.44104e-01,7.93031e-01
7.34700e+02,3.32760e+01,-4.58325e+01,-6.73200e-01,2.40659e-01,7.91802e-01
7.34700e+02,3.24115e+01,-4.88880e+01,-6.72884e-01,2.37219e-01,7.88410e-01
7.34700e+02,3.14836e+01,-5.19435e+01,-6.70763e-01,2.33784e-01,7.83509e-01
7.34700e+02,3.04131e+01,-5.49990e+01,-6.64580e-01,2.30374e-01,7.75166e-01
7.34700e+02,2.92835e+01,-5.80545e+01,-6.56713e-01,2.26996e-01,7.65411e-01
7.34700e+02,2.79893e+01,-6.11100e+01,-6.44157e-01,2.23660e-01,7.51671e-01
7.34700e+02,2.65630e+01,-6.41655e+01,-6.27842e-01,2.20392e-01,7.34781e-01
7.34700e+02,2.50024e+01,-6.72210e+01,-6.07701e-01,2.17199e-01,7.14722e-01
7.34700e+02,2.32164e+01,-7.02765e+01,-5.81141e-01,2.14093e-01,6.89371e-01
7.34700e+02,2.11691e+01,-7.33320e+01,-5.47143e-01,2.11111e-01,6.58079e-01
7.34700e+02,1.88268e+01,-7.63875e+01,-5.04739e-01,2.08288e-01,6.20414e-01
7.34700e+02,1.60563e+01,-7.94430e+01,-4.50143e-01,2.05649e-01,5.74024e-01
7.34700e+02,1.25001e+01,-8.24985e+01,-3.73174e-01,2.03323e-01,5.13107e-01
7.34700e+02,7.69051e+00,-8.55540e+01,-2.60510e-01,2.01902e-01,4.36072e-01
7.34700e+02,-3.11614e+00,-8.86096e+01,2.29368e-02,2.02466e-01,3.51431e-01
7.34700e+02,-3.89606e+00,-8.86166e+01,4.50907e-02,2.04216e-01,3.56576e-01
7.34700e+02,-1.10017e+01,-8.54518e+01,2.72614e-01,2.07535e-01,4.51144e-01
7.34700e+02,-1.18620e+01,-8.22869e+01,3.22286e-01,2.09986e-01,4.85954e-01
7.34700e+02,-1.21589e+01,-7.91220e+01,3.55912e-01,2.12566e-01,5.12081e-01
7.34700e+02,-1.22039e+01,-7.59571e+01,3.82367e-01,2.15265e-01,5.34062e-01
7.34700e+02,-1.20592e+01,-7.27922e+01,4.03418e-01,2.18063e-01,5.52631e-01
7.34700e+02,-1.17955e+01,-6.96274e+01,4.21079e-01,2.20942e-01,5.68994e-01
7.34700e+02,-1.14122e+01,-6.64625e+01,4.35336e-01,2.23887e-01,5.83004e-01
7.34700e+02,-1.09560e+01,-6.32976e+01,4.47516e-01,2.26882e-01,5.95564e-01
7.34700e+02,-1.04575e+01,-6.01327e+01,4.58491e-01,2.29921e-01,6.07293e-01
7.34700e+02,-9.89525e+00,-5.69678e+01,4.67652e-01,2.32994e-01,6.17703e-01
7.34700e+02,-9.29319e+00,-5.38030e+01,4.75678e-01,2.36093e-01,6.27288e-01
7.34700e+02,-8.65235e+00,-5.06381e+01,4.82600e-01,2.39213e-01,6.36059e-01
7.34700e+02,-7.97287e+00,-4.74732e+01,4.88422e-01,2.42346e-01,6.44011e-01
7.34700e+02,-7.26917e+00,-4.43083e+01,4.93554e-01,2.45488e-01,6.51450e-01
7.34700e+02,-6.53444e+00,-4.11434e+01,4.97802e-01,2.48633e-01,6.58226e-01
7.34700e+02,-5.77984e+00,-3.79786e+01,5.01485e-01,2.51776e-01,6.64576e-01
7.34700e+02,-5.00742e+00,-3.48137e+01,5.04660e-01,2.54915e-01,6.70542e-01
7.34700e+02,-4.21911e+00,-3.16488e+01,5.07382e-01,2.58046e-01,6.76166e-01
7.34700e+02,-3.42406e+00,-2.84839e+01,5.09913e-01,2.61166e-01,6.81641e-01
7.34700e+02,-2.61857e+00,-2.53190e+01,5.12146e-01,2.64275e-01,6.86889e-01
7.34700e+02,-1.81134e+00,-2.21542e+01,5.14330e-01,2.67369e-01,6.92094e-01
7.34700e+02,-9.97887e-01,-1.89893e+01,5.16336e-01,2.70450e-01,6.97160e-01
7.34700e+02,-1.84513e-01,-1.58244e+01,5.18345e-01,2.73514e-01,7.02219e-01
7.34700e+02,6.25788e-01,-1.26595e+01,5.20441e-01,2.76564e-01,7.07334e-01
7.34700e+02,1.43609e+00,-9.49464e+00,5.22538e-01,2.79597e-01,7.12439e-01
7.34700e+02,2.22720e+00,-6.32976e+00,5.25180e-01,2.82615e-01,7.17934e-01
7.34700e+02,3.01474e+00,-3.16488e+00,5.27925e-01,2.85621e-01,7.23493e-01
8.33800e+02,3.98196e+01,0.00000e+00,-4.25313e-01,2.61845e-01,6.21755e-01
8.33800e+02,3.96190e+01,-3.02587e+00,-4.40983e-01,2.59251e-01,6.29364e-01
8.33800e+02,3.93522e+01,-6.05173e+00,-4.55051e-01,2.56593e-01,6.36075e-01
8.33800e+02,3.90828e+01,-9.07760e+00,-4.69055e-01,2.53876e-01,6.42940e-01
8.33800e+02,3.87549e+01,-1.21035e+01,-4.81645e-01,2.51103e-01,6.48953e-01
8.33800e+02,3.84134e+01,-1.51293e+01,-4.93907e-01,2.48279e-01,6.54883e-01
8.33800e+02,3.80270e+01,-1.81552e+01,-5.05084e-01,2.45407e-01,6.60140e-01
8.33800e+02,3.76188e+01,-2.11811e+01,-5.15734e-01,2.42493e-01,6.65124e-01
8.33800e+02,3.71745e+01,-2.42069e+01,-5.25513e-01,2.39539e-01,6.69553e-01
8.33800e+02,3.67006e+01,-2.72328e+01,-5.34575e-01,2.36550e-01,6.73527e-01
8.33800e+02,3.61941e+01,-3.02587e+01,-5.42849e-01,2.33530e-01,6.76974e-01
8.33800e+02,3.56482e+01,-3.32845e+01,-5.50169e-01,2.30482e-01,6.79744e-01
8.33800e+02,3.50619e+01,-3.63104e+01,-5.56513e-01,2.27411e-01,6.81802e-01
8.33800e+02,3.44183e+01,-3.93363e+01,-5.61475e-01,2.24321e-01,6.82798e-01
8.33800e+02,3.37191e+01,-4.23621e+01,-5.65089e-01,2.21220e-01,6.82744e-01
8.33800e+02,3.29532e+01,-4.53880e+01,-5.67093e-01,2.18110e-01,6.81404e-01
8.33800e+02,3.20971e+01,-4.84139e+01,-5.66916e-01,2.15005e-01,6.78288e-01
8.33800e+02,3.11783e+01,-5.14397e+01,-5.65222e-01,2.11904e-01,6.73934e-01
8.33800e+02,3.01182e+01,-5.44656e+01,-5.60114e-01,2.08826e-01,6.66748e-01
8.33800e+02,2.89995e+01,-5.74915e+01,-5.53591e-01,2.05778e-01,6.58404e-01
8.33800e+02,2.77178e+01,-6.05173e+01,-5.43126e-01,2.02766e-01,6.46783e-01
8.33800e+02,2.63054e+01,-6.35432e+01,-5.29501e-01,1.99817e-01,6.32575e-01
8.33800e+02,2.47599e+01,-6.65691e+01,-5.12661e-01,1.96935e-01,6.15769e-01
8.33800e+02,2.29912e+01,-6.95949e+01,-4.90424e-01,1.94131e-01,5.94623e-01
8.33800e+02,2.09638e+01,-7.26208e+01,-4.61935e-01,1.91439e-01,5.68622e-01
8.33800e+02,1.86442e+01,-7.56467e+01,-4.26380e-01,1.88892e-01,5.37439e-01
8.33800e+02,1.59005e+01,-7.86725e+01,-3.80577e-01,1.86510e-01,4.99196e-01
8.33800e+02,1.23789e+01,-8.16984e+01,-3.15967e-01,1.84410e-01,4.49285e-01
8.33800e+02,7.61592e+00,-8.47243e+01,-2.21353e-01,1.83128e-01,3.86788e-01
8.33800e+02,-3.08591e+00,-8.77501e+01,1.68179e-02,1.83637e-01,3.18513e-01
8.33800e+02,-3.85827e+00,-8.77572e+01,3.54399e-02,1.85217e-01,3.22757e-01
8.33800e+02,-1.08950e+01,-8.46230e+01,2.26785e-01,1.88212e-01,3.97118e-01
8.33800e+02,-1.17470e+01,-8.14888e+01,2.68630e-01,1.90425e-01,4.25379e-01
8.33800e+02,-1.20409e+01,-7.83546e+01,2.96989e-01,1.92754e-01,4.46838e-01
8.33800e+02,-1.20856e+01,-7.52204e+01,3.19318e-01,1.95190e-01,4.65039e-01
8.33800e+02,-1.19423e+01,-7.20862e+01,3.37106e-01,1.97715e-01,4.80536e-01
8.33800e+02,-1.16811e+01,-6.89521e+01,3.52044e-01,2.00314e-01,4.94280e-01
8.33800e+02,-1.13015e+01,-6.58179e+01,3.64121e-01,2.02972e-01,5.06139e-01
8.33800e+02,-1.08497e+01,-6.26837e+01,3.74451e-01,2.05675e-01,5.16838e-01
8.33800e+02,-1.03561e+01,-5.95495e+01,3.83770e-01,2.08418e-01,5.26871e-01
8.33800e+02,-9.79928e+00,-5.64153e+01,3.91562e-01,2.11192e-01,5.35842e-01
8.33800e+02,-9.20306e+00,-5.32811e+01,3.98402e-01,2.13989e-01,5.44149e-01
8.33800e+02,-8.56843e+00,-5.01469e+01,4.04313e-01,2.16805e-01,5.51799e-01
8.33800e+02,-7.89554e+00,-4.70128e+01,4.09299e-01,2.19633e-01,5.58786e-01
8.33800e+02,-7.19866e+00,-4.38786e+01,4.13705e-01,2.22469e-01,5.65357e-01
8.33800e+02,-6.47106e+00,-4.07444e+01,4.17369e-01,2.25307e-01,5.71390e-01
8.33800e+02,-5.72378e+00,-3.76102e+01,4.20557e-01,2.28145e-01,5.77077e-01
8.33800e+02,-4.95886e+00,-3.44760e+01,4.23318e-01,2.30978e-01,5.82453e-01
8.33800e+02,-4.17819e+00,-3.13418e+01,4.25699e-01,2.33804e-01,5.87548e-01
8.33800e+02,-3.39085e+00,-2.82077e+01,4.27919e-01,2.36620e-01,5.92522e-01
8.33800e+02,-2.59317e+00,-2.50735e+01,4.29888e-01,2.39426e-01,5.97309e-01
8.33800e+02,-1.79378e+00,-2.19393e+01,4.31817e-01,2.42219e-01,6.02060e-01
8.33800e+02,-9.88209e-01,-1.88051e+01,4.33596e-01,2.44999e-01,6.06695e-01
8.33800e+02,-1.82723e-01,-1.56709e+01,4.35377e-01,2.47765e-01,6.11323e-01
8.33800e+02,6.19718e-01,-1.25367e+01,4.37231e-01,2.50518e-01,6.15994e-01
8.33800e+02,1.42216e+00,-9.40255e+00,4.39086e-01,2.53256e-01,6.20654e-01
8.33800e+02,2.20560e+00,-6.26837e+00,4.41400e-01,2.55980e-01,6.25628e-01
8.33800e+02,2.98550e+00,-3.13418e+00,4.43799e-01,2.58693e-01,6.30653e-01
9.30700e+02,3.94382e+01,0.00000e+00,-3.53209e-01,2.35119e-01,5.39072e-01
9.30700e+02,3.92396e+01,-2.99689e+00,-3.66303e-01,2.32794e-01,5.44754e-01
9.30700e+02,3.89754e+01,-5.99378e+00,-3.78067e-01,2.30412e-01,5.49731e-01
9.30700e+02,3.87085e+01,-8.99067e+00,-3.89777e-01,2.27976e-01,5.54839e-01
9.30700e+02,3.83837e+01,-1.19876e+01,-4.00313e-01,2.25491e-01,5.59276e-01
9.30700e+02,3.80455e+01,-1.49844e+01,-4.10577e-01,2.22960e-01,5.63655e-01
9.30700e+02,3.76628e+01,-1.79813e+01,-4.19938e-01,2.20387e-01,5.67502e-01
9.30700e+02,3.72585e+01,-2.09782e+01,-4.28863e-01,2.17775e-01,5.71140e-01
9.30700e+02,3.68185e+01,-2.39751e+01,-4.37063e-01,2.15127e-01,5.74337e-01
9.30700e+02,3.63492e+01,-2.69720e+01,-4.44668e-01,2.12449e-01,5.77176e-01
9.30700e+02,3.58475e+01,-2.99689e+01,-4.51618e-01,2.09742e-01,5.79598e-01
9.30700e+02,3.53068e+01,-3.29658e+01,-4.57776e-01,2.07010e-01,5.81480e-01
9.30700e+02,3.47261e+01,-3.59627e+01,-4.63123e-01,2.04257e-01,5.82792e-01
9.30700e+02,3.40887e+01,-3.89596e+01,-4.67322e-01,2.01489e-01,5.83252e-01
9.30700e+02,3.33962e+01,-4.19565e+01,-4.70401e-01,1.98709e-01,5.82866e-01
9.30700e+02,3.26376e+01,-4.49533e+01,-4.72143e-01,1.95922e-01,5.81442e-01
9.30700e+02,3.17897e+01,-4.79502e+01,-4.72073e-01,1.93139e-01,5.78585e-01
9.30700e+02,3.08797e+01,-5.09471e+01,-4.70743e-01,1.90360e-01,5.74726e-01
9.30700e+02,2.98297e+01,-5.39440e+01,-4.66576e-01,1.87602e-01,5.68574e-01
9.30700e+02,2.87218e+01,-5.69409e+01,-4.61234e-01,1.84869e-01,5.61486e-01
9.30700e+02,2.74524e+01,-5.99378e+01,-4.52617e-01,1.82170e-01,5.51743e-01
9.30700e+02,2.60534e+01,-6.29347e+01,-4.41375e-01,1.79527e-01,5.39909e-01
9.30700e+02,2.45228e+01,-6.59316e+01,-4.27462e-01,1.76944e-01,5.25977e-01
9.30700e+02,2.27710e+01,-6.89285e+01,-4.09066e-01,1.74432e-01,5.08542e-01
9.30700e+02,2.07631e+01,-7.19254e+01,-3.85477e-01,1.72019e-01,4.87200e-01
9.30700e+02,1.84656e+01,-7.49222e+01,-3.56017e-01,1.69736e-01,4.61713e-01
9.30700e+02,1.57483e+01,-7.79191e+01,-3.18044e-01,1.67601e-01,4.30608e-01
9.30700e+02,1.22603e+01,-8.09160e+01,-2.64448e-01,1.65719e-01,3.90284e-01
9.30700e+02,7.54299e+00,-8.39129e+01,-1.85926e-01,1.64570e-01,3.40322e-01
9.30700e+02,-3.05636e+00,-8.69098e+01,1.18522e-02,1.65027e-01,2.86081e-01
9.30700e+02,-3.82132e+00,-8.69168e+01,2.73219e-02,1.66443e-01,2.89579e-01
9.30700e+02,-1.07906e+01,-8.38126e+01,1.86357e-01,1.69127e-01,3.47190e-01
9.30700e+02,-1.16345e+01,-8.07084e+01,2.21199e-01,1.71111e-01,3.69818e-01
9.30700e+02,-1.19256e+01,-7.76042e+01,2.44837e-01,1.73197e-01,3.87217e-01
9.30700e+02,-1.19698e+01,-7.45001e+01,2.63466e-01,1.75381e-01,4.02107e-01
9.30700e+02,-1.18279e+01,-7.13959e+01,2.78323e-01,1.77644e-01,4.14892e-01
9.30700e+02,-1.15692e+01,-6.82917e+01,2.90812e-01,1.79973e-01,4.26313e-01
9.30700e+02,-1.11933e+01,-6.51876e+01,3.00924e-01,1.82355e-01,4.36252e-01
9.30700e+02,-1.07458e+01,-6.20834e+01,3.09585e-01,1.84778e-01,4.45278e-01
9.30700e+02,-1.02569e+01,-5.89792e+01,3.17406e-01,1.87236e-01,4.53783e-01
9.30700e+02,-9.70544e+00,-5.58751e+01,3.23959e-01,1.89722e-01,4.61447e-01
9.30700e+02,-9.11493e+00,-5.27709e+01,3.29720e-01,1.92229e-01,4.68585e-01
9.30700e+02,-8.48637e+00,-4.96667e+01,3.34710e-01,1.94753e-01,4.75202e-01
9.30700e+02,-7.81993e+00,-4.65625e+01,3.38932e-01,1.97287e-01,4.81292e-01
9.30700e+02,-7.12973e+00,-4.34584e+01,3.42672e-01,1.99829e-01,4.87051e-01
9.30700e+02,-6.40909e+00,-4.03542e+01,3.45795e-01,2.02373e-01,4.92381e-01
9.30700e+02,-5.66897e+00,-3.72500e+01,3.48523e-01,2.04916e-01,4.97433e-01
9.30700e+02,-4.91137e+00,-3.41459e+01,3.50897e-01,2.07455e-01,5.02236e-01
9.30700e+02,-4.13818e+00,-3.10417e+01,3.52955e-01,2.09987e-01,5.06815e-01
9.30700e+02,-3.35837e+00,-2.79375e+01,3.54878e-01,2.12512e-01,5.11294e-01
9.30700e+02,-2.56834e+00,-2.48334e+01,3.56594e-01,2.15026e-01,5.15623e-01
9.30700e+02,-1.77660e+00,-2.17292e+01,3.58276e-01,2.17529e-01,5.19921e-01
9.30700e+02,-9.78745e-01,-1.86250e+01,3.59833e-01,2.20021e-01,5.24125e-01
9.30700e+02,-1.80973e-01,-1.55208e+01,3.61392e-01,2.22500e-01,5.28321e-01
9.30700e+02,6.13784e-01,-1.24167e+01,3.63012e-01,2.24966e-01,5.32548e-01
9.30700e+02,1.40854e+00,-9.31251e+00,3.64633e-01,2.27420e-01,5.36765e-01
9.30700e+02,2.18448e+00,-6.20834e+00,3.66635e-01,2.29862e-01,5.41230e-01
9.30700e+02,2.95691e+00,-3.10417e+00,3.68708e-01,2.32293e-01,5.45733e-01
1.02500e+03,3.90671e+01,0.00000e+00,-2.89617e-01,2.09104e-01,4.63737e-01
1.02500e+03,3.88704e+01,-2.96869e+00,-3.00423e-01,2.07033e-01,4.67805e-01
1.02500e+03,3.86086e+01,-5.93738e+00,-3.10137e-01,2.04912e-01,4.71329e-01
1.02500e+03,3.83443e+01,-8.90607e+00,-3.19807e-01,2.02742e-01,4.74963e-01
1.02500e+03,3.80226e+01,-1.18748e+01,-3.28514e-01,2.00529e-01,4.78076e-01
1.02500e+03,3.76875e+01,-1.48435e+01,-3.36998e-01,1.98274e-01,4.81150e-01
1.02500e+03,3.73084e+01,-1.78121e+01,-3.44742e-01,1.95982e-01,4.83812e-01
1.02500e+03,3.69079e+01,-2.07808e+01,-3.52127e-01,1.93655e-01,4.86313e-01
1.02500e+03,3.64721e+01,-2.37495e+01,-3.58918e-01,1.91297e-01,4.88474e-01
1.02500e+03,3.60071e+01,-2.67182e+01,-3.65221e-01,1.88911e-01,4.90356e-01
1.02500e+03,3.55102e+01,-2.96869e+01,-3.70988e-01,1.86500e-01,4.91913e-01
1.02500e+03,3.49746e+01,-3.26556e+01,-3.76104e-01,1.84067e-01,4.93048e-01
1.02500e+03,3.43994e+01,-3.56243e+01,-3.80555e-01,1.81615e-01,4.93736e-01
1.02500e+03,3.37680e+01,-3.85930e+01,-3.84064e-01,1.79149e-01,4.93749e-01
1.02500e+03,3.30819e+01,-4.15617e+01,-3.86655e-01,1.76673e-01,4.93095e-01
1.02500e+03,3.23305e+01,-4.45304e+01,-3.88149e-01,1.74191e-01,4.91617e-01
1.02500e+03,3.14906e+01,-4.74990e+01,-3.88157e-01,1.71712e-01,4.89000e-01
1.02500e+03,3.05891e+01,-5.04677e+01,-3.87131e-01,1.69237e-01,4.85586e-01
1.02500e+03,2.95491e+01,-5.34364e+01,-3.83779e-01,1.66780e-01,4.80347e-01
1.02500e+03,2.84516e+01,-5.64051e+01,-3.79463e-01,1.64346e-01,4.74364e-01
1.02500e+03,2.71940e+01,-5.93738e+01,-3.72460e-01,1.61942e-01,4.66264e-01
1.02500e+03,2.58083e+01,-6.23425e+01,-3.63304e-01,1.59588e-01,4.56503e-01
1.02500e+03,2.42920e+01,-6.53112e+01,-3.51958e-01,1.57288e-01,4.45076e-01
1.02500e+03,2.25567e+01,-6.82799e+01,-3.36934e-01,1.55049e-01,4.30866e-01
1.02500e+03,2.05677e+01,-7.12486e+01,-3.17651e-01,1.52901e-01,4.13567e-01
1.02500e+03,1.82919e+01,-7.42173e+01,-2.93553e-01,1.50867e-01,3.93009e-01
1.02500e+03,1.56001e+01,-7.71859e+01,-2.62472e-01,1.48966e-01,3.68054e-01
1.02500e+03,1.21450e+01,-8.01546e+01,-2.18576e-01,1.47290e-01,3.35943e-01
1.02500e+03,7.47201e+00,-8.31233e+01,-1.54235e-01,1.46266e-01,2.96597e-01
1.02500e+03,-3.02760e+00,-8.60920e+01,7.92305e-03,1.46673e-01,2.54168e-01
1.02500e+03,-3.78536e+00,-8.60989e+01,2.06115e-02,1.47934e-01,2.57057e-01
1.02500e+03,-1.06891e+01,-8.30239e+01,1.51124e-01,1.50325e-01,3.01051e-01
1.02500e+03,-1.15250e+01,-7.99490e+01,1.79770e-01,1.52092e-01,3.18925e-01
1.02500e+03,-1.18134e+01,-7.68740e+01,1.99226e-01,1.53950e-01,3.32856e-01
1.02500e+03,-1.18572e+01,-7.37991e+01,2.14574e-01,1.55895e-01,3.44894e-01
1.02500e+03,-1.17166e+01,-7.07241e+01,2.26828e-01,1.57911e-01,3.55329e-01
1.02500e+03,-1.14604e+01,-6.76491e+01,2.37139e-01,1.59986e-01,3.64721e-01
1.02500e+03,-1.10880e+01,-6.45742e+01,2.45501e-01,1.62107e-01,3.72971e-01
1.02500e+03,-1.06447e+01,-6.14992e+01,2.52673e-01,1.64266e-01,3.80517e-01
1.02500e+03,-1.01604e+01,-5.84243e+01,2.59155e-01,1.66455e-01,3.87664e-01
1.02500e+03,-9.61411e+00,-5.53493e+01,2.64598e-01,1.68669e-01,3.94157e-01
1.02500e+03,-9.02916e+00,-5.22743e+01,2.69391e-01,1.70902e-01,4.00243e-01
1.02500e+03,-8.40652e+00,-4.91994e+01,2.73552e-01,1.73150e-01,4.05923e-01
1.02500e+03,-7.74634e+00,-4.61244e+01,2.77082e-01,1.75408e-01,4.11191e-01
1.02500e+03,-7.06264e+00,-4.30495e+01,2.80218e-01,1.77671e-01,4.16200e-01
1.02500e+03,-6.34878e+00,-3.99745e+01,2.82847e-01,1.79937e-01,4.20873e-01
1.02500e+03,-5.61563e+00,-3.68995e+01,2.85152e-01,1.82202e-01,4.25329e-01
1.02500e+03,-4.86516e+00,-3.38246e+01,2.87167e-01,1.84464e-01,4.29587e-01
1.02500e+03,-4.09924e+00,-3.07496e+01,2.88922e-01,1.86719e-01,4.33668e-01
1.02500e+03,-3.32677e+00,-2.76746e+01,2.90567e-01,1.88968e-01,4.37671e-01
1.02500e+03,-2.54417e+00,-2.45997e+01,2.92042e-01,1.91207e-01,4.41553e-01
1.02500e+03,-1.75988e+00,-2.15247e+01,2.93489e-01,1.93437e-01,4.45409e-01
1.02500e+03,-9.69535e-01,-1.84498e+01,2.94834e-01,1.95656e-01,4.49189e-01
1.02500e+03,-1.79270e-01,-1.53748e+01,2.96181e-01,1.97864e-01,4.52961e-01
1.02500e+03,6.08008e-01,-1.22998e+01,2.97577e-01,2.00061e-01,4.56755e-01
1.02500e+03,1.39529e+00,-9.22488e+00,2.98974e-01,2.02246e-01,4.60539e-01
1.02500e+03,2.16392e+00,-6.14992e+00,3.00684e-01,2.04421e-01,4.64515e-01
1.02500e+03,2.92908e+00,-3.07496e+00,3.02452e-01,2.06586e-01,4.68520e-01
1.11650e+03,3.87070e+01,0.00000e+00,-2.34163e-01,1.83743e-01,3.95116e-01
1.11650e+03,3.85121e+01,-2.94133e+00,-2.42957e-01,1.81917e-01,3.97881e-01
1.11650e+03,3.82528e+01,-5.88266e+00,-2.50869e-01,1.80046e-01,4.00232e-01
1.11650e+03,3.79909e+01,-8.82398e+00,-2.58745e-01,1.78134e-01,4.02671e-01
1.11650e+03,3.76721e+01,-1.17653e+01,-2.65842e-01,1.76182e-01,4.04713e-01
1.11650e+03,3.73401e+01,-1.47066e+01,-2.72758e-01,1.74194e-01,4.06729e-01
1.11650e+03,3.69645e+01,-1.76480e+01,-2.79077e-01,1.72174e-01,4.08430e-01
1.11650e+03,3.65678e+01,-2.05893e+01,-2.85104e-01,1.70122e-01,4.10011e-01
1.11650e+03,3.61359e+01,-2.35306e+01,-2.90652e-01,1.68043e-01,4.11332e-01
1.11650e+03,3.56753e+01,-2.64720e+01,-2.95805e-01,1.65940e-01,4.12442e-01
1.11650e+03,3.51829e+01,-2.94133e+01,-3.00523e-01,1.63814e-01,4.13303e-01
1.11650e+03,3.46522e+01,-3.23546e+01,-3.04716e-01,1.61669e-01,4.13839e-01
1.11650e+03,3.40823e+01,-3.52959e+01,-3.08371e-01,1.59508e-01,4.14030e-01
1.11650e+03,3.34567e+01,-3.82373e+01,-3.11263e-01,1.57333e-01,4.13698e-01
1.11650e+03,3.27770e+01,-4.11786e+01,-3.13414e-01,1.55150e-01,4.12848e-01
1.11650e+03,3.20325e+01,-4.41199e+01,-3.14677e-01,1.52962e-01,4.11356e-01
1.11650e+03,3.12004e+01,-4.70612e+01,-3.14738e-01,1.50776e-01,4.08975e-01
1.11650e+03,3.03072e+01,-5.00026e+01,-3.13963e-01,1.48594e-01,4.05972e-01
1.11650e+03,2.92767e+01,-5.29439e+01,-3.11306e-01,1.46428e-01,4.01541e-01
1.11650e+03,2.81893e+01,-5.58852e+01,-3.07870e-01,1.44282e-01,3.96530e-01
1.11650e+03,2.69434e+01,-5.88266e+01,-3.02261e-01,1.42163e-01,3.89862e-01
1.11650e+03,2.55704e+01,-6.17679e+01,-2.94911e-01,1.40088e-01,3.81898e-01
1.11650e+03,2.40681e+01,-6.47092e+01,-2.85788e-01,1.38059e-01,3.72634e-01
1.11650e+03,2.23488e+01,-6.76505e+01,-2.73692e-01,1.36086e-01,3.61200e-01
1.11650e+03,2.03781e+01,-7.05919e+01,-2.58150e-01,1.34192e-01,3.47367e-01
1.11650e+03,1.81233e+01,-7.35332e+01,-2.38714e-01,1.32399e-01,3.31018e-01
1.11650e+03,1.54563e+01,-7.64745e+01,-2.13630e-01,1.30723e-01,3.11293e-01
1.11650e+03,1.20330e+01,-7.94159e+01,-1.78182e-01,1.29245e-01,2.86114e-01
1.11650e+03,7.40314e+00,-8.23572e+01,-1.26198e-01,1.28343e-01,2.55620e-01
1.11650e+03,-2.99970e+00,-8.52985e+01,4.90193e-03,1.28701e-01,2.22971e-01
1.11650e+03,-3.75047e+00,-8.53053e+01,1.51643e-02,1.29813e-01,2.25354e-01
1.11650e+03,-1.05906e+01,-8.22587e+01,1.20780e-01,1.31921e-01,2.58452e-01
1.11650e+03,-1.14188e+01,-7.92121e+01,1.44006e-01,1.33479e-01,2.72374e-01
1.11650e+03,-1.17045e+01,-7.61655e+01,1.59799e-01,1.35118e-01,2.83383e-01
1.11650e+03,-1.17479e+01,-7.31189e+01,1.72269e-01,1.36832e-01,2.92994e-01
1.11650e+03,-1.16086e+01,-7.00722e+01,1.82236e-01,1.38609e-01,3.01410e-01
1.11650e+03,-1.13547e+01,-6.70256e+01,1.90633e-01,1.40438e-01,3.09047e-01
1.11650e+03,-1.09858e+01,-6.39790e+01,1.97453e-01,1.42309e-01,3.15821e-01
1.11650e+03,-1.05466e+01,-6.09324e+01,2.03310e-01,1.44212e-01,3.22065e-01
1.11650e+03,-1.00667e+01,-5.78858e+01,2.08610e-01,1.46142e-01,3.28010e-01
1.11650e+03,-9.52550e+00,-5.48391e+01,2.13068e-01,1.48094e-01,3.33457e-01
1.11650e+03,-8.94594e+00,-5.17925e+01,2.17002e-01,1.50063e-01,3.38595e-01
1.11650e+03,-8.32904e+00,-4.87459e+01,2.20424e-01,1.52045e-01,3.43423e-01
1.11650e+03,-7.67495e+00,-4.56993e+01,2.23336e-01,1.54035e-01,3.47935e-01
1.11650e+03,-6.99754e+00,-4.26527e+01,2.25928e-01,1.56030e-01,3.52250e-01
1.11650e+03,-6.29027e+00,-3.96060e+01,2.28112e-01,1.58028e-01,3.56305e-01
1.11650e+03,-5.56387e+00,-3.65594e+01,2.30033e-01,1.60025e-01,3.60193e-01
1.11650e+03,-4.82031e+00,-3.35128e+01,2.31719e-01,1.62019e-01,3.63928e-01
1.11650e+03,-4.06146e+00,-3.04662e+01,2.33195e-01,1.64007e-01,3.67526e-01
1.11650e+03,-3.29611e+00,-2.74196e+01,2.34583e-01,1.65989e-01,3.71061e-01
1.11650e+03,-2.52072e+00,-2.43730e+01,2.35832e-01,1.67964e-01,3.74503e-01
1.11650e+03,-1.74366e+00,-2.13263e+01,2.37059e-01,1.69929e-01,3.77922e-01
1.11650e+03,-9.60599e-01,-1.82797e+01,2.38204e-01,1.71886e-01,3.81281e-01
1.11650e+03,-1.77618e-01,-1.52331e+01,2.39349e-01,1.73833e-01,3.84632e-01
1.11650e+03,6.02404e-01,-1.21865e+01,2.40536e-01,1.75770e-01,3.87998e-01
1.11650e+03,1.38243e+00,-9.13986e+00,2.41722e-01,1.77696e-01,3.91353e-01
1.11650e+03,2.14398e+00,-6.09324e+00,2.43161e-01,1.79613e-01,3.94855e-01
1.11650e+03,2.90209e+00,-3.04662e+00,2.44648e-01,1.81522e-01,3.98376e-01
1.20500e+03,3.76912e+01,0.00000e+00,-2.65831e-01,1.77944e-01,4.07011e-01
1.20500e+03,3.75014e+01,-2.86413e+00,-2.75285e-01,1.75704e-01,4.10363e-01
1.20500e+03,3.72488e+01,-5.72827e+00,-2.83734e-01,1.73411e-01,4.13181e-01
1.20500e+03,3.69938e+01,-8.59240e+00,-2.92142e-01,1.71065e-01,4.16097e-01
1.20500e+03,3.66834e+01,-1.14565e+01,-2.99664e-01,1.68671e-01,4.18507e-01
1.20500e+03,3.63602e+01,-1.43207e+01,-3.06980e-01,1.66232e-01,4.20875e-01
1.20500e+03,3.59944e+01,-1.71848e+01,-3.13615e-01,1.63753e-01,4.22846e-01
1.20500e+03,3.56080e+01,-2.00489e+01,-3.19919e-01,1.61236e-01,4.24664e-01
1.20500e+03,3.51875e+01,-2.29131e+01,-3.25676e-01,1.58685e-01,4.26155e-01
1.20500e+03,3.47390e+01,-2.57772e+01,-3.30984e-01,1.56104e-01,4.27383e-01
1.20500e+03,3.42596e+01,-2.86413e+01,-3.35798e-01,1.53495e-01,4.28302e-01
1.20500e+03,3.37428e+01,-3.15055e+01,-3.40013e-01,1.50863e-01,4.28822e-01
1.20500e+03,3.31878e+01,-3.43696e+01,-3.43616e-01,1.48210e-01,4.28918e-01
1.20500e+03,3.25787e+01,-3.72337e+01,-3.46351e-01,1.45541e-01,4.28376e-01
1.20500e+03,3.19168e+01,-4.00979e+01,-3.48241e-01,1.42862e-01,4.27201e-01
1.20500e+03,3.11919e+01,-4.29620e+01,-3.49121e-01,1.40176e-01,4.25245e-01
1.20500e+03,3.03815e+01,-4.58261e+01,-3.48632e-01,1.37493e-01,4.22205e-01
1.20500e+03,2.95118e+01,-4.86903e+01,-3.47192e-01,1.34814e-01,4.18410e-01
1.20500e+03,2.85084e+01,-5.15544e+01,-3.43609e-01,1.32154e-01,4.12870e-01
1.20500e+03,2.74495e+01,-5.44186e+01,-3.39139e-01,1.29520e-01,4.06622e-01
1.20500e+03,2.62363e+01,-5.72827e+01,-3.32195e-01,1.26918e-01,3.98344e-01
1.20500e+03,2.48993e+01,-6.01468e+01,-3.23269e-01,1.24369e-01,3.88466e-01
1.20500e+03,2.34365e+01,-6.30110e+01,-3.12325e-01,1.21879e-01,3.76975e-01
1.20500e+03,2.17623e+01,-6.58751e+01,-2.97995e-01,1.19455e-01,3.62781e-01
1.20500e+03,1.98433e+01,-6.87392e+01,-2.79743e-01,1.17129e-01,3.45563e-01
1.20500e+03,1.76476e+01,-7.16034e+01,-2.57058e-01,1.14927e-01,3.25120e-01
1.20500e+03,1.50506e+01,-7.44675e+01,-2.27943e-01,1.12867e-01,3.00291e-01
1.20500e+03,1.17172e+01,-7.73316e+01,-1.87028e-01,1.11051e-01,2.68284e-01
1.20500e+03,7.20885e+00,-8.01958e+01,-1.27287e-01,1.09941e-01,2.29048e-01
1.20500e+03,-2.92097e+00,-8.30599e+01,2.25237e-02,1.10379e-01,1.92504e-01
1.20500e+03,-3.65204e+00,-8.30665e+01,3.42083e-02,1.11742e-01,1.96543e-01
1.20500e+03,-1.03126e+01,-8.00999e+01,1.53871e-01,1.14329e-01,2.50778e-01
1.20500e+03,-1.11191e+01,-7.71332e+01,1.79734e-01,1.16241e-01,2.69889e-01
1.20500e+03,-1.13974e+01,-7.41666e+01,1.97135e-01,1.18252e-01,2.84276e-01
1.20500e+03,-1.14396e+01,-7.11999e+01,2.10754e-01,1.20357e-01,2.96437e-01
1.20500e+03,-1.13040e+01,-6.82332e+01,2.21524e-01,1.22539e-01,3.06790e-01
1.20500e+03,-1.10567e+01,-6.52666e+01,2.30505e-01,1.24784e-01,3.15984e-01
1.20500e+03,-1.06975e+01,-6.22999e+01,2.37691e-01,1.27081e-01,3.23953e-01
1.20500e+03,-1.02698e+01,-5.93332e+01,2.43781e-01,1.29418e-01,3.31173e-01
1.20500e+03,-9.80253e+00,-5.63666e+01,2.49236e-01,1.31788e-01,3.37968e-01
1.20500e+03,-9.27551e+00,-5.33999e+01,2.53734e-01,1.34185e-01,3.44090e-01
1.20500e+03,-8.71115e+00,-5.04333e+01,2.57634e-01,1.36603e-01,3.49795e-01
1.20500e+03,-8.11045e+00,-4.74666e+01,2.60952e-01,1.39037e-01,3.55091e-01
1.20500e+03,-7.47352e+00,-4.44999e+01,2.63689e-01,1.41482e-01,3.59976e-01
1.20500e+03,-6.81389e+00,-4.15333e+01,2.66062e-01,1.43933e-01,3.64608e-01
1.20500e+03,-6.12518e+00,-3.85666e+01,2.67970e-01,1.46387e-01,3.68911e-01
1.20500e+03,-5.41785e+00,-3.55999e+01,2.69579e-01,1.48840e-01,3.73005e-01
1.20500e+03,-4.69381e+00,-3.26333e+01,2.70920e-01,1.51290e-01,3.76913e-01
1.20500e+03,-3.95486e+00,-2.96666e+01,2.72023e-01,1.53734e-01,3.80655e-01
1.20500e+03,-3.20961e+00,-2.67000e+01,2.73024e-01,1.56169e-01,3.84329e-01
1.20500e+03,-2.45457e+00,-2.37333e+01,2.73869e-01,1.58595e-01,3.87894e-01
1.20500e+03,-1.69790e+00,-2.07666e+01,2.74687e-01,1.61011e-01,3.91442e-01
1.20500e+03,-9.35389e-01,-1.78000e+01,2.75412e-01,1.63416e-01,3.94925e-01
1.20500e+03,-1.72956e-01,-1.48333e+01,2.76138e-01,1.65808e-01,3.98409e-01
1.20500e+03,5.86594e-01,-1.18666e+01,2.76911e-01,1.68189e-01,4.01924e-01
1.20500e+03,1.34615e+00,-8.89999e+00,2.77683e-01,1.70558e-01,4.05435e-01
1.20500e+03,2.08771e+00,-5.93332e+00,2.78744e-01,1.72915e-01,4.09141e-01
1.20500e+03,2.82592e+00,-2.96666e+00,2.79858e-01,1.75262e-01,4.12881e-01
1.29010e+03,3.63234e+01,0.00000e+00,-2.15390e-01,1.59440e-01,3.50224e-01
1.29010e+03,3.61405e+01,-2.76019e+00,-2.23121e-01,1.57490e-01,3.52409e-01
1.29010e+03,3.58971e+01,-5.52039e+00,-2.30038e-01,1.55491e-01,3.54190e-01
1.29010e+03,3.56513e+01,-8.28058e+00,-2.36923e-01,1.53448e-01,3.56049e-01
1.29010e+03,3.53522e+01,-1.10408e+01,-2.43088e-01,1.51362e-01,3.57524e-01
1.29010e+03,3.50407e+01,-1.38010e+01,-2.49087e-01,1.49238e-01,3.58971e-01
1.29010e+03,3.46882e+01,-1.65612e+01,-2.54534e-01,1.47078e-01,3.60116e-01
1.29010e+03,3.43158e+01,-1.93214e+01,-2.59713e-01,1.44886e-01,3.61146e-01
1.29010e+03,3.39106e+01,-2.20816e+01,-2.64449e-01,1.42664e-01,3.61928e-01
1.29010e+03,3.34783e+01,-2.48418e+01,-2.68820e-01,1.40415e-01,3.62510e-01
1.29010e+03,3.30163e+01,-2.76019e+01,-2.72791e-01,1.38143e-01,3.62857e-01
1.29010e+03,3.25183e+01,-3.03621e+01,-2.76277e-01,1.35849e-01,3.62897e-01
1.29010e+03,3.19834e+01,-3.31223e+01,-2.79267e-01,1.33538e-01,3.62612e-01
1.29010e+03,3.13964e+01,-3.58825e+01,-2.81554e-01,1.31214e-01,3.61834e-01
1.29010e+03,3.07585e+01,-3.86427e+01,-2.83155e-01,1.28880e-01,3.60565e-01
1.29010e+03,3.00599e+01,-4.14029e+01,-2.83938e-01,1.26540e-01,3.58689e-01
1.29010e+03,2.92790e+01,-4.41631e+01,-2.83612e-01,1.24203e-01,3.55970e-01
1.29010e+03,2.84408e+01,-4.69233e+01,-2.82515e-01,1.21869e-01,3.52663e-01
1.29010e+03,2.74738e+01,-4.96835e+01,-2.79682e-01,1.19553e-01,3.47995e-01
1.29010e+03,2.64534e+01,-5.24437e+01,-2.76129e-01,1.17258e-01,3.42777e-01
1.29010e+03,2.52842e+01,-5.52039e+01,-2.70572e-01,1.14991e-01,3.35974e-01
1.29010e+03,2.39957e+01,-5.79641e+01,-2.63409e-01,1.12771e-01,3.27927e-01
1.29010e+03,2.25860e+01,-6.07243e+01,-2.54610e-01,1.10602e-01,3.18629e-01
1.29010e+03,2.09725e+01,-6.34845e+01,-2.43068e-01,1.08491e-01,3.07234e-01
1.29010e+03,1.91232e+01,-6.62447e+01,-2.28346e-01,1.06465e-01,2.93507e-01
1.29010e+03,1.70072e+01,-6.90049e+01,-2.10033e-01,1.04547e-01,2.77315e-01
1.29010e+03,1.45045e+01,-7.17651e+01,-1.86508e-01,1.02753e-01,2.57798e-01
1.29010e+03,1.12920e+01,-7.45253e+01,-1.53421e-01,1.01171e-01,2.32905e-01
1.29010e+03,6.94724e+00,-7.72855e+01,-1.05078e-01,1.00204e-01,2.02889e-01
1.29010e+03,-2.81497e+00,-8.00457e+01,1.62566e-02,1.00586e-01,1.74977e-01
1.29010e+03,-3.51951e+00,-8.00521e+01,2.57255e-02,1.01774e-01,1.78145e-01
1.29010e+03,-9.93839e+00,-7.71931e+01,1.22771e-01,1.04028e-01,2.18032e-01
1.29010e+03,-1.07156e+01,-7.43341e+01,1.43803e-01,1.05693e-01,2.32792e-01
1.29010e+03,-1.09838e+01,-7.14751e+01,1.57977e-01,1.07445e-01,2.44111e-01
1.29010e+03,-1.10244e+01,-6.86160e+01,1.69086e-01,1.09278e-01,2.53802e-01
1.29010e+03,-1.08937e+01,-6.57570e+01,1.77886e-01,1.11179e-01,2.62156e-01
1.29010e+03,-1.06555e+01,-6.28980e+01,1.85237e-01,1.13135e-01,2.69651e-01
1.29010e+03,-1.03093e+01,-6.00390e+01,1.91133e-01,1.15136e-01,2.76225e-01
1.29010e+03,-9.89713e+00,-5.71800e+01,1.96141e-01,1.17171e-01,2.82238e-01
1.29010e+03,-9.44680e+00,-5.43210e+01,2.00635e-01,1.19235e-01,2.87933e-01
1.29010e+03,-8.93890e+00,-5.14620e+01,2.04352e-01,1.21324e-01,2.93118e-01
1.29010e+03,-8.39503e+00,-4.86030e+01,2.07585e-01,1.23430e-01,2.97987e-01
1.29010e+03,-7.81612e+00,-4.57440e+01,2.10346e-01,1.25550e-01,3.02546e-01
1.29010e+03,-7.20231e+00,-4.28850e+01,2.12637e-01,1.27679e-01,3.06791e-01
1.29010e+03,-6.56662e+00,-4.00260e+01,2.14633e-01,1.29814e-01,3.10842e-01
1.29010e+03,-5.90290e+00,-3.71670e+01,2.16252e-01,1.31952e-01,3.14640e-01
1.29010e+03,-5.22123e+00,-3.43080e+01,2.17628e-01,1.34089e-01,3.18279e-01
1.29010e+03,-4.52347e+00,-3.14490e+01,2.18788e-01,1.36222e-01,3.21773e-01
1.29010e+03,-3.81134e+00,-2.85900e+01,2.19754e-01,1.38351e-01,3.25138e-01
1.29010e+03,-3.09313e+00,-2.57310e+01,2.20638e-01,1.40472e-01,3.28448e-01
1.29010e+03,-2.36549e+00,-2.28720e+01,2.21395e-01,1.42585e-01,3.31673e-01
1.29010e+03,-1.63628e+00,-2.00130e+01,2.22131e-01,1.44689e-01,3.34884e-01
1.29010e+03,-9.01444e-01,-1.71540e+01,2.22791e-01,1.46784e-01,3.38042e-01
1.29010e+03,-1.66680e-01,-1.42950e+01,2.23452e-01,1.48868e-01,3.41197e-01
1.29010e+03,5.65307e-01,-1.14360e+01,2.24151e-01,1.50941e-01,3.44374e-01
1.29010e+03,1.29729e+00,-8.57701e+00,2.24849e-01,1.53004e-01,3.47545e-01
1.29010e+03,2.01195e+00,-5.71800e+00,2.25781e-01,1.55057e-01,3.50863e-01
1.29010e+03,2.72337e+00,-2.85900e+00,2.26757e-01,1.57101e-01,3.54204e-01
1.37170e+03,3.50118e+01,0.00000e+00,-1.71205e-01,1.40899e-01,2.98108e-01
1.37170e+03,3.48355e+01,-2.66053e+00,-1.77410e-01,1.39220e-01,2.99367e-01
1.37170e+03,3.46009e+01,-5.32106e+00,-1.82968e-01,1.37500e-01,3.00326e-01
1.37170e+03,3.43640e+01,-7.98159e+00,-1.88500e-01,1.35740e-01,3.01344e-01
1.37170e+03,3.40757e+01,-1.06421e+01,-1.93460e-01,1.33945e-01,3.02077e-01
1.37170e+03,3.37754e+01,-1.33027e+01,-1.98287e-01,1.32117e-01,3.02791e-01
1.37170e+03,3.34357e+01,-1.59632e+01,-2.02676e-01,1.30258e-01,3.03280e-01
1.37170e+03,3.30768e+01,-1.86237e+01,-2.06852e-01,1.28371e-01,3.03686e-01
1.37170e+03,3.26861e+01,-2.12842e+01,-2.10676e-01,1.26458e-01,3.03907e-01
1.37170e+03,3.22695e+01,-2.39448e+01,-2.14210e-01,1.24523e-01,3.03980e-01
1.37170e+03,3.18241e+01,-2.66053e+01,-2.17425e-01,1.22567e-01,3.03878e-01
1.37170e+03,3.13441e+01,-2.92658e+01,-2.20255e-01,1.20593e-01,3.03547e-01
1.37170e+03,3.08286e+01,-3.19264e+01,-2.22691e-01,1.18604e-01,3.02972e-01
1.37170e+03,3.02627e+01,-3.45869e+01,-2.24567e-01,1.16604e-01,3.02026e-01
1.37170e+03,2.96479e+01,-3.72474e+01,-2.25899e-01,1.14595e-01,3.00710e-01
1.37170e+03,2.89745e+01,-3.99080e+01,-2.26580e-01,1.12581e-01,2.98935e-01
1.37170e+03,2.82218e+01,-4.25685e+01,-2.26380e-01,1.10569e-01,2.96520e-01
1.37170e+03,2.74139e+01,-4.52290e+01,-2.25566e-01,1.08561e-01,2.93661e-01
1.37170e+03,2.64818e+01,-4.78895e+01,-2.23372e-01,1.06567e-01,2.89767e-01
1.37170e+03,2.54982e+01,-5.05501e+01,-2.20606e-01,1.04593e-01,2.85457e-01
1.37170e+03,2.43712e+01,-5.32106e+01,-2.16247e-01,1.02642e-01,2.79944e-01
1.37170e+03,2.31293e+01,-5.58711e+01,-2.10610e-01,1.00731e-01,2.73490e-01
1.37170e+03,2.17704e+01,-5.85317e+01,-2.03674e-01,9.88642e-02,2.66093e-01
1.37170e+03,2.02153e+01,-6.11922e+01,-1.94556e-01,9.70476e-02,2.57112e-01
1.37170e+03,1.84327e+01,-6.38527e+01,-1.82911e-01,9.53034e-02,2.46383e-01
1.37170e+03,1.63931e+01,-6.65133e+01,-1.68410e-01,9.36527e-02,2.33826e-01
1.37170e+03,1.39807e+01,-6.91738e+01,-1.49767e-01,9.21091e-02,2.18820e-01
1.37170e+03,1.08843e+01,-7.18343e+01,-1.23521e-01,9.07481e-02,1.99908e-01
1.37170e+03,6.69639e+00,-7.44949e+01,-8.51465e-02,8.99161e-02,1.77495e-01
1.37170e+03,-2.71333e+00,-7.71554e+01,1.12567e-02,9.02449e-02,1.56714e-01
1.37170e+03,-3.39243e+00,-7.71616e+01,1.87844e-02,9.12676e-02,1.59192e-01
1.37170e+03,-9.57954e+00,-7.44058e+01,9.59966e-02,9.32072e-02,1.87825e-01
1.37170e+03,-1.03287e+01,-7.16500e+01,1.12778e-01,9.46403e-02,1.98970e-01
1.37170e+03,-1.05872e+01,-6.88942e+01,1.24107e-01,9.61485e-02,2.07693e-01
1.37170e+03,-1.06264e+01,-6.61385e+01,1.33000e-01,9.77265e-02,2.15268e-01
1.37170e+03,-1.05004e+01,-6.33827e+01,1.40056e-01,9.93622e-02,2.21888e-01
1.37170e+03,-1.02708e+01,-6.06269e+01,1.45961e-01,1.01046e-01,2.27893e-01
1.37170e+03,-9.93701e+00,-5.78712e+01,1.50709e-01,1.02768e-01,2.33231e-01
1.37170e+03,-9.53977e+00,-5.51154e+01,1.54751e-01,1.04519e-01,2.38161e-01
1.37170e+03,-9.10569e+00,-5.23596e+01,1.58384e-01,1.06296e-01,2.42862e-01
1.37170e+03,-8.61613e+00,-4.96039e+01,1.61400e-01,1.08093e-01,2.47189e-01
1.37170e+03,-8.09190e+00,-4.68481e+01,1.64031e-01,1.09906e-01,2.51285e-01
1.37170e+03,-7.53389e+00,-4.40923e+01,1.66287e-01,1.11730e-01,2.55152e-01
1.37170e+03,-6.94225e+00,-4.13365e+01,1.68169e-01,1.13563e-01,2.58786e-01
1.37170e+03,-6.32951e+00,-3.85808e+01,1.69816e-01,1.15400e-01,2.62277e-01
1.37170e+03,-5.68976e+00,-3.58250e+01,1.71164e-01,1.17240e-01,2.65580e-01
1.37170e+03,-5.03271e+00,-3.30692e+01,1.72318e-01,1.19079e-01,2.68762e-01
1.37170e+03,-4.36014e+00,-3.03135e+01,1.73301e-01,1.20915e-01,2.71836e-01
1.37170e+03,-3.67372e+00,-2.75577e+01,1.74130e-01,1.22747e-01,2.74812e-01
1.37170e+03,-2.98144e+00,-2.48019e+01,1.74893e-01,1.24572e-01,2.77745e-01
1.37170e+03,-2.28008e+00,-2.20462e+01,1.75556e-01,1.26391e-01,2.80613e-01
1.37170e+03,-1.57720e+00,-1.92904e+01,1.76202e-01,1.28202e-01,2.83468e-01
1.37170e+03,-8.68894e-01,-1.65346e+01,1.76787e-01,1.30004e-01,2.86281e-01
1.37170e+03,-1.60661e-01,-1.37788e+01,1.77373e-01,1.31797e-01,2.89090e-01
1.37170e+03,5.44895e-01,-1.10231e+01,1.77989e-01,1.33582e-01,2.91912e-01
1.37170e+03,1.25045e+00,-8.26731e+00,1.78605e-01,1.35357e-01,2.94727e-01
1.37170e+03,1.93930e+00,-5.51154e+00,1.79407e-01,1.37123e-01,2.97649e-01
1.37170e+03,2.62503e+00,-2.75577e+00,1.80243e-01,1.38882e-01,3.00587e-01
1.44960e+03,3.37597e+01,0.00000e+00,-1.33126e-01,1.22977e-01,2.51183e-01
1.44960e+03,3.35897e+01,-2.56538e+00,-1.37999e-01,1.21548e-01,2.51725e-01
1.44960e+03,3.33635e+01,-5.13077e+00,-1.42368e-01,1.20084e-01,2.52050e-01
1.44960e+03,3.31351e+01,-7.69615e+00,-1.46717e-01,1.18586e-01,2.52417e-01
1.44960e+03,3.28571e+01,-1.02615e+01,-1.50622e-01,1.17058e-01,2.52577e-01
1.44960e+03,3.25675e+01,-1.28269e+01,-1.54424e-01,1.15502e-01,2.52723e-01
1.44960e+03,3.22399e+01,-1.53923e+01,-1.57884e-01,1.13920e-01,2.52706e-01
1.44960e+03,3.18939e+01,-1.79577e+01,-1.61179e-01,1.12314e-01,2.52630e-01
1.44960e+03,3.15172e+01,-2.05231e+01,-1.64200e-01,1.10686e-01,2.52419e-01
1.44960e+03,3.11155e+01,-2.30885e+01,-1.66995e-01,1.09039e-01,2.52102e-01
1.44960e+03,3.06860e+01,-2.56538e+01,-1.69543e-01,1.07374e-01,2.51659e-01
1.44960e+03,3.02232e+01,-2.82192e+01,-1.71791e-01,1.05694e-01,2.51049e-01
1.44960e+03,2.97261e+01,-3.07846e+01,-1.73732e-01,1.04001e-01,2.50263e-01
1.44960e+03,2.91805e+01,-3.33500e+01,-1.75239e-01,1.02298e-01,2.49205e-01
1.44960e+03,2.85877e+01,-3.59154e+01,-1.76322e-01,1.00588e-01,2.47878e-01
1.44960e+03,2.79383e+01,-3.84808e+01,-1.76899e-01,9.88742e-02,2.46214e-01
1.44960e+03,2.72125e+01,-4.10462e+01,-1.76790e-01,9.71620e-02,2.44082e-01
1.44960e+03,2.64335e+01,-4.36115e+01,-1.76204e-01,9.54529e-02,2.41623e-01
1.44960e+03,2.55347e+01,-4.61769e+01,-1.74545e-01,9.37560e-02,2.38404e-01
1.44960e+03,2.45863e+01,-4.87423e+01,-1.72441e-01,9.20752e-02,2.34882e-01
1.44960e+03,2.34997e+01,-5.13077e+01,-1.69098e-01,9.04148e-02,2.30475e-01
1.44960e+03,2.23022e+01,-5.38731e+01,-1.64761e-01,8.87888e-02,2.25381e-01
1.44960e+03,2.09919e+01,-5.64385e+01,-1.59414e-01,8.71998e-02,2.19600e-01
1.44960e+03,1.94923e+01,-5.90039e+01,-1.52370e-01,8.56538e-02,2.12665e-01
1.44960e+03,1.77735e+01,-6.15692e+01,-1.43361e-01,8.41694e-02,2.04464e-01
1.44960e+03,1.58069e+01,-6.41346e+01,-1.32130e-01,8.27645e-02,1.94957e-01
1.44960e+03,1.34808e+01,-6.67000e+01,-1.17678e-01,8.14508e-02,1.83714e-01
1.44960e+03,1.04950e+01,-6.92654e+01,-9.73128e-02,8.02926e-02,1.69737e-01
1.44960e+03,6.45692e+00,-7.18308e+01,-6.75155e-02,7.95847e-02,1.53491e-01
1.44960e+03,-2.61629e+00,-7.43962e+01,7.41217e-03,7.98648e-02,1.38528e-01
1.44960e+03,-3.27111e+00,-7.44021e+01,1.32665e-02,8.07353e-02,1.40465e-01
1.44960e+03,-9.23696e+00,-7.17449e+01,7.33649e-02,8.23863e-02,1.60452e-01
1.44960e+03,-9.95928e+00,-6.90877e+01,8.64649e-02,8.36061e-02,1.68660e-01
1.44960e+03,-1.02085e+01,-6.64305e+01,9.53248e-02,8.48897e-02,1.75230e-01
1.44960e+03,-1.02464e+01,-6.37732e+01,1.02289e-01,8.62329e-02,1.81029e-01
1.44960e+03,-1.01249e+01,-6.11160e+01,1.07826e-01,8.76250e-02,1.86175e-01
1.44960e+03,-9.90345e+00,-5.84588e+01,1.12467e-01,8.90579e-02,1.90900e-01
1.44960e+03,-9.58164e+00,-5.58016e+01,1.16209e-01,9.05234e-02,1.95161e-01
1.44960e+03,-9.19861e+00,-5.31444e+01,1.19401e-01,9.20142e-02,1.99139e-01
1.44960e+03,-8.78006e+00,-5.04872e+01,1.22275e-01,9.35265e-02,2.02960e-01
1.44960e+03,-8.30801e+00,-4.78299e+01,1.24670e-01,9.50560e-02,2.06518e-01
1.44960e+03,-7.80252e+00,-4.51727e+01,1.26765e-01,9.65988e-02,2.09913e-01
1.44960e+03,-7.26447e+00,-4.25155e+01,1.28568e-01,9.81517e-02,2.13146e-01
1.44960e+03,-6.69398e+00,-3.98583e+01,1.30081e-01,9.97113e-02,2.16213e-01
1.44960e+03,-6.10316e+00,-3.72011e+01,1.31411e-01,1.01275e-01,2.19177e-01
1.44960e+03,-5.48628e+00,-3.45438e+01,1.32507e-01,1.02841e-01,2.22006e-01
1.44960e+03,-4.85273e+00,-3.18866e+01,1.33454e-01,1.04406e-01,2.24748e-01
1.44960e+03,-4.20421e+00,-2.92294e+01,1.34267e-01,1.05969e-01,2.27411e-01
1.44960e+03,-3.54234e+00,-2.65722e+01,1.34961e-01,1.07527e-01,2.30002e-01
1.44960e+03,-2.87482e+00,-2.39150e+01,1.35603e-01,1.09081e-01,2.32560e-01
1.44960e+03,-2.19854e+00,-2.12577e+01,1.36167e-01,1.10628e-01,2.35069e-01
1.44960e+03,-1.52080e+00,-1.86005e+01,1.36718e-01,1.12169e-01,2.37566e-01
1.44960e+03,-8.37821e-01,-1.59433e+01,1.37222e-01,1.13703e-01,2.40032e-01
1.44960e+03,-1.54916e-01,-1.32861e+01,1.37727e-01,1.15229e-01,2.42492e-01
1.44960e+03,5.25408e-01,-1.06289e+01,1.38255e-01,1.16748e-01,2.44959e-01
1.44960e+03,1.20573e+00,-7.97166e+00,1.38783e-01,1.18259e-01,2.47419e-01
1.44960e+03,1.86995e+00,-5.31444e+00,1.39455e-01,1.19762e-01,2.49953e-01
1.44960e+03,2.53116e+00,-2.65722e+00,1.40154e-01,1.21259e-01,2.52496e-01
1.52340e+03,3.25736e+01,0.00000e+00,-1.01021e-01,1.05473e-01,2.08756e-01
1.52340e+03,3.24095e+01,-2.47525e+00,-1.04756e-01,1.04276e-01,2.08793e-01
1.52340e+03,3.21913e+01,-4.95049e+00,-1.08108e-01,1.03051e-01,2.08676e-01
1.52340e+03,3.19709e+01,-7.42574e+00,-1.11445e-01,1.01797e-01,2.08586e-01
1.52340e+03,3.17026e+01,-9.90099e+00,-1.14445e-01,1.00518e-01,2.08349e-01
1.52340e+03,3.14232e+01,-1.23762e+01,-1.17366e-01,9.92152e-02,2.08101e-01
1.52340e+03,3.11072e+01,-1.48515e+01,-1.20029e-01,9.78906e-02,2.07737e-01
1.52340e+03,3.07733e+01,-1.73267e+01,-1.22566e-01,9.65460e-02,2.07330e-01
1.52340e+03,3.04098e+01,-1.98020e+01,-1.24895e-01,9.51833e-02,2.06829e-01
1.52340e+03,3.00222e+01,-2.22772e+01,-1.27052e-01,9.38043e-02,2.06252e-01
1.52340e+03,2.96079e+01,-2.47525e+01,-1.29022e-01,9.24107e-02,2.05587e-01
1.52340e+03,2.91613e+01,-2.72277e+01,-1.30765e-01,9.10045e-02,2.04805e-01
1.52340e+03,2.86816e+01,-2.97030e+01,-1.32274e-01,8.95873e-02,2.03897e-01
1.52340e+03,2.81552e+01,-3.21782e+01,-1.33454e-01,8.81617e-02,2.02799e-01
1.52340e+03,2.75832e+01,-3.46535e+01,-1.34312e-01,8.67305e-02,2.01510e-01
1.52340e+03,2.69567e+01,-3.71287e+01,-1.34786e-01,8.52958e-02,1.99983e-01
1.52340e+03,2.62564e+01,-3.96040e+01,-1.34739e-01,8.38626e-02,1.98125e-01
1.52340e+03,2.55047e+01,-4.20792e+01,-1.34331e-01,8.24319e-02,1.96035e-01
1.52340e+03,2.46375e+01,-4.45544e+01,-1.33108e-01,8.10114e-02,1.93407e-01
1.52340e+03,2.37225e+01,-4.70297e+01,-1.31547e-01,7.96045e-02,1.90566e-01
1.52340e+03,2.26740e+01,-4.95049e+01,-1.29046e-01,7.82147e-02,1.87097e-01
1.52340e+03,2.15185e+01,-5.19802e+01,-1.25791e-01,7.68536e-02,1.83147e-01
1.52340e+03,2.02543e+01,-5.44554e+01,-1.21768e-01,7.55235e-02,1.78715e-01
1.52340e+03,1.88075e+01,-5.69307e+01,-1.16459e-01,7.42294e-02,1.73472e-01
1.52340e+03,1.71490e+01,-5.94059e+01,-1.09657e-01,7.29869e-02,1.67350e-01
1.52340e+03,1.52515e+01,-6.18812e+01,-1.01169e-01,7.18110e-02,1.60330e-01
1.52340e+03,1.30071e+01,-6.43564e+01,-9.02366e-02,7.07115e-02,1.52128e-01
1.52340e+03,1.01263e+01,-6.68317e+01,-7.48165e-02,6.97421e-02,1.42089e-01
1.52340e+03,6.23005e+00,-6.93069e+01,-5.22374e-02,6.91497e-02,1.30667e-01
1.52340e+03,-2.52437e+00,-7.17822e+01,4.59409e-03,6.93843e-02,1.20265e-01
1.52340e+03,-3.15618e+00,-7.17879e+01,9.03729e-03,7.01130e-02,1.21775e-01
1.52340e+03,-8.91241e+00,-6.92241e+01,5.46875e-02,7.14952e-02,1.35371e-01
1.52340e+03,-9.60935e+00,-6.66602e+01,6.46674e-02,7.25163e-02,1.41272e-01
1.52340e+03,-9.84985e+00,-6.40963e+01,7.14292e-02,7.35908e-02,1.46113e-01
1.52340e+03,-9.88634e+00,-6.15325e+01,7.67526e-02,7.47152e-02,1.50459e-01
1.52340e+03,-9.76914e+00,-5.89686e+01,8.09925e-02,7.58805e-02,1.54381e-01
1.52340e+03,-9.55548e+00,-5.64048e+01,8.45523e-02,7.70800e-02,1.58029e-01
1.52340e+03,-9.24498e+00,-5.38409e+01,8.74292e-02,7.83067e-02,1.61368e-01
1.52340e+03,-8.87540e+00,-5.12771e+01,8.98897e-02,7.95546e-02,1.64520e-01
1.52340e+03,-8.47156e+00,-4.87132e+01,9.21086e-02,8.08205e-02,1.67570e-01
1.52340e+03,-8.01609e+00,-4.61494e+01,9.39635e-02,8.21009e-02,1.70443e-01
1.52340e+03,-7.52837e+00,-4.35855e+01,9.55910e-02,8.33922e-02,1.73206e-01
1.52340e+03,-7.00922e+00,-4.10217e+01,9.69969e-02,8.46920e-02,1.75860e-01
1.52340e+03,-6.45878e+00,-3.84578e+01,9.81822e-02,8.59975e-02,1.78400e-01
1.52340e+03,-5.88872e+00,-3.58940e+01,9.92291e-02,8.73065e-02,1.80869e-01
1.52340e+03,-5.29352e+00,-3.33301e+01,1.00099e-01,8.86170e-02,1.83245e-01
1.52340e+03,-4.68222e+00,-3.07662e+01,1.00855e-01,8.99269e-02,1.85559e-01
1.52340e+03,-4.05649e+00,-2.82024e+01,1.01510e-01,9.12350e-02,1.87818e-01
1.52340e+03,-3.41788e+00,-2.56385e+01,1.02073e-01,9.25397e-02,1.90026e-01
1.52340e+03,-2.77381e+00,-2.30747e+01,1.02598e-01,9.38401e-02,1.92209e-01
1.52340e+03,-2.12129e+00,-2.05108e+01,1.03064e-01,9.51354e-02,1.94356e-01
1.52340e+03,-1.46736e+00,-1.79470e+01,1.03520e-01,9.64252e-02,1.96494e-01
1.52340e+03,-8.08383e-01,-1.53831e+01,1.03940e-01,9.77090e-02,1.98607e-01
1.52340e+03,-1.49473e-01,-1.28193e+01,1.04360e-01,9.89863e-02,2.00714e-01
1.52340e+03,5.06948e-01,-1.02554e+01,1.04798e-01,1.00257e-01,2.02823e-01
1.52340e+03,1.16337e+00,-7.69156e+00,1.05236e-01,1.01522e-01,2.04926e-01
1.52340e+03,1.80424e+00,-5.12771e+00,1.05784e-01,1.02780e-01,2.07078e-01
1.52340e+03,2.44222e+00,-2.56385e+00,1.06352e-01,1.04033e-01,2.09235e-01
1.59310e+03,3.14533e+01,0.00000e+00,-7.45335e-02,8.89797e-02,1.71194e-01
1.59310e+03,3.12949e+01,-2.39012e+00,-7.73178e-02,8.79961e-02,1.70903e-01
1.59310e+03,3.10841e+01,-4.78023e+00,-7.98201e-02,8.69886e-02,1.70506e-01
1.59310e+03,3.08713e+01,-7.17035e+00,-8.23111e-02,8.59582e-02,1.70122e-01
1.59310e+03,3.06123e+01,-9.56047e+00,-8.45532e-02,8.49068e-02,1.69637e-01
1.59310e+03,3.03425e+01,-1.19506e+01,-8.67376e-02,8.38359e-02,1.69141e-01
1.59310e+03,3.00373e+01,-1.43407e+01,-8.87308e-02,8.27472e-02,1.68566e-01
1.59310e+03,2.97149e+01,-1.67308e+01,-9.06314e-02,8.16420e-02,1.67959e-01
1.59310e+03,2.93640e+01,-1.91209e+01,-9.23784e-02,8.05219e-02,1.67287e-01
1.59310e+03,2.89896e+01,-2.15111e+01,-9.39992e-02,7.93885e-02,1.66564e-01
1.59310e+03,2.85896e+01,-2.39012e+01,-9.54814e-02,7.82431e-02,1.65779e-01
1.59310e+03,2.81583e+01,-2.62913e+01,-9.67956e-02,7.70872e-02,1.64914e-01
1.59310e+03,2.76952e+01,-2.86814e+01,-9.79379e-02,7.59224e-02,1.63965e-01
1.59310e+03,2.71869e+01,-3.10715e+01,-9.88368e-02,7.47507e-02,1.62886e-01
1.59310e+03,2.66345e+01,-3.34616e+01,-9.94985e-02,7.35744e-02,1.61677e-01
1.59310e+03,2.60296e+01,-3.58518e+01,-9.98766e-02,7.23952e-02,1.60308e-01
1.59310e+03,2.53533e+01,-3.82419e+01,-9.98708e-02,7.12172e-02,1.58713e-01
1.59310e+03,2.46276e+01,-4.06320e+01,-9.95978e-02,7.00414e-02,1.56962e-01
1.59310e+03,2.37902e+01,-4.30221e+01,-9.87237e-02,6.88739e-02,1.54846e-01
1.59310e+03,2.29066e+01,-4.54122e+01,-9.76004e-02,6.77176e-02,1.52587e-01
1.59310e+03,2.18941e+01,-4.78023e+01,-9.57830e-02,6.65753e-02,1.49904e-01
1.59310e+03,2.07785e+01,-5.01925e+01,-9.34093e-02,6.54566e-02,1.46898e-01
1.59310e+03,1.95577e+01,-5.25826e+01,-9.04694e-02,6.43635e-02,1.43571e-01
1.59310e+03,1.81606e+01,-5.49727e+01,-8.65793e-02,6.32999e-02,1.39702e-01
1.59310e+03,1.65592e+01,-5.73628e+01,-8.15884e-02,6.22788e-02,1.35250e-01
1.59310e+03,1.47269e+01,-5.97529e+01,-7.53534e-02,6.13123e-02,1.30214e-01
1.59310e+03,1.25597e+01,-6.21430e+01,-6.73139e-02,6.04087e-02,1.24414e-01
1.59310e+03,9.77800e+00,-6.45332e+01,-5.59630e-02,5.96121e-02,1.17442e-01
1.59310e+03,6.01578e+00,-6.69233e+01,-3.93291e-02,5.91254e-02,1.09700e-01
1.59310e+03,-2.43755e+00,-6.93134e+01,2.58167e-03,5.93183e-02,1.02775e-01
1.59310e+03,-3.04763e+00,-6.93189e+01,5.86049e-03,5.99173e-02,1.03945e-01
1.59310e+03,-8.60589e+00,-6.68433e+01,3.95778e-02,6.10534e-02,1.12911e-01
1.59310e+03,-9.27886e+00,-6.43676e+01,4.69720e-02,6.18927e-02,1.17040e-01
1.59310e+03,-9.51109e+00,-6.18919e+01,5.19913e-02,6.27759e-02,1.20522e-01
1.59310e+03,-9.54632e+00,-5.94162e+01,5.59492e-02,6.37000e-02,1.23707e-01
1.59310e+03,-9.43315e+00,-5.69406e+01,5.91075e-02,6.46578e-02,1.26632e-01
1.59310e+03,-9.22684e+00,-5.44649e+01,6.17639e-02,6.56437e-02,1.29391e-01
1.59310e+03,-8.92702e+00,-5.19892e+01,6.39164e-02,6.66519e-02,1.31957e-01
1.59310e+03,-8.57016e+00,-4.95135e+01,6.57616e-02,6.76775e-02,1.34407e-01
1.59310e+03,-8.18020e+00,-4.70379e+01,6.74285e-02,6.87179e-02,1.36796e-01
1.59310e+03,-7.74040e+00,-4.45622e+01,6.88268e-02,6.97702e-02,1.39071e-01
1.59310e+03,-7.26945e+00,-4.20865e+01,7.00572e-02,7.08316e-02,1.41278e-01
1.59310e+03,-6.76816e+00,-3.96108e+01,7.11242e-02,7.18999e-02,1.43413e-01
1.59310e+03,-6.23665e+00,-3.71351e+01,7.20283e-02,7.29728e-02,1.45476e-01
1.59310e+03,-5.68619e+00,-3.46595e+01,7.28303e-02,7.40486e-02,1.47492e-01
1.59310e+03,-5.11146e+00,-3.21838e+01,7.35016e-02,7.51256e-02,1.49446e-01
1.59310e+03,-4.52119e+00,-2.97081e+01,7.40891e-02,7.62022e-02,1.51359e-01
1.59310e+03,-3.91698e+00,-2.72324e+01,7.46016e-02,7.72772e-02,1.53234e-01
1.59310e+03,-3.30033e+00,-2.47568e+01,7.50470e-02,7.83495e-02,1.55074e-01
1.59310e+03,-2.67841e+00,-2.22811e+01,7.54640e-02,7.94182e-02,1.56897e-01
1.59310e+03,-2.04833e+00,-1.98054e+01,7.58370e-02,8.04827e-02,1.58694e-01
1.59310e+03,-1.41689e+00,-1.73297e+01,7.62027e-02,8.15427e-02,1.60482e-01
1.59310e+03,-7.80581e-01,-1.48541e+01,7.65421e-02,8.25977e-02,1.62252e-01
1.59310e+03,-1.44332e-01,-1.23784e+01,7.68819e-02,8.36475e-02,1.64017e-01
1.59310e+03,4.89512e-01,-9.90271e+00,7.72346e-02,8.46920e-02,1.65781e-01
1.59310e+03,1.12336e+00,-7.42703e+00,7.75874e-02,8.57310e-02,1.67539e-01
1.59310e+03,1.74219e+00,-4.95135e+00,7.80210e-02,8.67650e-02,1.69327e-01
1.59310e+03,2.35823e+00,-2.47568e+00,7.84697e-02,8.77945e-02,1.71117e-01
1.65850e+03,3.04021e+01,0.00000e+00,-5.32532e-02,7.33016e-02,1.37678e-01
1.65850e+03,3.02490e+01,-2.31024e+00,-5.52654e-02,7.25087e-02,1.37211e-01
1.65850e+03,3.00453e+01,-4.62048e+00,-5.70760e-02,7.16965e-02,1.36671e-01
1.65850e+03,2.98396e+01,-6.93072e+00,-5.88786e-02,7.08658e-02,1.36134e-01
1.65850e+03,2.95892e+01,-9.24096e+00,-6.05032e-02,7.00182e-02,1.35530e-01
1.65850e+03,2.93285e+01,-1.15512e+01,-6.20866e-02,6.91549e-02,1.34915e-01
1.65850e+03,2.90335e+01,-1.38614e+01,-6.35334e-02,6.82771e-02,1.34245e-01
1.65850e+03,2.87218e+01,-1.61717e+01,-6.49139e-02,6.73862e-02,1.33553e-01
1.65850e+03,2.83826e+01,-1.84819e+01,-6.61847e-02,6.64832e-02,1.32817e-01
1.65850e+03,2.80208e+01,-2.07921e+01,-6.73653e-02,6.55695e-02,1.32046e-01
1.65850e+03,2.76341e+01,-2.31024e+01,-6.84469e-02,6.46461e-02,1.31234e-01
1.65850e+03,2.72173e+01,-2.54126e+01,-6.94084e-02,6.37144e-02,1.30369e-01
1.65850e+03,2.67696e+01,-2.77229e+01,-7.02470e-02,6.27754e-02,1.29448e-01
1.65850e+03,2.62783e+01,-3.00331e+01,-7.09116e-02,6.18308e-02,1.28443e-01
1.65850e+03,2.57444e+01,-3.23433e+01,-7.14068e-02,6.08826e-02,1.27354e-01
1.65850e+03,2.51597e+01,-3.46536e+01,-7.16993e-02,5.99320e-02,1.26160e-01
1.65850e+03,2.45060e+01,-3.69638e+01,-7.17173e-02,5.89824e-02,1.24820e-01
1.65850e+03,2.38045e+01,-3.92741e+01,-7.15445e-02,5.80345e-02,1.23380e-01
1.65850e+03,2.29951e+01,-4.15843e+01,-7.09420e-02,5.70934e-02,1.21703e-01
1.65850e+03,2.21410e+01,-4.38945e+01,-7.01614e-02,5.61613e-02,1.19937e-01
1.65850e+03,2.11624e+01,-4.62048e+01,-6.88847e-02,5.52405e-02,1.17897e-01
1.65850e+03,2.00840e+01,-4.85150e+01,-6.72104e-02,5.43387e-02,1.15652e-01
1.65850e+03,1.89041e+01,-5.08253e+01,-6.51315e-02,5.34576e-02,1.13204e-01
1.65850e+03,1.75537e+01,-5.31355e+01,-6.23735e-02,5.26002e-02,1.10412e-01
1.65850e+03,1.60058e+01,-5.54457e+01,-5.88288e-02,5.17771e-02,1.07254e-01
1.65850e+03,1.42348e+01,-5.77560e+01,-5.43949e-02,5.09981e-02,1.03736e-01
1.65850e+03,1.21400e+01,-6.00662e+01,-4.86713e-02,5.02698e-02,9.97499e-02
1.65850e+03,9.45122e+00,-6.23764e+01,-4.05811e-02,4.96276e-02,9.50554e-02
1.65850e+03,5.81473e+00,-6.46867e+01,-2.87151e-02,4.92354e-02,8.99830e-02
1.65850e+03,-2.35608e+00,-6.69969e+01,1.21610e-03,4.93910e-02,8.55564e-02
1.65850e+03,-2.94577e+00,-6.70023e+01,3.55940e-03,4.98740e-02,8.64576e-02
1.65850e+03,-8.31828e+00,-6.46093e+01,2.76800e-02,5.07898e-02,9.22226e-02
1.65850e+03,-8.96876e+00,-6.22164e+01,3.29877e-02,5.14664e-02,9.50503e-02
1.65850e+03,-9.19322e+00,-5.98235e+01,3.65980e-02,5.21784e-02,9.75047e-02
1.65850e+03,-9.22728e+00,-5.74305e+01,3.94497e-02,5.29234e-02,9.97945e-02
1.65850e+03,-9.11789e+00,-5.50376e+01,4.17299e-02,5.36955e-02,1.01936e-01
1.65850e+03,-8.91848e+00,-5.26447e+01,4.36515e-02,5.44903e-02,1.03986e-01
1.65850e+03,-8.62868e+00,-5.02517e+01,4.52129e-02,5.53030e-02,1.05922e-01
1.65850e+03,-8.28374e+00,-4.78588e+01,4.65546e-02,5.61298e-02,1.07791e-01
1.65850e+03,-7.90682e+00,-4.54658e+01,4.77690e-02,5.69685e-02,1.09627e-01
1.65850e+03,-7.48171e+00,-4.30729e+01,4.87914e-02,5.78167e-02,1.11395e-01
1.65850e+03,-7.02650e+00,-4.06800e+01,4.96938e-02,5.86723e-02,1.13123e-01
1.65850e+03,-6.54196e+00,-3.82870e+01,5.04793e-02,5.95334e-02,1.14808e-01
1.65850e+03,-6.02822e+00,-3.58941e+01,5.11485e-02,6.03983e-02,1.16448e-01
1.65850e+03,-5.49615e+00,-3.35011e+01,5.17448e-02,6.12654e-02,1.18059e-01
1.65850e+03,-4.94063e+00,-3.11082e+01,5.22476e-02,6.21336e-02,1.19631e-01
1.65850e+03,-4.37009e+00,-2.87153e+01,5.26905e-02,6.30014e-02,1.21177e-01
1.65850e+03,-3.78607e+00,-2.63223e+01,5.30797e-02,6.38680e-02,1.22698e-01
1.65850e+03,-3.19003e+00,-2.39294e+01,5.34211e-02,6.47323e-02,1.24196e-01
1.65850e+03,-2.58890e+00,-2.15364e+01,5.37421e-02,6.55937e-02,1.25681e-01
1.65850e+03,-1.97988e+00,-1.91435e+01,5.40317e-02,6.64518e-02,1.27149e-01
1.65850e+03,-1.36954e+00,-1.67506e+01,5.43161e-02,6.73062e-02,1.28610e-01
1.65850e+03,-7.54494e-01,-1.43576e+01,5.45817e-02,6.81566e-02,1.30058e-01
1.65850e+03,-1.39508e-01,-1.19647e+01,5.48476e-02,6.90027e-02,1.31500e-01
1.65850e+03,4.73153e-01,-9.57176e+00,5.51227e-02,6.98446e-02,1.32941e-01
1.65850e+03,1.08581e+00,-7.17882e+00,5.53978e-02,7.06821e-02,1.34376e-01
1.65850e+03,1.68397e+00,-4.78588e+00,5.57308e-02,7.15155e-02,1.35828e-01
1.65850e+03,2.27942e+00,-2.39294e+00,5.60745e-02,7.23453e-02,1.37280e-01
1.71930e+03,2.94249e+01,0.00000e+00,-3.66972e-02,5.87219e-02,1.08127e-01
1.71930e+03,2.92767e+01,-2.23598e+00,-3.80997e-02,5.80974e-02,1.07599e-01
1.71930e+03,2.90795e+01,-4.47196e+00,-3.93633e-02,5.74577e-02,1.07022e-01
1.71930e+03,2.88804e+01,-6.70794e+00,-4.06214e-02,5.68035e-02,1.06443e-01
1.71930e+03,2.86381e+01,-8.94392e+00,-4.17568e-02,5.61360e-02,1.05818e-01
1.71930e+03,2.83857e+01,-1.11799e+01,-4.28638e-02,5.54561e-02,1.05183e-01
1.71930e+03,2.81002e+01,-1.34159e+01,-4.38766e-02,5.47648e-02,1.04512e-01
1.71930e+03,2.77986e+01,-1.56519e+01,-4.48437e-02,5.40632e-02,1.03824e-01
1.71930e+03,2.74703e+01,-1.78878e+01,-4.57353e-02,5.33521e-02,1.03107e-01
1.71930e+03,2.71201e+01,-2.01238e+01,-4.65646e-02,5.26325e-02,1.02366e-01
1.71930e+03,2.67458e+01,-2.23598e+01,-4.73257e-02,5.19053e-02,1.01598e-01
1.71930e+03,2.63424e+01,-2.45958e+01,-4.80040e-02,5.11715e-02,1.00797e-01
1.71930e+03,2.59091e+01,-2.68317e+01,-4.85976e-02,5.04321e-02,9.99595e-02
1.71930e+03,2.54336e+01,-2.90677e+01,-4.90713e-02,4.96882e-02,9.90694e-02
1.71930e+03,2.49169e+01,-3.13037e+01,-4.94281e-02,4.89415e-02,9.81272e-02
1.71930e+03,2.43509e+01,-3.35397e+01,-4.96452e-02,4.81929e-02,9.71201e-02
1.71930e+03,2.37183e+01,-3.57757e+01,-4.96732e-02,4.74451e-02,9.60236e-02
1.71930e+03,2.30393e+01,-3.80116e+01,-4.95696e-02,4.66986e-02,9.48653e-02
1.71930e+03,2.22560e+01,-4.02476e+01,-4.91698e-02,4.59575e-02,9.35626e-02
1.71930e+03,2.14293e+01,-4.24836e+01,-4.86473e-02,4.52235e-02,9.22065e-02
1.71930e+03,2.04822e+01,-4.47196e+01,-4.77828e-02,4.44984e-02,9.06836e-02
1.71930e+03,1.94385e+01,-4.69556e+01,-4.66442e-02,4.37883e-02,8.90389e-02
1.71930e+03,1.82964e+01,-4.91915e+01,-4.52268e-02,4.30944e-02,8.72745e-02
1.71930e+03,1.69894e+01,-5.14275e+01,-4.33412e-02,4.24193e-02,8.53032e-02
1.71930e+03,1.54913e+01,-5.36635e+01,-4.09133e-02,4.17711e-02,8.31166e-02
1.71930e+03,1.37772e+01,-5.58995e+01,-3.78725e-02,4.11577e-02,8.07229e-02
1.71930e+03,1.17498e+01,-5.81355e+01,-3.39427e-02,4.05841e-02,7.80597e-02
1.71930e+03,9.14742e+00,-6.03714e+01,-2.83815e-02,4.00785e-02,7.49958e-02
1.71930e+03,5.62782e+00,-6.26074e+01,-2.02177e-02,3.97697e-02,7.17889e-02
1.71930e+03,-2.28035e+00,-6.48434e+01,3.98702e-04,3.98923e-02,6.90967e-02
1.71930e+03,-2.85109e+00,-6.48486e+01,2.01393e-03,4.02727e-02,6.97835e-02
1.71930e+03,-8.05090e+00,-6.25326e+01,1.86567e-02,4.09940e-02,7.34139e-02
1.71930e+03,-8.68047e+00,-6.02165e+01,2.23313e-02,4.15268e-02,7.53135e-02
1.71930e+03,-8.89772e+00,-5.79005e+01,2.48361e-02,4.20875e-02,7.70124e-02
1.71930e+03,-8.93068e+00,-5.55845e+01,2.68179e-02,4.26742e-02,7.86287e-02
1.71930e+03,-8.82481e+00,-5.32685e+01,2.84057e-02,4.32823e-02,8.01683e-02
1.71930e+03,-8.63181e+00,-5.09525e+01,2.97464e-02,4.39081e-02,8.16616e-02
1.71930e+03,-8.35132e+00,-4.86364e+01,3.08388e-02,4.45482e-02,8.30942e-02
1.71930e+03,-8.01747e+00,-4.63204e+01,3.17798e-02,4.51992e-02,8.44918e-02
1.71930e+03,-7.65266e+00,-4.40044e+01,3.26329e-02,4.58597e-02,8.58734e-02
1.71930e+03,-7.24122e+00,-4.16884e+01,3.33537e-02,4.65277e-02,8.72178e-02
1.71930e+03,-6.80064e+00,-3.93724e+01,3.39919e-02,4.72014e-02,8.85402e-02
1.71930e+03,-6.33168e+00,-3.70563e+01,3.45495e-02,4.78795e-02,8.98388e-02
1.71930e+03,-5.83445e+00,-3.47403e+01,3.50268e-02,4.85606e-02,9.11113e-02
1.71930e+03,-5.31949e+00,-3.24243e+01,3.54539e-02,4.92435e-02,9.23674e-02
1.71930e+03,-4.78182e+00,-3.01083e+01,3.58166e-02,4.99271e-02,9.36001e-02
1.71930e+03,-4.22962e+00,-2.77922e+01,3.61380e-02,5.06105e-02,9.48167e-02
1.71930e+03,-3.66437e+00,-2.54762e+01,3.64224e-02,5.12929e-02,9.60180e-02
1.71930e+03,-3.08749e+00,-2.31602e+01,3.66737e-02,5.19734e-02,9.72043e-02
1.71930e+03,-2.50568e+00,-2.08442e+01,3.69111e-02,5.26518e-02,9.83822e-02
1.71930e+03,-1.91624e+00,-1.85282e+01,3.71269e-02,5.33274e-02,9.95482e-02
1.71930e+03,-1.32552e+00,-1.62121e+01,3.73390e-02,5.40002e-02,1.00709e-01
1.71930e+03,-7.30242e-01,-1.38961e+01,3.75382e-02,5.46698e-02,1.01860e-01
1.71930e+03,-1.35024e-01,-1.15801e+01,3.77375e-02,5.53361e-02,1.03007e-01
1.71930e+03,4.57944e-01,-9.26408e+00,3.79432e-02,5.59991e-02,1.04151e-01
1.71930e+03,1.05091e+00,-6.94806e+00,3.81490e-02,5.66585e-02,1.05290e-01
1.71930e+03,1.62984e+00,-4.63204e+00,3.83946e-02,5.73147e-02,1.06438e-01
1.71930e+03,2.20615e+00,-2.31602e+00,3.86476e-02,5.79681e-02,1.07585e-01
1.77540e+03,2.77303e+01,0.00000e+00,-4.32319e-02,5.51503e-02,1.04851e-01
1.77540e+03,2.75906e+01,-2.10721e+00,-4.47585e-02,5.43161e-02,1.04183e-01
1.77540e+03,2.74048e+01,-4.21442e+00,-4.61204e-02,5.34614e-02,1.03448e-01
1.77540e+03,2.72172e+01,-6.32163e+00,-4.74757e-02,5.25872e-02,1.02714e-01
1.77540e+03,2.69888e+01,-8.42884e+00,-4.86857e-02,5.16950e-02,1.01919e-01
1.77540e+03,2.67510e+01,-1.05361e+01,-4.98618e-02,5.07861e-02,1.01113e-01
1.77540e+03,2.64819e+01,-1.26433e+01,-5.09264e-02,4.98618e-02,1.00260e-01
1.77540e+03,2.61977e+01,-1.47505e+01,-5.19368e-02,4.89236e-02,9.93881e-02
1.77540e+03,2.58883e+01,-1.68577e+01,-5.28576e-02,4.79725e-02,9.84785e-02
1.77540e+03,2.55583e+01,-1.89649e+01,-5.37047e-02,4.70100e-02,9.75398e-02
1.77540e+03,2.52056e+01,-2.10721e+01,-5.44708e-02,4.60372e-02,9.65678e-02
1.77540e+03,2.48254e+01,-2.31793e+01,-5.51388e-02,4.50554e-02,9.55524e-02
1.77540e+03,2.44171e+01,-2.52865e+01,-5.57064e-02,4.40659e-02,9.44913e-02
1.77540e+03,2.39689e+01,-2.73937e+01,-5.61318e-02,4.30704e-02,9.33593e-02
1.77540e+03,2.34819e+01,-2.95009e+01,-5.64187e-02,4.20709e-02,9.21572e-02
1.77540e+03,2.29486e+01,-3.16082e+01,-5.65400e-02,4.10688e-02,9.08664e-02
1.77540e+03,2.23524e+01,-3.37154e+01,-5.64370e-02,4.00676e-02,8.94504e-02
1.77540e+03,2.17125e+01,-3.58226e+01,-5.61780e-02,3.90681e-02,8.79484e-02
1.77540e+03,2.09743e+01,-3.79298e+01,-5.55679e-02,3.80757e-02,8.62385e-02
1.77540e+03,2.01952e+01,-4.00370e+01,-5.48123e-02,3.70926e-02,8.44510e-02
1.77540e+03,1.93026e+01,-4.21442e+01,-5.36513e-02,3.61213e-02,8.24179e-02
1.77540e+03,1.83190e+01,-4.42514e+01,-5.21654e-02,3.51700e-02,8.01999e-02
1.77540e+03,1.72428e+01,-4.63586e+01,-5.03488e-02,3.42403e-02,7.77959e-02
1.77540e+03,1.60110e+01,-4.84658e+01,-4.79773e-02,3.33356e-02,7.50706e-02
1.77540e+03,1.45992e+01,-5.05731e+01,-4.49628e-02,3.24667e-02,7.19995e-02
1.77540e+03,1.29838e+01,-5.26803e+01,-4.12218e-02,3.16443e-02,6.85807e-02
1.77540e+03,1.10731e+01,-5.47875e+01,-3.64268e-02,3.08750e-02,6.47048e-02
1.77540e+03,8.62063e+00,-5.68947e+01,-2.96978e-02,3.01963e-02,6.01449e-02
1.77540e+03,5.30372e+00,-5.90019e+01,-1.98834e-02,2.97800e-02,5.52801e-02
1.77540e+03,-2.14903e+00,-6.11091e+01,4.69384e-03,2.99421e-02,5.20733e-02
1.77540e+03,-2.68689e+00,-6.11140e+01,6.60904e-03,3.04502e-02,5.31537e-02
1.77540e+03,-7.58725e+00,-5.89314e+01,2.61982e-02,3.14145e-02,6.03901e-02
1.77540e+03,-8.18057e+00,-5.67487e+01,3.04136e-02,3.21273e-02,6.34152e-02
1.77540e+03,-8.38530e+00,-5.45661e+01,3.32420e-02,3.28776e-02,6.59382e-02
1.77540e+03,-8.41637e+00,-5.23834e+01,3.54505e-02,3.36629e-02,6.82371e-02
1.77540e+03,-8.31659e+00,-5.02008e+01,3.71919e-02,3.44769e-02,7.03505e-02
1.77540e+03,-8.13471e+00,-4.80181e+01,3.86402e-02,3.53148e-02,7.23497e-02
1.77540e+03,-7.87037e+00,-4.58355e+01,3.97942e-02,3.61719e-02,7.42213e-02
1.77540e+03,-7.55575e+00,-4.36529e+01,4.07688e-02,3.70439e-02,7.60187e-02
1.77540e+03,-7.21195e+00,-4.14702e+01,4.16392e-02,3.79286e-02,7.77789e-02
1.77540e+03,-6.82421e+00,-3.92876e+01,4.23527e-02,3.88235e-02,7.94704e-02
1.77540e+03,-6.40900e+00,-3.71049e+01,4.29682e-02,3.97262e-02,8.11220e-02
1.77540e+03,-5.96704e+00,-3.49223e+01,4.34882e-02,4.06350e-02,8.27335e-02
1.77540e+03,-5.49844e+00,-3.27396e+01,4.39132e-02,4.15478e-02,8.43031e-02
1.77540e+03,-5.01314e+00,-3.05570e+01,4.42785e-02,4.24632e-02,8.58484e-02
1.77540e+03,-4.50644e+00,-2.83744e+01,4.45674e-02,4.33797e-02,8.73593e-02
1.77540e+03,-3.98604e+00,-2.61917e+01,4.48074e-02,4.42960e-02,8.88488e-02
1.77540e+03,-3.45334e+00,-2.40091e+01,4.50035e-02,4.52111e-02,9.03186e-02
1.77540e+03,-2.90969e+00,-2.18264e+01,4.51605e-02,4.61240e-02,9.17700e-02
1.77540e+03,-2.36138e+00,-1.96438e+01,4.53010e-02,4.70340e-02,9.32135e-02
1.77540e+03,-1.80588e+00,-1.74611e+01,4.54157e-02,4.79405e-02,9.46439e-02
1.77540e+03,-1.24918e+00,-1.52785e+01,4.55261e-02,4.88433e-02,9.60709e-02
1.77540e+03,-6.88187e-01,-1.30959e+01,4.56213e-02,4.97420e-02,9.74890e-02
1.77540e+03,-1.27248e-01,-1.09132e+01,4.57166e-02,5.06363e-02,9.89046e-02
1.77540e+03,4.31571e-01,-8.73057e+00,4.58195e-02,5.15264e-02,1.00321e-01
1.77540e+03,9.90390e-01,-6.54793e+00,4.59224e-02,5.24118e-02,1.01734e-01
1.77540e+03,1.53598e+00,-4.36529e+00,4.60725e-02,5.32931e-02,1.03166e-01
1.77540e+03,2.07910e+00,-2.18264e+00,4.62314e-02,5.41707e-02,1.04598e-01
1.82660e+03,2.53092e+01,0.00000e+00,-2.94739e-02,4.50606e-02,8.34271e-02
1.82660e+03,2.51817e+01,-1.92323e+00,-3.05332e-02,4.44254e-02,8.27837e-02
1.82660e+03,2.50121e+01,-3.84646e+00,-3.14803e-02,4.37747e-02,8.20956e-02
1.82660e+03,2.48409e+01,-5.76969e+00,-3.24228e-02,4.31091e-02,8.14028e-02
1.82660e+03,2.46324e+01,-7.69292e+00,-3.32663e-02,4.24298e-02,8.06691e-02
1.82660e+03,2.44154e+01,-9.61614e+00,-3.40867e-02,4.17378e-02,7.99252e-02
1.82660e+03,2.41698e+01,-1.15394e+01,-3.48310e-02,4.10342e-02,7.91494e-02
1.82660e+03,2.39103e+01,-1.34626e+01,-3.55384e-02,4.03199e-02,7.83586e-02
1.82660e+03,2.36280e+01,-1.53858e+01,-3.61847e-02,3.95959e-02,7.75426e-02
1.82660e+03,2.33268e+01,-1.73091e+01,-3.67807e-02,3.88632e-02,7.67064e-02
1.82660e+03,2.30049e+01,-1.92323e+01,-3.73215e-02,3.81227e-02,7.58480e-02
1.82660e+03,2.26579e+01,-2.11555e+01,-3.77955e-02,3.73754e-02,7.49617e-02
1.82660e+03,2.22852e+01,-2.30787e+01,-3.82010e-02,3.66222e-02,7.40464e-02
1.82660e+03,2.18762e+01,-2.50020e+01,-3.85095e-02,3.58644e-02,7.30873e-02
1.82660e+03,2.14317e+01,-2.69252e+01,-3.87235e-02,3.51036e-02,7.20854e-02
1.82660e+03,2.09449e+01,-2.88484e+01,-3.88247e-02,3.43409e-02,7.10299e-02
1.82660e+03,2.04008e+01,-3.07717e+01,-3.87730e-02,3.35789e-02,6.98997e-02
1.82660e+03,1.98168e+01,-3.26949e+01,-3.86148e-02,3.28182e-02,6.87183e-02
1.82660e+03,1.91430e+01,-3.46181e+01,-3.82173e-02,3.20628e-02,6.74139e-02
1.82660e+03,1.84320e+01,-3.65413e+01,-3.77206e-02,3.13146e-02,6.60656e-02
1.82660e+03,1.76173e+01,-3.84646e+01,-3.69474e-02,3.05754e-02,6.45731e-02
1.82660e+03,1.67196e+01,-4.03878e+01,-3.59527e-02,2.98515e-02,6.29756e-02
1.82660e+03,1.57373e+01,-4.23110e+01,-3.47326e-02,2.91439e-02,6.12736e-02
1.82660e+03,1.46131e+01,-4.42343e+01,-3.31340e-02,2.84554e-02,5.93885e-02
1.82660e+03,1.33245e+01,-4.61575e+01,-3.10971e-02,2.77943e-02,5.73114e-02
1.82660e+03,1.18502e+01,-4.80807e+01,-2.85648e-02,2.71684e-02,5.50483e-02
1.82660e+03,1.01063e+01,-5.00040e+01,-2.53139e-02,2.65831e-02,5.25431e-02
1.82660e+03,7.86795e+00,-5.19272e+01,-2.07443e-02,2.60667e-02,4.96865e-02
1.82660e+03,4.84065e+00,-5.38504e+01,-1.40709e-02,2.57502e-02,4.67676e-02
1.82660e+03,-1.96139e+00,-5.57736e+01,2.66833e-03,2.58739e-02,4.48943e-02
1.82660e+03,-2.45230e+00,-5.57781e+01,3.97414e-03,2.62607e-02,4.56582e-02
1.82660e+03,-6.92480e+00,-5.37860e+01,1.73499e-02,2.69949e-02,4.98717e-02
1.82660e+03,-7.46632e+00,-5.17940e+01,2.02432e-02,2.75375e-02,5.18143e-02
1.82660e+03,-7.65318e+00,-4.98019e+01,2.21909e-02,2.81086e-02,5.35043e-02
1.82660e+03,-7.68153e+00,-4.78098e+01,2.37158e-02,2.87062e-02,5.50870e-02
1.82660e+03,-7.59047e+00,-4.58177e+01,2.49223e-02,2.93258e-02,5.65785e-02
1.82660e+03,-7.42446e+00,-4.38257e+01,2.59289e-02,2.99635e-02,5.80151e-02
1.82660e+03,-7.18321e+00,-4.18336e+01,2.67349e-02,3.06158e-02,5.93864e-02
1.82660e+03,-6.89605e+00,-3.98415e+01,2.74185e-02,3.12795e-02,6.07206e-02
1.82660e+03,-6.58227e+00,-3.78494e+01,2.80311e-02,3.19528e-02,6.20377e-02
1.82660e+03,-6.22838e+00,-3.58574e+01,2.85367e-02,3.26338e-02,6.33186e-02
1.82660e+03,-5.84943e+00,-3.38653e+01,2.89755e-02,3.33208e-02,6.45786e-02
1.82660e+03,-5.44606e+00,-3.18732e+01,2.93492e-02,3.40123e-02,6.58171e-02
1.82660e+03,-5.01837e+00,-2.98811e+01,2.96581e-02,3.47069e-02,6.70322e-02
1.82660e+03,-4.57544e+00,-2.78891e+01,2.99263e-02,3.54035e-02,6.82334e-02
1.82660e+03,-4.11298e+00,-2.58970e+01,3.01424e-02,3.61009e-02,6.94146e-02
1.82660e+03,-3.63801e+00,-2.39049e+01,3.03252e-02,3.67981e-02,7.05827e-02
1.82660e+03,-3.15183e+00,-2.19128e+01,3.04780e-02,3.74944e-02,7.17384e-02
1.82660e+03,-2.65564e+00,-1.99208e+01,3.06042e-02,3.81889e-02,7.28821e-02
1.82660e+03,-2.15521e+00,-1.79287e+01,3.07191e-02,3.88813e-02,7.40198e-02
1.82660e+03,-1.64821e+00,-1.59366e+01,3.08164e-02,3.95710e-02,7.51482e-02
1.82660e+03,-1.14012e+00,-1.39445e+01,3.09109e-02,4.02578e-02,7.62729e-02
1.82660e+03,-6.28101e-01,-1.19525e+01,3.09948e-02,4.09416e-02,7.73907e-02
1.82660e+03,-1.16138e-01,-9.96038e+00,3.10789e-02,4.16219e-02,7.85051e-02
1.82660e+03,3.93890e-01,-7.96830e+00,3.11682e-02,4.22990e-02,7.96183e-02
1.82660e+03,9.03919e-01,-5.97623e+00,3.12575e-02,4.29726e-02,8.07277e-02
1.82660e+03,1.40187e+00,-3.98415e+00,3.13790e-02,4.36430e-02,8.18460e-02
1.82660e+03,1.89757e+00,-1.99208e+00,3.15065e-02,4.43106e-02,8.29634e-02
1.87280e+03,2.31244e+01,0.00000e+00,-1.88853e-02,3.58143e-02,6.48433e-02
1.87280e+03,2.30080e+01,-1.75721e+00,-1.95824e-02,3.53479e-02,6.42798e-02
1.87280e+03,2.28531e+01,-3.51443e+00,-2.02075e-02,3.48701e-02,6.36876e-02
1.87280e+03,2.26966e+01,-5.27164e+00,-2.08297e-02,3.43814e-02,6.30881e-02
1.87280e+03,2.25061e+01,-7.02886e+00,-2.13883e-02,3.38826e-02,6.24625e-02
1.87280e+03,2.23078e+01,-8.78607e+00,-2.19322e-02,3.33746e-02,6.18273e-02
1.87280e+03,2.20834e+01,-1.05433e+01,-2.24272e-02,3.28580e-02,6.11713e-02
1.87280e+03,2.18464e+01,-1.23005e+01,-2.28986e-02,3.23336e-02,6.05040e-02
1.87280e+03,2.15884e+01,-1.40577e+01,-2.33308e-02,3.18021e-02,5.98201e-02
1.87280e+03,2.13132e+01,-1.58149e+01,-2.37307e-02,3.12642e-02,5.91227e-02
1.87280e+03,2.10191e+01,-1.75721e+01,-2.40952e-02,3.07206e-02,5.84110e-02
1.87280e+03,2.07020e+01,-1.93294e+01,-2.44168e-02,3.01720e-02,5.76821e-02
1.87280e+03,2.03615e+01,-2.10866e+01,-2.46946e-02,2.96190e-02,5.69358e-02
1.87280e+03,1.99878e+01,-2.28438e+01,-2.49101e-02,2.90628e-02,5.61645e-02
1.87280e+03,1.95817e+01,-2.46010e+01,-2.50650e-02,2.85043e-02,5.53692e-02
1.87280e+03,1.91369e+01,-2.63582e+01,-2.51475e-02,2.79445e-02,5.45443e-02
1.87280e+03,1.86398e+01,-2.81154e+01,-2.51319e-02,2.73851e-02,5.36791e-02
1.87280e+03,1.81062e+01,-2.98726e+01,-2.50481e-02,2.68268e-02,5.27867e-02
1.87280e+03,1.74905e+01,-3.16299e+01,-2.48108e-02,2.62724e-02,5.18294e-02
1.87280e+03,1.68409e+01,-3.33871e+01,-2.45098e-02,2.57232e-02,5.08505e-02
1.87280e+03,1.60966e+01,-3.51443e+01,-2.40315e-02,2.51806e-02,4.97967e-02
1.87280e+03,1.52763e+01,-3.69015e+01,-2.34111e-02,2.46493e-02,4.86913e-02
1.87280e+03,1.43788e+01,-3.86587e+01,-2.26461e-02,2.41300e-02,4.75354e-02
1.87280e+03,1.33517e+01,-4.04159e+01,-2.16384e-02,2.36247e-02,4.62882e-02
1.87280e+03,1.21743e+01,-4.21731e+01,-2.03495e-02,2.31395e-02,4.49490e-02
1.87280e+03,1.08272e+01,-4.39304e+01,-1.87428e-02,2.26802e-02,4.35255e-02
1.87280e+03,9.23393e+00,-4.56876e+01,-1.66752e-02,2.22507e-02,4.19922e-02
1.87280e+03,7.18879e+00,-4.74448e+01,-1.37618e-02,2.18718e-02,4.03053e-02
1.87280e+03,4.42280e+00,-4.92020e+01,-9.49891e-03,2.16398e-02,3.86661e-02
1.87280e+03,-1.79208e+00,-5.09592e+01,1.22040e-03,2.17307e-02,3.76585e-02
1.87280e+03,-2.24062e+00,-5.09633e+01,2.05794e-03,2.20147e-02,3.81861e-02
1.87280e+03,-6.32705e+00,-4.91432e+01,1.06557e-02,2.25537e-02,4.04914e-02
1.87280e+03,-6.82182e+00,-4.73231e+01,1.25299e-02,2.29520e-02,4.16820e-02
1.87280e+03,-6.99255e+00,-4.55029e+01,1.37974e-02,2.33713e-02,4.27670e-02
1.87280e+03,-7.01846e+00,-4.36828e+01,1.47937e-02,2.38100e-02,4.38132e-02
1.87280e+03,-6.93525e+00,-4.18627e+01,1.55859e-02,2.42647e-02,4.48247e-02
1.87280e+03,-6.78358e+00,-4.00426e+01,1.62498e-02,2.47328e-02,4.58170e-02
1.87280e+03,-6.56315e+00,-3.82225e+01,1.67851e-02,2.52116e-02,4.67827e-02
1.87280e+03,-6.30078e+00,-3.64024e+01,1.72418e-02,2.56987e-02,4.77342e-02
1.87280e+03,-6.01408e+00,-3.45822e+01,1.76530e-02,2.61929e-02,4.86809e-02
1.87280e+03,-5.69074e+00,-3.27621e+01,1.79956e-02,2.66927e-02,4.96119e-02
1.87280e+03,-5.34450e+00,-3.09420e+01,1.82953e-02,2.71969e-02,5.05344e-02
1.87280e+03,-4.97595e+00,-2.91219e+01,1.85532e-02,2.77044e-02,5.14473e-02
1.87280e+03,-4.58518e+00,-2.73018e+01,1.87696e-02,2.82142e-02,5.23490e-02
1.87280e+03,-4.18049e+00,-2.54816e+01,1.89599e-02,2.87253e-02,5.32439e-02
1.87280e+03,-3.75794e+00,-2.36615e+01,1.91167e-02,2.92371e-02,5.41284e-02
1.87280e+03,-3.32398e+00,-2.18414e+01,1.92522e-02,2.97488e-02,5.50056e-02
1.87280e+03,-2.87976e+00,-2.00213e+01,1.93685e-02,3.02597e-02,5.58757e-02
1.87280e+03,-2.42640e+00,-1.82012e+01,1.94677e-02,3.07694e-02,5.67385e-02
1.87280e+03,-1.96917e+00,-1.63811e+01,1.95597e-02,3.12774e-02,5.75969e-02
1.87280e+03,-1.50594e+00,-1.45609e+01,1.96404e-02,3.17835e-02,5.84492e-02
1.87280e+03,-1.04170e+00,-1.27408e+01,1.97192e-02,3.22874e-02,5.92982e-02
1.87280e+03,-5.73883e-01,-1.09207e+01,1.97913e-02,3.27891e-02,6.01421e-02
1.87280e+03,-1.06113e-01,-9.10059e+00,1.98635e-02,3.32883e-02,6.09827e-02
1.87280e+03,3.59890e-01,-7.28047e+00,1.99390e-02,3.37851e-02,6.18211e-02
1.87280e+03,8.25892e-01,-5.46035e+00,2.00146e-02,3.42792e-02,6.26560e-02
1.87280e+03,1.28086e+00,-3.64024e+00,2.01107e-02,3.47710e-02,6.34942e-02
1.87280e+03,1.73377e+00,-1.82012e+00,2.02108e-02,3.52608e-02,6.43308e-02
1.91380e+03,2.11856e+01,0.00000e+00,-1.11928e-02,2.75145e-02,4.89533e-02
1.91380e+03,2.10789e+01,-1.60989e+00,-1.16215e-02,2.71864e-02,4.85012e-02
1.91380e+03,2.09370e+01,-3.21977e+00,-1.20074e-02,2.68503e-02,4.80312e-02
1.91380e+03,2.07936e+01,-4.82966e+00,-1.23915e-02,2.65066e-02,4.75536e-02
1.91380e+03,2.06192e+01,-6.43954e+00,-1.27380e-02,2.61558e-02,4.70598e-02
1.91380e+03,2.04375e+01,-8.04943e+00,-1.30756e-02,2.57984e-02,4.65580e-02
1.91380e+03,2.02319e+01,-9.65931e+00,-1.33843e-02,2.54351e-02,4.60432e-02
1.91380e+03,2.00147e+01,-1.12692e+01,-1.36788e-02,2.50663e-02,4.55200e-02
1.91380e+03,1.97784e+01,-1.28791e+01,-1.39501e-02,2.46925e-02,4.49863e-02
1.91380e+03,1.95262e+01,-1.44890e+01,-1.42023e-02,2.43142e-02,4.44437e-02
1.91380e+03,1.92568e+01,-1.60989e+01,-1.44334e-02,2.39319e-02,4.38922e-02
1.91380e+03,1.89663e+01,-1.77087e+01,-1.46391e-02,2.35460e-02,4.33307e-02
1.91380e+03,1.86544e+01,-1.93186e+01,-1.48187e-02,2.31572e-02,4.27593e-02
1.91380e+03,1.83120e+01,-2.09285e+01,-1.49613e-02,2.27660e-02,4.21749e-02
1.91380e+03,1.79399e+01,-2.25384e+01,-1.50679e-02,2.23733e-02,4.15781e-02
1.91380e+03,1.75325e+01,-2.41483e+01,-1.51316e-02,2.19796e-02,4.09667e-02
1.91380e+03,1.70770e+01,-2.57582e+01,-1.51370e-02,2.15863e-02,4.03365e-02
1.91380e+03,1.65881e+01,-2.73680e+01,-1.51018e-02,2.11937e-02,3.96936e-02
1.91380e+03,1.60241e+01,-2.89779e+01,-1.49755e-02,2.08038e-02,3.90213e-02
1.91380e+03,1.54289e+01,-3.05878e+01,-1.48114e-02,2.04176e-02,3.83408e-02
1.91380e+03,1.47470e+01,-3.21977e+01,-1.45420e-02,2.00362e-02,3.76273e-02
1.91380e+03,1.39955e+01,-3.38076e+01,-1.41881e-02,1.96625e-02,3.68938e-02
1.91380e+03,1.31733e+01,-3.54175e+01,-1.37484e-02,1.92974e-02,3.61413e-02
1.91380e+03,1.22322e+01,-3.70274e+01,-1.31646e-02,1.89421e-02,3.53514e-02
1.91380e+03,1.11536e+01,-3.86372e+01,-1.24137e-02,1.86010e-02,3.45267e-02
1.91380e+03,9.91946e+00,-4.02471e+01,-1.14741e-02,1.82781e-02,3.36738e-02
1.91380e+03,8.45973e+00,-4.18570e+01,-1.02608e-02,1.79762e-02,3.27828e-02
1.91380e+03,6.58606e+00,-4.34669e+01,-8.54510e-03,1.77098e-02,3.18423e-02
1.91380e+03,4.05198e+00,-4.50768e+01,-6.02796e-03,1.75468e-02,3.09840e-02
1.91380e+03,-1.64183e+00,-4.66867e+01,3.23734e-04,1.76109e-02,3.05046e-02
1.91380e+03,-2.05276e+00,-4.66904e+01,8.21124e-04,1.78107e-02,3.08599e-02
1.91380e+03,-5.79657e+00,-4.50229e+01,5.94263e-03,1.81897e-02,3.20611e-02
1.91380e+03,-6.24986e+00,-4.33554e+01,7.07085e-03,1.84699e-02,3.27629e-02
1.91380e+03,-6.40628e+00,-4.16879e+01,7.83879e-03,1.87647e-02,3.34333e-02
1.91380e+03,-6.43001e+00,-4.00204e+01,8.44572e-03,1.90732e-02,3.40983e-02
1.91380e+03,-6.35378e+00,-3.83528e+01,8.93134e-03,1.93930e-02,3.47568e-02
1.91380e+03,-6.21483e+00,-3.66853e+01,9.34082e-03,1.97222e-02,3.54139e-02
1.91380e+03,-6.01288e+00,-3.50178e+01,9.67387e-03,2.00588e-02,3.60646e-02
1.91380e+03,-5.77251e+00,-3.33503e+01,9.96028e-03,2.04013e-02,3.67130e-02
1.91380e+03,-5.50985e+00,-3.16828e+01,1.02197e-02,2.07488e-02,3.73627e-02
1.91380e+03,-5.21362e+00,-3.00153e+01,1.04383e-02,2.11002e-02,3.80081e-02
1.91380e+03,-4.89640e+00,-2.83477e+01,1.06314e-02,2.14547e-02,3.86515e-02
1.91380e+03,-4.55876e+00,-2.66802e+01,1.07998e-02,2.18115e-02,3.92920e-02
1.91380e+03,-4.20075e+00,-2.50127e+01,1.09435e-02,2.21699e-02,3.99284e-02
1.91380e+03,-3.82998e+00,-2.33452e+01,1.10716e-02,2.25293e-02,4.05622e-02
1.91380e+03,-3.44287e+00,-2.16777e+01,1.11800e-02,2.28891e-02,4.11914e-02
1.91380e+03,-3.04529e+00,-2.00102e+01,1.12756e-02,2.32488e-02,4.18170e-02
1.91380e+03,-2.63832e+00,-1.83427e+01,1.13598e-02,2.36080e-02,4.24389e-02
1.91380e+03,-2.22297e+00,-1.66751e+01,1.14339e-02,2.39663e-02,4.30568e-02
1.91380e+03,-1.80407e+00,-1.50076e+01,1.15037e-02,2.43235e-02,4.36718e-02
1.91380e+03,-1.37967e+00,-1.33401e+01,1.15668e-02,2.46792e-02,4.42830e-02
1.91380e+03,-9.54362e-01,-1.16726e+01,1.16287e-02,2.50335e-02,4.48916e-02
1.91380e+03,-5.25768e-01,-1.00051e+01,1.16867e-02,2.53861e-02,4.54966e-02
1.91380e+03,-9.72161e-02,-8.33757e+00,1.17448e-02,2.57370e-02,4.60990e-02
1.91380e+03,3.29716e-01,-6.67006e+00,1.18048e-02,2.60862e-02,4.66993e-02
1.91380e+03,7.56647e-01,-5.00254e+00,1.18648e-02,2.64335e-02,4.72966e-02
1.91380e+03,1.17347e+00,-3.33503e+00,1.19371e-02,2.67792e-02,4.78944e-02
1.91380e+03,1.58841e+00,-1.66751e+00,1.20116e-02,2.71234e-02,4.84905e-02
1.94970e+03,1.94880e+01,0.00000e+00,-5.96586e-03,2.00633e-02,3.52590e-02
1.94970e+03,1.93899e+01,-1.48088e+00,-6.20600e-03,1.98459e-02,3.49298e-02
1.94970e+03,1.92593e+01,-2.96177e+00,-6.42326e-03,1.96231e-02,3.45899e-02
1.94970e+03,1.91274e+01,-4.44265e+00,-6.63961e-03,1.93953e-02,3.42435e-02
1.94970e+03,1.89669e+01,-5.92353e+00,-6.83576e-03,1.91629e-02,3.38877e-02
1.94970e+03,1.87998e+01,-7.40441e+00,-7.02723e-03,1.89261e-02,3.35257e-02
1.94970e+03,1.86107e+01,-8.88530e+00,-7.20318e-03,1.86853e-02,3.31559e-02
1.94970e+03,1.84109e+01,-1.03662e+01,-7.37162e-03,1.84410e-02,3.27803e-02
1.94970e+03,1.81935e+01,-1.18471e+01,-7.52760e-03,1.81933e-02,3.23983e-02
1.94970e+03,1.79616e+01,-1.33279e+01,-7.67334e-03,1.79426e-02,3.20108e-02
1.94970e+03,1.77137e+01,-1.48088e+01,-7.80784e-03,1.76893e-02,3.16179e-02
1.94970e+03,1.74465e+01,-1.62897e+01,-7.92870e-03,1.74336e-02,3.12196e-02
1.94970e+03,1.71596e+01,-1.77706e+01,-8.03562e-03,1.71760e-02,3.08159e-02
1.94970e+03,1.68446e+01,-1.92515e+01,-8.12279e-03,1.69169e-02,3.04059e-02
1.94970e+03,1.65024e+01,-2.07324e+01,-8.19071e-03,1.66567e-02,2.99904e-02
1.94970e+03,1.61276e+01,-2.22132e+01,-8.23563e-03,1.63958e-02,2.95685e-02
1.94970e+03,1.57086e+01,-2.36941e+01,-8.24939e-03,1.61352e-02,2.91392e-02
1.94970e+03,1.52589e+01,-2.51750e+01,-8.24148e-03,1.58751e-02,2.87051e-02
1.94970e+03,1.47401e+01,-2.66559e+01,-8.18480e-03,1.56168e-02,2.82604e-02
1.94970e+03,1.41926e+01,-2.81368e+01,-8.10790e-03,1.53610e-02,2.78140e-02
1.94970e+03,1.35653e+01,-2.96177e+01,-7.97468e-03,1.51083e-02,2.73565e-02
1.94970e+03,1.28740e+01,-3.10985e+01,-7.79632e-03,1.48608e-02,2.68945e-02
1.94970e+03,1.21177e+01,-3.25794e+01,-7.57203e-03,1.46189e-02,2.64286e-02
1.94970e+03,1.12521e+01,-3.40603e+01,-7.27064e-03,1.43836e-02,2.59523e-02
1.94970e+03,1.02599e+01,-3.55412e+01,-6.87995e-03,1.41576e-02,2.54685e-02
1.94970e+03,9.12460e+00,-3.70221e+01,-6.38830e-03,1.39437e-02,2.49818e-02
1.94970e+03,7.78184e+00,-3.85029e+01,-5.75026e-03,1.37437e-02,2.44895e-02
1.94970e+03,6.05831e+00,-3.99838e+01,-4.84354e-03,1.35673e-02,2.39933e-02
1.94970e+03,3.72729e+00,-4.14647e+01,-3.50818e-03,1.34594e-02,2.35749e-02
1.94970e+03,-1.51027e+00,-4.29456e+01,-1.21989e-04,1.35019e-02,2.33863e-02
1.94970e+03,-1.88827e+00,-4.29490e+01,1.44005e-04,1.36343e-02,2.36158e-02
1.94970e+03,-5.33209e+00,-4.14151e+01,2.89440e-03,1.38855e-02,2.42240e-02
1.94970e+03,-5.74905e+00,-3.98812e+01,3.50908e-03,1.40711e-02,2.46232e-02
1.94970e+03,-5.89293e+00,-3.83473e+01,3.93107e-03,1.42665e-02,2.50210e-02
1.94970e+03,-5.91477e+00,-3.68135e+01,4.26694e-03,1.44709e-02,2.54249e-02
1.94970e+03,-5.84465e+00,-3.52796e+01,4.53793e-03,1.46827e-02,2.58329e-02
1.94970e+03,-5.71682e+00,-3.37457e+01,4.76821e-03,1.49008e-02,2.62457e-02
1.94970e+03,-5.53106e+00,-3.22118e+01,4.95760e-03,1.51238e-02,2.66602e-02
1.94970e+03,-5.30995e+00,-3.06779e+01,5.12205e-03,1.53507e-02,2.70771e-02
1.94970e+03,-5.06834e+00,-2.91440e+01,5.27204e-03,1.55809e-02,2.74970e-02
1.94970e+03,-4.79584e+00,-2.76101e+01,5.40024e-03,1.58137e-02,2.79174e-02
1.94970e+03,-4.50405e+00,-2.60762e+01,5.51481e-03,1.60485e-02,2.83387e-02
1.94970e+03,-4.19345e+00,-2.45423e+01,5.61613e-03,1.62849e-02,2.87600e-02
1.94970e+03,-3.86414e+00,-2.30084e+01,5.70423e-03,1.65223e-02,2.91805e-02
1.94970e+03,-3.52308e+00,-2.14745e+01,5.78405e-03,1.67604e-02,2.96005e-02
1.94970e+03,-3.16699e+00,-1.99406e+01,5.85326e-03,1.69987e-02,3.00188e-02
1.94970e+03,-2.80126e+00,-1.84067e+01,5.91568e-03,1.72370e-02,3.04358e-02
1.94970e+03,-2.42690e+00,-1.68728e+01,5.97200e-03,1.74749e-02,3.08510e-02
1.94970e+03,-2.04484e+00,-1.53389e+01,6.02288e-03,1.77122e-02,3.12641e-02
1.94970e+03,-1.65951e+00,-1.38050e+01,6.07146e-03,1.79488e-02,3.16755e-02
1.94970e+03,-1.26912e+00,-1.22712e+01,6.11647e-03,1.81844e-02,3.20847e-02
1.94970e+03,-8.77888e-01,-1.07373e+01,6.16089e-03,1.84190e-02,3.24921e-02
1.94970e+03,-4.83637e-01,-9.20336e+00,6.20318e-03,1.86526e-02,3.28974e-02
1.94970e+03,-8.94260e-02,-7.66947e+00,6.24549e-03,1.88850e-02,3.33006e-02
1.94970e+03,3.03295e-01,-6.13558e+00,6.28886e-03,1.91162e-02,3.37022e-02
1.94970e+03,6.96016e-01,-4.60168e+00,6.33222e-03,1.93463e-02,3.41018e-02
1.94970e+03,1.07944e+00,-3.06779e+00,6.38215e-03,1.95752e-02,3.45007e-02
1.94970e+03,1.46113e+00,-1.53389e+00,6.43330e-03,1.98032e-02,3.48982e-02
1.98010e+03,1.80504e+01,0.00000e+00,-2.77089e-03,1.35924e-02,2.37052e-02
1.98010e+03,1.79595e+01,-1.37164e+00,-2.89026e-03,1.34588e-02,2.34899e-02
1.98010e+03,1.78386e+01,-2.74329e+00,-2.99895e-03,1.33220e-02,2.32685e-02
1.98010e+03,1.77165e+01,-4.11493e+00,-3.10722e-03,1.31821e-02,2.30425e-02
1.98010e+03,1.75678e+01,-5.48657e+00,-3.20605e-03,1.30393e-02,2.28112e-02
1.98010e+03,1.74130e+01,-6.85822e+00,-3.30270e-03,1.28939e-02,2.25757e-02
1.98010e+03,1.72378e+01,-8.22986e+00,-3.39210e-03,1.27460e-02,2.23358e-02
1.98010e+03,1.70528e+01,-9.60150e+00,-3.47799e-03,1.25959e-02,2.20922e-02
1.98010e+03,1.68514e+01,-1.09731e+01,-3.55807e-03,1.24438e-02,2.18450e-02
1.98010e+03,1.66366e+01,-1.23448e+01,-3.63336e-03,1.22898e-02,2.15945e-02
1.98010e+03,1.64070e+01,-1.37164e+01,-3.70340e-03,1.21342e-02,2.13409e-02
1.98010e+03,1.61595e+01,-1.50881e+01,-3.76708e-03,1.19772e-02,2.10845e-02
1.98010e+03,1.58938e+01,-1.64597e+01,-3.82424e-03,1.18190e-02,2.08253e-02
1.98010e+03,1.56020e+01,-1.78314e+01,-3.87218e-03,1.16599e-02,2.05633e-02
1.98010e+03,1.52851e+01,-1.92030e+01,-3.91113e-03,1.15001e-02,2.02991e-02
1.98010e+03,1.49379e+01,-2.05747e+01,-3.93934e-03,1.13399e-02,2.00324e-02
1.98010e+03,1.45498e+01,-2.19463e+01,-3.95300e-03,1.11798e-02,1.97634e-02
1.98010e+03,1.41333e+01,-2.33179e+01,-3.95655e-03,1.10201e-02,1.94931e-02
1.98010e+03,1.36527e+01,-2.46896e+01,-3.93731e-03,1.08615e-02,1.92203e-02
1.98010e+03,1.31457e+01,-2.60612e+01,-3.90863e-03,1.07044e-02,1.89481e-02
1.98010e+03,1.25646e+01,-2.74329e+01,-3.85365e-03,1.05492e-02,1.86737e-02
1.98010e+03,1.19244e+01,-2.88045e+01,-3.77760e-03,1.03972e-02,1.84005e-02
1.98010e+03,1.12238e+01,-3.01762e+01,-3.68009e-03,1.02487e-02,1.81287e-02
1.98010e+03,1.04220e+01,-3.15478e+01,-3.54658e-03,1.01042e-02,1.78567e-02
1.98010e+03,9.50303e+00,-3.29194e+01,-3.37137e-03,9.96542e-03,1.75868e-02
1.98010e+03,8.45151e+00,-3.42911e+01,-3.14901e-03,9.83410e-03,1.73218e-02
1.98010e+03,7.20780e+00,-3.56627e+01,-2.85829e-03,9.71129e-03,1.70616e-02
1.98010e+03,5.61141e+00,-3.70344e+01,-2.44210e-03,9.60301e-03,1.68112e-02
1.98010e+03,3.45234e+00,-3.84060e+01,-1.82574e-03,9.53679e-03,1.66188e-02
1.98010e+03,-1.39886e+00,-3.97777e+01,-2.51675e-04,9.56293e-03,1.65654e-02
1.98010e+03,-1.74898e+00,-3.97808e+01,-1.27477e-04,9.64427e-03,1.67048e-02
1.98010e+03,-4.93876e+00,-3.83601e+01,1.16441e-03,9.79855e-03,1.70115e-02
1.98010e+03,-5.32496e+00,-3.69394e+01,1.45895e-03,9.91254e-03,1.72309e-02
1.98010e+03,-5.45823e+00,-3.55186e+01,1.66350e-03,1.00325e-02,1.74562e-02
1.98010e+03,-5.47846e+00,-3.40979e+01,1.82784e-03,1.01580e-02,1.76889e-02
1.98010e+03,-5.41351e+00,-3.26771e+01,1.96189e-03,1.02881e-02,1.79273e-02
1.98010e+03,-5.29511e+00,-3.12564e+01,2.07691e-03,1.04221e-02,1.81706e-02
1.98010e+03,-5.12305e+00,-2.98356e+01,2.17285e-03,1.05590e-02,1.84174e-02
1.98010e+03,-4.91825e+00,-2.84149e+01,2.25714e-03,1.06984e-02,1.86671e-02
1.98010e+03,-4.69446e+00,-2.69941e+01,2.33468e-03,1.08397e-02,1.89195e-02
1.98010e+03,-4.44207e+00,-2.55734e+01,2.40203e-03,1.09827e-02,1.91736e-02
1.98010e+03,-4.17180e+00,-2.41527e+01,2.46303e-03,1.11269e-02,1.94291e-02
1.98010e+03,-3.88412e+00,-2.27319e+01,2.51784e-03,1.12720e-02,1.96854e-02
1.98010e+03,-3.57909e+00,-2.13112e+01,2.56647e-03,1.14178e-02,1.99421e-02
1.98010e+03,-3.26320e+00,-1.98904e+01,2.61124e-03,1.15640e-02,2.01989e-02
1.98010e+03,-2.93337e+00,-1.84697e+01,2.65106e-03,1.17103e-02,2.04554e-02
1.98010e+03,-2.59462e+00,-1.70489e+01,2.68770e-03,1.18566e-02,2.07114e-02
1.98010e+03,-2.24788e+00,-1.56282e+01,2.72149e-03,1.20027e-02,2.09667e-02
1.98010e+03,-1.89400e+00,-1.42074e+01,2.75274e-03,1.21484e-02,2.12210e-02
1.98010e+03,-1.53709e+00,-1.27867e+01,2.78292e-03,1.22936e-02,2.14743e-02
1.98010e+03,-1.17550e+00,-1.13660e+01,2.81144e-03,1.24383e-02,2.17265e-02
1.98010e+03,-8.13129e-01,-9.94521e+00,2.83967e-03,1.25824e-02,2.19775e-02
1.98010e+03,-4.47961e-01,-8.52447e+00,2.86691e-03,1.27258e-02,2.22273e-02
1.98010e+03,-8.28294e-02,-7.10372e+00,2.89417e-03,1.28684e-02,2.24759e-02
1.98010e+03,2.80922e-01,-5.68298e+00,2.92191e-03,1.30104e-02,2.27233e-02
1.98010e+03,6.44673e-01,-4.26223e+00,2.94965e-03,1.31516e-02,2.29694e-02
1.98010e+03,9.99811e-01,-2.84149e+00,2.98046e-03,1.32922e-02,2.32148e-02
1.98010e+03,1.35334e+00,-1.42074e+00,3.01184e-03,1.34321e-02,2.34592e-02
2.00520e+03,1.68635e+01,0.00000e+00,-1.04781e-03,8.26093e-03,1.43467e-02
2.00520e+03,1.67786e+01,-1.28145e+00,-1.09734e-03,8.18784e-03,1.42241e-02
2.00520e+03,1.66656e+01,-2.56290e+00,-1.14279e-03,8.11297e-03,1.40985e-02
2.00520e+03,1.65515e+01,-3.84435e+00,-1.18808e-03,8.03638e-03,1.39700e-02
2.00520e+03,1.64126e+01,-5.12580e+00,-1.22977e-03,7.95825e-03,1.38388e-02
2.00520e+03,1.62680e+01,-6.40725e+00,-1.27063e-03,7.87865e-03,1.37053e-02
2.00520e+03,1.61044e+01,-7.68870e+00,-1.30872e-03,7.79773e-03,1.35693e-02
2.00520e+03,1.59315e+01,-8.97015e+00,-1.34548e-03,7.71559e-03,1.34314e-02
2.00520e+03,1.57433e+01,-1.02516e+01,-1.38002e-03,7.63234e-03,1.32914e-02
2.00520e+03,1.55427e+01,-1.15330e+01,-1.41273e-03,7.54810e-03,1.31498e-02
2.00520e+03,1.53282e+01,-1.28145e+01,-1.44344e-03,7.46296e-03,1.30066e-02
2.00520e+03,1.50970e+01,-1.40959e+01,-1.47173e-03,7.37705e-03,1.28619e-02
2.00520e+03,1.48486e+01,-1.53774e+01,-1.49753e-03,7.29047e-03,1.27160e-02
2.00520e+03,1.45761e+01,-1.66588e+01,-1.51981e-03,7.20337e-03,1.25688e-02
2.00520e+03,1.42800e+01,-1.79403e+01,-1.53867e-03,7.11594e-03,1.24208e-02
2.00520e+03,1.39556e+01,-1.92217e+01,-1.55343e-03,7.02828e-03,1.22721e-02
2.00520e+03,1.35931e+01,-2.05032e+01,-1.56264e-03,6.94072e-03,1.21228e-02
2.00520e+03,1.32039e+01,-2.17846e+01,-1.56799e-03,6.85331e-03,1.19734e-02
2.00520e+03,1.27550e+01,-2.30661e+01,-1.56465e-03,6.76653e-03,1.18240e-02
2.00520e+03,1.22812e+01,-2.43475e+01,-1.55772e-03,6.68057e-03,1.16755e-02
2.00520e+03,1.17384e+01,-2.56290e+01,-1.54075e-03,6.59565e-03,1.15274e-02
2.00520e+03,1.11403e+01,-2.69104e+01,-1.51575e-03,6.51249e-03,1.13814e-02
2.00520e+03,1.04858e+01,-2.81919e+01,-1.48256e-03,6.43123e-03,1.12374e-02
2.00520e+03,9.73672e+00,-2.94733e+01,-1.43565e-03,6.35216e-03,1.10955e-02
2.00520e+03,8.87814e+00,-3.07548e+01,-1.37283e-03,6.27625e-03,1.09571e-02
2.00520e+03,7.89577e+00,-3.20362e+01,-1.29203e-03,6.20440e-03,1.08237e-02
2.00520e+03,6.73385e+00,-3.33177e+01,-1.18516e-03,6.13721e-03,1.06958e-02
2.00520e+03,5.24243e+00,-3.45991e+01,-1.03045e-03,6.07798e-03,1.05777e-02
2.00520e+03,3.22533e+00,-3.58806e+01,-7.99395e-04,6.04177e-03,1.04951e-02
2.00520e+03,-1.30688e+00,-3.71620e+01,-2.03114e-04,6.05609e-03,1.04914e-02
2.00520e+03,-1.63397e+00,-3.71650e+01,-1.55759e-04,6.10060e-03,1.05677e-02
2.00520e+03,-4.61400e+00,-3.58377e+01,3.41056e-04,6.18503e-03,1.07182e-02
2.00520e+03,-4.97481e+00,-3.45104e+01,4.57524e-04,6.24741e-03,1.08305e-02
2.00520e+03,-5.09932e+00,-3.31830e+01,5.39677e-04,6.31306e-03,1.09478e-02
2.00520e+03,-5.11821e+00,-3.18557e+01,6.06493e-04,6.38175e-03,1.10701e-02
2.00520e+03,-5.05754e+00,-3.05284e+01,6.61755e-04,6.45294e-03,1.11964e-02
2.00520e+03,-4.94693e+00,-2.92011e+01,7.09766e-04,6.52622e-03,1.13260e-02
2.00520e+03,-4.78618e+00,-2.78738e+01,7.50495e-04,6.60117e-03,1.14582e-02
2.00520e+03,-4.59485e+00,-2.65464e+01,7.86784e-04,6.67740e-03,1.15923e-02
2.00520e+03,-4.38577e+00,-2.52191e+01,8.20497e-04,6.75474e-03,1.17283e-02
2.00520e+03,-4.14998e+00,-2.38918e+01,8.50328e-04,6.83297e-03,1.18656e-02
2.00520e+03,-3.89748e+00,-2.25645e+01,8.77735e-04,6.91186e-03,1.20038e-02
2.00520e+03,-3.62871e+00,-2.12371e+01,9.02779e-04,6.99128e-03,1.21429e-02
2.00520e+03,-3.34375e+00,-1.99098e+01,9.25471e-04,7.07104e-03,1.22823e-02
2.00520e+03,-3.04862e+00,-1.85825e+01,9.46687e-04,7.15101e-03,1.24220e-02
2.00520e+03,-2.74048e+00,-1.72552e+01,9.66014e-04,7.23108e-03,1.25618e-02
2.00520e+03,-2.42401e+00,-1.59279e+01,9.84131e-04,7.31112e-03,1.27014e-02
2.00520e+03,-2.10007e+00,-1.46005e+01,1.00116e-03,7.39104e-03,1.28407e-02
2.00520e+03,-1.76946e+00,-1.32732e+01,1.01723e-03,7.47075e-03,1.29796e-02
2.00520e+03,-1.43602e+00,-1.19459e+01,1.03288e-03,7.55021e-03,1.31181e-02
2.00520e+03,-1.09820e+00,-1.06186e+01,1.04790e-03,7.62935e-03,1.32559e-02
2.00520e+03,-7.59661e-01,-9.29125e+00,1.06281e-03,7.70816e-03,1.33932e-02
2.00520e+03,-4.18505e-01,-7.96393e+00,1.07734e-03,7.78660e-03,1.35297e-02
2.00520e+03,-7.73829e-02,-6.63661e+00,1.09188e-03,7.86465e-03,1.36657e-02
2.00520e+03,2.62450e-01,-5.30929e+00,1.10660e-03,7.94231e-03,1.38009e-02
2.00520e+03,6.02282e-01,-3.98196e+00,1.12133e-03,8.01956e-03,1.39355e-02
2.00520e+03,9.34067e-01,-2.65464e+00,1.13722e-03,8.09644e-03,1.40695e-02
2.00520e+03,1.26435e+00,-1.32732e+00,1.15333e-03,8.17300e-03,1.42030e-02
2.02480e+03,1.59367e+01,0.00000e+00,-2.90098e-04,4.24944e-03,7.36597e-03
2.02480e+03,1.58564e+01,-1.21102e+00,-3.05733e-04,4.21605e-03,7.30880e-03
2.02480e+03,1.57496e+01,-2.42204e+00,-3.20225e-04,4.18183e-03,7.25022e-03
2.02480e+03,1.56418e+01,-3.63306e+00,-3.34670e-04,4.14684e-03,7.19034e-03
2.02480e+03,1.55106e+01,-4.84408e+00,-3.48106e-04,4.11114e-03,7.12921e-03
2.02480e+03,1.53739e+01,-6.05509e+00,-3.61307e-04,4.07478e-03,7.06696e-03
2.02480e+03,1.52192e+01,-7.26611e+00,-3.73733e-04,4.03781e-03,7.00366e-03
2.02480e+03,1.50559e+01,-8.47713e+00,-3.85783e-04,4.00028e-03,6.93941e-03
2.02480e+03,1.48781e+01,-9.68815e+00,-3.97211e-04,3.96224e-03,6.87429e-03
2.02480e+03,1.46884e+01,-1.08992e+01,-4.08126e-04,3.92375e-03,6.80838e-03
2.02480e+03,1.44857e+01,-1.21102e+01,-4.18479e-04,3.88486e-03,6.74177e-03
2.02480e+03,1.42672e+01,-1.33212e+01,-4.28151e-04,3.84561e-03,6.67453e-03
2.02480e+03,1.40325e+01,-1.45322e+01,-4.37126e-04,3.80605e-03,6.60675e-03
2.02480e+03,1.37750e+01,-1.57432e+01,-4.45113e-04,3.76626e-03,6.53853e-03
2.02480e+03,1.34951e+01,-1.69543e+01,-4.52138e-04,3.72632e-03,6.46999e-03
2.02480e+03,1.31886e+01,-1.81653e+01,-4.58013e-04,3.68627e-03,6.40122e-03
2.02480e+03,1.28460e+01,-1.93763e+01,-4.62330e-04,3.64627e-03,6.33242e-03
2.02480e+03,1.24782e+01,-2.05873e+01,-4.65564e-04,3.60634e-03,6.26369e-03
2.02480e+03,1.20540e+01,-2.17983e+01,-4.66359e-04,3.56669e-03,6.19527e-03
2.02480e+03,1.16063e+01,-2.30094e+01,-4.66144e-04,3.52742e-03,6.12743e-03
2.02480e+03,1.10933e+01,-2.42204e+01,-4.63113e-04,3.48863e-03,6.06021e-03
2.02480e+03,1.05280e+01,-2.54314e+01,-4.57825e-04,3.45064e-03,5.99420e-03
2.02480e+03,9.90946e+00,-2.66424e+01,-4.50241e-04,3.41352e-03,5.92951e-03
2.02480e+03,9.20158e+00,-2.78534e+01,-4.38802e-04,3.37740e-03,5.86627e-03
2.02480e+03,8.39019e+00,-2.90645e+01,-4.22899e-04,3.34272e-03,5.80519e-03
2.02480e+03,7.46181e+00,-3.02755e+01,-4.01949e-04,3.30990e-03,5.74700e-03
2.02480e+03,6.36374e+00,-3.14865e+01,-3.73679e-04,3.27922e-03,5.69205e-03
2.02480e+03,4.95429e+00,-3.26975e+01,-3.31977e-04,3.25216e-03,5.64268e-03
2.02480e+03,3.04806e+00,-3.39085e+01,-2.68846e-04,3.23563e-03,5.61072e-03
2.02480e+03,-1.23505e+00,-3.51195e+01,-1.03184e-04,3.24218e-03,5.61656e-03
2.02480e+03,-1.54416e+00,-3.51224e+01,-8.98943e-05,3.26252e-03,5.65156e-03
2.02480e+03,-4.36041e+00,-3.38680e+01,5.13698e-05,3.30109e-03,5.71789e-03
2.02480e+03,-4.70139e+00,-3.26136e+01,8.58592e-05,3.32959e-03,5.76766e-03
2.02480e+03,-4.81905e+00,-3.13592e+01,1.10716e-04,3.35958e-03,5.82002e-03
2.02480e+03,-4.83691e+00,-3.01049e+01,1.31266e-04,3.39096e-03,5.87479e-03
2.02480e+03,-4.77957e+00,-2.88505e+01,1.48574e-04,3.42349e-03,5.93151e-03
2.02480e+03,-4.67504e+00,-2.75961e+01,1.63845e-04,3.45696e-03,5.98988e-03
2.02480e+03,-4.52312e+00,-2.63418e+01,1.77073e-04,3.49120e-03,6.04953e-03
2.02480e+03,-4.34231e+00,-2.50874e+01,1.89054e-04,3.52603e-03,6.11019e-03
2.02480e+03,-4.14473e+00,-2.38330e+01,2.00311e-04,3.56136e-03,6.17171e-03
2.02480e+03,-3.92189e+00,-2.25787e+01,2.10480e-04,3.59709e-03,6.23391e-03
2.02480e+03,-3.68327e+00,-2.13243e+01,2.19967e-04,3.63314e-03,6.29662e-03
2.02480e+03,-3.42927e+00,-2.00699e+01,2.28791e-04,3.66941e-03,6.35973e-03
2.02480e+03,-3.15997e+00,-1.88155e+01,2.36955e-04,3.70585e-03,6.42309e-03
2.02480e+03,-2.88106e+00,-1.75612e+01,2.44705e-04,3.74238e-03,6.48661e-03
2.02480e+03,-2.58986e+00,-1.63068e+01,2.51924e-04,3.77896e-03,6.55019e-03
2.02480e+03,-2.29078e+00,-1.50524e+01,2.58804e-04,3.81552e-03,6.61373e-03
2.02480e+03,-1.98465e+00,-1.37981e+01,2.65379e-04,3.85202e-03,6.67718e-03
2.02480e+03,-1.67220e+00,-1.25437e+01,2.71682e-04,3.88844e-03,6.74045e-03
2.02480e+03,-1.35709e+00,-1.12893e+01,2.77869e-04,3.92473e-03,6.80351e-03
2.02480e+03,-1.03784e+00,-1.00350e+01,2.83879e-04,3.96088e-03,6.86632e-03
2.02480e+03,-7.17909e-01,-8.78059e+00,2.89859e-04,3.99688e-03,6.92886e-03
2.02480e+03,-3.95503e-01,-7.52622e+00,2.95732e-04,4.03270e-03,6.99111e-03
2.02480e+03,-7.31298e-02,-6.27185e+00,3.01606e-04,4.06835e-03,7.05305e-03
2.02480e+03,2.48025e-01,-5.01748e+00,3.07534e-04,4.10383e-03,7.11469e-03
2.02480e+03,5.69180e-01,-3.76311e+00,3.13461e-04,4.13911e-03,7.17600e-03
2.02480e+03,8.82730e-01,-2.50874e+00,3.19716e-04,4.17423e-03,7.23704e-03
2.02480e+03,1.19486e+00,-1.25437e+00,3.26032e-04,4.20919e-03,7.29782e-03
2.03880e+03,1.52746e+01,0.00000e+00,-4.84097e-05,1.64116e-03,2.84299e-03
2.03880e+03,1.51977e+01,-1.16071e+00,-5.16299e-05,1.63016e-03,2.82398e-03
2.03880e+03,1.50954e+01,-2.32142e+00,-5.46539e-05,1.61888e-03,2.80451e-03
2.03880e+03,1.49920e+01,-3.48213e+00,-5.76702e-05,1.60735e-03,2.78460e-03
2.03880e+03,1.48662e+01,-4.64285e+00,-6.05133e-05,1.59558e-03,2.76429e-03
2.03880e+03,1.47352e+01,-5.80356e+00,-6.33162e-05,1.58359e-03,2.74359e-03
2.03880e+03,1.45870e+01,-6.96427e+00,-6.59862e-05,1.57141e-03,2.72256e-03
2.03880e+03,1.44304e+01,-8.12498e+00,-6.85918e-05,1.55904e-03,2.70120e-03
2.03880e+03,1.42600e+01,-9.28569e+00,-7.10905e-05,1.54650e-03,2.67956e-03
2.03880e+03,1.40782e+01,-1.04464e+01,-7.35016e-05,1.53381e-03,2.65766e-03
2.03880e+03,1.38839e+01,-1.16071e+01,-7.58162e-05,1.52099e-03,2.63553e-03
2.03880e+03,1.36745e+01,-1.27678e+01,-7.80140e-05,1.50806e-03,2.61320e-03
2.03880e+03,1.34496e+01,-1.39285e+01,-8.00922e-05,1.49502e-03,2.59069e-03
2.03880e+03,1.32028e+01,-1.50892e+01,-8.20011e-05,1.48191e-03,2.56805e-03
2.03880e+03,1.29345e+01,-1.62500e+01,-8.37451e-05,1.46874e-03,2.54531e-03
2.03880e+03,1.26407e+01,-1.74107e+01,-8.52919e-05,1.45554e-03,2.52252e-03
2.03880e+03,1.23123e+01,-1.85714e+01,-8.65716e-05,1.44236e-03,2.49974e-03
2.03880e+03,1.19599e+01,-1.97321e+01,-8.76656e-05,1.42920e-03,2.47700e-03
2.03880e+03,1.15532e+01,-2.08928e+01,-8.83415e-05,1.41613e-03,2.45441e-03
2.03880e+03,1.11241e+01,-2.20535e+01,-8.88442e-05,1.40319e-03,2.43202e-03
2.03880e+03,1.06324e+01,-2.32142e+01,-8.88640e-05,1.39041e-03,2.40989e-03
2.03880e+03,1.00906e+01,-2.43749e+01,-8.84970e-05,1.37789e-03,2.38821e-03
2.03880e+03,9.49781e+00,-2.55357e+01,-8.77363e-05,1.36565e-03,2.36701e-03
2.03880e+03,8.81933e+00,-2.66964e+01,-8.63147e-05,1.35375e-03,2.34635e-03
2.03880e+03,8.04165e+00,-2.78571e+01,-8.41276e-05,1.34232e-03,2.32649e-03
2.03880e+03,7.15183e+00,-2.90178e+01,-8.10752e-05,1.33150e-03,2.30766e-03
2.03880e+03,6.09938e+00,-3.01785e+01,-7.67679e-05,1.32139e-03,2.29000e-03
2.03880e+03,4.74849e+00,-3.13392e+01,-7.01576e-05,1.31248e-03,2.27436e-03
2.03880e+03,2.92144e+00,-3.24999e+01,-5.98732e-05,1.30703e-03,2.26463e-03
2.03880e+03,-1.18374e+00,-3.36606e+01,-3.20099e-05,1.30919e-03,2.26781e-03
2.03880e+03,-1.48002e+00,-3.36633e+01,-2.97326e-05,1.31589e-03,2.27939e-03
2.03880e+03,-4.17927e+00,-3.24611e+01,-4.95395e-06,1.32861e-03,2.30122e-03
2.03880e+03,-4.50609e+00,-3.12588e+01,1.51814e-06,1.33800e-03,2.31749e-03
2.03880e+03,-4.61886e+00,-3.00565e+01,6.33864e-06,1.34789e-03,2.33462e-03
2.03880e+03,-4.63598e+00,-2.88543e+01,1.04210e-05,1.35823e-03,2.35254e-03
2.03880e+03,-4.58102e+00,-2.76520e+01,1.39472e-05,1.36895e-03,2.37113e-03
2.03880e+03,-4.48083e+00,-2.64498e+01,1.71243e-05,1.37998e-03,2.39026e-03
2.03880e+03,-4.33523e+00,-2.52475e+01,1.99511e-05,1.39127e-03,2.40983e-03
2.03880e+03,-4.16192e+00,-2.40452e+01,2.25641e-05,1.40274e-03,2.42973e-03
2.03880e+03,-3.97255e+00,-2.28430e+01,2.50531e-05,1.41439e-03,2.44992e-03
2.03880e+03,-3.75897e+00,-2.16407e+01,2.73553e-05,1.42617e-03,2.47034e-03
2.03880e+03,-3.53026e+00,-2.04384e+01,2.95408e-05,1.43804e-03,2.49094e-03
2.03880e+03,-3.28682e+00,-1.92362e+01,3.16126e-05,1.45000e-03,2.51167e-03
2.03880e+03,-3.02870e+00,-1.80339e+01,3.35711e-05,1.46201e-03,2.53249e-03
2.03880e+03,-2.76138e+00,-1.68317e+01,3.54587e-05,1.47405e-03,2.55337e-03
2.03880e+03,-2.48228e+00,-1.56294e+01,3.72553e-05,1.48610e-03,2.57427e-03
2.03880e+03,-2.19562e+00,-1.44271e+01,3.89937e-05,1.49815e-03,2.59516e-03
2.03880e+03,-1.90220e+00,-1.32249e+01,4.06798e-05,1.51018e-03,2.61602e-03
2.03880e+03,-1.60274e+00,-1.20226e+01,4.23193e-05,1.52218e-03,2.63683e-03
2.03880e+03,-1.30072e+00,-1.08204e+01,4.39391e-05,1.53414e-03,2.65757e-03
2.03880e+03,-9.94731e-01,-9.61809e+00,4.55283e-05,1.54605e-03,2.67823e-03
2.03880e+03,-6.88086e-01,-8.41583e+00,4.71124e-05,1.55792e-03,2.69880e-03
2.03880e+03,-3.79073e-01,-7.21357e+00,4.86782e-05,1.56972e-03,2.71927e-03
2.03880e+03,-7.00919e-02,-6.01131e+00,5.02443e-05,1.58147e-03,2.73965e-03
2.03880e+03,2.37722e-01,-4.80905e+00,5.18193e-05,1.59316e-03,2.75992e-03
2.03880e+03,5.45535e-01,-3.60678e+00,5.33944e-05,1.60479e-03,2.78008e-03
2.03880e+03,8.46060e-01,-2.40452e+00,5.50258e-05,1.61636e-03,2.80015e-03
2.03880e+03,1.14523e+00,-1.20226e+00,5.66676e-05,1.62788e-03,2.82014e-03
2.04720e+03,1.48774e+01,0.00000e+00,-5.49982e-06,3.20763e-04,5.55605e-04
2.04720e+03,1.48025e+01,-1.13053e+00,-6.00338e-06,3.19166e-04,5.52844e-04
2.04720e+03,1.47028e+01,-2.26105e+00,-6.48345e-06,3.17530e-04,5.50016e-04
2.04720e+03,1.46021e+01,-3.39158e+00,-6.96258e-06,3.15856e-04,5.47124e-04
2.04720e+03,1.44796e+01,-4.52211e+00,-7.42098e-06,3.14149e-04,5.44173e-04
2.04720e+03,1.43520e+01,-5.65264e+00,-7.87457e-06,3.12410e-04,5.41168e-04
2.04720e+03,1.42077e+01,-6.78316e+00,-8.31224e-06,3.10642e-04,5.38112e-04
2.04720e+03,1.40552e+01,-7.91369e+00,-8.74219e-06,3.08848e-04,5.35011e-04
2.04720e+03,1.38892e+01,-9.04422e+00,-9.15935e-06,3.07029e-04,5.31869e-04
2.04720e+03,1.37121e+01,-1.01747e+01,-9.56601e-06,3.05189e-04,5.28689e-04
2.04720e+03,1.35229e+01,-1.13053e+01,-9.96111e-06,3.03329e-04,5.25475e-04
2.04720e+03,1.33189e+01,-1.24358e+01,-1.03422e-05,3.01452e-04,5.22233e-04
2.04720e+03,1.30998e+01,-1.35663e+01,-1.07090e-05,2.99561e-04,5.18965e-04
2.04720e+03,1.28594e+01,-1.46969e+01,-1.10555e-05,2.97658e-04,5.15678e-04
2.04720e+03,1.25982e+01,-1.58274e+01,-1.13823e-05,2.95748e-04,5.12378e-04
2.04720e+03,1.23120e+01,-1.69579e+01,-1.16855e-05,2.93834e-04,5.09069e-04
2.04720e+03,1.19922e+01,-1.80884e+01,-1.19566e-05,2.91921e-04,5.05763e-04
2.04720e+03,1.16489e+01,-1.92190e+01,-1.22056e-05,2.90012e-04,5.02463e-04
2.04720e+03,1.12528e+01,-2.03495e+01,-1.24044e-05,2.88116e-04,4.99186e-04
2.04720e+03,1.08348e+01,-2.14800e+01,-1.25825e-05,2.86239e-04,4.95940e-04
2.04720e+03,1.03559e+01,-2.26105e+01,-1.27028e-05,2.84384e-04,4.92732e-04
2.04720e+03,9.82823e+00,-2.37411e+01,-1.27767e-05,2.82568e-04,4.89589e-04
2.04720e+03,9.25081e+00,-2.48716e+01,-1.28035e-05,2.80793e-04,4.86516e-04
2.04720e+03,8.58998e+00,-2.60021e+01,-1.27512e-05,2.79066e-04,4.83525e-04
2.04720e+03,7.83252e+00,-2.71326e+01,-1.26072e-05,2.77408e-04,4.80651e-04
2.04720e+03,6.96585e+00,-2.82632e+01,-1.23595e-05,2.75839e-04,4.77928e-04
2.04720e+03,5.94077e+00,-2.93937e+01,-1.19616e-05,2.74372e-04,4.75377e-04
2.04720e+03,4.62500e+00,-3.05242e+01,-1.12878e-05,2.73079e-04,4.73122e-04
2.04720e+03,2.84547e+00,-3.16548e+01,-1.01740e-05,2.72289e-04,4.71728e-04
2.04720e+03,-1.15296e+00,-3.27853e+01,-6.95496e-06,2.72603e-04,4.72213e-04
2.04720e+03,-1.44153e+00,-3.27879e+01,-6.68250e-06,2.73575e-04,4.73893e-04
2.04720e+03,-4.07059e+00,-3.16169e+01,-3.59283e-06,2.75420e-04,4.77055e-04
2.04720e+03,-4.38891e+00,-3.04459e+01,-2.69559e-06,2.76783e-04,4.79409e-04
2.04720e+03,-4.49875e+00,-2.92749e+01,-1.99616e-06,2.78217e-04,4.81890e-04
2.04720e+03,-4.51542e+00,-2.81039e+01,-1.38512e-06,2.79717e-04,4.84486e-04
2.04720e+03,-4.46189e+00,-2.69329e+01,-8.40697e-07,2.81272e-04,4.87179e-04
2.04720e+03,-4.36430e+00,-2.57619e+01,-3.38065e-07,2.82873e-04,4.89950e-04
2.04720e+03,-4.22249e+00,-2.45909e+01,1.22597e-07,2.84510e-04,4.92786e-04
2.04720e+03,-4.05369e+00,-2.34199e+01,5.57659e-07,2.86175e-04,4.95670e-04
2.04720e+03,-3.86924e+00,-2.22489e+01,9.77872e-07,2.87864e-04,4.98597e-04
2.04720e+03,-3.66121e+00,-2.10779e+01,1.37571e-06,2.89573e-04,5.01557e-04
2.04720e+03,-3.43845e+00,-1.99069e+01,1.75958e-06,2.91296e-04,5.04542e-04
2.04720e+03,-3.20134e+00,-1.87359e+01,2.12982e-06,2.93030e-04,5.07548e-04
2.04720e+03,-2.94994e+00,-1.75649e+01,2.48651e-06,2.94772e-04,5.10566e-04
2.04720e+03,-2.68957e+00,-1.63940e+01,2.83469e-06,2.96519e-04,5.13593e-04
2.04720e+03,-2.41772e+00,-1.52230e+01,3.17198e-06,2.98267e-04,5.16624e-04
2.04720e+03,-2.13852e+00,-1.40520e+01,3.50229e-06,3.00015e-04,5.19653e-04
2.04720e+03,-1.85273e+00,-1.28810e+01,3.82635e-06,3.01760e-04,5.22678e-04
2.04720e+03,-1.56106e+00,-1.17100e+01,4.14483e-06,3.03501e-04,5.25696e-04
2.04720e+03,-1.26689e+00,-1.05390e+01,4.46094e-06,3.05236e-04,5.28703e-04
2.04720e+03,-9.68863e-01,-9.36797e+00,4.77339e-06,3.06964e-04,5.31699e-04
2.04720e+03,-6.70192e-01,-8.19698e+00,5.08523e-06,3.08685e-04,5.34682e-04
2.04720e+03,-3.69215e-01,-7.02598e+00,5.39488e-06,3.10398e-04,5.37652e-04
2.04720e+03,-6.82691e-02,-5.85498e+00,5.70456e-06,3.12102e-04,5.40606e-04
2.04720e+03,2.31540e-01,-4.68399e+00,6.01532e-06,3.13798e-04,5.43547e-04
2.04720e+03,5.31348e-01,-3.51299e+00,6.32608e-06,3.15484e-04,5.46471e-04
2.04720e+03,8.24058e-01,-2.34199e+00,6.64357e-06,3.17163e-04,5.49382e-04
2.04720e+03,1.11544e+00,-1.17100e+00,6.96232e-06,3.18834e-04,5.52281e-04
2.05000e+03,1.47450e+01,0.00000e+00,0.00000e+00,0.00000e+00,0.00000e+00
2.05000e+03,1.46708e+01,-1.12047e+00,0.00000e+00,0.00000e+00,0.00000e+00
2.05000e+03,1.45720e+01,-2.24093e+00,0.00000e+00,0.00000e+00,0.00000e+00
2.05000e+03,1.44722e+01,-3.36140e+00,0.00000e+00,0.00000e+00,0.00000e+00
2.05000e+03,1.43508e+01,-4.48186e+00,0.00000e+00,0.00000e+00,0.00000e+00
2.05000e+03,1.42243e+01,-5.60233e+00,0.00000e+00,0.00000e+00,0.00000e+00
2.05000e+03,1.40812e+01,-6.72279e+00,0.00000e+00,0.00000e+00,0.00000e+00
2.05000e+03,1.39301e+01,-7.84326e+00,0.00000e+00,0.00000e+00,0.00000e+00
2.05000e+03,1.37656e+01,-8.96372e+00,0.00000e+00,0.00000e+00,0.00000e+00
2.05000e+03,1.35901e+01,-1.00842e+01,0.00000e+00,0.00000e+00,0.00000e+00
2.05000e+03,1.34025e+01,-1.12047e+01,0.00000e+00,0.00000e+00,0.00000e+00
2.05000e+03,1.32004e+01,-1.23251e+01,0.00000e+00,0.00000e+00,0.00000e+00
2.05000e+03,1.29833e+01,-1.34456e+01,0.00000e+00,0.00000e+00,0.00000e+00
2.05000e+03,1.27450e+01,-1.45661e+01,0.00000e+00,0.00000e+00,0.00000e+00
2.05000e+03,1.24860e+01,-1.56865e+01,0.00000e+00,0.00000e+00,0.00000e+00
2.05000e+03,1.22024e+01,-1.68070e+01,0.00000e+00,0.00000e+00,0.00000e+00
2.05000e+03,1.18854e+01,-1.79274e+01,0.00000e+00,0.00000e+00,0.00000e+00
2.05000e+03,1.15452e+01,-1.90479e+01,0.00000e+00,0.00000e+00,0.00000e+00
2.05000e+03,1.11526e+01,-2.01684e+01,0.00000e+00,0.00000e+00,0.00000e+00
2.05000e+03,1.07384e+01,-2.12888e+01,0.00000e+00,0.00000e+00,0.00000e+00
2.05000e+03,1.02638e+01,-2.24093e+01,0.00000e+00,0.00000e+00,0.00000e+00
2.05000e+03,9.74076e+00,-2.35298e+01,0.00000e+00,0.00000e+00,0.00000e+00
2.05000e+03,9.16848e+00,-2.46502e+01,0.00000e+00,0.00000e+00,0.00000e+00
2.05000e+03,8.51353e+00,-2.57707e+01,0.00000e+00,0.00000e+00,0.00000e+00
2.05000e+03,7.76281e+00,-2.68912e+01,0.00000e+00,0.00000e+00,0.00000e+00
2.05000e+03,6.90385e+00,-2.80116e+01,0.00000e+00,0.00000e+00,0.00000e+00
2.05000e+03,5.88790e+00,-2.91321e+01,0.00000e+00,0.00000e+00,0.00000e+00
2.05000e+03,4.58384e+00,-3.02526e+01,0.00000e+00,0.00000e+00,0.00000e+00
2.05000e+03,2.82014e+00,-3.13730e+01,0.00000e+00,0.00000e+00,0.00000e+00
2.05000e+03,-1.14270e+00,-3.24935e+01,0.00000e+00,0.00000e+00,0.00000e+00
2.05000e+03,-1.42870e+00,-3.24961e+01,0.00000e+00,0.00000e+00,0.00000e+00
2.05000e+03,-4.03436e+00,-3.13355e+01,0.00000e+00,0.00000e+00,0.00000e+00
2.05000e+03,-4.34985e+00,-3.01749e+01,0.00000e+00,0.00000e+00,0.00000e+00
2.05000e+03,-4.45871e+00,-2.90144e+01,0.00000e+00,0.00000e+00,0.00000e+00
2.05000e+03,-4.47523e+00,-2.78538e+01,0.00000e+00,0.00000e+00,0.00000e+00
2.05000e+03,-4.42218e+00,-2.66932e+01,0.00000e+00,0.00000e+00,0.00000e+00
2.05000e+03,-4.32546e+00,-2.55327e+01,0.00000e+00,0.00000e+00,0.00000e+00
2.05000e+03,-4.18491e+00,-2.43721e+01,0.00000e+00,0.00000e+00,0.00000e+00
2.05000e+03,-4.01761e+00,-2.32115e+01,0.00000e+00,0.00000e+00,0.00000e+00
2.05000e+03,-3.83480e+00,-2.20509e+01,0.00000e+00,0.00000e+00,0.00000e+00
2.05000e+03,-3.62863e+00,-2.08903e+01,0.00000e+00,0.00000e+00,0.00000e+00
2.05000e+03,-3.40785e+00,-1.97298e+01,0.00000e+00,0.00000e+00,0.00000e+00
2.05000e+03,-3.17285e+00,-1.85692e+01,0.00000e+00,0.00000e+00,0.00000e+00
2.05000e+03,-2.92368e+00,-1.74086e+01,0.00000e+00,0.00000e+00,0.00000e+00
2.05000e+03,-2.66563e+00,-1.62480e+01,0.00000e+00,0.00000e+00,0.00000e+00
2.05000e+03,-2.39621e+00,-1.50875e+01,0.00000e+00,0.00000e+00,0.00000e+00
2.05000e+03,-2.11949e+00,-1.39269e+01,0.00000e+00,0.00000e+00,0.00000e+00
2.05000e+03,-1.83624e+00,-1.27663e+01,0.00000e+00,0.00000e+00,0.00000e+00
2.05000e+03,-1.54717e+00,-1.16057e+01,0.00000e+00,0.00000e+00,0.00000e+00
2.05000e+03,-1.25562e+00,-1.04452e+01,0.00000e+00,0.00000e+00,0.00000e+00
2.05000e+03,-9.60241e-01,-9.28460e+00,0.00000e+00,0.00000e+00,0.00000e+00
2.05000e+03,-6.64227e-01,-8.12402e+00,0.00000e+00,0.00000e+00,0.00000e+00
2.05000e+03,-3.65929e-01,-6.96345e+00,0.00000e+00,0.00000e+00,0.00000e+00
2.05000e+03,-6.76615e-02,-5.80287e+00,0.00000e+00,0.00000e+00,0.00000e+00
2.05000e+03,2.29479e-01,-4.64230e+00,0.00000e+00,0.00000e+00,0.00000e+00
2.05000e+03,5.26620e-01,-3.48173e+00,0.00000e+00,0.00000e+00,0.00000e+00
2.05000e+03,8.16724e-01,-2.32115e+00,0.00000e+00,0.00000e+00,0.00000e+00
2.05000e+03,1.10552e+00,-1.16058e+00,0.00000e+00,0.00000e+00,0.00000e+00
--------------------------------------------------------------------------------------------------------------------------------------------------------------------------------------------------------------------------------------------------------------------------------------------------------------------------------------------------------------------------------

LAMINADO 
--------------------------------------------------------------------------------------------------------------------------------------------------------------------------------------------------------------------------------------------------------------------------------------------------------------------------------------------------------------------------------
X,Y,Z,Sigma,Tau,Von Mises
0.00000e+00,4.31008e+01,0.00000e+00,0.00000e+00,0.00000e+00,0.00000e+00
0.00000e+00,4.28837e+01,-3.27521e+00,0.00000e+00,0.00000e+00,0.00000e+00
0.00000e+00,4.25950e+01,-6.55041e+00,0.00000e+00,0.00000e+00,0.00000e+00
0.00000e+00,4.23033e+01,-9.82562e+00,0.00000e+00,0.00000e+00,0.00000e+00
0.00000e+00,4.19484e+01,-1.31008e+01,0.00000e+00,0.00000e+00,0.00000e+00
0.00000e+00,4.15787e+01,-1.63760e+01,0.00000e+00,0.00000e+00,0.00000e+00
0.00000e+00,4.11605e+01,-1.96512e+01,0.00000e+00,0.00000e+00,0.00000e+00
0.00000e+00,4.07187e+01,-2.29264e+01,0.00000e+00,0.00000e+00,0.00000e+00
0.00000e+00,4.02378e+01,-2.62017e+01,0.00000e+00,0.00000e+00,0.00000e+00
0.00000e+00,3.97249e+01,-2.94769e+01,0.00000e+00,0.00000e+00,0.00000e+00
0.00000e+00,3.91766e+01,-3.27521e+01,0.00000e+00,0.00000e+00,0.00000e+00
0.00000e+00,3.85857e+01,-3.60273e+01,0.00000e+00,0.00000e+00,0.00000e+00
0.00000e+00,3.79511e+01,-3.93025e+01,0.00000e+00,0.00000e+00,0.00000e+00
0.00000e+00,3.72545e+01,-4.25777e+01,0.00000e+00,0.00000e+00,0.00000e+00
0.00000e+00,3.64976e+01,-4.58529e+01,0.00000e+00,0.00000e+00,0.00000e+00
0.00000e+00,3.56687e+01,-4.91281e+01,0.00000e+00,0.00000e+00,0.00000e+00
0.00000e+00,3.47420e+01,-5.24033e+01,0.00000e+00,0.00000e+00,0.00000e+00
0.00000e+00,3.37474e+01,-5.56785e+01,0.00000e+00,0.00000e+00,0.00000e+00
0.00000e+00,3.26000e+01,-5.89537e+01,0.00000e+00,0.00000e+00,0.00000e+00
0.00000e+00,3.13892e+01,-6.22289e+01,0.00000e+00,0.00000e+00,0.00000e+00
0.00000e+00,3.00018e+01,-6.55041e+01,0.00000e+00,0.00000e+00,0.00000e+00
0.00000e+00,2.84730e+01,-6.87793e+01,0.00000e+00,0.00000e+00,0.00000e+00
0.00000e+00,2.68002e+01,-7.20546e+01,0.00000e+00,0.00000e+00,0.00000e+00
0.00000e+00,2.48857e+01,-7.53298e+01,0.00000e+00,0.00000e+00,0.00000e+00
0.00000e+00,2.26913e+01,-7.86050e+01,0.00000e+00,0.00000e+00,0.00000e+00
0.00000e+00,2.01805e+01,-8.18802e+01,0.00000e+00,0.00000e+00,0.00000e+00
0.00000e+00,1.72108e+01,-8.51554e+01,0.00000e+00,0.00000e+00,0.00000e+00
0.00000e+00,1.33989e+01,-8.84306e+01,0.00000e+00,0.00000e+00,0.00000e+00
0.00000e+00,8.24350e+00,-9.17058e+01,0.00000e+00,0.00000e+00,0.00000e+00
0.00000e+00,-3.34020e+00,-9.49810e+01,0.00000e+00,0.00000e+00,0.00000e+00
0.00000e+00,-4.17620e+00,-9.49886e+01,0.00000e+00,0.00000e+00,0.00000e+00
0.00000e+00,-1.17928e+01,-9.15961e+01,0.00000e+00,0.00000e+00,0.00000e+00
0.00000e+00,-1.27149e+01,-8.82037e+01,0.00000e+00,0.00000e+00,0.00000e+00
0.00000e+00,-1.30332e+01,-8.48113e+01,0.00000e+00,0.00000e+00,0.00000e+00
0.00000e+00,-1.30814e+01,-8.14188e+01,0.00000e+00,0.00000e+00,0.00000e+00
0.00000e+00,-1.29264e+01,-7.80264e+01,0.00000e+00,0.00000e+00,0.00000e+00
0.00000e+00,-1.26437e+01,-7.46339e+01,0.00000e+00,0.00000e+00,0.00000e+00
0.00000e+00,-1.22328e+01,-7.12415e+01,0.00000e+00,0.00000e+00,0.00000e+00
0.00000e+00,-1.17438e+01,-6.78490e+01,0.00000e+00,0.00000e+00,0.00000e+00
0.00000e+00,-1.12094e+01,-6.44565e+01,0.00000e+00,0.00000e+00,0.00000e+00
0.00000e+00,-1.06068e+01,-6.10641e+01,0.00000e+00,0.00000e+00,0.00000e+00
0.00000e+00,-9.96142e+00,-5.76716e+01,0.00000e+00,0.00000e+00,0.00000e+00
0.00000e+00,-9.27449e+00,-5.42792e+01,0.00000e+00,0.00000e+00,0.00000e+00
0.00000e+00,-8.54615e+00,-5.08867e+01,0.00000e+00,0.00000e+00,0.00000e+00
0.00000e+00,-7.79185e+00,-4.74943e+01,0.00000e+00,0.00000e+00,0.00000e+00
0.00000e+00,-7.00429e+00,-4.41018e+01,0.00000e+00,0.00000e+00,0.00000e+00
0.00000e+00,-6.19544e+00,-4.07094e+01,0.00000e+00,0.00000e+00,0.00000e+00
0.00000e+00,-5.36748e+00,-3.73169e+01,0.00000e+00,0.00000e+00,0.00000e+00
0.00000e+00,-4.52248e+00,-3.39245e+01,0.00000e+00,0.00000e+00,0.00000e+00
0.00000e+00,-3.67026e+00,-3.05320e+01,0.00000e+00,0.00000e+00,0.00000e+00
0.00000e+00,-2.80686e+00,-2.71396e+01,0.00000e+00,0.00000e+00,0.00000e+00
0.00000e+00,-1.94159e+00,-2.37472e+01,0.00000e+00,0.00000e+00,0.00000e+00
0.00000e+00,-1.06964e+00,-2.03547e+01,0.00000e+00,0.00000e+00,0.00000e+00
0.00000e+00,-1.97780e-01,-1.69622e+01,0.00000e+00,0.00000e+00,0.00000e+00
0.00000e+00,6.70785e-01,-1.35698e+01,0.00000e+00,0.00000e+00,0.00000e+00
0.00000e+00,1.53935e+00,-1.01774e+01,0.00000e+00,0.00000e+00,0.00000e+00
0.00000e+00,2.38735e+00,-6.78490e+00,0.00000e+00,0.00000e+00,0.00000e+00
0.00000e+00,3.23151e+00,-3.39245e+00,0.00000e+00,0.00000e+00,0.00000e+00
1.07300e+02,4.26785e+01,0.00000e+00,0.00000e+00,0.00000e+00,0.00000e+00
1.07300e+02,4.24636e+01,-3.24312e+00,0.00000e+00,0.00000e+00,0.00000e+00
1.07300e+02,4.21777e+01,-6.48624e+00,0.00000e+00,0.00000e+00,0.00000e+00
1.07300e+02,4.18889e+01,-9.72936e+00,0.00000e+00,0.00000e+00,0.00000e+00
1.07300e+02,4.15374e+01,-1.29725e+01,0.00000e+00,0.00000e+00,0.00000e+00
1.07300e+02,4.11714e+01,-1.62156e+01,0.00000e+00,0.00000e+00,0.00000e+00
1.07300e+02,4.07572e+01,-1.94587e+01,0.00000e+00,0.00000e+00,0.00000e+00
1.07300e+02,4.03197e+01,-2.27018e+01,0.00000e+00,0.00000e+00,0.00000e+00
1.07300e+02,3.98436e+01,-2.59450e+01,0.00000e+00,0.00000e+00,0.00000e+00
1.07300e+02,3.93357e+01,-2.91881e+01,0.00000e+00,0.00000e+00,0.00000e+00
1.07300e+02,3.87928e+01,-3.24312e+01,0.00000e+00,0.00000e+00,0.00000e+00
1.07300e+02,3.82077e+01,-3.56743e+01,0.00000e+00,0.00000e+00,0.00000e+00
1.07300e+02,3.75793e+01,-3.89174e+01,0.00000e+00,0.00000e+00,0.00000e+00
1.07300e+02,3.68895e+01,-4.21606e+01,0.00000e+00,0.00000e+00,0.00000e+00
1.07300e+02,3.61401e+01,-4.54037e+01,0.00000e+00,0.00000e+00,0.00000e+00
1.07300e+02,3.53192e+01,-4.86468e+01,0.00000e+00,0.00000e+00,0.00000e+00
1.07300e+02,3.44016e+01,-5.18899e+01,0.00000e+00,0.00000e+00,0.00000e+00
1.07300e+02,3.34168e+01,-5.51330e+01,0.00000e+00,0.00000e+00,0.00000e+00
1.07300e+02,3.22806e+01,-5.83762e+01,0.00000e+00,0.00000e+00,0.00000e+00
1.07300e+02,3.10816e+01,-6.16193e+01,0.00000e+00,0.00000e+00,0.00000e+00
1.07300e+02,2.97079e+01,-6.48624e+01,0.00000e+00,0.00000e+00,0.00000e+00
1.07300e+02,2.81940e+01,-6.81055e+01,0.00000e+00,0.00000e+00,0.00000e+00
1.07300e+02,2.65376e+01,-7.13486e+01,0.00000e+00,0.00000e+00,0.00000e+00
1.07300e+02,2.46419e+01,-7.45918e+01,0.00000e+00,0.00000e+00,0.00000e+00
1.07300e+02,2.24690e+01,-7.78349e+01,0.00000e+00,0.00000e+00,0.00000e+00
1.07300e+02,1.99828e+01,-8.10780e+01,0.00000e+00,0.00000e+00,0.00000e+00
1.07300e+02,1.70422e+01,-8.43211e+01,0.00000e+00,0.00000e+00,0.00000e+00
1.07300e+02,1.32676e+01,-8.75642e+01,0.00000e+00,0.00000e+00,0.00000e+00
1.07300e+02,8.16273e+00,-9.08074e+01,0.00000e+00,0.00000e+00,0.00000e+00
1.07300e+02,-3.30748e+00,-9.40505e+01,0.00000e+00,0.00000e+00,0.00000e+00
1.07300e+02,-4.13529e+00,-9.40580e+01,0.00000e+00,0.00000e+00,0.00000e+00
1.07300e+02,-1.16772e+01,-9.06988e+01,0.00000e+00,0.00000e+00,0.00000e+00
1.07300e+02,-1.25904e+01,-8.73396e+01,0.00000e+00,0.00000e+00,0.00000e+00
1.07300e+02,-1.29055e+01,-8.39804e+01,0.00000e+00,0.00000e+00,0.00000e+00
1.07300e+02,-1.29533e+01,-8.06211e+01,0.00000e+00,0.00000e+00,0.00000e+00
1.07300e+02,-1.27997e+01,-7.72619e+01,0.00000e+00,0.00000e+00,0.00000e+00
1.07300e+02,-1.25198e+01,-7.39027e+01,0.00000e+00,0.00000e+00,0.00000e+00
1.07300e+02,-1.21130e+01,-7.05435e+01,0.00000e+00,0.00000e+00,0.00000e+00
1.07300e+02,-1.16287e+01,-6.71843e+01,0.00000e+00,0.00000e+00,0.00000e+00
1.07300e+02,-1.10996e+01,-6.38251e+01,0.00000e+00,0.00000e+00,0.00000e+00
1.07300e+02,-1.05029e+01,-6.04659e+01,0.00000e+00,0.00000e+00,0.00000e+00
1.07300e+02,-9.86382e+00,-5.71066e+01,0.00000e+00,0.00000e+00,0.00000e+00
1.07300e+02,-9.18363e+00,-5.37474e+01,0.00000e+00,0.00000e+00,0.00000e+00
1.07300e+02,-8.46243e+00,-5.03882e+01,0.00000e+00,0.00000e+00,0.00000e+00
1.07300e+02,-7.71552e+00,-4.70290e+01,0.00000e+00,0.00000e+00,0.00000e+00
1.07300e+02,-6.93567e+00,-4.36698e+01,0.00000e+00,0.00000e+00,0.00000e+00
1.07300e+02,-6.13474e+00,-4.03106e+01,0.00000e+00,0.00000e+00,0.00000e+00
1.07300e+02,-5.31490e+00,-3.69514e+01,0.00000e+00,0.00000e+00,0.00000e+00
1.07300e+02,-4.47818e+00,-3.35921e+01,0.00000e+00,0.00000e+00,0.00000e+00
1.07300e+02,-3.63431e+00,-3.02329e+01,0.00000e+00,0.00000e+00,0.00000e+00
1.07300e+02,-2.77936e+00,-2.68737e+01,0.00000e+00,0.00000e+00,0.00000e+00
1.07300e+02,-1.92257e+00,-2.35145e+01,0.00000e+00,0.00000e+00,0.00000e+00
1.07300e+02,-1.05916e+00,-2.01553e+01,0.00000e+00,0.00000e+00,0.00000e+00
1.07300e+02,-1.95842e-01,-1.67961e+01,0.00000e+00,0.00000e+00,0.00000e+00
1.07300e+02,6.64213e-01,-1.34369e+01,0.00000e+00,0.00000e+00,0.00000e+00
1.07300e+02,1.52427e+00,-1.00776e+01,0.00000e+00,0.00000e+00,0.00000e+00
1.07300e+02,2.36396e+00,-6.71843e+00,0.00000e+00,0.00000e+00,0.00000e+00
1.07300e+02,3.19985e+00,-3.35921e+00,0.00000e+00,0.00000e+00,0.00000e+00
2.14300e+02,4.22575e+01,0.00000e+00,0.00000e+00,0.00000e+00,0.00000e+00
2.14300e+02,4.20447e+01,-3.21112e+00,0.00000e+00,0.00000e+00,0.00000e+00
2.14300e+02,4.17615e+01,-6.42224e+00,0.00000e+00,0.00000e+00,0.00000e+00
2.14300e+02,4.14756e+01,-9.63337e+00,0.00000e+00,0.00000e+00,0.00000e+00
2.14300e+02,4.11276e+01,-1.28445e+01,0.00000e+00,0.00000e+00,0.00000e+00
2.14300e+02,4.07652e+01,-1.60556e+01,0.00000e+00,0.00000e+00,0.00000e+00
2.14300e+02,4.03551e+01,-1.92667e+01,0.00000e+00,0.00000e+00,0.00000e+00
2.14300e+02,3.99219e+01,-2.24779e+01,0.00000e+00,0.00000e+00,0.00000e+00
2.14300e+02,3.94505e+01,-2.56890e+01,0.00000e+00,0.00000e+00,0.00000e+00
2.14300e+02,3.89476e+01,-2.89001e+01,0.00000e+00,0.00000e+00,0.00000e+00
2.14300e+02,3.84101e+01,-3.21112e+01,0.00000e+00,0.00000e+00,0.00000e+00
2.14300e+02,3.78307e+01,-3.53223e+01,0.00000e+00,0.00000e+00,0.00000e+00
2.14300e+02,3.72085e+01,-3.85335e+01,0.00000e+00,0.00000e+00,0.00000e+00
2.14300e+02,3.65256e+01,-4.17446e+01,0.00000e+00,0.00000e+00,0.00000e+00
2.14300e+02,3.57835e+01,-4.49557e+01,0.00000e+00,0.00000e+00,0.00000e+00
2.14300e+02,3.49707e+01,-4.81668e+01,0.00000e+00,0.00000e+00,0.00000e+00
2.14300e+02,3.40622e+01,-5.13780e+01,0.00000e+00,0.00000e+00,0.00000e+00
2.14300e+02,3.30871e+01,-5.45891e+01,0.00000e+00,0.00000e+00,0.00000e+00
2.14300e+02,3.19621e+01,-5.78002e+01,0.00000e+00,0.00000e+00,0.00000e+00
2.14300e+02,3.07750e+01,-6.10113e+01,0.00000e+00,0.00000e+00,0.00000e+00
2.14300e+02,2.94148e+01,-6.42224e+01,0.00000e+00,0.00000e+00,0.00000e+00
2.14300e+02,2.79159e+01,-6.74336e+01,0.00000e+00,0.00000e+00,0.00000e+00
2.14300e+02,2.62758e+01,-7.06447e+01,0.00000e+00,0.00000e+00,0.00000e+00
2.14300e+02,2.43988e+01,-7.38558e+01,0.00000e+00,0.00000e+00,0.00000e+00
2.14300e+02,2.22473e+01,-7.70669e+01,0.00000e+00,0.00000e+00,0.00000e+00
2.14300e+02,1.97856e+01,-8.02781e+01,0.00000e+00,0.00000e+00,0.00000e+00
2.14300e+02,1.68740e+01,-8.34892e+01,0.00000e+00,0.00000e+00,0.00000e+00
2.14300e+02,1.31367e+01,-8.67003e+01,0.00000e+00,0.00000e+00,0.00000e+00
2.14300e+02,8.08220e+00,-8.99114e+01,0.00000e+00,0.00000e+00,0.00000e+00
2.14300e+02,-3.27484e+00,-9.31226e+01,0.00000e+00,0.00000e+00,0.00000e+00
2.14300e+02,-4.09449e+00,-9.31300e+01,0.00000e+00,0.00000e+00,0.00000e+00
2.14300e+02,-1.15620e+01,-8.98039e+01,0.00000e+00,0.00000e+00,0.00000e+00
2.14300e+02,-1.24661e+01,-8.64779e+01,0.00000e+00,0.00000e+00,0.00000e+00
2.14300e+02,-1.27781e+01,-8.31518e+01,0.00000e+00,0.00000e+00,0.00000e+00
2.14300e+02,-1.28255e+01,-7.98257e+01,0.00000e+00,0.00000e+00,0.00000e+00
2.14300e+02,-1.26734e+01,-7.64996e+01,0.00000e+00,0.00000e+00,0.00000e+00
2.14300e+02,-1.23963e+01,-7.31736e+01,0.00000e+00,0.00000e+00,0.00000e+00
2.14300e+02,-1.19935e+01,-6.98475e+01,0.00000e+00,0.00000e+00,0.00000e+00
2.14300e+02,-1.15140e+01,-6.65214e+01,0.00000e+00,0.00000e+00,0.00000e+00
2.14300e+02,-1.09901e+01,-6.31954e+01,0.00000e+00,0.00000e+00,0.00000e+00
2.14300e+02,-1.03992e+01,-5.98693e+01,0.00000e+00,0.00000e+00,0.00000e+00
2.14300e+02,-9.76651e+00,-5.65432e+01,0.00000e+00,0.00000e+00,0.00000e+00
2.14300e+02,-9.09302e+00,-5.32171e+01,0.00000e+00,0.00000e+00,0.00000e+00
2.14300e+02,-8.37893e+00,-4.98911e+01,0.00000e+00,0.00000e+00,0.00000e+00
2.14300e+02,-7.63939e+00,-4.65650e+01,0.00000e+00,0.00000e+00,0.00000e+00
2.14300e+02,-6.86724e+00,-4.32389e+01,0.00000e+00,0.00000e+00,0.00000e+00
2.14300e+02,-6.07421e+00,-3.99129e+01,0.00000e+00,0.00000e+00,0.00000e+00
2.14300e+02,-5.26246e+00,-3.65868e+01,0.00000e+00,0.00000e+00,0.00000e+00
2.14300e+02,-4.43399e+00,-3.32607e+01,0.00000e+00,0.00000e+00,0.00000e+00
2.14300e+02,-3.59845e+00,-2.99346e+01,0.00000e+00,0.00000e+00,0.00000e+00
2.14300e+02,-2.75194e+00,-2.66086e+01,0.00000e+00,0.00000e+00,0.00000e+00
2.14300e+02,-1.90360e+00,-2.32825e+01,0.00000e+00,0.00000e+00,0.00000e+00
2.14300e+02,-1.04871e+00,-1.99564e+01,0.00000e+00,0.00000e+00,0.00000e+00
2.14300e+02,-1.93910e-01,-1.66304e+01,0.00000e+00,0.00000e+00,0.00000e+00
2.14300e+02,6.57660e-01,-1.33043e+01,0.00000e+00,0.00000e+00,0.00000e+00
2.14300e+02,1.50923e+00,-9.97821e+00,0.00000e+00,0.00000e+00,0.00000e+00
2.14300e+02,2.34063e+00,-6.65214e+00,0.00000e+00,0.00000e+00,0.00000e+00
2.14300e+02,3.16828e+00,-3.32607e+00,0.00000e+00,0.00000e+00,0.00000e+00
3.20700e+02,4.18388e+01,0.00000e+00,0.00000e+00,0.00000e+00,0.00000e+00
3.20700e+02,4.16280e+01,-3.17930e+00,0.00000e+00,0.00000e+00,0.00000e+00
3.20700e+02,4.13477e+01,-6.35861e+00,0.00000e+00,0.00000e+00,0.00000e+00
3.20700e+02,4.10646e+01,-9.53791e+00,0.00000e+00,0.00000e+00,0.00000e+00
3.20700e+02,4.07201e+01,-1.27172e+01,0.00000e+00,0.00000e+00,0.00000e+00
3.20700e+02,4.03613e+01,-1.58965e+01,0.00000e+00,0.00000e+00,0.00000e+00
3.20700e+02,3.99553e+01,-1.90758e+01,0.00000e+00,0.00000e+00,0.00000e+00
3.20700e+02,3.95264e+01,-2.22551e+01,0.00000e+00,0.00000e+00,0.00000e+00
3.20700e+02,3.90596e+01,-2.54344e+01,0.00000e+00,0.00000e+00,0.00000e+00
3.20700e+02,3.85617e+01,-2.86137e+01,0.00000e+00,0.00000e+00,0.00000e+00
3.20700e+02,3.80295e+01,-3.17930e+01,0.00000e+00,0.00000e+00,0.00000e+00
3.20700e+02,3.74559e+01,-3.49724e+01,0.00000e+00,0.00000e+00,0.00000e+00
3.20700e+02,3.68398e+01,-3.81517e+01,0.00000e+00,0.00000e+00,0.00000e+00
3.20700e+02,3.61637e+01,-4.13310e+01,0.00000e+00,0.00000e+00,0.00000e+00
3.20700e+02,3.54289e+01,-4.45103e+01,0.00000e+00,0.00000e+00,0.00000e+00
3.20700e+02,3.46242e+01,-4.76896e+01,0.00000e+00,0.00000e+00,0.00000e+00
3.20700e+02,3.37247e+01,-5.08689e+01,0.00000e+00,0.00000e+00,0.00000e+00
3.20700e+02,3.27593e+01,-5.40482e+01,0.00000e+00,0.00000e+00,0.00000e+00
3.20700e+02,3.16454e+01,-5.72275e+01,0.00000e+00,0.00000e+00,0.00000e+00
3.20700e+02,3.04701e+01,-6.04068e+01,0.00000e+00,0.00000e+00,0.00000e+00
3.20700e+02,2.91233e+01,-6.35861e+01,0.00000e+00,0.00000e+00,0.00000e+00
3.20700e+02,2.76393e+01,-6.67654e+01,0.00000e+00,0.00000e+00,0.00000e+00
3.20700e+02,2.60154e+01,-6.99447e+01,0.00000e+00,0.00000e+00,0.00000e+00
3.20700e+02,2.41570e+01,-7.31240e+01,0.00000e+00,0.00000e+00,0.00000e+00
3.20700e+02,2.20269e+01,-7.63033e+01,0.00000e+00,0.00000e+00,0.00000e+00
3.20700e+02,1.95896e+01,-7.94826e+01,0.00000e+00,0.00000e+00,0.00000e+00
3.20700e+02,1.67068e+01,-8.26619e+01,0.00000e+00,0.00000e+00,0.00000e+00
3.20700e+02,1.30066e+01,-8.58412e+01,0.00000e+00,0.00000e+00,0.00000e+00
3.20700e+02,8.00212e+00,-8.90205e+01,0.00000e+00,0.00000e+00,0.00000e+00
3.20700e+02,-3.24239e+00,-9.21998e+01,0.00000e+00,0.00000e+00,0.00000e+00
3.20700e+02,-4.05392e+00,-9.22072e+01,0.00000e+00,0.00000e+00,0.00000e+00
3.20700e+02,-1.14474e+01,-8.89141e+01,0.00000e+00,0.00000e+00,0.00000e+00
3.20700e+02,-1.23426e+01,-8.56210e+01,0.00000e+00,0.00000e+00,0.00000e+00
3.20700e+02,-1.26515e+01,-8.23279e+01,0.00000e+00,0.00000e+00,0.00000e+00
3.20700e+02,-1.26984e+01,-7.90348e+01,0.00000e+00,0.00000e+00,0.00000e+00
3.20700e+02,-1.25479e+01,-7.57416e+01,0.00000e+00,0.00000e+00,0.00000e+00
3.20700e+02,-1.22734e+01,-7.24485e+01,0.00000e+00,0.00000e+00,0.00000e+00
3.20700e+02,-1.18746e+01,-6.91554e+01,0.00000e+00,0.00000e+00,0.00000e+00
3.20700e+02,-1.13999e+01,-6.58623e+01,0.00000e+00,0.00000e+00,0.00000e+00
3.20700e+02,-1.08812e+01,-6.25692e+01,0.00000e+00,0.00000e+00,0.00000e+00
3.20700e+02,-1.02962e+01,-5.92761e+01,0.00000e+00,0.00000e+00,0.00000e+00
3.20700e+02,-9.66973e+00,-5.59829e+01,0.00000e+00,0.00000e+00,0.00000e+00
3.20700e+02,-9.00292e+00,-5.26898e+01,0.00000e+00,0.00000e+00,0.00000e+00
3.20700e+02,-8.29591e+00,-4.93967e+01,0.00000e+00,0.00000e+00,0.00000e+00
3.20700e+02,-7.56370e+00,-4.61036e+01,0.00000e+00,0.00000e+00,0.00000e+00
3.20700e+02,-6.79920e+00,-4.28105e+01,0.00000e+00,0.00000e+00,0.00000e+00
3.20700e+02,-6.01403e+00,-3.95174e+01,0.00000e+00,0.00000e+00,0.00000e+00
3.20700e+02,-5.21032e+00,-3.62243e+01,0.00000e+00,0.00000e+00,0.00000e+00
3.20700e+02,-4.39006e+00,-3.29311e+01,0.00000e+00,0.00000e+00,0.00000e+00
3.20700e+02,-3.56279e+00,-2.96380e+01,0.00000e+00,0.00000e+00,0.00000e+00
3.20700e+02,-2.72467e+00,-2.63449e+01,0.00000e+00,0.00000e+00,0.00000e+00
3.20700e+02,-1.88474e+00,-2.30518e+01,0.00000e+00,0.00000e+00,0.00000e+00
3.20700e+02,-1.03832e+00,-1.97587e+01,0.00000e+00,0.00000e+00,0.00000e+00
3.20700e+02,-1.91989e-01,-1.64656e+01,0.00000e+00,0.00000e+00,0.00000e+00
3.20700e+02,6.51143e-01,-1.31725e+01,0.00000e+00,0.00000e+00,0.00000e+00
3.20700e+02,1.49428e+00,-9.87934e+00,0.00000e+00,0.00000e+00,0.00000e+00
3.20700e+02,2.31744e+00,-6.58623e+00,0.00000e+00,0.00000e+00,0.00000e+00
3.20700e+02,3.13689e+00,-3.29311e+00,0.00000e+00,0.00000e+00,0.00000e+00
4.26200e+02,4.14236e+01,0.00000e+00,0.00000e+00,0.00000e+00,0.00000e+00
4.26200e+02,4.12150e+01,-3.14776e+00,0.00000e+00,0.00000e+00,0.00000e+00
4.26200e+02,4.09374e+01,-6.29551e+00,0.00000e+00,0.00000e+00,0.00000e+00
4.26200e+02,4.06571e+01,-9.44327e+00,0.00000e+00,0.00000e+00,0.00000e+00
4.26200e+02,4.03160e+01,-1.25910e+01,0.00000e+00,0.00000e+00,0.00000e+00
4.26200e+02,3.99607e+01,-1.57388e+01,0.00000e+00,0.00000e+00,0.00000e+00
4.26200e+02,3.95588e+01,-1.88865e+01,0.00000e+00,0.00000e+00,0.00000e+00
4.26200e+02,3.91341e+01,-2.20343e+01,0.00000e+00,0.00000e+00,0.00000e+00
4.26200e+02,3.86720e+01,-2.51820e+01,0.00000e+00,0.00000e+00,0.00000e+00
4.26200e+02,3.81790e+01,-2.83298e+01,0.00000e+00,0.00000e+00,0.00000e+00
4.26200e+02,3.76521e+01,-3.14776e+01,0.00000e+00,0.00000e+00,0.00000e+00
4.26200e+02,3.70842e+01,-3.46253e+01,0.00000e+00,0.00000e+00,0.00000e+00
4.26200e+02,3.64743e+01,-3.77731e+01,0.00000e+00,0.00000e+00,0.00000e+00
4.26200e+02,3.58048e+01,-4.09208e+01,0.00000e+00,0.00000e+00,0.00000e+00
4.26200e+02,3.50774e+01,-4.40686e+01,0.00000e+00,0.00000e+00,0.00000e+00
4.26200e+02,3.42806e+01,-4.72163e+01,0.00000e+00,0.00000e+00,0.00000e+00
4.26200e+02,3.33901e+01,-5.03641e+01,0.00000e+00,0.00000e+00,0.00000e+00
4.26200e+02,3.24342e+01,-5.35118e+01,0.00000e+00,0.00000e+00,0.00000e+00
4.26200e+02,3.13314e+01,-5.66596e+01,0.00000e+00,0.00000e+00,0.00000e+00
4.26200e+02,3.01677e+01,-5.98074e+01,0.00000e+00,0.00000e+00,0.00000e+00
4.26200e+02,2.88343e+01,-6.29551e+01,0.00000e+00,0.00000e+00,0.00000e+00
4.26200e+02,2.73650e+01,-6.61029e+01,0.00000e+00,0.00000e+00,0.00000e+00
4.26200e+02,2.57573e+01,-6.92506e+01,0.00000e+00,0.00000e+00,0.00000e+00
4.26200e+02,2.39173e+01,-7.23984e+01,0.00000e+00,0.00000e+00,0.00000e+00
4.26200e+02,2.18083e+01,-7.55461e+01,0.00000e+00,0.00000e+00,0.00000e+00
4.26200e+02,1.93952e+01,-7.86939e+01,0.00000e+00,0.00000e+00,0.00000e+00
4.26200e+02,1.65410e+01,-8.18417e+01,0.00000e+00,0.00000e+00,0.00000e+00
4.26200e+02,1.28775e+01,-8.49894e+01,0.00000e+00,0.00000e+00,0.00000e+00
4.26200e+02,7.92271e+00,-8.81372e+01,0.00000e+00,0.00000e+00,0.00000e+00
4.26200e+02,-3.21022e+00,-9.12849e+01,0.00000e+00,0.00000e+00,0.00000e+00
4.26200e+02,-4.01369e+00,-9.12922e+01,0.00000e+00,0.00000e+00,0.00000e+00
4.26200e+02,-1.13339e+01,-8.80318e+01,0.00000e+00,0.00000e+00,0.00000e+00
4.26200e+02,-1.22201e+01,-8.47713e+01,0.00000e+00,0.00000e+00,0.00000e+00
4.26200e+02,-1.25260e+01,-8.15109e+01,0.00000e+00,0.00000e+00,0.00000e+00
4.26200e+02,-1.25724e+01,-7.82505e+01,0.00000e+00,0.00000e+00,0.00000e+00
4.26200e+02,-1.24233e+01,-7.49900e+01,0.00000e+00,0.00000e+00,0.00000e+00
4.26200e+02,-1.21516e+01,-7.17296e+01,0.00000e+00,0.00000e+00,0.00000e+00
4.26200e+02,-1.17568e+01,-6.84692e+01,0.00000e+00,0.00000e+00,0.00000e+00
4.26200e+02,-1.12868e+01,-6.52087e+01,0.00000e+00,0.00000e+00,0.00000e+00
4.26200e+02,-1.07732e+01,-6.19483e+01,0.00000e+00,0.00000e+00,0.00000e+00
4.26200e+02,-1.01940e+01,-5.86879e+01,0.00000e+00,0.00000e+00,0.00000e+00
4.26200e+02,-9.57378e+00,-5.54274e+01,0.00000e+00,0.00000e+00,0.00000e+00
4.26200e+02,-8.91358e+00,-5.21670e+01,0.00000e+00,0.00000e+00,0.00000e+00
4.26200e+02,-8.21359e+00,-4.89065e+01,0.00000e+00,0.00000e+00,0.00000e+00
4.26200e+02,-7.48864e+00,-4.56461e+01,0.00000e+00,0.00000e+00,0.00000e+00
4.26200e+02,-6.73173e+00,-4.23857e+01,0.00000e+00,0.00000e+00,0.00000e+00
4.26200e+02,-5.95435e+00,-3.91252e+01,0.00000e+00,0.00000e+00,0.00000e+00
4.26200e+02,-5.15861e+00,-3.58648e+01,0.00000e+00,0.00000e+00,0.00000e+00
4.26200e+02,-4.34650e+00,-3.26044e+01,0.00000e+00,0.00000e+00,0.00000e+00
4.26200e+02,-3.52744e+00,-2.93439e+01,0.00000e+00,0.00000e+00,0.00000e+00
4.26200e+02,-2.69763e+00,-2.60835e+01,0.00000e+00,0.00000e+00,0.00000e+00
4.26200e+02,-1.86603e+00,-2.28231e+01,0.00000e+00,0.00000e+00,0.00000e+00
4.26200e+02,-1.02802e+00,-1.95626e+01,0.00000e+00,0.00000e+00,0.00000e+00
4.26200e+02,-1.90083e-01,-1.63022e+01,0.00000e+00,0.00000e+00,0.00000e+00
4.26200e+02,6.44682e-01,-1.30417e+01,0.00000e+00,0.00000e+00,0.00000e+00
4.26200e+02,1.47945e+00,-9.78131e+00,0.00000e+00,0.00000e+00,0.00000e+00
4.26200e+02,2.29445e+00,-6.52087e+00,0.00000e+00,0.00000e+00,0.00000e+00
4.26200e+02,3.10576e+00,-3.26044e+00,0.00000e+00,0.00000e+00,0.00000e+00
5.30600e+02,4.10127e+01,0.00000e+00,0.00000e+00,0.00000e+00,0.00000e+00
5.30600e+02,4.08062e+01,-3.11654e+00,0.00000e+00,0.00000e+00,0.00000e+00
5.30600e+02,4.05314e+01,-6.23307e+00,0.00000e+00,0.00000e+00,0.00000e+00
5.30600e+02,4.02539e+01,-9.34961e+00,0.00000e+00,0.00000e+00,0.00000e+00
5.30600e+02,3.99161e+01,-1.24661e+01,0.00000e+00,0.00000e+00,0.00000e+00
5.30600e+02,3.95644e+01,-1.55827e+01,0.00000e+00,0.00000e+00,0.00000e+00
5.30600e+02,3.91664e+01,-1.86992e+01,0.00000e+00,0.00000e+00,0.00000e+00
5.30600e+02,3.87460e+01,-2.18158e+01,0.00000e+00,0.00000e+00,0.00000e+00
5.30600e+02,3.82884e+01,-2.49323e+01,0.00000e+00,0.00000e+00,0.00000e+00
5.30600e+02,3.78003e+01,-2.80488e+01,0.00000e+00,0.00000e+00,0.00000e+00
5.30600e+02,3.72787e+01,-3.11654e+01,0.00000e+00,0.00000e+00,0.00000e+00
5.30600e+02,3.67164e+01,-3.42819e+01,0.00000e+00,0.00000e+00,0.00000e+00
5.30600e+02,3.61125e+01,-3.73984e+01,0.00000e+00,0.00000e+00,0.00000e+00
5.30600e+02,3.54497e+01,-4.05150e+01,0.00000e+00,0.00000e+00,0.00000e+00
5.30600e+02,3.47295e+01,-4.36315e+01,0.00000e+00,0.00000e+00,0.00000e+00
5.30600e+02,3.39406e+01,-4.67480e+01,0.00000e+00,0.00000e+00,0.00000e+00
5.30600e+02,3.30589e+01,-4.98646e+01,0.00000e+00,0.00000e+00,0.00000e+00
5.30600e+02,3.21125e+01,-5.29811e+01,0.00000e+00,0.00000e+00,0.00000e+00
5.30600e+02,3.10206e+01,-5.60976e+01,0.00000e+00,0.00000e+00,0.00000e+00
5.30600e+02,2.98685e+01,-5.92142e+01,0.00000e+00,0.00000e+00,0.00000e+00
5.30600e+02,2.85484e+01,-6.23307e+01,0.00000e+00,0.00000e+00,0.00000e+00
5.30600e+02,2.70936e+01,-6.54473e+01,0.00000e+00,0.00000e+00,0.00000e+00
5.30600e+02,2.55018e+01,-6.85638e+01,0.00000e+00,0.00000e+00,0.00000e+00
5.30600e+02,2.36801e+01,-7.16803e+01,0.00000e+00,0.00000e+00,0.00000e+00
5.30600e+02,2.15920e+01,-7.47969e+01,0.00000e+00,0.00000e+00,0.00000e+00
5.30600e+02,1.92028e+01,-7.79134e+01,0.00000e+00,0.00000e+00,0.00000e+00
5.30600e+02,1.63770e+01,-8.10299e+01,0.00000e+00,0.00000e+00,0.00000e+00
5.30600e+02,1.27498e+01,-8.41465e+01,0.00000e+00,0.00000e+00,0.00000e+00
5.30600e+02,7.84413e+00,-8.72630e+01,0.00000e+00,0.00000e+00,0.00000e+00
5.30600e+02,-3.17838e+00,-9.03795e+01,0.00000e+00,0.00000e+00,0.00000e+00
5.30600e+02,-3.97388e+00,-9.03868e+01,0.00000e+00,0.00000e+00,0.00000e+00
5.30600e+02,-1.12214e+01,-8.71587e+01,0.00000e+00,0.00000e+00,0.00000e+00
5.30600e+02,-1.20989e+01,-8.39306e+01,0.00000e+00,0.00000e+00,0.00000e+00
5.30600e+02,-1.24018e+01,-8.07025e+01,0.00000e+00,0.00000e+00,0.00000e+00
5.30600e+02,-1.24477e+01,-7.74744e+01,0.00000e+00,0.00000e+00,0.00000e+00
5.30600e+02,-1.23001e+01,-7.42463e+01,0.00000e+00,0.00000e+00,0.00000e+00
5.30600e+02,-1.20311e+01,-7.10182e+01,0.00000e+00,0.00000e+00,0.00000e+00
5.30600e+02,-1.16402e+01,-6.77901e+01,0.00000e+00,0.00000e+00,0.00000e+00
5.30600e+02,-1.11748e+01,-6.45620e+01,0.00000e+00,0.00000e+00,0.00000e+00
5.30600e+02,-1.06664e+01,-6.13339e+01,0.00000e+00,0.00000e+00,0.00000e+00
5.30600e+02,-1.00929e+01,-5.81058e+01,0.00000e+00,0.00000e+00,0.00000e+00
5.30600e+02,-9.47882e+00,-5.48777e+01,0.00000e+00,0.00000e+00,0.00000e+00
5.30600e+02,-8.82518e+00,-5.16496e+01,0.00000e+00,0.00000e+00,0.00000e+00
5.30600e+02,-8.13212e+00,-4.84215e+01,0.00000e+00,0.00000e+00,0.00000e+00
5.30600e+02,-7.41437e+00,-4.51934e+01,0.00000e+00,0.00000e+00,0.00000e+00
5.30600e+02,-6.66496e+00,-4.19653e+01,0.00000e+00,0.00000e+00,0.00000e+00
5.30600e+02,-5.89529e+00,-3.87372e+01,0.00000e+00,0.00000e+00,0.00000e+00
5.30600e+02,-5.10745e+00,-3.55091e+01,0.00000e+00,0.00000e+00,0.00000e+00
5.30600e+02,-4.30339e+00,-3.22810e+01,0.00000e+00,0.00000e+00,0.00000e+00
5.30600e+02,-3.49245e+00,-2.90529e+01,0.00000e+00,0.00000e+00,0.00000e+00
5.30600e+02,-2.67088e+00,-2.58248e+01,0.00000e+00,0.00000e+00,0.00000e+00
5.30600e+02,-1.84753e+00,-2.25967e+01,0.00000e+00,0.00000e+00,0.00000e+00
5.30600e+02,-1.01782e+00,-1.93686e+01,0.00000e+00,0.00000e+00,0.00000e+00
5.30600e+02,-1.88198e-01,-1.61405e+01,0.00000e+00,0.00000e+00,0.00000e+00
5.30600e+02,6.38288e-01,-1.29124e+01,0.00000e+00,0.00000e+00,0.00000e+00
5.30600e+02,1.46477e+00,-9.68430e+00,0.00000e+00,0.00000e+00,0.00000e+00
5.30600e+02,2.27169e+00,-6.45620e+00,0.00000e+00,0.00000e+00,0.00000e+00
5.30600e+02,3.07496e+00,-3.22810e+00,0.00000e+00,0.00000e+00,0.00000e+00
6.33500e+02,4.06078e+01,0.00000e+00,0.00000e+00,0.00000e+00,0.00000e+00
6.33500e+02,4.04033e+01,-3.08576e+00,0.00000e+00,0.00000e+00,0.00000e+00
6.33500e+02,4.01312e+01,-6.17153e+00,0.00000e+00,0.00000e+00,0.00000e+00
6.33500e+02,3.98564e+01,-9.25729e+00,0.00000e+00,0.00000e+00,0.00000e+00
6.33500e+02,3.95220e+01,-1.23431e+01,0.00000e+00,0.00000e+00,0.00000e+00
6.33500e+02,3.91738e+01,-1.54288e+01,0.00000e+00,0.00000e+00,0.00000e+00
6.33500e+02,3.87797e+01,-1.85146e+01,0.00000e+00,0.00000e+00,0.00000e+00
6.33500e+02,3.83634e+01,-2.16004e+01,0.00000e+00,0.00000e+00,0.00000e+00
6.33500e+02,3.79104e+01,-2.46861e+01,0.00000e+00,0.00000e+00,0.00000e+00
6.33500e+02,3.74271e+01,-2.77719e+01,0.00000e+00,0.00000e+00,0.00000e+00
6.33500e+02,3.69106e+01,-3.08576e+01,0.00000e+00,0.00000e+00,0.00000e+00
6.33500e+02,3.63539e+01,-3.39434e+01,0.00000e+00,0.00000e+00,0.00000e+00
6.33500e+02,3.57559e+01,-3.70292e+01,0.00000e+00,0.00000e+00,0.00000e+00
6.33500e+02,3.50997e+01,-4.01149e+01,0.00000e+00,0.00000e+00,0.00000e+00
6.33500e+02,3.43866e+01,-4.32007e+01,0.00000e+00,0.00000e+00,0.00000e+00
6.33500e+02,3.36055e+01,-4.62865e+01,0.00000e+00,0.00000e+00,0.00000e+00
6.33500e+02,3.27325e+01,-4.93722e+01,0.00000e+00,0.00000e+00,0.00000e+00
6.33500e+02,3.17954e+01,-5.24580e+01,0.00000e+00,0.00000e+00,0.00000e+00
6.33500e+02,3.07144e+01,-5.55438e+01,0.00000e+00,0.00000e+00,0.00000e+00
6.33500e+02,2.95736e+01,-5.86295e+01,0.00000e+00,0.00000e+00,0.00000e+00
6.33500e+02,2.82665e+01,-6.17153e+01,0.00000e+00,0.00000e+00,0.00000e+00
6.33500e+02,2.68261e+01,-6.48011e+01,0.00000e+00,0.00000e+00,0.00000e+00
6.33500e+02,2.52500e+01,-6.78868e+01,0.00000e+00,0.00000e+00,0.00000e+00
6.33500e+02,2.34463e+01,-7.09726e+01,0.00000e+00,0.00000e+00,0.00000e+00
6.33500e+02,2.13788e+01,-7.40584e+01,0.00000e+00,0.00000e+00,0.00000e+00
6.33500e+02,1.90132e+01,-7.71441e+01,0.00000e+00,0.00000e+00,0.00000e+00
6.33500e+02,1.62153e+01,-8.02299e+01,0.00000e+00,0.00000e+00,0.00000e+00
6.33500e+02,1.26239e+01,-8.33156e+01,0.00000e+00,0.00000e+00,0.00000e+00
6.33500e+02,7.76668e+00,-8.64014e+01,0.00000e+00,0.00000e+00,0.00000e+00
6.33500e+02,-3.14700e+00,-8.94872e+01,0.00000e+00,0.00000e+00,0.00000e+00
6.33500e+02,-3.93464e+00,-8.94943e+01,0.00000e+00,0.00000e+00,0.00000e+00
6.33500e+02,-1.11106e+01,-8.62981e+01,0.00000e+00,0.00000e+00,0.00000e+00
6.33500e+02,-1.19795e+01,-8.31019e+01,0.00000e+00,0.00000e+00,0.00000e+00
6.33500e+02,-1.22793e+01,-7.99057e+01,0.00000e+00,0.00000e+00,0.00000e+00
6.33500e+02,-1.23248e+01,-7.67094e+01,0.00000e+00,0.00000e+00,0.00000e+00
6.33500e+02,-1.21787e+01,-7.35132e+01,0.00000e+00,0.00000e+00,0.00000e+00
6.33500e+02,-1.19123e+01,-7.03170e+01,0.00000e+00,0.00000e+00,0.00000e+00
6.33500e+02,-1.15252e+01,-6.71208e+01,0.00000e+00,0.00000e+00,0.00000e+00
6.33500e+02,-1.10645e+01,-6.39245e+01,0.00000e+00,0.00000e+00,0.00000e+00
6.33500e+02,-1.05611e+01,-6.07283e+01,0.00000e+00,0.00000e+00,0.00000e+00
6.33500e+02,-9.99326e+00,-5.75321e+01,0.00000e+00,0.00000e+00,0.00000e+00
6.33500e+02,-9.38524e+00,-5.43358e+01,0.00000e+00,0.00000e+00,0.00000e+00
6.33500e+02,-8.73804e+00,-5.11396e+01,0.00000e+00,0.00000e+00,0.00000e+00
6.33500e+02,-8.05183e+00,-4.79434e+01,0.00000e+00,0.00000e+00,0.00000e+00
6.33500e+02,-7.34116e+00,-4.47472e+01,0.00000e+00,0.00000e+00,0.00000e+00
6.33500e+02,-6.59916e+00,-4.15509e+01,0.00000e+00,0.00000e+00,0.00000e+00
6.33500e+02,-5.83709e+00,-3.83547e+01,0.00000e+00,0.00000e+00,0.00000e+00
6.33500e+02,-5.05702e+00,-3.51585e+01,0.00000e+00,0.00000e+00,0.00000e+00
6.33500e+02,-4.26090e+00,-3.19623e+01,0.00000e+00,0.00000e+00,0.00000e+00
6.33500e+02,-3.45797e+00,-2.87660e+01,0.00000e+00,0.00000e+00,0.00000e+00
6.33500e+02,-2.64450e+00,-2.55698e+01,0.00000e+00,0.00000e+00,0.00000e+00
6.33500e+02,-1.82928e+00,-2.23736e+01,0.00000e+00,0.00000e+00,0.00000e+00
6.33500e+02,-1.00777e+00,-1.91774e+01,0.00000e+00,0.00000e+00,0.00000e+00
6.33500e+02,-1.86340e-01,-1.59811e+01,0.00000e+00,0.00000e+00,0.00000e+00
6.33500e+02,6.31986e-01,-1.27849e+01,0.00000e+00,0.00000e+00,0.00000e+00
6.33500e+02,1.45031e+00,-9.58868e+00,0.00000e+00,0.00000e+00,0.00000e+00
6.33500e+02,2.24926e+00,-6.39245e+00,0.00000e+00,0.00000e+00,0.00000e+00
6.33500e+02,3.04460e+00,-3.19623e+00,0.00000e+00,0.00000e+00,0.00000e+00
7.34700e+02,4.02095e+01,0.00000e+00,0.00000e+00,0.00000e+00,0.00000e+00
7.34700e+02,4.00070e+01,-3.05550e+00,0.00000e+00,0.00000e+00,0.00000e+00
7.34700e+02,3.97376e+01,-6.11100e+00,0.00000e+00,0.00000e+00,0.00000e+00
7.34700e+02,3.94656e+01,-9.16651e+00,0.00000e+00,0.00000e+00,0.00000e+00
7.34700e+02,3.91344e+01,-1.22220e+01,0.00000e+00,0.00000e+00,0.00000e+00
7.34700e+02,3.87896e+01,-1.52775e+01,0.00000e+00,0.00000e+00,0.00000e+00
7.34700e+02,3.83994e+01,-1.83330e+01,0.00000e+00,0.00000e+00,0.00000e+00
7.34700e+02,3.79872e+01,-2.13885e+01,0.00000e+00,0.00000e+00,0.00000e+00
7.34700e+02,3.75386e+01,-2.44440e+01,0.00000e+00,0.00000e+00,0.00000e+00
7.34700e+02,3.70601e+01,-2.74995e+01,0.00000e+00,0.00000e+00,0.00000e+00
7.34700e+02,3.65486e+01,-3.05550e+01,0.00000e+00,0.00000e+00,0.00000e+00
7.34700e+02,3.59973e+01,-3.36105e+01,0.00000e+00,0.00000e+00,0.00000e+00
7.34700e+02,3.54053e+01,-3.66660e+01,0.00000e+00,0.00000e+00,0.00000e+00
7.34700e+02,3.47554e+01,-3.97215e+01,0.00000e+00,0.00000e+00,0.00000e+00
7.34700e+02,3.40493e+01,-4.27770e+01,0.00000e+00,0.00000e+00,0.00000e+00
7.34700e+02,3.32760e+01,-4.58325e+01,0.00000e+00,0.00000e+00,0.00000e+00
7.34700e+02,3.24115e+01,-4.88880e+01,0.00000e+00,0.00000e+00,0.00000e+00
7.34700e+02,3.14836e+01,-5.19435e+01,0.00000e+00,0.00000e+00,0.00000e+00
7.34700e+02,3.04131e+01,-5.49990e+01,0.00000e+00,0.00000e+00,0.00000e+00
7.34700e+02,2.92835e+01,-5.80545e+01,0.00000e+00,0.00000e+00,0.00000e+00
7.34700e+02,2.79893e+01,-6.11100e+01,0.00000e+00,0.00000e+00,0.00000e+00
7.34700e+02,2.65630e+01,-6.41655e+01,0.00000e+00,0.00000e+00,0.00000e+00
7.34700e+02,2.50024e+01,-6.72210e+01,0.00000e+00,0.00000e+00,0.00000e+00
7.34700e+02,2.32164e+01,-7.02765e+01,0.00000e+00,0.00000e+00,0.00000e+00
7.34700e+02,2.11691e+01,-7.33320e+01,0.00000e+00,0.00000e+00,0.00000e+00
7.34700e+02,1.88268e+01,-7.63875e+01,0.00000e+00,0.00000e+00,0.00000e+00
7.34700e+02,1.60563e+01,-7.94430e+01,0.00000e+00,0.00000e+00,0.00000e+00
7.34700e+02,1.25001e+01,-8.24985e+01,0.00000e+00,0.00000e+00,0.00000e+00
7.34700e+02,7.69051e+00,-8.55540e+01,0.00000e+00,0.00000e+00,0.00000e+00
7.34700e+02,-3.11614e+00,-8.86096e+01,0.00000e+00,0.00000e+00,0.00000e+00
7.34700e+02,-3.89606e+00,-8.86166e+01,0.00000e+00,0.00000e+00,0.00000e+00
7.34700e+02,-1.10017e+01,-8.54518e+01,0.00000e+00,0.00000e+00,0.00000e+00
7.34700e+02,-1.18620e+01,-8.22869e+01,0.00000e+00,0.00000e+00,0.00000e+00
7.34700e+02,-1.21589e+01,-7.91220e+01,0.00000e+00,0.00000e+00,0.00000e+00
7.34700e+02,-1.22039e+01,-7.59571e+01,0.00000e+00,0.00000e+00,0.00000e+00
7.34700e+02,-1.20592e+01,-7.27922e+01,0.00000e+00,0.00000e+00,0.00000e+00
7.34700e+02,-1.17955e+01,-6.96274e+01,0.00000e+00,0.00000e+00,0.00000e+00
7.34700e+02,-1.14122e+01,-6.64625e+01,0.00000e+00,0.00000e+00,0.00000e+00
7.34700e+02,-1.09560e+01,-6.32976e+01,0.00000e+00,0.00000e+00,0.00000e+00
7.34700e+02,-1.04575e+01,-6.01327e+01,0.00000e+00,0.00000e+00,0.00000e+00
7.34700e+02,-9.89525e+00,-5.69678e+01,0.00000e+00,0.00000e+00,0.00000e+00
7.34700e+02,-9.29319e+00,-5.38030e+01,0.00000e+00,0.00000e+00,0.00000e+00
7.34700e+02,-8.65235e+00,-5.06381e+01,0.00000e+00,0.00000e+00,0.00000e+00
7.34700e+02,-7.97287e+00,-4.74732e+01,0.00000e+00,0.00000e+00,0.00000e+00
7.34700e+02,-7.26917e+00,-4.43083e+01,0.00000e+00,0.00000e+00,0.00000e+00
7.34700e+02,-6.53444e+00,-4.11434e+01,0.00000e+00,0.00000e+00,0.00000e+00
7.34700e+02,-5.77984e+00,-3.79786e+01,0.00000e+00,0.00000e+00,0.00000e+00
7.34700e+02,-5.00742e+00,-3.48137e+01,0.00000e+00,0.00000e+00,0.00000e+00
7.34700e+02,-4.21911e+00,-3.16488e+01,0.00000e+00,0.00000e+00,0.00000e+00
7.34700e+02,-3.42406e+00,-2.84839e+01,0.00000e+00,0.00000e+00,0.00000e+00
7.34700e+02,-2.61857e+00,-2.53190e+01,0.00000e+00,0.00000e+00,0.00000e+00
7.34700e+02,-1.81134e+00,-2.21542e+01,0.00000e+00,0.00000e+00,0.00000e+00
7.34700e+02,-9.97887e-01,-1.89893e+01,0.00000e+00,0.00000e+00,0.00000e+00
7.34700e+02,-1.84513e-01,-1.58244e+01,0.00000e+00,0.00000e+00,0.00000e+00
7.34700e+02,6.25788e-01,-1.26595e+01,0.00000e+00,0.00000e+00,0.00000e+00
7.34700e+02,1.43609e+00,-9.49464e+00,0.00000e+00,0.00000e+00,0.00000e+00
7.34700e+02,2.22720e+00,-6.32976e+00,0.00000e+00,0.00000e+00,0.00000e+00
7.34700e+02,3.01474e+00,-3.16488e+00,0.00000e+00,0.00000e+00,0.00000e+00
8.33800e+02,3.98196e+01,0.00000e+00,0.00000e+00,0.00000e+00,0.00000e+00
8.33800e+02,3.96190e+01,-3.02587e+00,0.00000e+00,0.00000e+00,0.00000e+00
8.33800e+02,3.93522e+01,-6.05173e+00,0.00000e+00,0.00000e+00,0.00000e+00
8.33800e+02,3.90828e+01,-9.07760e+00,0.00000e+00,0.00000e+00,0.00000e+00
8.33800e+02,3.87549e+01,-1.21035e+01,0.00000e+00,0.00000e+00,0.00000e+00
8.33800e+02,3.84134e+01,-1.51293e+01,0.00000e+00,0.00000e+00,0.00000e+00
8.33800e+02,3.80270e+01,-1.81552e+01,0.00000e+00,0.00000e+00,0.00000e+00
8.33800e+02,3.76188e+01,-2.11811e+01,0.00000e+00,0.00000e+00,0.00000e+00
8.33800e+02,3.71745e+01,-2.42069e+01,0.00000e+00,0.00000e+00,0.00000e+00
8.33800e+02,3.67006e+01,-2.72328e+01,0.00000e+00,0.00000e+00,0.00000e+00
8.33800e+02,3.61941e+01,-3.02587e+01,0.00000e+00,0.00000e+00,0.00000e+00
8.33800e+02,3.56482e+01,-3.32845e+01,0.00000e+00,0.00000e+00,0.00000e+00
8.33800e+02,3.50619e+01,-3.63104e+01,0.00000e+00,0.00000e+00,0.00000e+00
8.33800e+02,3.44183e+01,-3.93363e+01,0.00000e+00,0.00000e+00,0.00000e+00
8.33800e+02,3.37191e+01,-4.23621e+01,0.00000e+00,0.00000e+00,0.00000e+00
8.33800e+02,3.29532e+01,-4.53880e+01,0.00000e+00,0.00000e+00,0.00000e+00
8.33800e+02,3.20971e+01,-4.84139e+01,0.00000e+00,0.00000e+00,0.00000e+00
8.33800e+02,3.11783e+01,-5.14397e+01,0.00000e+00,0.00000e+00,0.00000e+00
8.33800e+02,3.01182e+01,-5.44656e+01,0.00000e+00,0.00000e+00,0.00000e+00
8.33800e+02,2.89995e+01,-5.74915e+01,0.00000e+00,0.00000e+00,0.00000e+00
8.33800e+02,2.77178e+01,-6.05173e+01,0.00000e+00,0.00000e+00,0.00000e+00
8.33800e+02,2.63054e+01,-6.35432e+01,0.00000e+00,0.00000e+00,0.00000e+00
8.33800e+02,2.47599e+01,-6.65691e+01,0.00000e+00,0.00000e+00,0.00000e+00
8.33800e+02,2.29912e+01,-6.95949e+01,0.00000e+00,0.00000e+00,0.00000e+00
8.33800e+02,2.09638e+01,-7.26208e+01,0.00000e+00,0.00000e+00,0.00000e+00
8.33800e+02,1.86442e+01,-7.56467e+01,0.00000e+00,0.00000e+00,0.00000e+00
8.33800e+02,1.59005e+01,-7.86725e+01,0.00000e+00,0.00000e+00,0.00000e+00
8.33800e+02,1.23789e+01,-8.16984e+01,0.00000e+00,0.00000e+00,0.00000e+00
8.33800e+02,7.61592e+00,-8.47243e+01,0.00000e+00,0.00000e+00,0.00000e+00
8.33800e+02,-3.08591e+00,-8.77501e+01,0.00000e+00,0.00000e+00,0.00000e+00
8.33800e+02,-3.85827e+00,-8.77572e+01,0.00000e+00,0.00000e+00,0.00000e+00
8.33800e+02,-1.08950e+01,-8.46230e+01,0.00000e+00,0.00000e+00,0.00000e+00
8.33800e+02,-1.17470e+01,-8.14888e+01,0.00000e+00,0.00000e+00,0.00000e+00
8.33800e+02,-1.20409e+01,-7.83546e+01,0.00000e+00,0.00000e+00,0.00000e+00
8.33800e+02,-1.20856e+01,-7.52204e+01,0.00000e+00,0.00000e+00,0.00000e+00
8.33800e+02,-1.19423e+01,-7.20862e+01,0.00000e+00,0.00000e+00,0.00000e+00
8.33800e+02,-1.16811e+01,-6.89521e+01,0.00000e+00,0.00000e+00,0.00000e+00
8.33800e+02,-1.13015e+01,-6.58179e+01,0.00000e+00,0.00000e+00,0.00000e+00
8.33800e+02,-1.08497e+01,-6.26837e+01,0.00000e+00,0.00000e+00,0.00000e+00
8.33800e+02,-1.03561e+01,-5.95495e+01,0.00000e+00,0.00000e+00,0.00000e+00
8.33800e+02,-9.79928e+00,-5.64153e+01,0.00000e+00,0.00000e+00,0.00000e+00
8.33800e+02,-9.20306e+00,-5.32811e+01,0.00000e+00,0.00000e+00,0.00000e+00
8.33800e+02,-8.56843e+00,-5.01469e+01,0.00000e+00,0.00000e+00,0.00000e+00
8.33800e+02,-7.89554e+00,-4.70128e+01,0.00000e+00,0.00000e+00,0.00000e+00
8.33800e+02,-7.19866e+00,-4.38786e+01,0.00000e+00,0.00000e+00,0.00000e+00
8.33800e+02,-6.47106e+00,-4.07444e+01,0.00000e+00,0.00000e+00,0.00000e+00
8.33800e+02,-5.72378e+00,-3.76102e+01,0.00000e+00,0.00000e+00,0.00000e+00
8.33800e+02,-4.95886e+00,-3.44760e+01,0.00000e+00,0.00000e+00,0.00000e+00
8.33800e+02,-4.17819e+00,-3.13418e+01,0.00000e+00,0.00000e+00,0.00000e+00
8.33800e+02,-3.39085e+00,-2.82077e+01,0.00000e+00,0.00000e+00,0.00000e+00
8.33800e+02,-2.59317e+00,-2.50735e+01,0.00000e+00,0.00000e+00,0.00000e+00
8.33800e+02,-1.79378e+00,-2.19393e+01,0.00000e+00,0.00000e+00,0.00000e+00
8.33800e+02,-9.88209e-01,-1.88051e+01,0.00000e+00,0.00000e+00,0.00000e+00
8.33800e+02,-1.82723e-01,-1.56709e+01,0.00000e+00,0.00000e+00,0.00000e+00
8.33800e+02,6.19718e-01,-1.25367e+01,0.00000e+00,0.00000e+00,0.00000e+00
8.33800e+02,1.42216e+00,-9.40255e+00,0.00000e+00,0.00000e+00,0.00000e+00
8.33800e+02,2.20560e+00,-6.26837e+00,0.00000e+00,0.00000e+00,0.00000e+00
8.33800e+02,2.98550e+00,-3.13418e+00,0.00000e+00,0.00000e+00,0.00000e+00
9.30700e+02,3.94382e+01,0.00000e+00,0.00000e+00,0.00000e+00,0.00000e+00
9.30700e+02,3.92396e+01,-2.99689e+00,0.00000e+00,0.00000e+00,0.00000e+00
9.30700e+02,3.89754e+01,-5.99378e+00,0.00000e+00,0.00000e+00,0.00000e+00
9.30700e+02,3.87085e+01,-8.99067e+00,0.00000e+00,0.00000e+00,0.00000e+00
9.30700e+02,3.83837e+01,-1.19876e+01,0.00000e+00,0.00000e+00,0.00000e+00
9.30700e+02,3.80455e+01,-1.49844e+01,0.00000e+00,0.00000e+00,0.00000e+00
9.30700e+02,3.76628e+01,-1.79813e+01,0.00000e+00,0.00000e+00,0.00000e+00
9.30700e+02,3.72585e+01,-2.09782e+01,0.00000e+00,0.00000e+00,0.00000e+00
9.30700e+02,3.68185e+01,-2.39751e+01,0.00000e+00,0.00000e+00,0.00000e+00
9.30700e+02,3.63492e+01,-2.69720e+01,0.00000e+00,0.00000e+00,0.00000e+00
9.30700e+02,3.58475e+01,-2.99689e+01,0.00000e+00,0.00000e+00,0.00000e+00
9.30700e+02,3.53068e+01,-3.29658e+01,0.00000e+00,0.00000e+00,0.00000e+00
9.30700e+02,3.47261e+01,-3.59627e+01,0.00000e+00,0.00000e+00,0.00000e+00
9.30700e+02,3.40887e+01,-3.89596e+01,0.00000e+00,0.00000e+00,0.00000e+00
9.30700e+02,3.33962e+01,-4.19565e+01,0.00000e+00,0.00000e+00,0.00000e+00
9.30700e+02,3.26376e+01,-4.49533e+01,0.00000e+00,0.00000e+00,0.00000e+00
9.30700e+02,3.17897e+01,-4.79502e+01,0.00000e+00,0.00000e+00,0.00000e+00
9.30700e+02,3.08797e+01,-5.09471e+01,0.00000e+00,0.00000e+00,0.00000e+00
9.30700e+02,2.98297e+01,-5.39440e+01,0.00000e+00,0.00000e+00,0.00000e+00
9.30700e+02,2.87218e+01,-5.69409e+01,0.00000e+00,0.00000e+00,0.00000e+00
9.30700e+02,2.74524e+01,-5.99378e+01,0.00000e+00,0.00000e+00,0.00000e+00
9.30700e+02,2.60534e+01,-6.29347e+01,0.00000e+00,0.00000e+00,0.00000e+00
9.30700e+02,2.45228e+01,-6.59316e+01,0.00000e+00,0.00000e+00,0.00000e+00
9.30700e+02,2.27710e+01,-6.89285e+01,0.00000e+00,0.00000e+00,0.00000e+00
9.30700e+02,2.07631e+01,-7.19254e+01,0.00000e+00,0.00000e+00,0.00000e+00
9.30700e+02,1.84656e+01,-7.49222e+01,0.00000e+00,0.00000e+00,0.00000e+00
9.30700e+02,1.57483e+01,-7.79191e+01,0.00000e+00,0.00000e+00,0.00000e+00
9.30700e+02,1.22603e+01,-8.09160e+01,0.00000e+00,0.00000e+00,0.00000e+00
9.30700e+02,7.54299e+00,-8.39129e+01,0.00000e+00,0.00000e+00,0.00000e+00
9.30700e+02,-3.05636e+00,-8.69098e+01,0.00000e+00,0.00000e+00,0.00000e+00
9.30700e+02,-3.82132e+00,-8.69168e+01,0.00000e+00,0.00000e+00,0.00000e+00
9.30700e+02,-1.07906e+01,-8.38126e+01,0.00000e+00,0.00000e+00,0.00000e+00
9.30700e+02,-1.16345e+01,-8.07084e+01,0.00000e+00,0.00000e+00,0.00000e+00
9.30700e+02,-1.19256e+01,-7.76042e+01,0.00000e+00,0.00000e+00,0.00000e+00
9.30700e+02,-1.19698e+01,-7.45001e+01,0.00000e+00,0.00000e+00,0.00000e+00
9.30700e+02,-1.18279e+01,-7.13959e+01,0.00000e+00,0.00000e+00,0.00000e+00
9.30700e+02,-1.15692e+01,-6.82917e+01,0.00000e+00,0.00000e+00,0.00000e+00
9.30700e+02,-1.11933e+01,-6.51876e+01,0.00000e+00,0.00000e+00,0.00000e+00
9.30700e+02,-1.07458e+01,-6.20834e+01,0.00000e+00,0.00000e+00,0.00000e+00
9.30700e+02,-1.02569e+01,-5.89792e+01,0.00000e+00,0.00000e+00,0.00000e+00
9.30700e+02,-9.70544e+00,-5.58751e+01,0.00000e+00,0.00000e+00,0.00000e+00
9.30700e+02,-9.11493e+00,-5.27709e+01,0.00000e+00,0.00000e+00,0.00000e+00
9.30700e+02,-8.48637e+00,-4.96667e+01,0.00000e+00,0.00000e+00,0.00000e+00
9.30700e+02,-7.81993e+00,-4.65625e+01,0.00000e+00,0.00000e+00,0.00000e+00
9.30700e+02,-7.12973e+00,-4.34584e+01,0.00000e+00,0.00000e+00,0.00000e+00
9.30700e+02,-6.40909e+00,-4.03542e+01,0.00000e+00,0.00000e+00,0.00000e+00
9.30700e+02,-5.66897e+00,-3.72500e+01,0.00000e+00,0.00000e+00,0.00000e+00
9.30700e+02,-4.91137e+00,-3.41459e+01,0.00000e+00,0.00000e+00,0.00000e+00
9.30700e+02,-4.13818e+00,-3.10417e+01,0.00000e+00,0.00000e+00,0.00000e+00
9.30700e+02,-3.35837e+00,-2.79375e+01,0.00000e+00,0.00000e+00,0.00000e+00
9.30700e+02,-2.56834e+00,-2.48334e+01,0.00000e+00,0.00000e+00,0.00000e+00
9.30700e+02,-1.77660e+00,-2.17292e+01,0.00000e+00,0.00000e+00,0.00000e+00
9.30700e+02,-9.78745e-01,-1.86250e+01,0.00000e+00,0.00000e+00,0.00000e+00
9.30700e+02,-1.80973e-01,-1.55208e+01,0.00000e+00,0.00000e+00,0.00000e+00
9.30700e+02,6.13784e-01,-1.24167e+01,0.00000e+00,0.00000e+00,0.00000e+00
9.30700e+02,1.40854e+00,-9.31251e+00,0.00000e+00,0.00000e+00,0.00000e+00
9.30700e+02,2.18448e+00,-6.20834e+00,0.00000e+00,0.00000e+00,0.00000e+00
9.30700e+02,2.95691e+00,-3.10417e+00,0.00000e+00,0.00000e+00,0.00000e+00
1.02500e+03,3.90671e+01,0.00000e+00,0.00000e+00,0.00000e+00,0.00000e+00
1.02500e+03,3.88704e+01,-2.96869e+00,0.00000e+00,0.00000e+00,0.00000e+00
1.02500e+03,3.86086e+01,-5.93738e+00,0.00000e+00,0.00000e+00,0.00000e+00
1.02500e+03,3.83443e+01,-8.90607e+00,0.00000e+00,0.00000e+00,0.00000e+00
1.02500e+03,3.80226e+01,-1.18748e+01,0.00000e+00,0.00000e+00,0.00000e+00
1.02500e+03,3.76875e+01,-1.48435e+01,0.00000e+00,0.00000e+00,0.00000e+00
1.02500e+03,3.73084e+01,-1.78121e+01,0.00000e+00,0.00000e+00,0.00000e+00
1.02500e+03,3.69079e+01,-2.07808e+01,0.00000e+00,0.00000e+00,0.00000e+00
1.02500e+03,3.64721e+01,-2.37495e+01,0.00000e+00,0.00000e+00,0.00000e+00
1.02500e+03,3.60071e+01,-2.67182e+01,0.00000e+00,0.00000e+00,0.00000e+00
1.02500e+03,3.55102e+01,-2.96869e+01,0.00000e+00,0.00000e+00,0.00000e+00
1.02500e+03,3.49746e+01,-3.26556e+01,0.00000e+00,0.00000e+00,0.00000e+00
1.02500e+03,3.43994e+01,-3.56243e+01,0.00000e+00,0.00000e+00,0.00000e+00
1.02500e+03,3.37680e+01,-3.85930e+01,0.00000e+00,0.00000e+00,0.00000e+00
1.02500e+03,3.30819e+01,-4.15617e+01,0.00000e+00,0.00000e+00,0.00000e+00
1.02500e+03,3.23305e+01,-4.45304e+01,0.00000e+00,0.00000e+00,0.00000e+00
1.02500e+03,3.14906e+01,-4.74990e+01,0.00000e+00,0.00000e+00,0.00000e+00
1.02500e+03,3.05891e+01,-5.04677e+01,0.00000e+00,0.00000e+00,0.00000e+00
1.02500e+03,2.95491e+01,-5.34364e+01,0.00000e+00,0.00000e+00,0.00000e+00
1.02500e+03,2.84516e+01,-5.64051e+01,0.00000e+00,0.00000e+00,0.00000e+00
1.02500e+03,2.71940e+01,-5.93738e+01,0.00000e+00,0.00000e+00,0.00000e+00
1.02500e+03,2.58083e+01,-6.23425e+01,0.00000e+00,0.00000e+00,0.00000e+00
1.02500e+03,2.42920e+01,-6.53112e+01,0.00000e+00,0.00000e+00,0.00000e+00
1.02500e+03,2.25567e+01,-6.82799e+01,0.00000e+00,0.00000e+00,0.00000e+00
1.02500e+03,2.05677e+01,-7.12486e+01,0.00000e+00,0.00000e+00,0.00000e+00
1.02500e+03,1.82919e+01,-7.42173e+01,0.00000e+00,0.00000e+00,0.00000e+00
1.02500e+03,1.56001e+01,-7.71859e+01,0.00000e+00,0.00000e+00,0.00000e+00
1.02500e+03,1.21450e+01,-8.01546e+01,0.00000e+00,0.00000e+00,0.00000e+00
1.02500e+03,7.47201e+00,-8.31233e+01,0.00000e+00,0.00000e+00,0.00000e+00
1.02500e+03,-3.02760e+00,-8.60920e+01,0.00000e+00,0.00000e+00,0.00000e+00
1.02500e+03,-3.78536e+00,-8.60989e+01,0.00000e+00,0.00000e+00,0.00000e+00
1.02500e+03,-1.06891e+01,-8.30239e+01,0.00000e+00,0.00000e+00,0.00000e+00
1.02500e+03,-1.15250e+01,-7.99490e+01,0.00000e+00,0.00000e+00,0.00000e+00
1.02500e+03,-1.18134e+01,-7.68740e+01,0.00000e+00,0.00000e+00,0.00000e+00
1.02500e+03,-1.18572e+01,-7.37991e+01,0.00000e+00,0.00000e+00,0.00000e+00
1.02500e+03,-1.17166e+01,-7.07241e+01,0.00000e+00,0.00000e+00,0.00000e+00
1.02500e+03,-1.14604e+01,-6.76491e+01,0.00000e+00,0.00000e+00,0.00000e+00
1.02500e+03,-1.10880e+01,-6.45742e+01,0.00000e+00,0.00000e+00,0.00000e+00
1.02500e+03,-1.06447e+01,-6.14992e+01,0.00000e+00,0.00000e+00,0.00000e+00
1.02500e+03,-1.01604e+01,-5.84243e+01,0.00000e+00,0.00000e+00,0.00000e+00
1.02500e+03,-9.61411e+00,-5.53493e+01,0.00000e+00,0.00000e+00,0.00000e+00
1.02500e+03,-9.02916e+00,-5.22743e+01,0.00000e+00,0.00000e+00,0.00000e+00
1.02500e+03,-8.40652e+00,-4.91994e+01,0.00000e+00,0.00000e+00,0.00000e+00
1.02500e+03,-7.74634e+00,-4.61244e+01,0.00000e+00,0.00000e+00,0.00000e+00
1.02500e+03,-7.06264e+00,-4.30495e+01,0.00000e+00,0.00000e+00,0.00000e+00
1.02500e+03,-6.34878e+00,-3.99745e+01,0.00000e+00,0.00000e+00,0.00000e+00
1.02500e+03,-5.61563e+00,-3.68995e+01,0.00000e+00,0.00000e+00,0.00000e+00
1.02500e+03,-4.86516e+00,-3.38246e+01,0.00000e+00,0.00000e+00,0.00000e+00
1.02500e+03,-4.09924e+00,-3.07496e+01,0.00000e+00,0.00000e+00,0.00000e+00
1.02500e+03,-3.32677e+00,-2.76746e+01,0.00000e+00,0.00000e+00,0.00000e+00
1.02500e+03,-2.54417e+00,-2.45997e+01,0.00000e+00,0.00000e+00,0.00000e+00
1.02500e+03,-1.75988e+00,-2.15247e+01,0.00000e+00,0.00000e+00,0.00000e+00
1.02500e+03,-9.69535e-01,-1.84498e+01,0.00000e+00,0.00000e+00,0.00000e+00
1.02500e+03,-1.79270e-01,-1.53748e+01,0.00000e+00,0.00000e+00,0.00000e+00
1.02500e+03,6.08008e-01,-1.22998e+01,0.00000e+00,0.00000e+00,0.00000e+00
1.02500e+03,1.39529e+00,-9.22488e+00,0.00000e+00,0.00000e+00,0.00000e+00
1.02500e+03,2.16392e+00,-6.14992e+00,0.00000e+00,0.00000e+00,0.00000e+00
1.02500e+03,2.92908e+00,-3.07496e+00,0.00000e+00,0.00000e+00,0.00000e+00
1.11650e+03,3.87070e+01,0.00000e+00,0.00000e+00,0.00000e+00,0.00000e+00
1.11650e+03,3.85121e+01,-2.94133e+00,0.00000e+00,0.00000e+00,0.00000e+00
1.11650e+03,3.82528e+01,-5.88266e+00,0.00000e+00,0.00000e+00,0.00000e+00
1.11650e+03,3.79909e+01,-8.82398e+00,0.00000e+00,0.00000e+00,0.00000e+00
1.11650e+03,3.76721e+01,-1.17653e+01,0.00000e+00,0.00000e+00,0.00000e+00
1.11650e+03,3.73401e+01,-1.47066e+01,0.00000e+00,0.00000e+00,0.00000e+00
1.11650e+03,3.69645e+01,-1.76480e+01,0.00000e+00,0.00000e+00,0.00000e+00
1.11650e+03,3.65678e+01,-2.05893e+01,0.00000e+00,0.00000e+00,0.00000e+00
1.11650e+03,3.61359e+01,-2.35306e+01,0.00000e+00,0.00000e+00,0.00000e+00
1.11650e+03,3.56753e+01,-2.64720e+01,0.00000e+00,0.00000e+00,0.00000e+00
1.11650e+03,3.51829e+01,-2.94133e+01,0.00000e+00,0.00000e+00,0.00000e+00
1.11650e+03,3.46522e+01,-3.23546e+01,0.00000e+00,0.00000e+00,0.00000e+00
1.11650e+03,3.40823e+01,-3.52959e+01,0.00000e+00,0.00000e+00,0.00000e+00
1.11650e+03,3.34567e+01,-3.82373e+01,0.00000e+00,0.00000e+00,0.00000e+00
1.11650e+03,3.27770e+01,-4.11786e+01,0.00000e+00,0.00000e+00,0.00000e+00
1.11650e+03,3.20325e+01,-4.41199e+01,0.00000e+00,0.00000e+00,0.00000e+00
1.11650e+03,3.12004e+01,-4.70612e+01,0.00000e+00,0.00000e+00,0.00000e+00
1.11650e+03,3.03072e+01,-5.00026e+01,0.00000e+00,0.00000e+00,0.00000e+00
1.11650e+03,2.92767e+01,-5.29439e+01,0.00000e+00,0.00000e+00,0.00000e+00
1.11650e+03,2.81893e+01,-5.58852e+01,0.00000e+00,0.00000e+00,0.00000e+00
1.11650e+03,2.69434e+01,-5.88266e+01,0.00000e+00,0.00000e+00,0.00000e+00
1.11650e+03,2.55704e+01,-6.17679e+01,0.00000e+00,0.00000e+00,0.00000e+00
1.11650e+03,2.40681e+01,-6.47092e+01,0.00000e+00,0.00000e+00,0.00000e+00
1.11650e+03,2.23488e+01,-6.76505e+01,0.00000e+00,0.00000e+00,0.00000e+00
1.11650e+03,2.03781e+01,-7.05919e+01,0.00000e+00,0.00000e+00,0.00000e+00
1.11650e+03,1.81233e+01,-7.35332e+01,0.00000e+00,0.00000e+00,0.00000e+00
1.11650e+03,1.54563e+01,-7.64745e+01,0.00000e+00,0.00000e+00,0.00000e+00
1.11650e+03,1.20330e+01,-7.94159e+01,0.00000e+00,0.00000e+00,0.00000e+00
1.11650e+03,7.40314e+00,-8.23572e+01,0.00000e+00,0.00000e+00,0.00000e+00
1.11650e+03,-2.99970e+00,-8.52985e+01,0.00000e+00,0.00000e+00,0.00000e+00
1.11650e+03,-3.75047e+00,-8.53053e+01,0.00000e+00,0.00000e+00,0.00000e+00
1.11650e+03,-1.05906e+01,-8.22587e+01,0.00000e+00,0.00000e+00,0.00000e+00
1.11650e+03,-1.14188e+01,-7.92121e+01,0.00000e+00,0.00000e+00,0.00000e+00
1.11650e+03,-1.17045e+01,-7.61655e+01,0.00000e+00,0.00000e+00,0.00000e+00
1.11650e+03,-1.17479e+01,-7.31189e+01,0.00000e+00,0.00000e+00,0.00000e+00
1.11650e+03,-1.16086e+01,-7.00722e+01,0.00000e+00,0.00000e+00,0.00000e+00
1.11650e+03,-1.13547e+01,-6.70256e+01,0.00000e+00,0.00000e+00,0.00000e+00
1.11650e+03,-1.09858e+01,-6.39790e+01,0.00000e+00,0.00000e+00,0.00000e+00
1.11650e+03,-1.05466e+01,-6.09324e+01,0.00000e+00,0.00000e+00,0.00000e+00
1.11650e+03,-1.00667e+01,-5.78858e+01,0.00000e+00,0.00000e+00,0.00000e+00
1.11650e+03,-9.52550e+00,-5.48391e+01,0.00000e+00,0.00000e+00,0.00000e+00
1.11650e+03,-8.94594e+00,-5.17925e+01,0.00000e+00,0.00000e+00,0.00000e+00
1.11650e+03,-8.32904e+00,-4.87459e+01,0.00000e+00,0.00000e+00,0.00000e+00
1.11650e+03,-7.67495e+00,-4.56993e+01,0.00000e+00,0.00000e+00,0.00000e+00
1.11650e+03,-6.99754e+00,-4.26527e+01,0.00000e+00,0.00000e+00,0.00000e+00
1.11650e+03,-6.29027e+00,-3.96060e+01,0.00000e+00,0.00000e+00,0.00000e+00
1.11650e+03,-5.56387e+00,-3.65594e+01,0.00000e+00,0.00000e+00,0.00000e+00
1.11650e+03,-4.82031e+00,-3.35128e+01,0.00000e+00,0.00000e+00,0.00000e+00
1.11650e+03,-4.06146e+00,-3.04662e+01,0.00000e+00,0.00000e+00,0.00000e+00
1.11650e+03,-3.29611e+00,-2.74196e+01,0.00000e+00,0.00000e+00,0.00000e+00
1.11650e+03,-2.52072e+00,-2.43730e+01,0.00000e+00,0.00000e+00,0.00000e+00
1.11650e+03,-1.74366e+00,-2.13263e+01,0.00000e+00,0.00000e+00,0.00000e+00
1.11650e+03,-9.60599e-01,-1.82797e+01,0.00000e+00,0.00000e+00,0.00000e+00
1.11650e+03,-1.77618e-01,-1.52331e+01,0.00000e+00,0.00000e+00,0.00000e+00
1.11650e+03,6.02404e-01,-1.21865e+01,0.00000e+00,0.00000e+00,0.00000e+00
1.11650e+03,1.38243e+00,-9.13986e+00,0.00000e+00,0.00000e+00,0.00000e+00
1.11650e+03,2.14398e+00,-6.09324e+00,0.00000e+00,0.00000e+00,0.00000e+00
1.11650e+03,2.90209e+00,-3.04662e+00,0.00000e+00,0.00000e+00,0.00000e+00
1.20500e+03,3.76912e+01,0.00000e+00,0.00000e+00,0.00000e+00,0.00000e+00
1.20500e+03,3.75014e+01,-2.86413e+00,0.00000e+00,0.00000e+00,0.00000e+00
1.20500e+03,3.72488e+01,-5.72827e+00,0.00000e+00,0.00000e+00,0.00000e+00
1.20500e+03,3.69938e+01,-8.59240e+00,0.00000e+00,0.00000e+00,0.00000e+00
1.20500e+03,3.66834e+01,-1.14565e+01,0.00000e+00,0.00000e+00,0.00000e+00
1.20500e+03,3.63602e+01,-1.43207e+01,0.00000e+00,0.00000e+00,0.00000e+00
1.20500e+03,3.59944e+01,-1.71848e+01,0.00000e+00,0.00000e+00,0.00000e+00
1.20500e+03,3.56080e+01,-2.00489e+01,0.00000e+00,0.00000e+00,0.00000e+00
1.20500e+03,3.51875e+01,-2.29131e+01,0.00000e+00,0.00000e+00,0.00000e+00
1.20500e+03,3.47390e+01,-2.57772e+01,0.00000e+00,0.00000e+00,0.00000e+00
1.20500e+03,3.42596e+01,-2.86413e+01,0.00000e+00,0.00000e+00,0.00000e+00
1.20500e+03,3.37428e+01,-3.15055e+01,0.00000e+00,0.00000e+00,0.00000e+00
1.20500e+03,3.31878e+01,-3.43696e+01,0.00000e+00,0.00000e+00,0.00000e+00
1.20500e+03,3.25787e+01,-3.72337e+01,0.00000e+00,0.00000e+00,0.00000e+00
1.20500e+03,3.19168e+01,-4.00979e+01,0.00000e+00,0.00000e+00,0.00000e+00
1.20500e+03,3.11919e+01,-4.29620e+01,0.00000e+00,0.00000e+00,0.00000e+00
1.20500e+03,3.03815e+01,-4.58261e+01,0.00000e+00,0.00000e+00,0.00000e+00
1.20500e+03,2.95118e+01,-4.86903e+01,0.00000e+00,0.00000e+00,0.00000e+00
1.20500e+03,2.85084e+01,-5.15544e+01,0.00000e+00,0.00000e+00,0.00000e+00
1.20500e+03,2.74495e+01,-5.44186e+01,0.00000e+00,0.00000e+00,0.00000e+00
1.20500e+03,2.62363e+01,-5.72827e+01,0.00000e+00,0.00000e+00,0.00000e+00
1.20500e+03,2.48993e+01,-6.01468e+01,0.00000e+00,0.00000e+00,0.00000e+00
1.20500e+03,2.34365e+01,-6.30110e+01,0.00000e+00,0.00000e+00,0.00000e+00
1.20500e+03,2.17623e+01,-6.58751e+01,0.00000e+00,0.00000e+00,0.00000e+00
1.20500e+03,1.98433e+01,-6.87392e+01,0.00000e+00,0.00000e+00,0.00000e+00
1.20500e+03,1.76476e+01,-7.16034e+01,0.00000e+00,0.00000e+00,0.00000e+00
1.20500e+03,1.50506e+01,-7.44675e+01,0.00000e+00,0.00000e+00,0.00000e+00
1.20500e+03,1.17172e+01,-7.73316e+01,0.00000e+00,0.00000e+00,0.00000e+00
1.20500e+03,7.20885e+00,-8.01958e+01,0.00000e+00,0.00000e+00,0.00000e+00
1.20500e+03,-2.92097e+00,-8.30599e+01,0.00000e+00,0.00000e+00,0.00000e+00
1.20500e+03,-3.65204e+00,-8.30665e+01,0.00000e+00,0.00000e+00,0.00000e+00
1.20500e+03,-1.03126e+01,-8.00999e+01,0.00000e+00,0.00000e+00,0.00000e+00
1.20500e+03,-1.11191e+01,-7.71332e+01,0.00000e+00,0.00000e+00,0.00000e+00
1.20500e+03,-1.13974e+01,-7.41666e+01,0.00000e+00,0.00000e+00,0.00000e+00
1.20500e+03,-1.14396e+01,-7.11999e+01,0.00000e+00,0.00000e+00,0.00000e+00
1.20500e+03,-1.13040e+01,-6.82332e+01,0.00000e+00,0.00000e+00,0.00000e+00
1.20500e+03,-1.10567e+01,-6.52666e+01,0.00000e+00,0.00000e+00,0.00000e+00
1.20500e+03,-1.06975e+01,-6.22999e+01,0.00000e+00,0.00000e+00,0.00000e+00
1.20500e+03,-1.02698e+01,-5.93332e+01,0.00000e+00,0.00000e+00,0.00000e+00
1.20500e+03,-9.80253e+00,-5.63666e+01,0.00000e+00,0.00000e+00,0.00000e+00
1.20500e+03,-9.27551e+00,-5.33999e+01,0.00000e+00,0.00000e+00,0.00000e+00
1.20500e+03,-8.71115e+00,-5.04333e+01,0.00000e+00,0.00000e+00,0.00000e+00
1.20500e+03,-8.11045e+00,-4.74666e+01,0.00000e+00,0.00000e+00,0.00000e+00
1.20500e+03,-7.47352e+00,-4.44999e+01,0.00000e+00,0.00000e+00,0.00000e+00
1.20500e+03,-6.81389e+00,-4.15333e+01,0.00000e+00,0.00000e+00,0.00000e+00
1.20500e+03,-6.12518e+00,-3.85666e+01,0.00000e+00,0.00000e+00,0.00000e+00
1.20500e+03,-5.41785e+00,-3.55999e+01,0.00000e+00,0.00000e+00,0.00000e+00
1.20500e+03,-4.69381e+00,-3.26333e+01,0.00000e+00,0.00000e+00,0.00000e+00
1.20500e+03,-3.95486e+00,-2.96666e+01,0.00000e+00,0.00000e+00,0.00000e+00
1.20500e+03,-3.20961e+00,-2.67000e+01,0.00000e+00,0.00000e+00,0.00000e+00
1.20500e+03,-2.45457e+00,-2.37333e+01,0.00000e+00,0.00000e+00,0.00000e+00
1.20500e+03,-1.69790e+00,-2.07666e+01,0.00000e+00,0.00000e+00,0.00000e+00
1.20500e+03,-9.35389e-01,-1.78000e+01,0.00000e+00,0.00000e+00,0.00000e+00
1.20500e+03,-1.72956e-01,-1.48333e+01,0.00000e+00,0.00000e+00,0.00000e+00
1.20500e+03,5.86594e-01,-1.18666e+01,0.00000e+00,0.00000e+00,0.00000e+00
1.20500e+03,1.34615e+00,-8.89999e+00,0.00000e+00,0.00000e+00,0.00000e+00
1.20500e+03,2.08771e+00,-5.93332e+00,0.00000e+00,0.00000e+00,0.00000e+00
1.20500e+03,2.82592e+00,-2.96666e+00,0.00000e+00,0.00000e+00,0.00000e+00
1.29010e+03,3.63234e+01,0.00000e+00,0.00000e+00,0.00000e+00,0.00000e+00
1.29010e+03,3.61405e+01,-2.76019e+00,0.00000e+00,0.00000e+00,0.00000e+00
1.29010e+03,3.58971e+01,-5.52039e+00,0.00000e+00,0.00000e+00,0.00000e+00
1.29010e+03,3.56513e+01,-8.28058e+00,0.00000e+00,0.00000e+00,0.00000e+00
1.29010e+03,3.53522e+01,-1.10408e+01,0.00000e+00,0.00000e+00,0.00000e+00
1.29010e+03,3.50407e+01,-1.38010e+01,0.00000e+00,0.00000e+00,0.00000e+00
1.29010e+03,3.46882e+01,-1.65612e+01,0.00000e+00,0.00000e+00,0.00000e+00
1.29010e+03,3.43158e+01,-1.93214e+01,0.00000e+00,0.00000e+00,0.00000e+00
1.29010e+03,3.39106e+01,-2.20816e+01,0.00000e+00,0.00000e+00,0.00000e+00
1.29010e+03,3.34783e+01,-2.48418e+01,0.00000e+00,0.00000e+00,0.00000e+00
1.29010e+03,3.30163e+01,-2.76019e+01,0.00000e+00,0.00000e+00,0.00000e+00
1.29010e+03,3.25183e+01,-3.03621e+01,0.00000e+00,0.00000e+00,0.00000e+00
1.29010e+03,3.19834e+01,-3.31223e+01,0.00000e+00,0.00000e+00,0.00000e+00
1.29010e+03,3.13964e+01,-3.58825e+01,0.00000e+00,0.00000e+00,0.00000e+00
1.29010e+03,3.07585e+01,-3.86427e+01,0.00000e+00,0.00000e+00,0.00000e+00
1.29010e+03,3.00599e+01,-4.14029e+01,0.00000e+00,0.00000e+00,0.00000e+00
1.29010e+03,2.92790e+01,-4.41631e+01,0.00000e+00,0.00000e+00,0.00000e+00
1.29010e+03,2.84408e+01,-4.69233e+01,0.00000e+00,0.00000e+00,0.00000e+00
1.29010e+03,2.74738e+01,-4.96835e+01,0.00000e+00,0.00000e+00,0.00000e+00
1.29010e+03,2.64534e+01,-5.24437e+01,0.00000e+00,0.00000e+00,0.00000e+00
1.29010e+03,2.52842e+01,-5.52039e+01,0.00000e+00,0.00000e+00,0.00000e+00
1.29010e+03,2.39957e+01,-5.79641e+01,0.00000e+00,0.00000e+00,0.00000e+00
1.29010e+03,2.25860e+01,-6.07243e+01,0.00000e+00,0.00000e+00,0.00000e+00
1.29010e+03,2.09725e+01,-6.34845e+01,0.00000e+00,0.00000e+00,0.00000e+00
1.29010e+03,1.91232e+01,-6.62447e+01,0.00000e+00,0.00000e+00,0.00000e+00
1.29010e+03,1.70072e+01,-6.90049e+01,0.00000e+00,0.00000e+00,0.00000e+00
1.29010e+03,1.45045e+01,-7.17651e+01,0.00000e+00,0.00000e+00,0.00000e+00
1.29010e+03,1.12920e+01,-7.45253e+01,0.00000e+00,0.00000e+00,0.00000e+00
1.29010e+03,6.94724e+00,-7.72855e+01,0.00000e+00,0.00000e+00,0.00000e+00
1.29010e+03,-2.81497e+00,-8.00457e+01,0.00000e+00,0.00000e+00,0.00000e+00
1.29010e+03,-3.51951e+00,-8.00521e+01,0.00000e+00,0.00000e+00,0.00000e+00
1.29010e+03,-9.93839e+00,-7.71931e+01,0.00000e+00,0.00000e+00,0.00000e+00
1.29010e+03,-1.07156e+01,-7.43341e+01,0.00000e+00,0.00000e+00,0.00000e+00
1.29010e+03,-1.09838e+01,-7.14751e+01,0.00000e+00,0.00000e+00,0.00000e+00
1.29010e+03,-1.10244e+01,-6.86160e+01,0.00000e+00,0.00000e+00,0.00000e+00
1.29010e+03,-1.08937e+01,-6.57570e+01,0.00000e+00,0.00000e+00,0.00000e+00
1.29010e+03,-1.06555e+01,-6.28980e+01,0.00000e+00,0.00000e+00,0.00000e+00
1.29010e+03,-1.03093e+01,-6.00390e+01,0.00000e+00,0.00000e+00,0.00000e+00
1.29010e+03,-9.89713e+00,-5.71800e+01,0.00000e+00,0.00000e+00,0.00000e+00
1.29010e+03,-9.44680e+00,-5.43210e+01,0.00000e+00,0.00000e+00,0.00000e+00
1.29010e+03,-8.93890e+00,-5.14620e+01,0.00000e+00,0.00000e+00,0.00000e+00
1.29010e+03,-8.39503e+00,-4.86030e+01,0.00000e+00,0.00000e+00,0.00000e+00
1.29010e+03,-7.81612e+00,-4.57440e+01,0.00000e+00,0.00000e+00,0.00000e+00
1.29010e+03,-7.20231e+00,-4.28850e+01,0.00000e+00,0.00000e+00,0.00000e+00
1.29010e+03,-6.56662e+00,-4.00260e+01,0.00000e+00,0.00000e+00,0.00000e+00
1.29010e+03,-5.90290e+00,-3.71670e+01,0.00000e+00,0.00000e+00,0.00000e+00
1.29010e+03,-5.22123e+00,-3.43080e+01,0.00000e+00,0.00000e+00,0.00000e+00
1.29010e+03,-4.52347e+00,-3.14490e+01,0.00000e+00,0.00000e+00,0.00000e+00
1.29010e+03,-3.81134e+00,-2.85900e+01,0.00000e+00,0.00000e+00,0.00000e+00
1.29010e+03,-3.09313e+00,-2.57310e+01,0.00000e+00,0.00000e+00,0.00000e+00
1.29010e+03,-2.36549e+00,-2.28720e+01,0.00000e+00,0.00000e+00,0.00000e+00
1.29010e+03,-1.63628e+00,-2.00130e+01,0.00000e+00,0.00000e+00,0.00000e+00
1.29010e+03,-9.01444e-01,-1.71540e+01,0.00000e+00,0.00000e+00,0.00000e+00
1.29010e+03,-1.66680e-01,-1.42950e+01,0.00000e+00,0.00000e+00,0.00000e+00
1.29010e+03,5.65307e-01,-1.14360e+01,0.00000e+00,0.00000e+00,0.00000e+00
1.29010e+03,1.29729e+00,-8.57701e+00,0.00000e+00,0.00000e+00,0.00000e+00
1.29010e+03,2.01195e+00,-5.71800e+00,0.00000e+00,0.00000e+00,0.00000e+00
1.29010e+03,2.72337e+00,-2.85900e+00,0.00000e+00,0.00000e+00,0.00000e+00
1.37170e+03,3.50118e+01,0.00000e+00,0.00000e+00,0.00000e+00,0.00000e+00
1.37170e+03,3.48355e+01,-2.66053e+00,0.00000e+00,0.00000e+00,0.00000e+00
1.37170e+03,3.46009e+01,-5.32106e+00,0.00000e+00,0.00000e+00,0.00000e+00
1.37170e+03,3.43640e+01,-7.98159e+00,0.00000e+00,0.00000e+00,0.00000e+00
1.37170e+03,3.40757e+01,-1.06421e+01,0.00000e+00,0.00000e+00,0.00000e+00
1.37170e+03,3.37754e+01,-1.33027e+01,0.00000e+00,0.00000e+00,0.00000e+00
1.37170e+03,3.34357e+01,-1.59632e+01,0.00000e+00,0.00000e+00,0.00000e+00
1.37170e+03,3.30768e+01,-1.86237e+01,0.00000e+00,0.00000e+00,0.00000e+00
1.37170e+03,3.26861e+01,-2.12842e+01,0.00000e+00,0.00000e+00,0.00000e+00
1.37170e+03,3.22695e+01,-2.39448e+01,0.00000e+00,0.00000e+00,0.00000e+00
1.37170e+03,3.18241e+01,-2.66053e+01,0.00000e+00,0.00000e+00,0.00000e+00
1.37170e+03,3.13441e+01,-2.92658e+01,0.00000e+00,0.00000e+00,0.00000e+00
1.37170e+03,3.08286e+01,-3.19264e+01,0.00000e+00,0.00000e+00,0.00000e+00
1.37170e+03,3.02627e+01,-3.45869e+01,0.00000e+00,0.00000e+00,0.00000e+00
1.37170e+03,2.96479e+01,-3.72474e+01,0.00000e+00,0.00000e+00,0.00000e+00
1.37170e+03,2.89745e+01,-3.99080e+01,0.00000e+00,0.00000e+00,0.00000e+00
1.37170e+03,2.82218e+01,-4.25685e+01,0.00000e+00,0.00000e+00,0.00000e+00
1.37170e+03,2.74139e+01,-4.52290e+01,0.00000e+00,0.00000e+00,0.00000e+00
1.37170e+03,2.64818e+01,-4.78895e+01,0.00000e+00,0.00000e+00,0.00000e+00
1.37170e+03,2.54982e+01,-5.05501e+01,0.00000e+00,0.00000e+00,0.00000e+00
1.37170e+03,2.43712e+01,-5.32106e+01,0.00000e+00,0.00000e+00,0.00000e+00
1.37170e+03,2.31293e+01,-5.58711e+01,0.00000e+00,0.00000e+00,0.00000e+00
1.37170e+03,2.17704e+01,-5.85317e+01,0.00000e+00,0.00000e+00,0.00000e+00
1.37170e+03,2.02153e+01,-6.11922e+01,0.00000e+00,0.00000e+00,0.00000e+00
1.37170e+03,1.84327e+01,-6.38527e+01,0.00000e+00,0.00000e+00,0.00000e+00
1.37170e+03,1.63931e+01,-6.65133e+01,0.00000e+00,0.00000e+00,0.00000e+00
1.37170e+03,1.39807e+01,-6.91738e+01,0.00000e+00,0.00000e+00,0.00000e+00
1.37170e+03,1.08843e+01,-7.18343e+01,0.00000e+00,0.00000e+00,0.00000e+00
1.37170e+03,6.69639e+00,-7.44949e+01,0.00000e+00,0.00000e+00,0.00000e+00
1.37170e+03,-2.71333e+00,-7.71554e+01,0.00000e+00,0.00000e+00,0.00000e+00
1.37170e+03,-3.39243e+00,-7.71616e+01,0.00000e+00,0.00000e+00,0.00000e+00
1.37170e+03,-9.57954e+00,-7.44058e+01,0.00000e+00,0.00000e+00,0.00000e+00
1.37170e+03,-1.03287e+01,-7.16500e+01,0.00000e+00,0.00000e+00,0.00000e+00
1.37170e+03,-1.05872e+01,-6.88942e+01,0.00000e+00,0.00000e+00,0.00000e+00
1.37170e+03,-1.06264e+01,-6.61385e+01,0.00000e+00,0.00000e+00,0.00000e+00
1.37170e+03,-1.05004e+01,-6.33827e+01,0.00000e+00,0.00000e+00,0.00000e+00
1.37170e+03,-1.02708e+01,-6.06269e+01,0.00000e+00,0.00000e+00,0.00000e+00
1.37170e+03,-9.93701e+00,-5.78712e+01,0.00000e+00,0.00000e+00,0.00000e+00
1.37170e+03,-9.53977e+00,-5.51154e+01,0.00000e+00,0.00000e+00,0.00000e+00
1.37170e+03,-9.10569e+00,-5.23596e+01,0.00000e+00,0.00000e+00,0.00000e+00
1.37170e+03,-8.61613e+00,-4.96039e+01,0.00000e+00,0.00000e+00,0.00000e+00
1.37170e+03,-8.09190e+00,-4.68481e+01,0.00000e+00,0.00000e+00,0.00000e+00
1.37170e+03,-7.53389e+00,-4.40923e+01,0.00000e+00,0.00000e+00,0.00000e+00
1.37170e+03,-6.94225e+00,-4.13365e+01,0.00000e+00,0.00000e+00,0.00000e+00
1.37170e+03,-6.32951e+00,-3.85808e+01,0.00000e+00,0.00000e+00,0.00000e+00
1.37170e+03,-5.68976e+00,-3.58250e+01,0.00000e+00,0.00000e+00,0.00000e+00
1.37170e+03,-5.03271e+00,-3.30692e+01,0.00000e+00,0.00000e+00,0.00000e+00
1.37170e+03,-4.36014e+00,-3.03135e+01,0.00000e+00,0.00000e+00,0.00000e+00
1.37170e+03,-3.67372e+00,-2.75577e+01,0.00000e+00,0.00000e+00,0.00000e+00
1.37170e+03,-2.98144e+00,-2.48019e+01,0.00000e+00,0.00000e+00,0.00000e+00
1.37170e+03,-2.28008e+00,-2.20462e+01,0.00000e+00,0.00000e+00,0.00000e+00
1.37170e+03,-1.57720e+00,-1.92904e+01,0.00000e+00,0.00000e+00,0.00000e+00
1.37170e+03,-8.68894e-01,-1.65346e+01,0.00000e+00,0.00000e+00,0.00000e+00
1.37170e+03,-1.60661e-01,-1.37788e+01,0.00000e+00,0.00000e+00,0.00000e+00
1.37170e+03,5.44895e-01,-1.10231e+01,0.00000e+00,0.00000e+00,0.00000e+00
1.37170e+03,1.25045e+00,-8.26731e+00,0.00000e+00,0.00000e+00,0.00000e+00
1.37170e+03,1.93930e+00,-5.51154e+00,0.00000e+00,0.00000e+00,0.00000e+00
1.37170e+03,2.62503e+00,-2.75577e+00,0.00000e+00,0.00000e+00,0.00000e+00
1.44960e+03,3.37597e+01,0.00000e+00,0.00000e+00,0.00000e+00,0.00000e+00
1.44960e+03,3.35897e+01,-2.56538e+00,0.00000e+00,0.00000e+00,0.00000e+00
1.44960e+03,3.33635e+01,-5.13077e+00,0.00000e+00,0.00000e+00,0.00000e+00
1.44960e+03,3.31351e+01,-7.69615e+00,0.00000e+00,0.00000e+00,0.00000e+00
1.44960e+03,3.28571e+01,-1.02615e+01,0.00000e+00,0.00000e+00,0.00000e+00
1.44960e+03,3.25675e+01,-1.28269e+01,0.00000e+00,0.00000e+00,0.00000e+00
1.44960e+03,3.22399e+01,-1.53923e+01,0.00000e+00,0.00000e+00,0.00000e+00
1.44960e+03,3.18939e+01,-1.79577e+01,0.00000e+00,0.00000e+00,0.00000e+00
1.44960e+03,3.15172e+01,-2.05231e+01,0.00000e+00,0.00000e+00,0.00000e+00
1.44960e+03,3.11155e+01,-2.30885e+01,0.00000e+00,0.00000e+00,0.00000e+00
1.44960e+03,3.06860e+01,-2.56538e+01,0.00000e+00,0.00000e+00,0.00000e+00
1.44960e+03,3.02232e+01,-2.82192e+01,0.00000e+00,0.00000e+00,0.00000e+00
1.44960e+03,2.97261e+01,-3.07846e+01,0.00000e+00,0.00000e+00,0.00000e+00
1.44960e+03,2.91805e+01,-3.33500e+01,0.00000e+00,0.00000e+00,0.00000e+00
1.44960e+03,2.85877e+01,-3.59154e+01,0.00000e+00,0.00000e+00,0.00000e+00
1.44960e+03,2.79383e+01,-3.84808e+01,0.00000e+00,0.00000e+00,0.00000e+00
1.44960e+03,2.72125e+01,-4.10462e+01,0.00000e+00,0.00000e+00,0.00000e+00
1.44960e+03,2.64335e+01,-4.36115e+01,0.00000e+00,0.00000e+00,0.00000e+00
1.44960e+03,2.55347e+01,-4.61769e+01,0.00000e+00,0.00000e+00,0.00000e+00
1.44960e+03,2.45863e+01,-4.87423e+01,0.00000e+00,0.00000e+00,0.00000e+00
1.44960e+03,2.34997e+01,-5.13077e+01,0.00000e+00,0.00000e+00,0.00000e+00
1.44960e+03,2.23022e+01,-5.38731e+01,0.00000e+00,0.00000e+00,0.00000e+00
1.44960e+03,2.09919e+01,-5.64385e+01,0.00000e+00,0.00000e+00,0.00000e+00
1.44960e+03,1.94923e+01,-5.90039e+01,0.00000e+00,0.00000e+00,0.00000e+00
1.44960e+03,1.77735e+01,-6.15692e+01,0.00000e+00,0.00000e+00,0.00000e+00
1.44960e+03,1.58069e+01,-6.41346e+01,0.00000e+00,0.00000e+00,0.00000e+00
1.44960e+03,1.34808e+01,-6.67000e+01,0.00000e+00,0.00000e+00,0.00000e+00
1.44960e+03,1.04950e+01,-6.92654e+01,0.00000e+00,0.00000e+00,0.00000e+00
1.44960e+03,6.45692e+00,-7.18308e+01,0.00000e+00,0.00000e+00,0.00000e+00
1.44960e+03,-2.61629e+00,-7.43962e+01,0.00000e+00,0.00000e+00,0.00000e+00
1.44960e+03,-3.27111e+00,-7.44021e+01,0.00000e+00,0.00000e+00,0.00000e+00
1.44960e+03,-9.23696e+00,-7.17449e+01,0.00000e+00,0.00000e+00,0.00000e+00
1.44960e+03,-9.95928e+00,-6.90877e+01,0.00000e+00,0.00000e+00,0.00000e+00
1.44960e+03,-1.02085e+01,-6.64305e+01,0.00000e+00,0.00000e+00,0.00000e+00
1.44960e+03,-1.02464e+01,-6.37732e+01,0.00000e+00,0.00000e+00,0.00000e+00
1.44960e+03,-1.01249e+01,-6.11160e+01,0.00000e+00,0.00000e+00,0.00000e+00
1.44960e+03,-9.90345e+00,-5.84588e+01,0.00000e+00,0.00000e+00,0.00000e+00
1.44960e+03,-9.58164e+00,-5.58016e+01,0.00000e+00,0.00000e+00,0.00000e+00
1.44960e+03,-9.19861e+00,-5.31444e+01,0.00000e+00,0.00000e+00,0.00000e+00
1.44960e+03,-8.78006e+00,-5.04872e+01,0.00000e+00,0.00000e+00,0.00000e+00
1.44960e+03,-8.30801e+00,-4.78299e+01,0.00000e+00,0.00000e+00,0.00000e+00
1.44960e+03,-7.80252e+00,-4.51727e+01,0.00000e+00,0.00000e+00,0.00000e+00
1.44960e+03,-7.26447e+00,-4.25155e+01,0.00000e+00,0.00000e+00,0.00000e+00
1.44960e+03,-6.69398e+00,-3.98583e+01,0.00000e+00,0.00000e+00,0.00000e+00
1.44960e+03,-6.10316e+00,-3.72011e+01,0.00000e+00,0.00000e+00,0.00000e+00
1.44960e+03,-5.48628e+00,-3.45438e+01,0.00000e+00,0.00000e+00,0.00000e+00
1.44960e+03,-4.85273e+00,-3.18866e+01,0.00000e+00,0.00000e+00,0.00000e+00
1.44960e+03,-4.20421e+00,-2.92294e+01,0.00000e+00,0.00000e+00,0.00000e+00
1.44960e+03,-3.54234e+00,-2.65722e+01,0.00000e+00,0.00000e+00,0.00000e+00
1.44960e+03,-2.87482e+00,-2.39150e+01,0.00000e+00,0.00000e+00,0.00000e+00
1.44960e+03,-2.19854e+00,-2.12577e+01,0.00000e+00,0.00000e+00,0.00000e+00
1.44960e+03,-1.52080e+00,-1.86005e+01,0.00000e+00,0.00000e+00,0.00000e+00
1.44960e+03,-8.37821e-01,-1.59433e+01,0.00000e+00,0.00000e+00,0.00000e+00
1.44960e+03,-1.54916e-01,-1.32861e+01,0.00000e+00,0.00000e+00,0.00000e+00
1.44960e+03,5.25408e-01,-1.06289e+01,0.00000e+00,0.00000e+00,0.00000e+00
1.44960e+03,1.20573e+00,-7.97166e+00,0.00000e+00,0.00000e+00,0.00000e+00
1.44960e+03,1.86995e+00,-5.31444e+00,0.00000e+00,0.00000e+00,0.00000e+00
1.44960e+03,2.53116e+00,-2.65722e+00,0.00000e+00,0.00000e+00,0.00000e+00
1.52340e+03,3.25736e+01,0.00000e+00,0.00000e+00,0.00000e+00,0.00000e+00
1.52340e+03,3.24095e+01,-2.47525e+00,0.00000e+00,0.00000e+00,0.00000e+00
1.52340e+03,3.21913e+01,-4.95049e+00,0.00000e+00,0.00000e+00,0.00000e+00
1.52340e+03,3.19709e+01,-7.42574e+00,0.00000e+00,0.00000e+00,0.00000e+00
1.52340e+03,3.17026e+01,-9.90099e+00,0.00000e+00,0.00000e+00,0.00000e+00
1.52340e+03,3.14232e+01,-1.23762e+01,0.00000e+00,0.00000e+00,0.00000e+00
1.52340e+03,3.11072e+01,-1.48515e+01,0.00000e+00,0.00000e+00,0.00000e+00
1.52340e+03,3.07733e+01,-1.73267e+01,0.00000e+00,0.00000e+00,0.00000e+00
1.52340e+03,3.04098e+01,-1.98020e+01,0.00000e+00,0.00000e+00,0.00000e+00
1.52340e+03,3.00222e+01,-2.22772e+01,0.00000e+00,0.00000e+00,0.00000e+00
1.52340e+03,2.96079e+01,-2.47525e+01,0.00000e+00,0.00000e+00,0.00000e+00
1.52340e+03,2.91613e+01,-2.72277e+01,0.00000e+00,0.00000e+00,0.00000e+00
1.52340e+03,2.86816e+01,-2.97030e+01,0.00000e+00,0.00000e+00,0.00000e+00
1.52340e+03,2.81552e+01,-3.21782e+01,0.00000e+00,0.00000e+00,0.00000e+00
1.52340e+03,2.75832e+01,-3.46535e+01,0.00000e+00,0.00000e+00,0.00000e+00
1.52340e+03,2.69567e+01,-3.71287e+01,0.00000e+00,0.00000e+00,0.00000e+00
1.52340e+03,2.62564e+01,-3.96040e+01,0.00000e+00,0.00000e+00,0.00000e+00
1.52340e+03,2.55047e+01,-4.20792e+01,0.00000e+00,0.00000e+00,0.00000e+00
1.52340e+03,2.46375e+01,-4.45544e+01,0.00000e+00,0.00000e+00,0.00000e+00
1.52340e+03,2.37225e+01,-4.70297e+01,0.00000e+00,0.00000e+00,0.00000e+00
1.52340e+03,2.26740e+01,-4.95049e+01,0.00000e+00,0.00000e+00,0.00000e+00
1.52340e+03,2.15185e+01,-5.19802e+01,0.00000e+00,0.00000e+00,0.00000e+00
1.52340e+03,2.02543e+01,-5.44554e+01,0.00000e+00,0.00000e+00,0.00000e+00
1.52340e+03,1.88075e+01,-5.69307e+01,0.00000e+00,0.00000e+00,0.00000e+00
1.52340e+03,1.71490e+01,-5.94059e+01,0.00000e+00,0.00000e+00,0.00000e+00
1.52340e+03,1.52515e+01,-6.18812e+01,0.00000e+00,0.00000e+00,0.00000e+00
1.52340e+03,1.30071e+01,-6.43564e+01,0.00000e+00,0.00000e+00,0.00000e+00
1.52340e+03,1.01263e+01,-6.68317e+01,0.00000e+00,0.00000e+00,0.00000e+00
1.52340e+03,6.23005e+00,-6.93069e+01,0.00000e+00,0.00000e+00,0.00000e+00
1.52340e+03,-2.52437e+00,-7.17822e+01,0.00000e+00,0.00000e+00,0.00000e+00
1.52340e+03,-3.15618e+00,-7.17879e+01,0.00000e+00,0.00000e+00,0.00000e+00
1.52340e+03,-8.91241e+00,-6.92241e+01,0.00000e+00,0.00000e+00,0.00000e+00
1.52340e+03,-9.60935e+00,-6.66602e+01,0.00000e+00,0.00000e+00,0.00000e+00
1.52340e+03,-9.84985e+00,-6.40963e+01,0.00000e+00,0.00000e+00,0.00000e+00
1.52340e+03,-9.88634e+00,-6.15325e+01,0.00000e+00,0.00000e+00,0.00000e+00
1.52340e+03,-9.76914e+00,-5.89686e+01,0.00000e+00,0.00000e+00,0.00000e+00
1.52340e+03,-9.55548e+00,-5.64048e+01,0.00000e+00,0.00000e+00,0.00000e+00
1.52340e+03,-9.24498e+00,-5.38409e+01,0.00000e+00,0.00000e+00,0.00000e+00
1.52340e+03,-8.87540e+00,-5.12771e+01,0.00000e+00,0.00000e+00,0.00000e+00
1.52340e+03,-8.47156e+00,-4.87132e+01,0.00000e+00,0.00000e+00,0.00000e+00
1.52340e+03,-8.01609e+00,-4.61494e+01,0.00000e+00,0.00000e+00,0.00000e+00
1.52340e+03,-7.52837e+00,-4.35855e+01,0.00000e+00,0.00000e+00,0.00000e+00
1.52340e+03,-7.00922e+00,-4.10217e+01,0.00000e+00,0.00000e+00,0.00000e+00
1.52340e+03,-6.45878e+00,-3.84578e+01,0.00000e+00,0.00000e+00,0.00000e+00
1.52340e+03,-5.88872e+00,-3.58940e+01,0.00000e+00,0.00000e+00,0.00000e+00
1.52340e+03,-5.29352e+00,-3.33301e+01,0.00000e+00,0.00000e+00,0.00000e+00
1.52340e+03,-4.68222e+00,-3.07662e+01,0.00000e+00,0.00000e+00,0.00000e+00
1.52340e+03,-4.05649e+00,-2.82024e+01,0.00000e+00,0.00000e+00,0.00000e+00
1.52340e+03,-3.41788e+00,-2.56385e+01,0.00000e+00,0.00000e+00,0.00000e+00
1.52340e+03,-2.77381e+00,-2.30747e+01,0.00000e+00,0.00000e+00,0.00000e+00
1.52340e+03,-2.12129e+00,-2.05108e+01,0.00000e+00,0.00000e+00,0.00000e+00
1.52340e+03,-1.46736e+00,-1.79470e+01,0.00000e+00,0.00000e+00,0.00000e+00
1.52340e+03,-8.08383e-01,-1.53831e+01,0.00000e+00,0.00000e+00,0.00000e+00
1.52340e+03,-1.49473e-01,-1.28193e+01,0.00000e+00,0.00000e+00,0.00000e+00
1.52340e+03,5.06948e-01,-1.02554e+01,0.00000e+00,0.00000e+00,0.00000e+00
1.52340e+03,1.16337e+00,-7.69156e+00,0.00000e+00,0.00000e+00,0.00000e+00
1.52340e+03,1.80424e+00,-5.12771e+00,0.00000e+00,0.00000e+00,0.00000e+00
1.52340e+03,2.44222e+00,-2.56385e+00,0.00000e+00,0.00000e+00,0.00000e+00
1.59310e+03,3.14533e+01,0.00000e+00,0.00000e+00,0.00000e+00,0.00000e+00
1.59310e+03,3.12949e+01,-2.39012e+00,0.00000e+00,0.00000e+00,0.00000e+00
1.59310e+03,3.10841e+01,-4.78023e+00,0.00000e+00,0.00000e+00,0.00000e+00
1.59310e+03,3.08713e+01,-7.17035e+00,0.00000e+00,0.00000e+00,0.00000e+00
1.59310e+03,3.06123e+01,-9.56047e+00,0.00000e+00,0.00000e+00,0.00000e+00
1.59310e+03,3.03425e+01,-1.19506e+01,0.00000e+00,0.00000e+00,0.00000e+00
1.59310e+03,3.00373e+01,-1.43407e+01,0.00000e+00,0.00000e+00,0.00000e+00
1.59310e+03,2.97149e+01,-1.67308e+01,0.00000e+00,0.00000e+00,0.00000e+00
1.59310e+03,2.93640e+01,-1.91209e+01,0.00000e+00,0.00000e+00,0.00000e+00
1.59310e+03,2.89896e+01,-2.15111e+01,0.00000e+00,0.00000e+00,0.00000e+00
1.59310e+03,2.85896e+01,-2.39012e+01,0.00000e+00,0.00000e+00,0.00000e+00
1.59310e+03,2.81583e+01,-2.62913e+01,0.00000e+00,0.00000e+00,0.00000e+00
1.59310e+03,2.76952e+01,-2.86814e+01,0.00000e+00,0.00000e+00,0.00000e+00
1.59310e+03,2.71869e+01,-3.10715e+01,0.00000e+00,0.00000e+00,0.00000e+00
1.59310e+03,2.66345e+01,-3.34616e+01,0.00000e+00,0.00000e+00,0.00000e+00
1.59310e+03,2.60296e+01,-3.58518e+01,0.00000e+00,0.00000e+00,0.00000e+00
1.59310e+03,2.53533e+01,-3.82419e+01,0.00000e+00,0.00000e+00,0.00000e+00
1.59310e+03,2.46276e+01,-4.06320e+01,0.00000e+00,0.00000e+00,0.00000e+00
1.59310e+03,2.37902e+01,-4.30221e+01,0.00000e+00,0.00000e+00,0.00000e+00
1.59310e+03,2.29066e+01,-4.54122e+01,0.00000e+00,0.00000e+00,0.00000e+00
1.59310e+03,2.18941e+01,-4.78023e+01,0.00000e+00,0.00000e+00,0.00000e+00
1.59310e+03,2.07785e+01,-5.01925e+01,0.00000e+00,0.00000e+00,0.00000e+00
1.59310e+03,1.95577e+01,-5.25826e+01,0.00000e+00,0.00000e+00,0.00000e+00
1.59310e+03,1.81606e+01,-5.49727e+01,0.00000e+00,0.00000e+00,0.00000e+00
1.59310e+03,1.65592e+01,-5.73628e+01,0.00000e+00,0.00000e+00,0.00000e+00
1.59310e+03,1.47269e+01,-5.97529e+01,0.00000e+00,0.00000e+00,0.00000e+00
1.59310e+03,1.25597e+01,-6.21430e+01,0.00000e+00,0.00000e+00,0.00000e+00
1.59310e+03,9.77800e+00,-6.45332e+01,0.00000e+00,0.00000e+00,0.00000e+00
1.59310e+03,6.01578e+00,-6.69233e+01,0.00000e+00,0.00000e+00,0.00000e+00
1.59310e+03,-2.43755e+00,-6.93134e+01,0.00000e+00,0.00000e+00,0.00000e+00
1.59310e+03,-3.04763e+00,-6.93189e+01,0.00000e+00,0.00000e+00,0.00000e+00
1.59310e+03,-8.60589e+00,-6.68433e+01,0.00000e+00,0.00000e+00,0.00000e+00
1.59310e+03,-9.27886e+00,-6.43676e+01,0.00000e+00,0.00000e+00,0.00000e+00
1.59310e+03,-9.51109e+00,-6.18919e+01,0.00000e+00,0.00000e+00,0.00000e+00
1.59310e+03,-9.54632e+00,-5.94162e+01,0.00000e+00,0.00000e+00,0.00000e+00
1.59310e+03,-9.43315e+00,-5.69406e+01,0.00000e+00,0.00000e+00,0.00000e+00
1.59310e+03,-9.22684e+00,-5.44649e+01,0.00000e+00,0.00000e+00,0.00000e+00
1.59310e+03,-8.92702e+00,-5.19892e+01,0.00000e+00,0.00000e+00,0.00000e+00
1.59310e+03,-8.57016e+00,-4.95135e+01,0.00000e+00,0.00000e+00,0.00000e+00
1.59310e+03,-8.18020e+00,-4.70379e+01,0.00000e+00,0.00000e+00,0.00000e+00
1.59310e+03,-7.74040e+00,-4.45622e+01,0.00000e+00,0.00000e+00,0.00000e+00
1.59310e+03,-7.26945e+00,-4.20865e+01,0.00000e+00,0.00000e+00,0.00000e+00
1.59310e+03,-6.76816e+00,-3.96108e+01,0.00000e+00,0.00000e+00,0.00000e+00
1.59310e+03,-6.23665e+00,-3.71351e+01,0.00000e+00,0.00000e+00,0.00000e+00
1.59310e+03,-5.68619e+00,-3.46595e+01,0.00000e+00,0.00000e+00,0.00000e+00
1.59310e+03,-5.11146e+00,-3.21838e+01,0.00000e+00,0.00000e+00,0.00000e+00
1.59310e+03,-4.52119e+00,-2.97081e+01,0.00000e+00,0.00000e+00,0.00000e+00
1.59310e+03,-3.91698e+00,-2.72324e+01,0.00000e+00,0.00000e+00,0.00000e+00
1.59310e+03,-3.30033e+00,-2.47568e+01,0.00000e+00,0.00000e+00,0.00000e+00
1.59310e+03,-2.67841e+00,-2.22811e+01,0.00000e+00,0.00000e+00,0.00000e+00
1.59310e+03,-2.04833e+00,-1.98054e+01,0.00000e+00,0.00000e+00,0.00000e+00
1.59310e+03,-1.41689e+00,-1.73297e+01,0.00000e+00,0.00000e+00,0.00000e+00
1.59310e+03,-7.80581e-01,-1.48541e+01,0.00000e+00,0.00000e+00,0.00000e+00
1.59310e+03,-1.44332e-01,-1.23784e+01,0.00000e+00,0.00000e+00,0.00000e+00
1.59310e+03,4.89512e-01,-9.90271e+00,0.00000e+00,0.00000e+00,0.00000e+00
1.59310e+03,1.12336e+00,-7.42703e+00,0.00000e+00,0.00000e+00,0.00000e+00
1.59310e+03,1.74219e+00,-4.95135e+00,0.00000e+00,0.00000e+00,0.00000e+00
1.59310e+03,2.35823e+00,-2.47568e+00,0.00000e+00,0.00000e+00,0.00000e+00
1.65850e+03,3.04021e+01,0.00000e+00,0.00000e+00,0.00000e+00,0.00000e+00
1.65850e+03,3.02490e+01,-2.31024e+00,0.00000e+00,0.00000e+00,0.00000e+00
1.65850e+03,3.00453e+01,-4.62048e+00,0.00000e+00,0.00000e+00,0.00000e+00
1.65850e+03,2.98396e+01,-6.93072e+00,0.00000e+00,0.00000e+00,0.00000e+00
1.65850e+03,2.95892e+01,-9.24096e+00,0.00000e+00,0.00000e+00,0.00000e+00
1.65850e+03,2.93285e+01,-1.15512e+01,0.00000e+00,0.00000e+00,0.00000e+00
1.65850e+03,2.90335e+01,-1.38614e+01,0.00000e+00,0.00000e+00,0.00000e+00
1.65850e+03,2.87218e+01,-1.61717e+01,0.00000e+00,0.00000e+00,0.00000e+00
1.65850e+03,2.83826e+01,-1.84819e+01,0.00000e+00,0.00000e+00,0.00000e+00
1.65850e+03,2.80208e+01,-2.07921e+01,0.00000e+00,0.00000e+00,0.00000e+00
1.65850e+03,2.76341e+01,-2.31024e+01,0.00000e+00,0.00000e+00,0.00000e+00
1.65850e+03,2.72173e+01,-2.54126e+01,0.00000e+00,0.00000e+00,0.00000e+00
1.65850e+03,2.67696e+01,-2.77229e+01,0.00000e+00,0.00000e+00,0.00000e+00
1.65850e+03,2.62783e+01,-3.00331e+01,0.00000e+00,0.00000e+00,0.00000e+00
1.65850e+03,2.57444e+01,-3.23433e+01,0.00000e+00,0.00000e+00,0.00000e+00
1.65850e+03,2.51597e+01,-3.46536e+01,0.00000e+00,0.00000e+00,0.00000e+00
1.65850e+03,2.45060e+01,-3.69638e+01,0.00000e+00,0.00000e+00,0.00000e+00
1.65850e+03,2.38045e+01,-3.92741e+01,0.00000e+00,0.00000e+00,0.00000e+00
1.65850e+03,2.29951e+01,-4.15843e+01,0.00000e+00,0.00000e+00,0.00000e+00
1.65850e+03,2.21410e+01,-4.38945e+01,0.00000e+00,0.00000e+00,0.00000e+00
1.65850e+03,2.11624e+01,-4.62048e+01,0.00000e+00,0.00000e+00,0.00000e+00
1.65850e+03,2.00840e+01,-4.85150e+01,0.00000e+00,0.00000e+00,0.00000e+00
1.65850e+03,1.89041e+01,-5.08253e+01,0.00000e+00,0.00000e+00,0.00000e+00
1.65850e+03,1.75537e+01,-5.31355e+01,0.00000e+00,0.00000e+00,0.00000e+00
1.65850e+03,1.60058e+01,-5.54457e+01,0.00000e+00,0.00000e+00,0.00000e+00
1.65850e+03,1.42348e+01,-5.77560e+01,0.00000e+00,0.00000e+00,0.00000e+00
1.65850e+03,1.21400e+01,-6.00662e+01,0.00000e+00,0.00000e+00,0.00000e+00
1.65850e+03,9.45122e+00,-6.23764e+01,0.00000e+00,0.00000e+00,0.00000e+00
1.65850e+03,5.81473e+00,-6.46867e+01,0.00000e+00,0.00000e+00,0.00000e+00
1.65850e+03,-2.35608e+00,-6.69969e+01,0.00000e+00,0.00000e+00,0.00000e+00
1.65850e+03,-2.94577e+00,-6.70023e+01,0.00000e+00,0.00000e+00,0.00000e+00
1.65850e+03,-8.31828e+00,-6.46093e+01,0.00000e+00,0.00000e+00,0.00000e+00
1.65850e+03,-8.96876e+00,-6.22164e+01,0.00000e+00,0.00000e+00,0.00000e+00
1.65850e+03,-9.19322e+00,-5.98235e+01,0.00000e+00,0.00000e+00,0.00000e+00
1.65850e+03,-9.22728e+00,-5.74305e+01,0.00000e+00,0.00000e+00,0.00000e+00
1.65850e+03,-9.11789e+00,-5.50376e+01,0.00000e+00,0.00000e+00,0.00000e+00
1.65850e+03,-8.91848e+00,-5.26447e+01,0.00000e+00,0.00000e+00,0.00000e+00
1.65850e+03,-8.62868e+00,-5.02517e+01,0.00000e+00,0.00000e+00,0.00000e+00
1.65850e+03,-8.28374e+00,-4.78588e+01,0.00000e+00,0.00000e+00,0.00000e+00
1.65850e+03,-7.90682e+00,-4.54658e+01,0.00000e+00,0.00000e+00,0.00000e+00
1.65850e+03,-7.48171e+00,-4.30729e+01,0.00000e+00,0.00000e+00,0.00000e+00
1.65850e+03,-7.02650e+00,-4.06800e+01,0.00000e+00,0.00000e+00,0.00000e+00
1.65850e+03,-6.54196e+00,-3.82870e+01,0.00000e+00,0.00000e+00,0.00000e+00
1.65850e+03,-6.02822e+00,-3.58941e+01,0.00000e+00,0.00000e+00,0.00000e+00
1.65850e+03,-5.49615e+00,-3.35011e+01,0.00000e+00,0.00000e+00,0.00000e+00
1.65850e+03,-4.94063e+00,-3.11082e+01,0.00000e+00,0.00000e+00,0.00000e+00
1.65850e+03,-4.37009e+00,-2.87153e+01,0.00000e+00,0.00000e+00,0.00000e+00
1.65850e+03,-3.78607e+00,-2.63223e+01,0.00000e+00,0.00000e+00,0.00000e+00
1.65850e+03,-3.19003e+00,-2.39294e+01,0.00000e+00,0.00000e+00,0.00000e+00
1.65850e+03,-2.58890e+00,-2.15364e+01,0.00000e+00,0.00000e+00,0.00000e+00
1.65850e+03,-1.97988e+00,-1.91435e+01,0.00000e+00,0.00000e+00,0.00000e+00
1.65850e+03,-1.36954e+00,-1.67506e+01,0.00000e+00,0.00000e+00,0.00000e+00
1.65850e+03,-7.54494e-01,-1.43576e+01,0.00000e+00,0.00000e+00,0.00000e+00
1.65850e+03,-1.39508e-01,-1.19647e+01,0.00000e+00,0.00000e+00,0.00000e+00
1.65850e+03,4.73153e-01,-9.57176e+00,0.00000e+00,0.00000e+00,0.00000e+00
1.65850e+03,1.08581e+00,-7.17882e+00,0.00000e+00,0.00000e+00,0.00000e+00
1.65850e+03,1.68397e+00,-4.78588e+00,0.00000e+00,0.00000e+00,0.00000e+00
1.65850e+03,2.27942e+00,-2.39294e+00,0.00000e+00,0.00000e+00,0.00000e+00
1.71930e+03,2.94249e+01,0.00000e+00,0.00000e+00,0.00000e+00,0.00000e+00
1.71930e+03,2.92767e+01,-2.23598e+00,0.00000e+00,0.00000e+00,0.00000e+00
1.71930e+03,2.90795e+01,-4.47196e+00,0.00000e+00,0.00000e+00,0.00000e+00
1.71930e+03,2.88804e+01,-6.70794e+00,0.00000e+00,0.00000e+00,0.00000e+00
1.71930e+03,2.86381e+01,-8.94392e+00,0.00000e+00,0.00000e+00,0.00000e+00
1.71930e+03,2.83857e+01,-1.11799e+01,0.00000e+00,0.00000e+00,0.00000e+00
1.71930e+03,2.81002e+01,-1.34159e+01,0.00000e+00,0.00000e+00,0.00000e+00
1.71930e+03,2.77986e+01,-1.56519e+01,0.00000e+00,0.00000e+00,0.00000e+00
1.71930e+03,2.74703e+01,-1.78878e+01,0.00000e+00,0.00000e+00,0.00000e+00
1.71930e+03,2.71201e+01,-2.01238e+01,0.00000e+00,0.00000e+00,0.00000e+00
1.71930e+03,2.67458e+01,-2.23598e+01,0.00000e+00,0.00000e+00,0.00000e+00
1.71930e+03,2.63424e+01,-2.45958e+01,0.00000e+00,0.00000e+00,0.00000e+00
1.71930e+03,2.59091e+01,-2.68317e+01,0.00000e+00,0.00000e+00,0.00000e+00
1.71930e+03,2.54336e+01,-2.90677e+01,0.00000e+00,0.00000e+00,0.00000e+00
1.71930e+03,2.49169e+01,-3.13037e+01,0.00000e+00,0.00000e+00,0.00000e+00
1.71930e+03,2.43509e+01,-3.35397e+01,0.00000e+00,0.00000e+00,0.00000e+00
1.71930e+03,2.37183e+01,-3.57757e+01,0.00000e+00,0.00000e+00,0.00000e+00
1.71930e+03,2.30393e+01,-3.80116e+01,0.00000e+00,0.00000e+00,0.00000e+00
1.71930e+03,2.22560e+01,-4.02476e+01,0.00000e+00,0.00000e+00,0.00000e+00
1.71930e+03,2.14293e+01,-4.24836e+01,0.00000e+00,0.00000e+00,0.00000e+00
1.71930e+03,2.04822e+01,-4.47196e+01,0.00000e+00,0.00000e+00,0.00000e+00
1.71930e+03,1.94385e+01,-4.69556e+01,0.00000e+00,0.00000e+00,0.00000e+00
1.71930e+03,1.82964e+01,-4.91915e+01,0.00000e+00,0.00000e+00,0.00000e+00
1.71930e+03,1.69894e+01,-5.14275e+01,0.00000e+00,0.00000e+00,0.00000e+00
1.71930e+03,1.54913e+01,-5.36635e+01,0.00000e+00,0.00000e+00,0.00000e+00
1.71930e+03,1.37772e+01,-5.58995e+01,0.00000e+00,0.00000e+00,0.00000e+00
1.71930e+03,1.17498e+01,-5.81355e+01,0.00000e+00,0.00000e+00,0.00000e+00
1.71930e+03,9.14742e+00,-6.03714e+01,0.00000e+00,0.00000e+00,0.00000e+00
1.71930e+03,5.62782e+00,-6.26074e+01,0.00000e+00,0.00000e+00,0.00000e+00
1.71930e+03,-2.28035e+00,-6.48434e+01,0.00000e+00,0.00000e+00,0.00000e+00
1.71930e+03,-2.85109e+00,-6.48486e+01,0.00000e+00,0.00000e+00,0.00000e+00
1.71930e+03,-8.05090e+00,-6.25326e+01,0.00000e+00,0.00000e+00,0.00000e+00
1.71930e+03,-8.68047e+00,-6.02165e+01,0.00000e+00,0.00000e+00,0.00000e+00
1.71930e+03,-8.89772e+00,-5.79005e+01,0.00000e+00,0.00000e+00,0.00000e+00
1.71930e+03,-8.93068e+00,-5.55845e+01,0.00000e+00,0.00000e+00,0.00000e+00
1.71930e+03,-8.82481e+00,-5.32685e+01,0.00000e+00,0.00000e+00,0.00000e+00
1.71930e+03,-8.63181e+00,-5.09525e+01,0.00000e+00,0.00000e+00,0.00000e+00
1.71930e+03,-8.35132e+00,-4.86364e+01,0.00000e+00,0.00000e+00,0.00000e+00
1.71930e+03,-8.01747e+00,-4.63204e+01,0.00000e+00,0.00000e+00,0.00000e+00
1.71930e+03,-7.65266e+00,-4.40044e+01,0.00000e+00,0.00000e+00,0.00000e+00
1.71930e+03,-7.24122e+00,-4.16884e+01,0.00000e+00,0.00000e+00,0.00000e+00
1.71930e+03,-6.80064e+00,-3.93724e+01,0.00000e+00,0.00000e+00,0.00000e+00
1.71930e+03,-6.33168e+00,-3.70563e+01,0.00000e+00,0.00000e+00,0.00000e+00
1.71930e+03,-5.83445e+00,-3.47403e+01,0.00000e+00,0.00000e+00,0.00000e+00
1.71930e+03,-5.31949e+00,-3.24243e+01,0.00000e+00,0.00000e+00,0.00000e+00
1.71930e+03,-4.78182e+00,-3.01083e+01,0.00000e+00,0.00000e+00,0.00000e+00
1.71930e+03,-4.22962e+00,-2.77922e+01,0.00000e+00,0.00000e+00,0.00000e+00
1.71930e+03,-3.66437e+00,-2.54762e+01,0.00000e+00,0.00000e+00,0.00000e+00
1.71930e+03,-3.08749e+00,-2.31602e+01,0.00000e+00,0.00000e+00,0.00000e+00
1.71930e+03,-2.50568e+00,-2.08442e+01,0.00000e+00,0.00000e+00,0.00000e+00
1.71930e+03,-1.91624e+00,-1.85282e+01,0.00000e+00,0.00000e+00,0.00000e+00
1.71930e+03,-1.32552e+00,-1.62121e+01,0.00000e+00,0.00000e+00,0.00000e+00
1.71930e+03,-7.30242e-01,-1.38961e+01,0.00000e+00,0.00000e+00,0.00000e+00
1.71930e+03,-1.35024e-01,-1.15801e+01,0.00000e+00,0.00000e+00,0.00000e+00
1.71930e+03,4.57944e-01,-9.26408e+00,0.00000e+00,0.00000e+00,0.00000e+00
1.71930e+03,1.05091e+00,-6.94806e+00,0.00000e+00,0.00000e+00,0.00000e+00
1.71930e+03,1.62984e+00,-4.63204e+00,0.00000e+00,0.00000e+00,0.00000e+00
1.71930e+03,2.20615e+00,-2.31602e+00,0.00000e+00,0.00000e+00,0.00000e+00
1.77540e+03,2.77303e+01,0.00000e+00,0.00000e+00,0.00000e+00,0.00000e+00
1.77540e+03,2.75906e+01,-2.10721e+00,0.00000e+00,0.00000e+00,0.00000e+00
1.77540e+03,2.74048e+01,-4.21442e+00,0.00000e+00,0.00000e+00,0.00000e+00
1.77540e+03,2.72172e+01,-6.32163e+00,0.00000e+00,0.00000e+00,0.00000e+00
1.77540e+03,2.69888e+01,-8.42884e+00,0.00000e+00,0.00000e+00,0.00000e+00
1.77540e+03,2.67510e+01,-1.05361e+01,0.00000e+00,0.00000e+00,0.00000e+00
1.77540e+03,2.64819e+01,-1.26433e+01,0.00000e+00,0.00000e+00,0.00000e+00
1.77540e+03,2.61977e+01,-1.47505e+01,0.00000e+00,0.00000e+00,0.00000e+00
1.77540e+03,2.58883e+01,-1.68577e+01,0.00000e+00,0.00000e+00,0.00000e+00
1.77540e+03,2.55583e+01,-1.89649e+01,0.00000e+00,0.00000e+00,0.00000e+00
1.77540e+03,2.52056e+01,-2.10721e+01,0.00000e+00,0.00000e+00,0.00000e+00
1.77540e+03,2.48254e+01,-2.31793e+01,0.00000e+00,0.00000e+00,0.00000e+00
1.77540e+03,2.44171e+01,-2.52865e+01,0.00000e+00,0.00000e+00,0.00000e+00
1.77540e+03,2.39689e+01,-2.73937e+01,0.00000e+00,0.00000e+00,0.00000e+00
1.77540e+03,2.34819e+01,-2.95009e+01,0.00000e+00,0.00000e+00,0.00000e+00
1.77540e+03,2.29486e+01,-3.16082e+01,0.00000e+00,0.00000e+00,0.00000e+00
1.77540e+03,2.23524e+01,-3.37154e+01,0.00000e+00,0.00000e+00,0.00000e+00
1.77540e+03,2.17125e+01,-3.58226e+01,0.00000e+00,0.00000e+00,0.00000e+00
1.77540e+03,2.09743e+01,-3.79298e+01,0.00000e+00,0.00000e+00,0.00000e+00
1.77540e+03,2.01952e+01,-4.00370e+01,0.00000e+00,0.00000e+00,0.00000e+00
1.77540e+03,1.93026e+01,-4.21442e+01,0.00000e+00,0.00000e+00,0.00000e+00
1.77540e+03,1.83190e+01,-4.42514e+01,0.00000e+00,0.00000e+00,0.00000e+00
1.77540e+03,1.72428e+01,-4.63586e+01,0.00000e+00,0.00000e+00,0.00000e+00
1.77540e+03,1.60110e+01,-4.84658e+01,0.00000e+00,0.00000e+00,0.00000e+00
1.77540e+03,1.45992e+01,-5.05731e+01,0.00000e+00,0.00000e+00,0.00000e+00
1.77540e+03,1.29838e+01,-5.26803e+01,0.00000e+00,0.00000e+00,0.00000e+00
1.77540e+03,1.10731e+01,-5.47875e+01,0.00000e+00,0.00000e+00,0.00000e+00
1.77540e+03,8.62063e+00,-5.68947e+01,0.00000e+00,0.00000e+00,0.00000e+00
1.77540e+03,5.30372e+00,-5.90019e+01,0.00000e+00,0.00000e+00,0.00000e+00
1.77540e+03,-2.14903e+00,-6.11091e+01,0.00000e+00,0.00000e+00,0.00000e+00
1.77540e+03,-2.68689e+00,-6.11140e+01,0.00000e+00,0.00000e+00,0.00000e+00
1.77540e+03,-7.58725e+00,-5.89314e+01,0.00000e+00,0.00000e+00,0.00000e+00
1.77540e+03,-8.18057e+00,-5.67487e+01,0.00000e+00,0.00000e+00,0.00000e+00
1.77540e+03,-8.38530e+00,-5.45661e+01,0.00000e+00,0.00000e+00,0.00000e+00
1.77540e+03,-8.41637e+00,-5.23834e+01,0.00000e+00,0.00000e+00,0.00000e+00
1.77540e+03,-8.31659e+00,-5.02008e+01,0.00000e+00,0.00000e+00,0.00000e+00
1.77540e+03,-8.13471e+00,-4.80181e+01,0.00000e+00,0.00000e+00,0.00000e+00
1.77540e+03,-7.87037e+00,-4.58355e+01,0.00000e+00,0.00000e+00,0.00000e+00
1.77540e+03,-7.55575e+00,-4.36529e+01,0.00000e+00,0.00000e+00,0.00000e+00
1.77540e+03,-7.21195e+00,-4.14702e+01,0.00000e+00,0.00000e+00,0.00000e+00
1.77540e+03,-6.82421e+00,-3.92876e+01,0.00000e+00,0.00000e+00,0.00000e+00
1.77540e+03,-6.40900e+00,-3.71049e+01,0.00000e+00,0.00000e+00,0.00000e+00
1.77540e+03,-5.96704e+00,-3.49223e+01,0.00000e+00,0.00000e+00,0.00000e+00
1.77540e+03,-5.49844e+00,-3.27396e+01,0.00000e+00,0.00000e+00,0.00000e+00
1.77540e+03,-5.01314e+00,-3.05570e+01,0.00000e+00,0.00000e+00,0.00000e+00
1.77540e+03,-4.50644e+00,-2.83744e+01,0.00000e+00,0.00000e+00,0.00000e+00
1.77540e+03,-3.98604e+00,-2.61917e+01,0.00000e+00,0.00000e+00,0.00000e+00
1.77540e+03,-3.45334e+00,-2.40091e+01,0.00000e+00,0.00000e+00,0.00000e+00
1.77540e+03,-2.90969e+00,-2.18264e+01,0.00000e+00,0.00000e+00,0.00000e+00
1.77540e+03,-2.36138e+00,-1.96438e+01,0.00000e+00,0.00000e+00,0.00000e+00
1.77540e+03,-1.80588e+00,-1.74611e+01,0.00000e+00,0.00000e+00,0.00000e+00
1.77540e+03,-1.24918e+00,-1.52785e+01,0.00000e+00,0.00000e+00,0.00000e+00
1.77540e+03,-6.88187e-01,-1.30959e+01,0.00000e+00,0.00000e+00,0.00000e+00
1.77540e+03,-1.27248e-01,-1.09132e+01,0.00000e+00,0.00000e+00,0.00000e+00
1.77540e+03,4.31571e-01,-8.73057e+00,0.00000e+00,0.00000e+00,0.00000e+00
1.77540e+03,9.90390e-01,-6.54793e+00,0.00000e+00,0.00000e+00,0.00000e+00
1.77540e+03,1.53598e+00,-4.36529e+00,0.00000e+00,0.00000e+00,0.00000e+00
1.77540e+03,2.07910e+00,-2.18264e+00,0.00000e+00,0.00000e+00,0.00000e+00
1.82660e+03,2.53092e+01,0.00000e+00,0.00000e+00,0.00000e+00,0.00000e+00
1.82660e+03,2.51817e+01,-1.92323e+00,0.00000e+00,0.00000e+00,0.00000e+00
1.82660e+03,2.50121e+01,-3.84646e+00,0.00000e+00,0.00000e+00,0.00000e+00
1.82660e+03,2.48409e+01,-5.76969e+00,0.00000e+00,0.00000e+00,0.00000e+00
1.82660e+03,2.46324e+01,-7.69292e+00,0.00000e+00,0.00000e+00,0.00000e+00
1.82660e+03,2.44154e+01,-9.61614e+00,0.00000e+00,0.00000e+00,0.00000e+00
1.82660e+03,2.41698e+01,-1.15394e+01,0.00000e+00,0.00000e+00,0.00000e+00
1.82660e+03,2.39103e+01,-1.34626e+01,0.00000e+00,0.00000e+00,0.00000e+00
1.82660e+03,2.36280e+01,-1.53858e+01,0.00000e+00,0.00000e+00,0.00000e+00
1.82660e+03,2.33268e+01,-1.73091e+01,0.00000e+00,0.00000e+00,0.00000e+00
1.82660e+03,2.30049e+01,-1.92323e+01,0.00000e+00,0.00000e+00,0.00000e+00
1.82660e+03,2.26579e+01,-2.11555e+01,0.00000e+00,0.00000e+00,0.00000e+00
1.82660e+03,2.22852e+01,-2.30787e+01,0.00000e+00,0.00000e+00,0.00000e+00
1.82660e+03,2.18762e+01,-2.50020e+01,0.00000e+00,0.00000e+00,0.00000e+00
1.82660e+03,2.14317e+01,-2.69252e+01,0.00000e+00,0.00000e+00,0.00000e+00
1.82660e+03,2.09449e+01,-2.88484e+01,0.00000e+00,0.00000e+00,0.00000e+00
1.82660e+03,2.04008e+01,-3.07717e+01,0.00000e+00,0.00000e+00,0.00000e+00
1.82660e+03,1.98168e+01,-3.26949e+01,0.00000e+00,0.00000e+00,0.00000e+00
1.82660e+03,1.91430e+01,-3.46181e+01,0.00000e+00,0.00000e+00,0.00000e+00
1.82660e+03,1.84320e+01,-3.65413e+01,0.00000e+00,0.00000e+00,0.00000e+00
1.82660e+03,1.76173e+01,-3.84646e+01,0.00000e+00,0.00000e+00,0.00000e+00
1.82660e+03,1.67196e+01,-4.03878e+01,0.00000e+00,0.00000e+00,0.00000e+00
1.82660e+03,1.57373e+01,-4.23110e+01,0.00000e+00,0.00000e+00,0.00000e+00
1.82660e+03,1.46131e+01,-4.42343e+01,0.00000e+00,0.00000e+00,0.00000e+00
1.82660e+03,1.33245e+01,-4.61575e+01,0.00000e+00,0.00000e+00,0.00000e+00
1.82660e+03,1.18502e+01,-4.80807e+01,0.00000e+00,0.00000e+00,0.00000e+00
1.82660e+03,1.01063e+01,-5.00040e+01,0.00000e+00,0.00000e+00,0.00000e+00
1.82660e+03,7.86795e+00,-5.19272e+01,0.00000e+00,0.00000e+00,0.00000e+00
1.82660e+03,4.84065e+00,-5.38504e+01,0.00000e+00,0.00000e+00,0.00000e+00
1.82660e+03,-1.96139e+00,-5.57736e+01,0.00000e+00,0.00000e+00,0.00000e+00
1.82660e+03,-2.45230e+00,-5.57781e+01,0.00000e+00,0.00000e+00,0.00000e+00
1.82660e+03,-6.92480e+00,-5.37860e+01,0.00000e+00,0.00000e+00,0.00000e+00
1.82660e+03,-7.46632e+00,-5.17940e+01,0.00000e+00,0.00000e+00,0.00000e+00
1.82660e+03,-7.65318e+00,-4.98019e+01,0.00000e+00,0.00000e+00,0.00000e+00
1.82660e+03,-7.68153e+00,-4.78098e+01,0.00000e+00,0.00000e+00,0.00000e+00
1.82660e+03,-7.59047e+00,-4.58177e+01,0.00000e+00,0.00000e+00,0.00000e+00
1.82660e+03,-7.42446e+00,-4.38257e+01,0.00000e+00,0.00000e+00,0.00000e+00
1.82660e+03,-7.18321e+00,-4.18336e+01,0.00000e+00,0.00000e+00,0.00000e+00
1.82660e+03,-6.89605e+00,-3.98415e+01,0.00000e+00,0.00000e+00,0.00000e+00
1.82660e+03,-6.58227e+00,-3.78494e+01,0.00000e+00,0.00000e+00,0.00000e+00
1.82660e+03,-6.22838e+00,-3.58574e+01,0.00000e+00,0.00000e+00,0.00000e+00
1.82660e+03,-5.84943e+00,-3.38653e+01,0.00000e+00,0.00000e+00,0.00000e+00
1.82660e+03,-5.44606e+00,-3.18732e+01,0.00000e+00,0.00000e+00,0.00000e+00
1.82660e+03,-5.01837e+00,-2.98811e+01,0.00000e+00,0.00000e+00,0.00000e+00
1.82660e+03,-4.57544e+00,-2.78891e+01,0.00000e+00,0.00000e+00,0.00000e+00
1.82660e+03,-4.11298e+00,-2.58970e+01,0.00000e+00,0.00000e+00,0.00000e+00
1.82660e+03,-3.63801e+00,-2.39049e+01,0.00000e+00,0.00000e+00,0.00000e+00
1.82660e+03,-3.15183e+00,-2.19128e+01,0.00000e+00,0.00000e+00,0.00000e+00
1.82660e+03,-2.65564e+00,-1.99208e+01,0.00000e+00,0.00000e+00,0.00000e+00
1.82660e+03,-2.15521e+00,-1.79287e+01,0.00000e+00,0.00000e+00,0.00000e+00
1.82660e+03,-1.64821e+00,-1.59366e+01,0.00000e+00,0.00000e+00,0.00000e+00
1.82660e+03,-1.14012e+00,-1.39445e+01,0.00000e+00,0.00000e+00,0.00000e+00
1.82660e+03,-6.28101e-01,-1.19525e+01,0.00000e+00,0.00000e+00,0.00000e+00
1.82660e+03,-1.16138e-01,-9.96038e+00,0.00000e+00,0.00000e+00,0.00000e+00
1.82660e+03,3.93890e-01,-7.96830e+00,0.00000e+00,0.00000e+00,0.00000e+00
1.82660e+03,9.03919e-01,-5.97623e+00,0.00000e+00,0.00000e+00,0.00000e+00
1.82660e+03,1.40187e+00,-3.98415e+00,0.00000e+00,0.00000e+00,0.00000e+00
1.82660e+03,1.89757e+00,-1.99208e+00,0.00000e+00,0.00000e+00,0.00000e+00
1.87280e+03,2.31244e+01,0.00000e+00,0.00000e+00,0.00000e+00,0.00000e+00
1.87280e+03,2.30080e+01,-1.75721e+00,0.00000e+00,0.00000e+00,0.00000e+00
1.87280e+03,2.28531e+01,-3.51443e+00,0.00000e+00,0.00000e+00,0.00000e+00
1.87280e+03,2.26966e+01,-5.27164e+00,0.00000e+00,0.00000e+00,0.00000e+00
1.87280e+03,2.25061e+01,-7.02886e+00,0.00000e+00,0.00000e+00,0.00000e+00
1.87280e+03,2.23078e+01,-8.78607e+00,0.00000e+00,0.00000e+00,0.00000e+00
1.87280e+03,2.20834e+01,-1.05433e+01,0.00000e+00,0.00000e+00,0.00000e+00
1.87280e+03,2.18464e+01,-1.23005e+01,0.00000e+00,0.00000e+00,0.00000e+00
1.87280e+03,2.15884e+01,-1.40577e+01,0.00000e+00,0.00000e+00,0.00000e+00
1.87280e+03,2.13132e+01,-1.58149e+01,0.00000e+00,0.00000e+00,0.00000e+00
1.87280e+03,2.10191e+01,-1.75721e+01,0.00000e+00,0.00000e+00,0.00000e+00
1.87280e+03,2.07020e+01,-1.93294e+01,0.00000e+00,0.00000e+00,0.00000e+00
1.87280e+03,2.03615e+01,-2.10866e+01,0.00000e+00,0.00000e+00,0.00000e+00
1.87280e+03,1.99878e+01,-2.28438e+01,0.00000e+00,0.00000e+00,0.00000e+00
1.87280e+03,1.95817e+01,-2.46010e+01,0.00000e+00,0.00000e+00,0.00000e+00
1.87280e+03,1.91369e+01,-2.63582e+01,0.00000e+00,0.00000e+00,0.00000e+00
1.87280e+03,1.86398e+01,-2.81154e+01,0.00000e+00,0.00000e+00,0.00000e+00
1.87280e+03,1.81062e+01,-2.98726e+01,0.00000e+00,0.00000e+00,0.00000e+00
1.87280e+03,1.74905e+01,-3.16299e+01,0.00000e+00,0.00000e+00,0.00000e+00
1.87280e+03,1.68409e+01,-3.33871e+01,0.00000e+00,0.00000e+00,0.00000e+00
1.87280e+03,1.60966e+01,-3.51443e+01,0.00000e+00,0.00000e+00,0.00000e+00
1.87280e+03,1.52763e+01,-3.69015e+01,0.00000e+00,0.00000e+00,0.00000e+00
1.87280e+03,1.43788e+01,-3.86587e+01,0.00000e+00,0.00000e+00,0.00000e+00
1.87280e+03,1.33517e+01,-4.04159e+01,0.00000e+00,0.00000e+00,0.00000e+00
1.87280e+03,1.21743e+01,-4.21731e+01,0.00000e+00,0.00000e+00,0.00000e+00
1.87280e+03,1.08272e+01,-4.39304e+01,0.00000e+00,0.00000e+00,0.00000e+00
1.87280e+03,9.23393e+00,-4.56876e+01,0.00000e+00,0.00000e+00,0.00000e+00
1.87280e+03,7.18879e+00,-4.74448e+01,0.00000e+00,0.00000e+00,0.00000e+00
1.87280e+03,4.42280e+00,-4.92020e+01,0.00000e+00,0.00000e+00,0.00000e+00
1.87280e+03,-1.79208e+00,-5.09592e+01,0.00000e+00,0.00000e+00,0.00000e+00
1.87280e+03,-2.24062e+00,-5.09633e+01,0.00000e+00,0.00000e+00,0.00000e+00
1.87280e+03,-6.32705e+00,-4.91432e+01,0.00000e+00,0.00000e+00,0.00000e+00
1.87280e+03,-6.82182e+00,-4.73231e+01,0.00000e+00,0.00000e+00,0.00000e+00
1.87280e+03,-6.99255e+00,-4.55029e+01,0.00000e+00,0.00000e+00,0.00000e+00
1.87280e+03,-7.01846e+00,-4.36828e+01,0.00000e+00,0.00000e+00,0.00000e+00
1.87280e+03,-6.93525e+00,-4.18627e+01,0.00000e+00,0.00000e+00,0.00000e+00
1.87280e+03,-6.78358e+00,-4.00426e+01,0.00000e+00,0.00000e+00,0.00000e+00
1.87280e+03,-6.56315e+00,-3.82225e+01,0.00000e+00,0.00000e+00,0.00000e+00
1.87280e+03,-6.30078e+00,-3.64024e+01,0.00000e+00,0.00000e+00,0.00000e+00
1.87280e+03,-6.01408e+00,-3.45822e+01,0.00000e+00,0.00000e+00,0.00000e+00
1.87280e+03,-5.69074e+00,-3.27621e+01,0.00000e+00,0.00000e+00,0.00000e+00
1.87280e+03,-5.34450e+00,-3.09420e+01,0.00000e+00,0.00000e+00,0.00000e+00
1.87280e+03,-4.97595e+00,-2.91219e+01,0.00000e+00,0.00000e+00,0.00000e+00
1.87280e+03,-4.58518e+00,-2.73018e+01,0.00000e+00,0.00000e+00,0.00000e+00
1.87280e+03,-4.18049e+00,-2.54816e+01,0.00000e+00,0.00000e+00,0.00000e+00
1.87280e+03,-3.75794e+00,-2.36615e+01,0.00000e+00,0.00000e+00,0.00000e+00
1.87280e+03,-3.32398e+00,-2.18414e+01,0.00000e+00,0.00000e+00,0.00000e+00
1.87280e+03,-2.87976e+00,-2.00213e+01,0.00000e+00,0.00000e+00,0.00000e+00
1.87280e+03,-2.42640e+00,-1.82012e+01,0.00000e+00,0.00000e+00,0.00000e+00
1.87280e+03,-1.96917e+00,-1.63811e+01,0.00000e+00,0.00000e+00,0.00000e+00
1.87280e+03,-1.50594e+00,-1.45609e+01,0.00000e+00,0.00000e+00,0.00000e+00
1.87280e+03,-1.04170e+00,-1.27408e+01,0.00000e+00,0.00000e+00,0.00000e+00
1.87280e+03,-5.73883e-01,-1.09207e+01,0.00000e+00,0.00000e+00,0.00000e+00
1.87280e+03,-1.06113e-01,-9.10059e+00,0.00000e+00,0.00000e+00,0.00000e+00
1.87280e+03,3.59890e-01,-7.28047e+00,0.00000e+00,0.00000e+00,0.00000e+00
1.87280e+03,8.25892e-01,-5.46035e+00,0.00000e+00,0.00000e+00,0.00000e+00
1.87280e+03,1.28086e+00,-3.64024e+00,0.00000e+00,0.00000e+00,0.00000e+00
1.87280e+03,1.73377e+00,-1.82012e+00,0.00000e+00,0.00000e+00,0.00000e+00
1.91380e+03,2.11856e+01,0.00000e+00,0.00000e+00,0.00000e+00,0.00000e+00
1.91380e+03,2.10789e+01,-1.60989e+00,0.00000e+00,0.00000e+00,0.00000e+00
1.91380e+03,2.09370e+01,-3.21977e+00,0.00000e+00,0.00000e+00,0.00000e+00
1.91380e+03,2.07936e+01,-4.82966e+00,0.00000e+00,0.00000e+00,0.00000e+00
1.91380e+03,2.06192e+01,-6.43954e+00,0.00000e+00,0.00000e+00,0.00000e+00
1.91380e+03,2.04375e+01,-8.04943e+00,0.00000e+00,0.00000e+00,0.00000e+00
1.91380e+03,2.02319e+01,-9.65931e+00,0.00000e+00,0.00000e+00,0.00000e+00
1.91380e+03,2.00147e+01,-1.12692e+01,0.00000e+00,0.00000e+00,0.00000e+00
1.91380e+03,1.97784e+01,-1.28791e+01,0.00000e+00,0.00000e+00,0.00000e+00
1.91380e+03,1.95262e+01,-1.44890e+01,0.00000e+00,0.00000e+00,0.00000e+00
1.91380e+03,1.92568e+01,-1.60989e+01,0.00000e+00,0.00000e+00,0.00000e+00
1.91380e+03,1.89663e+01,-1.77087e+01,0.00000e+00,0.00000e+00,0.00000e+00
1.91380e+03,1.86544e+01,-1.93186e+01,0.00000e+00,0.00000e+00,0.00000e+00
1.91380e+03,1.83120e+01,-2.09285e+01,0.00000e+00,0.00000e+00,0.00000e+00
1.91380e+03,1.79399e+01,-2.25384e+01,0.00000e+00,0.00000e+00,0.00000e+00
1.91380e+03,1.75325e+01,-2.41483e+01,0.00000e+00,0.00000e+00,0.00000e+00
1.91380e+03,1.70770e+01,-2.57582e+01,0.00000e+00,0.00000e+00,0.00000e+00
1.91380e+03,1.65881e+01,-2.73680e+01,0.00000e+00,0.00000e+00,0.00000e+00
1.91380e+03,1.60241e+01,-2.89779e+01,0.00000e+00,0.00000e+00,0.00000e+00
1.91380e+03,1.54289e+01,-3.05878e+01,0.00000e+00,0.00000e+00,0.00000e+00
1.91380e+03,1.47470e+01,-3.21977e+01,0.00000e+00,0.00000e+00,0.00000e+00
1.91380e+03,1.39955e+01,-3.38076e+01,0.00000e+00,0.00000e+00,0.00000e+00
1.91380e+03,1.31733e+01,-3.54175e+01,0.00000e+00,0.00000e+00,0.00000e+00
1.91380e+03,1.22322e+01,-3.70274e+01,0.00000e+00,0.00000e+00,0.00000e+00
1.91380e+03,1.11536e+01,-3.86372e+01,0.00000e+00,0.00000e+00,0.00000e+00
1.91380e+03,9.91946e+00,-4.02471e+01,0.00000e+00,0.00000e+00,0.00000e+00
1.91380e+03,8.45973e+00,-4.18570e+01,0.00000e+00,0.00000e+00,0.00000e+00
1.91380e+03,6.58606e+00,-4.34669e+01,0.00000e+00,0.00000e+00,0.00000e+00
1.91380e+03,4.05198e+00,-4.50768e+01,0.00000e+00,0.00000e+00,0.00000e+00
1.91380e+03,-1.64183e+00,-4.66867e+01,0.00000e+00,0.00000e+00,0.00000e+00
1.91380e+03,-2.05276e+00,-4.66904e+01,0.00000e+00,0.00000e+00,0.00000e+00
1.91380e+03,-5.79657e+00,-4.50229e+01,0.00000e+00,0.00000e+00,0.00000e+00
1.91380e+03,-6.24986e+00,-4.33554e+01,0.00000e+00,0.00000e+00,0.00000e+00
1.91380e+03,-6.40628e+00,-4.16879e+01,0.00000e+00,0.00000e+00,0.00000e+00
1.91380e+03,-6.43001e+00,-4.00204e+01,0.00000e+00,0.00000e+00,0.00000e+00
1.91380e+03,-6.35378e+00,-3.83528e+01,0.00000e+00,0.00000e+00,0.00000e+00
1.91380e+03,-6.21483e+00,-3.66853e+01,0.00000e+00,0.00000e+00,0.00000e+00
1.91380e+03,-6.01288e+00,-3.50178e+01,0.00000e+00,0.00000e+00,0.00000e+00
1.91380e+03,-5.77251e+00,-3.33503e+01,0.00000e+00,0.00000e+00,0.00000e+00
1.91380e+03,-5.50985e+00,-3.16828e+01,0.00000e+00,0.00000e+00,0.00000e+00
1.91380e+03,-5.21362e+00,-3.00153e+01,0.00000e+00,0.00000e+00,0.00000e+00
1.91380e+03,-4.89640e+00,-2.83477e+01,0.00000e+00,0.00000e+00,0.00000e+00
1.91380e+03,-4.55876e+00,-2.66802e+01,0.00000e+00,0.00000e+00,0.00000e+00
1.91380e+03,-4.20075e+00,-2.50127e+01,0.00000e+00,0.00000e+00,0.00000e+00
1.91380e+03,-3.82998e+00,-2.33452e+01,0.00000e+00,0.00000e+00,0.00000e+00
1.91380e+03,-3.44287e+00,-2.16777e+01,0.00000e+00,0.00000e+00,0.00000e+00
1.91380e+03,-3.04529e+00,-2.00102e+01,0.00000e+00,0.00000e+00,0.00000e+00
1.91380e+03,-2.63832e+00,-1.83427e+01,0.00000e+00,0.00000e+00,0.00000e+00
1.91380e+03,-2.22297e+00,-1.66751e+01,0.00000e+00,0.00000e+00,0.00000e+00
1.91380e+03,-1.80407e+00,-1.50076e+01,0.00000e+00,0.00000e+00,0.00000e+00
1.91380e+03,-1.37967e+00,-1.33401e+01,0.00000e+00,0.00000e+00,0.00000e+00
1.91380e+03,-9.54362e-01,-1.16726e+01,0.00000e+00,0.00000e+00,0.00000e+00
1.91380e+03,-5.25768e-01,-1.00051e+01,0.00000e+00,0.00000e+00,0.00000e+00
1.91380e+03,-9.72161e-02,-8.33757e+00,0.00000e+00,0.00000e+00,0.00000e+00
1.91380e+03,3.29716e-01,-6.67006e+00,0.00000e+00,0.00000e+00,0.00000e+00
1.91380e+03,7.56647e-01,-5.00254e+00,0.00000e+00,0.00000e+00,0.00000e+00
1.91380e+03,1.17347e+00,-3.33503e+00,0.00000e+00,0.00000e+00,0.00000e+00
1.91380e+03,1.58841e+00,-1.66751e+00,0.00000e+00,0.00000e+00,0.00000e+00
1.94970e+03,1.94880e+01,0.00000e+00,0.00000e+00,0.00000e+00,0.00000e+00
1.94970e+03,1.93899e+01,-1.48088e+00,0.00000e+00,0.00000e+00,0.00000e+00
1.94970e+03,1.92593e+01,-2.96177e+00,0.00000e+00,0.00000e+00,0.00000e+00
1.94970e+03,1.91274e+01,-4.44265e+00,0.00000e+00,0.00000e+00,0.00000e+00
1.94970e+03,1.89669e+01,-5.92353e+00,0.00000e+00,0.00000e+00,0.00000e+00
1.94970e+03,1.87998e+01,-7.40441e+00,0.00000e+00,0.00000e+00,0.00000e+00
1.94970e+03,1.86107e+01,-8.88530e+00,0.00000e+00,0.00000e+00,0.00000e+00
1.94970e+03,1.84109e+01,-1.03662e+01,0.00000e+00,0.00000e+00,0.00000e+00
1.94970e+03,1.81935e+01,-1.18471e+01,0.00000e+00,0.00000e+00,0.00000e+00
1.94970e+03,1.79616e+01,-1.33279e+01,0.00000e+00,0.00000e+00,0.00000e+00
1.94970e+03,1.77137e+01,-1.48088e+01,0.00000e+00,0.00000e+00,0.00000e+00
1.94970e+03,1.74465e+01,-1.62897e+01,0.00000e+00,0.00000e+00,0.00000e+00
1.94970e+03,1.71596e+01,-1.77706e+01,0.00000e+00,0.00000e+00,0.00000e+00
1.94970e+03,1.68446e+01,-1.92515e+01,0.00000e+00,0.00000e+00,0.00000e+00
1.94970e+03,1.65024e+01,-2.07324e+01,0.00000e+00,0.00000e+00,0.00000e+00
1.94970e+03,1.61276e+01,-2.22132e+01,0.00000e+00,0.00000e+00,0.00000e+00
1.94970e+03,1.57086e+01,-2.36941e+01,0.00000e+00,0.00000e+00,0.00000e+00
1.94970e+03,1.52589e+01,-2.51750e+01,0.00000e+00,0.00000e+00,0.00000e+00
1.94970e+03,1.47401e+01,-2.66559e+01,0.00000e+00,0.00000e+00,0.00000e+00
1.94970e+03,1.41926e+01,-2.81368e+01,0.00000e+00,0.00000e+00,0.00000e+00
1.94970e+03,1.35653e+01,-2.96177e+01,0.00000e+00,0.00000e+00,0.00000e+00
1.94970e+03,1.28740e+01,-3.10985e+01,0.00000e+00,0.00000e+00,0.00000e+00
1.94970e+03,1.21177e+01,-3.25794e+01,0.00000e+00,0.00000e+00,0.00000e+00
1.94970e+03,1.12521e+01,-3.40603e+01,0.00000e+00,0.00000e+00,0.00000e+00
1.94970e+03,1.02599e+01,-3.55412e+01,0.00000e+00,0.00000e+00,0.00000e+00
1.94970e+03,9.12460e+00,-3.70221e+01,0.00000e+00,0.00000e+00,0.00000e+00
1.94970e+03,7.78184e+00,-3.85029e+01,0.00000e+00,0.00000e+00,0.00000e+00
1.94970e+03,6.05831e+00,-3.99838e+01,0.00000e+00,0.00000e+00,0.00000e+00
1.94970e+03,3.72729e+00,-4.14647e+01,0.00000e+00,0.00000e+00,0.00000e+00
1.94970e+03,-1.51027e+00,-4.29456e+01,0.00000e+00,0.00000e+00,0.00000e+00
1.94970e+03,-1.88827e+00,-4.29490e+01,0.00000e+00,0.00000e+00,0.00000e+00
1.94970e+03,-5.33209e+00,-4.14151e+01,0.00000e+00,0.00000e+00,0.00000e+00
1.94970e+03,-5.74905e+00,-3.98812e+01,0.00000e+00,0.00000e+00,0.00000e+00
1.94970e+03,-5.89293e+00,-3.83473e+01,0.00000e+00,0.00000e+00,0.00000e+00
1.94970e+03,-5.91477e+00,-3.68135e+01,0.00000e+00,0.00000e+00,0.00000e+00
1.94970e+03,-5.84465e+00,-3.52796e+01,0.00000e+00,0.00000e+00,0.00000e+00
1.94970e+03,-5.71682e+00,-3.37457e+01,0.00000e+00,0.00000e+00,0.00000e+00
1.94970e+03,-5.53106e+00,-3.22118e+01,0.00000e+00,0.00000e+00,0.00000e+00
1.94970e+03,-5.30995e+00,-3.06779e+01,0.00000e+00,0.00000e+00,0.00000e+00
1.94970e+03,-5.06834e+00,-2.91440e+01,0.00000e+00,0.00000e+00,0.00000e+00
1.94970e+03,-4.79584e+00,-2.76101e+01,0.00000e+00,0.00000e+00,0.00000e+00
1.94970e+03,-4.50405e+00,-2.60762e+01,0.00000e+00,0.00000e+00,0.00000e+00
1.94970e+03,-4.19345e+00,-2.45423e+01,0.00000e+00,0.00000e+00,0.00000e+00
1.94970e+03,-3.86414e+00,-2.30084e+01,0.00000e+00,0.00000e+00,0.00000e+00
1.94970e+03,-3.52308e+00,-2.14745e+01,0.00000e+00,0.00000e+00,0.00000e+00
1.94970e+03,-3.16699e+00,-1.99406e+01,0.00000e+00,0.00000e+00,0.00000e+00
1.94970e+03,-2.80126e+00,-1.84067e+01,0.00000e+00,0.00000e+00,0.00000e+00
1.94970e+03,-2.42690e+00,-1.68728e+01,0.00000e+00,0.00000e+00,0.00000e+00
1.94970e+03,-2.04484e+00,-1.53389e+01,0.00000e+00,0.00000e+00,0.00000e+00
1.94970e+03,-1.65951e+00,-1.38050e+01,0.00000e+00,0.00000e+00,0.00000e+00
1.94970e+03,-1.26912e+00,-1.22712e+01,0.00000e+00,0.00000e+00,0.00000e+00
1.94970e+03,-8.77888e-01,-1.07373e+01,0.00000e+00,0.00000e+00,0.00000e+00
1.94970e+03,-4.83637e-01,-9.20336e+00,0.00000e+00,0.00000e+00,0.00000e+00
1.94970e+03,-8.94260e-02,-7.66947e+00,0.00000e+00,0.00000e+00,0.00000e+00
1.94970e+03,3.03295e-01,-6.13558e+00,0.00000e+00,0.00000e+00,0.00000e+00
1.94970e+03,6.96016e-01,-4.60168e+00,0.00000e+00,0.00000e+00,0.00000e+00
1.94970e+03,1.07944e+00,-3.06779e+00,0.00000e+00,0.00000e+00,0.00000e+00
1.94970e+03,1.46113e+00,-1.53389e+00,0.00000e+00,0.00000e+00,0.00000e+00
1.98010e+03,1.80504e+01,0.00000e+00,0.00000e+00,0.00000e+00,0.00000e+00
1.98010e+03,1.79595e+01,-1.37164e+00,0.00000e+00,0.00000e+00,0.00000e+00
1.98010e+03,1.78386e+01,-2.74329e+00,0.00000e+00,0.00000e+00,0.00000e+00
1.98010e+03,1.77165e+01,-4.11493e+00,0.00000e+00,0.00000e+00,0.00000e+00
1.98010e+03,1.75678e+01,-5.48657e+00,0.00000e+00,0.00000e+00,0.00000e+00
1.98010e+03,1.74130e+01,-6.85822e+00,0.00000e+00,0.00000e+00,0.00000e+00
1.98010e+03,1.72378e+01,-8.22986e+00,0.00000e+00,0.00000e+00,0.00000e+00
1.98010e+03,1.70528e+01,-9.60150e+00,0.00000e+00,0.00000e+00,0.00000e+00
1.98010e+03,1.68514e+01,-1.09731e+01,0.00000e+00,0.00000e+00,0.00000e+00
1.98010e+03,1.66366e+01,-1.23448e+01,0.00000e+00,0.00000e+00,0.00000e+00
1.98010e+03,1.64070e+01,-1.37164e+01,0.00000e+00,0.00000e+00,0.00000e+00
1.98010e+03,1.61595e+01,-1.50881e+01,0.00000e+00,0.00000e+00,0.00000e+00
1.98010e+03,1.58938e+01,-1.64597e+01,0.00000e+00,0.00000e+00,0.00000e+00
1.98010e+03,1.56020e+01,-1.78314e+01,0.00000e+00,0.00000e+00,0.00000e+00
1.98010e+03,1.52851e+01,-1.92030e+01,0.00000e+00,0.00000e+00,0.00000e+00
1.98010e+03,1.49379e+01,-2.05747e+01,0.00000e+00,0.00000e+00,0.00000e+00
1.98010e+03,1.45498e+01,-2.19463e+01,0.00000e+00,0.00000e+00,0.00000e+00
1.98010e+03,1.41333e+01,-2.33179e+01,0.00000e+00,0.00000e+00,0.00000e+00
1.98010e+03,1.36527e+01,-2.46896e+01,0.00000e+00,0.00000e+00,0.00000e+00
1.98010e+03,1.31457e+01,-2.60612e+01,0.00000e+00,0.00000e+00,0.00000e+00
1.98010e+03,1.25646e+01,-2.74329e+01,0.00000e+00,0.00000e+00,0.00000e+00
1.98010e+03,1.19244e+01,-2.88045e+01,0.00000e+00,0.00000e+00,0.00000e+00
1.98010e+03,1.12238e+01,-3.01762e+01,0.00000e+00,0.00000e+00,0.00000e+00
1.98010e+03,1.04220e+01,-3.15478e+01,0.00000e+00,0.00000e+00,0.00000e+00
1.98010e+03,9.50303e+00,-3.29194e+01,0.00000e+00,0.00000e+00,0.00000e+00
1.98010e+03,8.45151e+00,-3.42911e+01,0.00000e+00,0.00000e+00,0.00000e+00
1.98010e+03,7.20780e+00,-3.56627e+01,0.00000e+00,0.00000e+00,0.00000e+00
1.98010e+03,5.61141e+00,-3.70344e+01,0.00000e+00,0.00000e+00,0.00000e+00
1.98010e+03,3.45234e+00,-3.84060e+01,0.00000e+00,0.00000e+00,0.00000e+00
1.98010e+03,-1.39886e+00,-3.97777e+01,0.00000e+00,0.00000e+00,0.00000e+00
1.98010e+03,-1.74898e+00,-3.97808e+01,0.00000e+00,0.00000e+00,0.00000e+00
1.98010e+03,-4.93876e+00,-3.83601e+01,0.00000e+00,0.00000e+00,0.00000e+00
1.98010e+03,-5.32496e+00,-3.69394e+01,0.00000e+00,0.00000e+00,0.00000e+00
1.98010e+03,-5.45823e+00,-3.55186e+01,0.00000e+00,0.00000e+00,0.00000e+00
1.98010e+03,-5.47846e+00,-3.40979e+01,0.00000e+00,0.00000e+00,0.00000e+00
1.98010e+03,-5.41351e+00,-3.26771e+01,0.00000e+00,0.00000e+00,0.00000e+00
1.98010e+03,-5.29511e+00,-3.12564e+01,0.00000e+00,0.00000e+00,0.00000e+00
1.98010e+03,-5.12305e+00,-2.98356e+01,0.00000e+00,0.00000e+00,0.00000e+00
1.98010e+03,-4.91825e+00,-2.84149e+01,0.00000e+00,0.00000e+00,0.00000e+00
1.98010e+03,-4.69446e+00,-2.69941e+01,0.00000e+00,0.00000e+00,0.00000e+00
1.98010e+03,-4.44207e+00,-2.55734e+01,0.00000e+00,0.00000e+00,0.00000e+00
1.98010e+03,-4.17180e+00,-2.41527e+01,0.00000e+00,0.00000e+00,0.00000e+00
1.98010e+03,-3.88412e+00,-2.27319e+01,0.00000e+00,0.00000e+00,0.00000e+00
1.98010e+03,-3.57909e+00,-2.13112e+01,0.00000e+00,0.00000e+00,0.00000e+00
1.98010e+03,-3.26320e+00,-1.98904e+01,0.00000e+00,0.00000e+00,0.00000e+00
1.98010e+03,-2.93337e+00,-1.84697e+01,0.00000e+00,0.00000e+00,0.00000e+00
1.98010e+03,-2.59462e+00,-1.70489e+01,0.00000e+00,0.00000e+00,0.00000e+00
1.98010e+03,-2.24788e+00,-1.56282e+01,0.00000e+00,0.00000e+00,0.00000e+00
1.98010e+03,-1.89400e+00,-1.42074e+01,0.00000e+00,0.00000e+00,0.00000e+00
1.98010e+03,-1.53709e+00,-1.27867e+01,0.00000e+00,0.00000e+00,0.00000e+00
1.98010e+03,-1.17550e+00,-1.13660e+01,0.00000e+00,0.00000e+00,0.00000e+00
1.98010e+03,-8.13129e-01,-9.94521e+00,0.00000e+00,0.00000e+00,0.00000e+00
1.98010e+03,-4.47961e-01,-8.52447e+00,0.00000e+00,0.00000e+00,0.00000e+00
1.98010e+03,-8.28294e-02,-7.10372e+00,0.00000e+00,0.00000e+00,0.00000e+00
1.98010e+03,2.80922e-01,-5.68298e+00,0.00000e+00,0.00000e+00,0.00000e+00
1.98010e+03,6.44673e-01,-4.26223e+00,0.00000e+00,0.00000e+00,0.00000e+00
1.98010e+03,9.99811e-01,-2.84149e+00,0.00000e+00,0.00000e+00,0.00000e+00
1.98010e+03,1.35334e+00,-1.42074e+00,0.00000e+00,0.00000e+00,0.00000e+00
2.00520e+03,1.68635e+01,0.00000e+00,0.00000e+00,0.00000e+00,0.00000e+00
2.00520e+03,1.67786e+01,-1.28145e+00,0.00000e+00,0.00000e+00,0.00000e+00
2.00520e+03,1.66656e+01,-2.56290e+00,0.00000e+00,0.00000e+00,0.00000e+00
2.00520e+03,1.65515e+01,-3.84435e+00,0.00000e+00,0.00000e+00,0.00000e+00
2.00520e+03,1.64126e+01,-5.12580e+00,0.00000e+00,0.00000e+00,0.00000e+00
2.00520e+03,1.62680e+01,-6.40725e+00,0.00000e+00,0.00000e+00,0.00000e+00
2.00520e+03,1.61044e+01,-7.68870e+00,0.00000e+00,0.00000e+00,0.00000e+00
2.00520e+03,1.59315e+01,-8.97015e+00,0.00000e+00,0.00000e+00,0.00000e+00
2.00520e+03,1.57433e+01,-1.02516e+01,0.00000e+00,0.00000e+00,0.00000e+00
2.00520e+03,1.55427e+01,-1.15330e+01,0.00000e+00,0.00000e+00,0.00000e+00
2.00520e+03,1.53282e+01,-1.28145e+01,0.00000e+00,0.00000e+00,0.00000e+00
2.00520e+03,1.50970e+01,-1.40959e+01,0.00000e+00,0.00000e+00,0.00000e+00
2.00520e+03,1.48486e+01,-1.53774e+01,0.00000e+00,0.00000e+00,0.00000e+00
2.00520e+03,1.45761e+01,-1.66588e+01,0.00000e+00,0.00000e+00,0.00000e+00
2.00520e+03,1.42800e+01,-1.79403e+01,0.00000e+00,0.00000e+00,0.00000e+00
2.00520e+03,1.39556e+01,-1.92217e+01,0.00000e+00,0.00000e+00,0.00000e+00
2.00520e+03,1.35931e+01,-2.05032e+01,0.00000e+00,0.00000e+00,0.00000e+00
2.00520e+03,1.32039e+01,-2.17846e+01,0.00000e+00,0.00000e+00,0.00000e+00
2.00520e+03,1.27550e+01,-2.30661e+01,0.00000e+00,0.00000e+00,0.00000e+00
2.00520e+03,1.22812e+01,-2.43475e+01,0.00000e+00,0.00000e+00,0.00000e+00
2.00520e+03,1.17384e+01,-2.56290e+01,0.00000e+00,0.00000e+00,0.00000e+00
2.00520e+03,1.11403e+01,-2.69104e+01,0.00000e+00,0.00000e+00,0.00000e+00
2.00520e+03,1.04858e+01,-2.81919e+01,0.00000e+00,0.00000e+00,0.00000e+00
2.00520e+03,9.73672e+00,-2.94733e+01,0.00000e+00,0.00000e+00,0.00000e+00
2.00520e+03,8.87814e+00,-3.07548e+01,0.00000e+00,0.00000e+00,0.00000e+00
2.00520e+03,7.89577e+00,-3.20362e+01,0.00000e+00,0.00000e+00,0.00000e+00
2.00520e+03,6.73385e+00,-3.33177e+01,0.00000e+00,0.00000e+00,0.00000e+00
2.00520e+03,5.24243e+00,-3.45991e+01,0.00000e+00,0.00000e+00,0.00000e+00
2.00520e+03,3.22533e+00,-3.58806e+01,0.00000e+00,0.00000e+00,0.00000e+00
2.00520e+03,-1.30688e+00,-3.71620e+01,0.00000e+00,0.00000e+00,0.00000e+00
2.00520e+03,-1.63397e+00,-3.71650e+01,0.00000e+00,0.00000e+00,0.00000e+00
2.00520e+03,-4.61400e+00,-3.58377e+01,0.00000e+00,0.00000e+00,0.00000e+00
2.00520e+03,-4.97481e+00,-3.45104e+01,0.00000e+00,0.00000e+00,0.00000e+00
2.00520e+03,-5.09932e+00,-3.31830e+01,0.00000e+00,0.00000e+00,0.00000e+00
2.00520e+03,-5.11821e+00,-3.18557e+01,0.00000e+00,0.00000e+00,0.00000e+00
2.00520e+03,-5.05754e+00,-3.05284e+01,0.00000e+00,0.00000e+00,0.00000e+00
2.00520e+03,-4.94693e+00,-2.92011e+01,0.00000e+00,0.00000e+00,0.00000e+00
2.00520e+03,-4.78618e+00,-2.78738e+01,0.00000e+00,0.00000e+00,0.00000e+00
2.00520e+03,-4.59485e+00,-2.65464e+01,0.00000e+00,0.00000e+00,0.00000e+00
2.00520e+03,-4.38577e+00,-2.52191e+01,0.00000e+00,0.00000e+00,0.00000e+00
2.00520e+03,-4.14998e+00,-2.38918e+01,0.00000e+00,0.00000e+00,0.00000e+00
2.00520e+03,-3.89748e+00,-2.25645e+01,0.00000e+00,0.00000e+00,0.00000e+00
2.00520e+03,-3.62871e+00,-2.12371e+01,0.00000e+00,0.00000e+00,0.00000e+00
2.00520e+03,-3.34375e+00,-1.99098e+01,0.00000e+00,0.00000e+00,0.00000e+00
2.00520e+03,-3.04862e+00,-1.85825e+01,0.00000e+00,0.00000e+00,0.00000e+00
2.00520e+03,-2.74048e+00,-1.72552e+01,0.00000e+00,0.00000e+00,0.00000e+00
2.00520e+03,-2.42401e+00,-1.59279e+01,0.00000e+00,0.00000e+00,0.00000e+00
2.00520e+03,-2.10007e+00,-1.46005e+01,0.00000e+00,0.00000e+00,0.00000e+00
2.00520e+03,-1.76946e+00,-1.32732e+01,0.00000e+00,0.00000e+00,0.00000e+00
2.00520e+03,-1.43602e+00,-1.19459e+01,0.00000e+00,0.00000e+00,0.00000e+00
2.00520e+03,-1.09820e+00,-1.06186e+01,0.00000e+00,0.00000e+00,0.00000e+00
2.00520e+03,-7.59661e-01,-9.29125e+00,0.00000e+00,0.00000e+00,0.00000e+00
2.00520e+03,-4.18505e-01,-7.96393e+00,0.00000e+00,0.00000e+00,0.00000e+00
2.00520e+03,-7.73829e-02,-6.63661e+00,0.00000e+00,0.00000e+00,0.00000e+00
2.00520e+03,2.62450e-01,-5.30929e+00,0.00000e+00,0.00000e+00,0.00000e+00
2.00520e+03,6.02282e-01,-3.98196e+00,0.00000e+00,0.00000e+00,0.00000e+00
2.00520e+03,9.34067e-01,-2.65464e+00,0.00000e+00,0.00000e+00,0.00000e+00
2.00520e+03,1.26435e+00,-1.32732e+00,0.00000e+00,0.00000e+00,0.00000e+00
2.02480e+03,1.59367e+01,0.00000e+00,0.00000e+00,0.00000e+00,0.00000e+00
2.02480e+03,1.58564e+01,-1.21102e+00,0.00000e+00,0.00000e+00,0.00000e+00
2.02480e+03,1.57496e+01,-2.42204e+00,0.00000e+00,0.00000e+00,0.00000e+00
2.02480e+03,1.56418e+01,-3.63306e+00,0.00000e+00,0.00000e+00,0.00000e+00
2.02480e+03,1.55106e+01,-4.84408e+00,0.00000e+00,0.00000e+00,0.00000e+00
2.02480e+03,1.53739e+01,-6.05509e+00,0.00000e+00,0.00000e+00,0.00000e+00
2.02480e+03,1.52192e+01,-7.26611e+00,0.00000e+00,0.00000e+00,0.00000e+00
2.02480e+03,1.50559e+01,-8.47713e+00,0.00000e+00,0.00000e+00,0.00000e+00
2.02480e+03,1.48781e+01,-9.68815e+00,0.00000e+00,0.00000e+00,0.00000e+00
2.02480e+03,1.46884e+01,-1.08992e+01,0.00000e+00,0.00000e+00,0.00000e+00
2.02480e+03,1.44857e+01,-1.21102e+01,0.00000e+00,0.00000e+00,0.00000e+00
2.02480e+03,1.42672e+01,-1.33212e+01,0.00000e+00,0.00000e+00,0.00000e+00
2.02480e+03,1.40325e+01,-1.45322e+01,0.00000e+00,0.00000e+00,0.00000e+00
2.02480e+03,1.37750e+01,-1.57432e+01,0.00000e+00,0.00000e+00,0.00000e+00
2.02480e+03,1.34951e+01,-1.69543e+01,0.00000e+00,0.00000e+00,0.00000e+00
2.02480e+03,1.31886e+01,-1.81653e+01,0.00000e+00,0.00000e+00,0.00000e+00
2.02480e+03,1.28460e+01,-1.93763e+01,0.00000e+00,0.00000e+00,0.00000e+00
2.02480e+03,1.24782e+01,-2.05873e+01,0.00000e+00,0.00000e+00,0.00000e+00
2.02480e+03,1.20540e+01,-2.17983e+01,0.00000e+00,0.00000e+00,0.00000e+00
2.02480e+03,1.16063e+01,-2.30094e+01,0.00000e+00,0.00000e+00,0.00000e+00
2.02480e+03,1.10933e+01,-2.42204e+01,0.00000e+00,0.00000e+00,0.00000e+00
2.02480e+03,1.05280e+01,-2.54314e+01,0.00000e+00,0.00000e+00,0.00000e+00
2.02480e+03,9.90946e+00,-2.66424e+01,0.00000e+00,0.00000e+00,0.00000e+00
2.02480e+03,9.20158e+00,-2.78534e+01,0.00000e+00,0.00000e+00,0.00000e+00
2.02480e+03,8.39019e+00,-2.90645e+01,0.00000e+00,0.00000e+00,0.00000e+00
2.02480e+03,7.46181e+00,-3.02755e+01,0.00000e+00,0.00000e+00,0.00000e+00
2.02480e+03,6.36374e+00,-3.14865e+01,0.00000e+00,0.00000e+00,0.00000e+00
2.02480e+03,4.95429e+00,-3.26975e+01,0.00000e+00,0.00000e+00,0.00000e+00
2.02480e+03,3.04806e+00,-3.39085e+01,0.00000e+00,0.00000e+00,0.00000e+00
2.02480e+03,-1.23505e+00,-3.51195e+01,0.00000e+00,0.00000e+00,0.00000e+00
2.02480e+03,-1.54416e+00,-3.51224e+01,0.00000e+00,0.00000e+00,0.00000e+00
2.02480e+03,-4.36041e+00,-3.38680e+01,0.00000e+00,0.00000e+00,0.00000e+00
2.02480e+03,-4.70139e+00,-3.26136e+01,0.00000e+00,0.00000e+00,0.00000e+00
2.02480e+03,-4.81905e+00,-3.13592e+01,0.00000e+00,0.00000e+00,0.00000e+00
2.02480e+03,-4.83691e+00,-3.01049e+01,0.00000e+00,0.00000e+00,0.00000e+00
2.02480e+03,-4.77957e+00,-2.88505e+01,0.00000e+00,0.00000e+00,0.00000e+00
2.02480e+03,-4.67504e+00,-2.75961e+01,0.00000e+00,0.00000e+00,0.00000e+00
2.02480e+03,-4.52312e+00,-2.63418e+01,0.00000e+00,0.00000e+00,0.00000e+00
2.02480e+03,-4.34231e+00,-2.50874e+01,0.00000e+00,0.00000e+00,0.00000e+00
2.02480e+03,-4.14473e+00,-2.38330e+01,0.00000e+00,0.00000e+00,0.00000e+00
2.02480e+03,-3.92189e+00,-2.25787e+01,0.00000e+00,0.00000e+00,0.00000e+00
2.02480e+03,-3.68327e+00,-2.13243e+01,0.00000e+00,0.00000e+00,0.00000e+00
2.02480e+03,-3.42927e+00,-2.00699e+01,0.00000e+00,0.00000e+00,0.00000e+00
2.02480e+03,-3.15997e+00,-1.88155e+01,0.00000e+00,0.00000e+00,0.00000e+00
2.02480e+03,-2.88106e+00,-1.75612e+01,0.00000e+00,0.00000e+00,0.00000e+00
2.02480e+03,-2.58986e+00,-1.63068e+01,0.00000e+00,0.00000e+00,0.00000e+00
2.02480e+03,-2.29078e+00,-1.50524e+01,0.00000e+00,0.00000e+00,0.00000e+00
2.02480e+03,-1.98465e+00,-1.37981e+01,0.00000e+00,0.00000e+00,0.00000e+00
2.02480e+03,-1.67220e+00,-1.25437e+01,0.00000e+00,0.00000e+00,0.00000e+00
2.02480e+03,-1.35709e+00,-1.12893e+01,0.00000e+00,0.00000e+00,0.00000e+00
2.02480e+03,-1.03784e+00,-1.00350e+01,0.00000e+00,0.00000e+00,0.00000e+00
2.02480e+03,-7.17909e-01,-8.78059e+00,0.00000e+00,0.00000e+00,0.00000e+00
2.02480e+03,-3.95503e-01,-7.52622e+00,0.00000e+00,0.00000e+00,0.00000e+00
2.02480e+03,-7.31298e-02,-6.27185e+00,0.00000e+00,0.00000e+00,0.00000e+00
2.02480e+03,2.48025e-01,-5.01748e+00,0.00000e+00,0.00000e+00,0.00000e+00
2.02480e+03,5.69180e-01,-3.76311e+00,0.00000e+00,0.00000e+00,0.00000e+00
2.02480e+03,8.82730e-01,-2.50874e+00,0.00000e+00,0.00000e+00,0.00000e+00
2.02480e+03,1.19486e+00,-1.25437e+00,0.00000e+00,0.00000e+00,0.00000e+00
2.03880e+03,1.52746e+01,0.00000e+00,0.00000e+00,0.00000e+00,0.00000e+00
2.03880e+03,1.51977e+01,-1.16071e+00,0.00000e+00,0.00000e+00,0.00000e+00
2.03880e+03,1.50954e+01,-2.32142e+00,0.00000e+00,0.00000e+00,0.00000e+00
2.03880e+03,1.49920e+01,-3.48213e+00,0.00000e+00,0.00000e+00,0.00000e+00
2.03880e+03,1.48662e+01,-4.64285e+00,0.00000e+00,0.00000e+00,0.00000e+00
2.03880e+03,1.47352e+01,-5.80356e+00,0.00000e+00,0.00000e+00,0.00000e+00
2.03880e+03,1.45870e+01,-6.96427e+00,0.00000e+00,0.00000e+00,0.00000e+00
2.03880e+03,1.44304e+01,-8.12498e+00,0.00000e+00,0.00000e+00,0.00000e+00
2.03880e+03,1.42600e+01,-9.28569e+00,0.00000e+00,0.00000e+00,0.00000e+00
2.03880e+03,1.40782e+01,-1.04464e+01,0.00000e+00,0.00000e+00,0.00000e+00
2.03880e+03,1.38839e+01,-1.16071e+01,0.00000e+00,0.00000e+00,0.00000e+00
2.03880e+03,1.36745e+01,-1.27678e+01,0.00000e+00,0.00000e+00,0.00000e+00
2.03880e+03,1.34496e+01,-1.39285e+01,0.00000e+00,0.00000e+00,0.00000e+00
2.03880e+03,1.32028e+01,-1.50892e+01,0.00000e+00,0.00000e+00,0.00000e+00
2.03880e+03,1.29345e+01,-1.62500e+01,0.00000e+00,0.00000e+00,0.00000e+00
2.03880e+03,1.26407e+01,-1.74107e+01,0.00000e+00,0.00000e+00,0.00000e+00
2.03880e+03,1.23123e+01,-1.85714e+01,0.00000e+00,0.00000e+00,0.00000e+00
2.03880e+03,1.19599e+01,-1.97321e+01,0.00000e+00,0.00000e+00,0.00000e+00
2.03880e+03,1.15532e+01,-2.08928e+01,0.00000e+00,0.00000e+00,0.00000e+00
2.03880e+03,1.11241e+01,-2.20535e+01,0.00000e+00,0.00000e+00,0.00000e+00
2.03880e+03,1.06324e+01,-2.32142e+01,0.00000e+00,0.00000e+00,0.00000e+00
2.03880e+03,1.00906e+01,-2.43749e+01,0.00000e+00,0.00000e+00,0.00000e+00
2.03880e+03,9.49781e+00,-2.55357e+01,0.00000e+00,0.00000e+00,0.00000e+00
2.03880e+03,8.81933e+00,-2.66964e+01,0.00000e+00,0.00000e+00,0.00000e+00
2.03880e+03,8.04165e+00,-2.78571e+01,0.00000e+00,0.00000e+00,0.00000e+00
2.03880e+03,7.15183e+00,-2.90178e+01,0.00000e+00,0.00000e+00,0.00000e+00
2.03880e+03,6.09938e+00,-3.01785e+01,0.00000e+00,0.00000e+00,0.00000e+00
2.03880e+03,4.74849e+00,-3.13392e+01,0.00000e+00,0.00000e+00,0.00000e+00
2.03880e+03,2.92144e+00,-3.24999e+01,0.00000e+00,0.00000e+00,0.00000e+00
2.03880e+03,-1.18374e+00,-3.36606e+01,0.00000e+00,0.00000e+00,0.00000e+00
2.03880e+03,-1.48002e+00,-3.36633e+01,0.00000e+00,0.00000e+00,0.00000e+00
2.03880e+03,-4.17927e+00,-3.24611e+01,0.00000e+00,0.00000e+00,0.00000e+00
2.03880e+03,-4.50609e+00,-3.12588e+01,0.00000e+00,0.00000e+00,0.00000e+00
2.03880e+03,-4.61886e+00,-3.00565e+01,0.00000e+00,0.00000e+00,0.00000e+00
2.03880e+03,-4.63598e+00,-2.88543e+01,0.00000e+00,0.00000e+00,0.00000e+00
2.03880e+03,-4.58102e+00,-2.76520e+01,0.00000e+00,0.00000e+00,0.00000e+00
2.03880e+03,-4.48083e+00,-2.64498e+01,0.00000e+00,0.00000e+00,0.00000e+00
2.03880e+03,-4.33523e+00,-2.52475e+01,0.00000e+00,0.00000e+00,0.00000e+00
2.03880e+03,-4.16192e+00,-2.40452e+01,0.00000e+00,0.00000e+00,0.00000e+00
2.03880e+03,-3.97255e+00,-2.28430e+01,0.00000e+00,0.00000e+00,0.00000e+00
2.03880e+03,-3.75897e+00,-2.16407e+01,0.00000e+00,0.00000e+00,0.00000e+00
2.03880e+03,-3.53026e+00,-2.04384e+01,0.00000e+00,0.00000e+00,0.00000e+00
2.03880e+03,-3.28682e+00,-1.92362e+01,0.00000e+00,0.00000e+00,0.00000e+00
2.03880e+03,-3.02870e+00,-1.80339e+01,0.00000e+00,0.00000e+00,0.00000e+00
2.03880e+03,-2.76138e+00,-1.68317e+01,0.00000e+00,0.00000e+00,0.00000e+00
2.03880e+03,-2.48228e+00,-1.56294e+01,0.00000e+00,0.00000e+00,0.00000e+00
2.03880e+03,-2.19562e+00,-1.44271e+01,0.00000e+00,0.00000e+00,0.00000e+00
2.03880e+03,-1.90220e+00,-1.32249e+01,0.00000e+00,0.00000e+00,0.00000e+00
2.03880e+03,-1.60274e+00,-1.20226e+01,0.00000e+00,0.00000e+00,0.00000e+00
2.03880e+03,-1.30072e+00,-1.08204e+01,0.00000e+00,0.00000e+00,0.00000e+00
2.03880e+03,-9.94731e-01,-9.61809e+00,0.00000e+00,0.00000e+00,0.00000e+00
2.03880e+03,-6.88086e-01,-8.41583e+00,0.00000e+00,0.00000e+00,0.00000e+00
2.03880e+03,-3.79073e-01,-7.21357e+00,0.00000e+00,0.00000e+00,0.00000e+00
2.03880e+03,-7.00919e-02,-6.01131e+00,0.00000e+00,0.00000e+00,0.00000e+00
2.03880e+03,2.37722e-01,-4.80905e+00,0.00000e+00,0.00000e+00,0.00000e+00
2.03880e+03,5.45535e-01,-3.60678e+00,0.00000e+00,0.00000e+00,0.00000e+00
2.03880e+03,8.46060e-01,-2.40452e+00,0.00000e+00,0.00000e+00,0.00000e+00
2.03880e+03,1.14523e+00,-1.20226e+00,0.00000e+00,0.00000e+00,0.00000e+00
2.04720e+03,1.48774e+01,0.00000e+00,0.00000e+00,0.00000e+00,0.00000e+00
2.04720e+03,1.48025e+01,-1.13053e+00,0.00000e+00,0.00000e+00,0.00000e+00
2.04720e+03,1.47028e+01,-2.26105e+00,0.00000e+00,0.00000e+00,0.00000e+00
2.04720e+03,1.46021e+01,-3.39158e+00,0.00000e+00,0.00000e+00,0.00000e+00
2.04720e+03,1.44796e+01,-4.52211e+00,0.00000e+00,0.00000e+00,0.00000e+00
2.04720e+03,1.43520e+01,-5.65264e+00,0.00000e+00,0.00000e+00,0.00000e+00
2.04720e+03,1.42077e+01,-6.78316e+00,0.00000e+00,0.00000e+00,0.00000e+00
2.04720e+03,1.40552e+01,-7.91369e+00,0.00000e+00,0.00000e+00,0.00000e+00
2.04720e+03,1.38892e+01,-9.04422e+00,0.00000e+00,0.00000e+00,0.00000e+00
2.04720e+03,1.37121e+01,-1.01747e+01,0.00000e+00,0.00000e+00,0.00000e+00
2.04720e+03,1.35229e+01,-1.13053e+01,0.00000e+00,0.00000e+00,0.00000e+00
2.04720e+03,1.33189e+01,-1.24358e+01,0.00000e+00,0.00000e+00,0.00000e+00
2.04720e+03,1.30998e+01,-1.35663e+01,0.00000e+00,0.00000e+00,0.00000e+00
2.04720e+03,1.28594e+01,-1.46969e+01,0.00000e+00,0.00000e+00,0.00000e+00
2.04720e+03,1.25982e+01,-1.58274e+01,0.00000e+00,0.00000e+00,0.00000e+00
2.04720e+03,1.23120e+01,-1.69579e+01,0.00000e+00,0.00000e+00,0.00000e+00
2.04720e+03,1.19922e+01,-1.80884e+01,0.00000e+00,0.00000e+00,0.00000e+00
2.04720e+03,1.16489e+01,-1.92190e+01,0.00000e+00,0.00000e+00,0.00000e+00
2.04720e+03,1.12528e+01,-2.03495e+01,0.00000e+00,0.00000e+00,0.00000e+00
2.04720e+03,1.08348e+01,-2.14800e+01,0.00000e+00,0.00000e+00,0.00000e+00
2.04720e+03,1.03559e+01,-2.26105e+01,0.00000e+00,0.00000e+00,0.00000e+00
2.04720e+03,9.82823e+00,-2.37411e+01,0.00000e+00,0.00000e+00,0.00000e+00
2.04720e+03,9.25081e+00,-2.48716e+01,0.00000e+00,0.00000e+00,0.00000e+00
2.04720e+03,8.58998e+00,-2.60021e+01,0.00000e+00,0.00000e+00,0.00000e+00
2.04720e+03,7.83252e+00,-2.71326e+01,0.00000e+00,0.00000e+00,0.00000e+00
2.04720e+03,6.96585e+00,-2.82632e+01,0.00000e+00,0.00000e+00,0.00000e+00
2.04720e+03,5.94077e+00,-2.93937e+01,0.00000e+00,0.00000e+00,0.00000e+00
2.04720e+03,4.62500e+00,-3.05242e+01,0.00000e+00,0.00000e+00,0.00000e+00
2.04720e+03,2.84547e+00,-3.16548e+01,0.00000e+00,0.00000e+00,0.00000e+00
2.04720e+03,-1.15296e+00,-3.27853e+01,0.00000e+00,0.00000e+00,0.00000e+00
2.04720e+03,-1.44153e+00,-3.27879e+01,0.00000e+00,0.00000e+00,0.00000e+00
2.04720e+03,-4.07059e+00,-3.16169e+01,0.00000e+00,0.00000e+00,0.00000e+00
2.04720e+03,-4.38891e+00,-3.04459e+01,0.00000e+00,0.00000e+00,0.00000e+00
2.04720e+03,-4.49875e+00,-2.92749e+01,0.00000e+00,0.00000e+00,0.00000e+00
2.04720e+03,-4.51542e+00,-2.81039e+01,0.00000e+00,0.00000e+00,0.00000e+00
2.04720e+03,-4.46189e+00,-2.69329e+01,0.00000e+00,0.00000e+00,0.00000e+00
2.04720e+03,-4.36430e+00,-2.57619e+01,0.00000e+00,0.00000e+00,0.00000e+00
2.04720e+03,-4.22249e+00,-2.45909e+01,0.00000e+00,0.00000e+00,0.00000e+00
2.04720e+03,-4.05369e+00,-2.34199e+01,0.00000e+00,0.00000e+00,0.00000e+00
2.04720e+03,-3.86924e+00,-2.22489e+01,0.00000e+00,0.00000e+00,0.00000e+00
2.04720e+03,-3.66121e+00,-2.10779e+01,0.00000e+00,0.00000e+00,0.00000e+00
2.04720e+03,-3.43845e+00,-1.99069e+01,0.00000e+00,0.00000e+00,0.00000e+00
2.04720e+03,-3.20134e+00,-1.87359e+01,0.00000e+00,0.00000e+00,0.00000e+00
2.04720e+03,-2.94994e+00,-1.75649e+01,0.00000e+00,0.00000e+00,0.00000e+00
2.04720e+03,-2.68957e+00,-1.63940e+01,0.00000e+00,0.00000e+00,0.00000e+00
2.04720e+03,-2.41772e+00,-1.52230e+01,0.00000e+00,0.00000e+00,0.00000e+00
2.04720e+03,-2.13852e+00,-1.40520e+01,0.00000e+00,0.00000e+00,0.00000e+00
2.04720e+03,-1.85273e+00,-1.28810e+01,0.00000e+00,0.00000e+00,0.00000e+00
2.04720e+03,-1.56106e+00,-1.17100e+01,0.00000e+00,0.00000e+00,0.00000e+00
2.04720e+03,-1.26689e+00,-1.05390e+01,0.00000e+00,0.00000e+00,0.00000e+00
2.04720e+03,-9.68863e-01,-9.36797e+00,0.00000e+00,0.00000e+00,0.00000e+00
2.04720e+03,-6.70192e-01,-8.19698e+00,0.00000e+00,0.00000e+00,0.00000e+00
2.04720e+03,-3.69215e-01,-7.02598e+00,0.00000e+00,0.00000e+00,0.00000e+00
2.04720e+03,-6.82691e-02,-5.85498e+00,0.00000e+00,0.00000e+00,0.00000e+00
2.04720e+03,2.31540e-01,-4.68399e+00,0.00000e+00,0.00000e+00,0.00000e+00
2.04720e+03,5.31348e-01,-3.51299e+00,0.00000e+00,0.00000e+00,0.00000e+00
2.04720e+03,8.24058e-01,-2.34199e+00,0.00000e+00,0.00000e+00,0.00000e+00
2.04720e+03,1.11544e+00,-1.17100e+00,0.00000e+00,0.00000e+00,0.00000e+00
2.05000e+03,1.47450e+01,0.00000e+00,0.00000e+00,0.00000e+00,0.00000e+00
2.05000e+03,1.46708e+01,-1.12047e+00,0.00000e+00,0.00000e+00,0.00000e+00
2.05000e+03,1.45720e+01,-2.24093e+00,0.00000e+00,0.00000e+00,0.00000e+00
2.05000e+03,1.44722e+01,-3.36140e+00,0.00000e+00,0.00000e+00,0.00000e+00
2.05000e+03,1.43508e+01,-4.48186e+00,0.00000e+00,0.00000e+00,0.00000e+00
2.05000e+03,1.42243e+01,-5.60233e+00,0.00000e+00,0.00000e+00,0.00000e+00
2.05000e+03,1.40812e+01,-6.72279e+00,0.00000e+00,0.00000e+00,0.00000e+00
2.05000e+03,1.39301e+01,-7.84326e+00,0.00000e+00,0.00000e+00,0.00000e+00
2.05000e+03,1.37656e+01,-8.96372e+00,0.00000e+00,0.00000e+00,0.00000e+00
2.05000e+03,1.35901e+01,-1.00842e+01,0.00000e+00,0.00000e+00,0.00000e+00
2.05000e+03,1.34025e+01,-1.12047e+01,0.00000e+00,0.00000e+00,0.00000e+00
2.05000e+03,1.32004e+01,-1.23251e+01,0.00000e+00,0.00000e+00,0.00000e+00
2.05000e+03,1.29833e+01,-1.34456e+01,0.00000e+00,0.00000e+00,0.00000e+00
2.05000e+03,1.27450e+01,-1.45661e+01,0.00000e+00,0.00000e+00,0.00000e+00
2.05000e+03,1.24860e+01,-1.56865e+01,0.00000e+00,0.00000e+00,0.00000e+00
2.05000e+03,1.22024e+01,-1.68070e+01,0.00000e+00,0.00000e+00,0.00000e+00
2.05000e+03,1.18854e+01,-1.79274e+01,0.00000e+00,0.00000e+00,0.00000e+00
2.05000e+03,1.15452e+01,-1.90479e+01,0.00000e+00,0.00000e+00,0.00000e+00
2.05000e+03,1.11526e+01,-2.01684e+01,0.00000e+00,0.00000e+00,0.00000e+00
2.05000e+03,1.07384e+01,-2.12888e+01,0.00000e+00,0.00000e+00,0.00000e+00
2.05000e+03,1.02638e+01,-2.24093e+01,0.00000e+00,0.00000e+00,0.00000e+00
2.05000e+03,9.74076e+00,-2.35298e+01,0.00000e+00,0.00000e+00,0.00000e+00
2.05000e+03,9.16848e+00,-2.46502e+01,0.00000e+00,0.00000e+00,0.00000e+00
2.05000e+03,8.51353e+00,-2.57707e+01,0.00000e+00,0.00000e+00,0.00000e+00
2.05000e+03,7.76281e+00,-2.68912e+01,0.00000e+00,0.00000e+00,0.00000e+00
2.05000e+03,6.90385e+00,-2.80116e+01,0.00000e+00,0.00000e+00,0.00000e+00
2.05000e+03,5.88790e+00,-2.91321e+01,0.00000e+00,0.00000e+00,0.00000e+00
2.05000e+03,4.58384e+00,-3.02526e+01,0.00000e+00,0.00000e+00,0.00000e+00
2.05000e+03,2.82014e+00,-3.13730e+01,0.00000e+00,0.00000e+00,0.00000e+00
2.05000e+03,-1.14270e+00,-3.24935e+01,0.00000e+00,0.00000e+00,0.00000e+00
2.05000e+03,-1.42870e+00,-3.24961e+01,0.00000e+00,0.00000e+00,0.00000e+00
2.05000e+03,-4.03436e+00,-3.13355e+01,0.00000e+00,0.00000e+00,0.00000e+00
2.05000e+03,-4.34985e+00,-3.01749e+01,0.00000e+00,0.00000e+00,0.00000e+00
2.05000e+03,-4.45871e+00,-2.90144e+01,0.00000e+00,0.00000e+00,0.00000e+00
2.05000e+03,-4.47523e+00,-2.78538e+01,0.00000e+00,0.00000e+00,0.00000e+00
2.05000e+03,-4.42218e+00,-2.66932e+01,0.00000e+00,0.00000e+00,0.00000e+00
2.05000e+03,-4.32546e+00,-2.55327e+01,0.00000e+00,0.00000e+00,0.00000e+00
2.05000e+03,-4.18491e+00,-2.43721e+01,0.00000e+00,0.00000e+00,0.00000e+00
2.05000e+03,-4.01761e+00,-2.32115e+01,0.00000e+00,0.00000e+00,0.00000e+00
2.05000e+03,-3.83480e+00,-2.20509e+01,0.00000e+00,0.00000e+00,0.00000e+00
2.05000e+03,-3.62863e+00,-2.08903e+01,0.00000e+00,0.00000e+00,0.00000e+00
2.05000e+03,-3.40785e+00,-1.97298e+01,0.00000e+00,0.00000e+00,0.00000e+00
2.05000e+03,-3.17285e+00,-1.85692e+01,0.00000e+00,0.00000e+00,0.00000e+00
2.05000e+03,-2.92368e+00,-1.74086e+01,0.00000e+00,0.00000e+00,0.00000e+00
2.05000e+03,-2.66563e+00,-1.62480e+01,0.00000e+00,0.00000e+00,0.00000e+00
2.05000e+03,-2.39621e+00,-1.50875e+01,0.00000e+00,0.00000e+00,0.00000e+00
2.05000e+03,-2.11949e+00,-1.39269e+01,0.00000e+00,0.00000e+00,0.00000e+00
2.05000e+03,-1.83624e+00,-1.27663e+01,0.00000e+00,0.00000e+00,0.00000e+00
2.05000e+03,-1.54717e+00,-1.16057e+01,0.00000e+00,0.00000e+00,0.00000e+00
2.05000e+03,-1.25562e+00,-1.04452e+01,0.00000e+00,0.00000e+00,0.00000e+00
2.05000e+03,-9.60241e-01,-9.28460e+00,0.00000e+00,0.00000e+00,0.00000e+00
2.05000e+03,-6.64227e-01,-8.12402e+00,0.00000e+00,0.00000e+00,0.00000e+00
2.05000e+03,-3.65929e-01,-6.96345e+00,0.00000e+00,0.00000e+00,0.00000e+00
2.05000e+03,-6.76615e-02,-5.80287e+00,0.00000e+00,0.00000e+00,0.00000e+00
2.05000e+03,2.29479e-01,-4.64230e+00,0.00000e+00,0.00000e+00,0.00000e+00
2.05000e+03,5.26620e-01,-3.48173e+00,0.00000e+00,0.00000e+00,0.00000e+00
2.05000e+03,8.16724e-01,-2.32115e+00,0.00000e+00,0.00000e+00,0.00000e+00
2.05000e+03,1.10552e+00,-1.16058e+00,0.00000e+00,0.00000e+00,0.00000e+00
--------------------------------------------------------------------------------------------------------------------------------------------------------------------------------------------------------------------------------------------------------------------------------------------------------------------------------------------------------------------------------

ALMA 
--------------------------------------------------------------------------------------------------------------------------------------------------------------------------------------------------------------------------------------------------------------------------------------------------------------------------------------------------------------------------------
X,Y,Z,Sigma,Tau,Von Mises
0.00000e+00,4.05613e+00,0.00000e+00,9.66601e-02,3.99986e-01,6.99506e-01
0.00000e+00,1.70710e+01,0.00000e+00,3.36545e-02,4.00447e-01,6.94410e-01
0.00000e+00,3.00859e+01,0.00000e+00,-2.93512e-02,4.00447e-01,6.94215e-01
0.00000e+00,4.31008e+01,0.00000e+00,-9.23569e-02,3.99995e-01,6.98941e-01
1.07300e+02,4.01639e+00,0.00000e+00,8.63371e-02,3.77412e-01,6.59374e-01
1.07300e+02,1.69038e+01,0.00000e+00,3.00672e-02,3.77844e-01,6.55135e-01
1.07300e+02,2.97912e+01,0.00000e+00,-2.62028e-02,3.77844e-01,6.54969e-01
1.07300e+02,4.26785e+01,0.00000e+00,-8.24727e-02,3.77421e-01,6.58895e-01
2.14300e+02,3.97676e+00,0.00000e+00,7.65757e-02,3.54703e-01,6.19118e-01
2.14300e+02,1.67370e+01,0.00000e+00,2.66750e-02,3.55106e-01,6.15639e-01
2.14300e+02,2.94972e+01,0.00000e+00,-2.32257e-02,3.55106e-01,6.15500e-01
2.14300e+02,4.22575e+01,0.00000e+00,-7.31264e-02,3.54711e-01,6.18715e-01
3.20700e+02,3.93736e+00,0.00000e+00,6.74125e-02,3.31633e-01,5.78347e-01
3.20700e+02,1.65712e+01,0.00000e+00,2.34904e-02,3.32006e-01,5.75531e-01
3.20700e+02,2.92050e+01,0.00000e+00,-2.04316e-02,3.32006e-01,5.75414e-01
3.20700e+02,4.18388e+01,0.00000e+00,-6.43536e-02,3.31641e-01,5.78012e-01
4.26200e+02,3.89829e+00,0.00000e+00,5.88801e-02,3.08618e-01,5.37775e-01
4.26200e+02,1.64067e+01,0.00000e+00,2.05247e-02,3.08962e-01,5.35532e-01
4.26200e+02,2.89151e+01,0.00000e+00,-1.78307e-02,3.08962e-01,5.35435e-01
4.26200e+02,4.14236e+01,0.00000e+00,-5.61862e-02,3.08625e-01,5.37499e-01
5.30600e+02,3.85963e+00,0.00000e+00,5.09895e-02,2.85737e-01,4.97531e-01
5.30600e+02,1.62440e+01,0.00000e+00,1.77814e-02,2.86053e-01,4.95778e-01
5.30600e+02,2.86284e+01,0.00000e+00,-1.54267e-02,2.86053e-01,4.95699e-01
5.30600e+02,4.10127e+01,0.00000e+00,-4.86347e-02,2.85744e-01,4.97306e-01
6.33500e+02,3.82152e+00,0.00000e+00,4.37587e-02,2.63101e-01,4.57801e-01
6.33500e+02,1.60836e+01,0.00000e+00,1.52668e-02,2.63390e-01,4.56461e-01
6.33500e+02,2.83457e+01,0.00000e+00,-1.32250e-02,2.63390e-01,4.56397e-01
6.33500e+02,4.06078e+01,0.00000e+00,-4.17169e-02,2.63107e-01,4.57620e-01
7.34700e+02,3.78404e+00,0.00000e+00,3.71832e-02,2.40800e-01,4.18732e-01
7.34700e+02,1.59259e+01,0.00000e+00,1.29792e-02,2.41062e-01,4.17734e-01
7.34700e+02,2.80677e+01,0.00000e+00,-1.12248e-02,2.41062e-01,4.17683e-01
7.34700e+02,4.02095e+01,0.00000e+00,-3.54288e-02,2.40805e-01,4.18589e-01
8.33800e+02,3.74734e+00,0.00000e+00,3.12645e-02,2.18975e-01,3.80562e-01
8.33800e+02,1.57714e+01,0.00000e+00,1.09190e-02,2.19212e-01,3.79843e-01
8.33800e+02,2.77955e+01,0.00000e+00,-9.42647e-03,2.19212e-01,3.79803e-01
8.33800e+02,3.98196e+01,0.00000e+00,-2.97719e-02,2.18980e-01,3.80450e-01
9.30700e+02,3.71145e+00,0.00000e+00,2.59800e-02,1.97599e-01,3.43236e-01
9.30700e+02,1.56204e+01,0.00000e+00,9.07846e-03,1.97811e-01,3.42739e-01
9.30700e+02,2.75293e+01,0.00000e+00,-7.82310e-03,1.97811e-01,3.42708e-01
9.30700e+02,3.94382e+01,0.00000e+00,-2.47247e-02,1.97603e-01,3.43151e-01
1.02500e+03,3.67653e+00,0.00000e+00,2.13162e-02,1.76981e-01,3.07280e-01
1.02500e+03,1.54734e+01,0.00000e+00,7.45306e-03,1.77170e-01,3.06957e-01
1.02500e+03,2.72703e+01,0.00000e+00,-6.41007e-03,1.77170e-01,3.06934e-01
1.02500e+03,3.90671e+01,0.00000e+00,-2.02732e-02,1.76984e-01,3.07216e-01
1.11650e+03,3.64264e+00,0.00000e+00,1.72463e-02,1.56784e-01,2.72105e-01
1.11650e+03,1.53308e+01,0.00000e+00,6.03371e-03,1.56950e-01,2.71913e-01
1.11650e+03,2.70189e+01,0.00000e+00,-5.17885e-03,1.56950e-01,2.71895e-01
1.11650e+03,3.87070e+01,0.00000e+00,-1.63914e-02,1.56787e-01,2.72057e-01
1.20500e+03,3.54704e+00,0.00000e+00,1.96872e-02,1.38904e-01,2.41394e-01
1.20500e+03,1.49284e+01,0.00000e+00,6.92210e-03,1.39110e-01,2.41044e-01
1.20500e+03,2.63098e+01,0.00000e+00,-5.84304e-03,1.39110e-01,2.41016e-01
1.20500e+03,3.76912e+01,0.00000e+00,-1.86082e-02,1.38910e-01,2.41317e-01
1.29010e+03,3.41832e+00,0.00000e+00,1.59568e-02,1.25125e-01,2.17309e-01
1.29010e+03,1.43867e+01,0.00000e+00,5.61210e-03,1.25304e-01,2.17105e-01
1.29010e+03,2.53550e+01,0.00000e+00,-4.73261e-03,1.25304e-01,2.17084e-01
1.29010e+03,3.63234e+01,0.00000e+00,-1.50773e-02,1.25130e-01,2.17255e-01
1.37170e+03,3.29489e+00,0.00000e+00,1.26879e-02,1.11278e-01,1.93156e-01
1.37170e+03,1.38672e+01,0.00000e+00,4.46382e-03,1.11431e-01,1.93056e-01
1.37170e+03,2.44395e+01,0.00000e+00,-3.76028e-03,1.11431e-01,1.93041e-01
1.37170e+03,3.50118e+01,0.00000e+00,-1.19844e-02,1.11281e-01,1.93117e-01
1.44960e+03,3.17706e+00,0.00000e+00,9.86936e-03,9.78000e-02,1.69682e-01
1.44960e+03,1.33713e+01,0.00000e+00,3.47331e-03,9.79308e-02,1.69657e-01
1.44960e+03,2.35655e+01,0.00000e+00,-2.92275e-03,9.79308e-02,1.69646e-01
1.44960e+03,3.37597e+01,0.00000e+00,-9.31880e-03,9.78031e-02,1.69656e-01
1.52340e+03,3.06543e+00,0.00000e+00,7.49172e-03,8.44779e-02,1.46512e-01
1.52340e+03,1.29015e+01,0.00000e+00,2.63732e-03,8.45874e-02,1.46533e-01
1.52340e+03,2.27375e+01,0.00000e+00,-2.21708e-03,8.45874e-02,1.46526e-01
1.52340e+03,3.25736e+01,0.00000e+00,-7.07148e-03,8.44805e-02,1.46495e-01
1.59310e+03,2.96000e+00,0.00000e+00,5.52966e-03,7.16629e-02,1.24247e-01
1.59310e+03,1.24578e+01,0.00000e+00,1.94733e-03,7.17528e-02,1.24295e-01
1.59310e+03,2.19555e+01,0.00000e+00,-1.63501e-03,7.17528e-02,1.24290e-01
1.59310e+03,3.14533e+01,0.00000e+00,-5.21734e-03,7.16649e-02,1.24237e-01
1.65850e+03,2.86108e+00,0.00000e+00,3.95312e-03,5.94914e-02,1.03118e-01
1.65850e+03,1.20414e+01,0.00000e+00,1.39284e-03,5.95639e-02,1.03177e-01
1.65850e+03,2.12218e+01,0.00000e+00,-1.16744e-03,5.95639e-02,1.03174e-01
1.65850e+03,3.04021e+01,0.00000e+00,-3.72772e-03,5.94930e-02,1.03112e-01
1.71930e+03,2.76911e+00,0.00000e+00,2.72569e-03,4.81271e-02,8.34032e-02
1.71930e+03,1.16544e+01,0.00000e+00,9.60859e-04,4.81842e-02,8.34629e-02
1.71930e+03,2.05396e+01,0.00000e+00,-8.03972e-04,4.81842e-02,8.34613e-02
1.71930e+03,2.94249e+01,0.00000e+00,-2.56880e-03,4.81283e-02,8.34003e-02
1.77540e+03,2.60964e+00,0.00000e+00,3.25047e-03,6.37108e-02,1.10398e-01
1.77540e+03,1.09832e+01,0.00000e+00,1.15823e-03,6.37879e-02,1.10490e-01
1.77540e+03,1.93567e+01,0.00000e+00,-9.34002e-04,6.37879e-02,1.10488e-01
1.77540e+03,2.77303e+01,0.00000e+00,-3.02624e-03,6.37138e-02,1.10397e-01
1.82660e+03,2.38179e+00,0.00000e+00,2.21652e-03,5.26572e-02,9.12319e-02
1.82660e+03,1.00242e+01,0.00000e+00,7.89955e-04,5.27158e-02,9.13098e-02
1.82660e+03,1.76667e+01,0.00000e+00,-6.36608e-04,5.27158e-02,9.13086e-02
1.82660e+03,2.53092e+01,0.00000e+00,-2.06317e-03,5.26593e-02,9.12319e-02
1.87280e+03,2.17619e+00,0.00000e+00,1.42313e-03,4.21046e-02,7.29412e-02
1.87280e+03,9.15894e+00,0.00000e+00,5.08096e-04,4.21476e-02,7.30035e-02
1.87280e+03,1.61417e+01,0.00000e+00,-4.06937e-04,4.21476e-02,7.30028e-02
1.87280e+03,2.31244e+01,0.00000e+00,-1.32197e-03,4.21060e-02,7.29418e-02
1.91380e+03,1.99374e+00,0.00000e+00,8.46851e-04,3.23263e-02,5.59973e-02
1.91380e+03,8.39104e+00,0.00000e+00,3.03402e-04,3.23565e-02,5.60439e-02
1.91380e+03,1.47883e+01,0.00000e+00,-2.40048e-04,3.23565e-02,5.60436e-02
1.91380e+03,2.11856e+01,0.00000e+00,-7.83498e-04,3.23272e-02,5.59979e-02
1.94970e+03,1.83398e+00,0.00000e+00,4.54348e-04,2.34034e-02,4.05384e-02
1.94970e+03,7.71865e+00,0.00000e+00,1.63695e-04,2.34233e-02,4.05707e-02
1.94970e+03,1.36033e+01,0.00000e+00,-1.26957e-04,2.34233e-02,4.05706e-02
1.94970e+03,1.94880e+01,0.00000e+00,-4.17610e-04,2.34039e-02,4.05389e-02
1.98010e+03,1.69869e+00,0.00000e+00,2.13229e-04,1.56608e-02,2.71261e-02
1.98010e+03,7.14927e+00,0.00000e+00,7.74989e-05,1.56730e-02,2.71465e-02
1.98010e+03,1.25999e+01,0.00000e+00,-5.82315e-05,1.56730e-02,2.71465e-02
1.98010e+03,1.80504e+01,0.00000e+00,-1.93962e-04,1.56611e-02,2.71265e-02
2.00520e+03,1.58699e+00,0.00000e+00,8.19386e-05,9.32180e-03,1.61460e-02
2.00520e+03,6.67917e+00,0.00000e+00,3.01767e-05,9.32849e-03,1.61574e-02
2.00520e+03,1.17713e+01,0.00000e+00,-2.15851e-05,9.32849e-03,1.61574e-02
2.00520e+03,1.68635e+01,0.00000e+00,-7.33470e-05,9.32196e-03,1.61463e-02
2.02480e+03,1.49977e+00,0.00000e+00,2.32862e-05,4.63405e-03,8.02644e-03
2.02480e+03,6.31207e+00,0.00000e+00,8.75519e-06,4.63710e-03,8.03171e-03
2.02480e+03,1.11244e+01,0.00000e+00,-5.77585e-06,4.63710e-03,8.03170e-03
2.02480e+03,1.59367e+01,0.00000e+00,-2.03069e-05,4.63412e-03,8.02656e-03
2.03880e+03,1.43746e+00,0.00000e+00,4.08540e-06,1.68340e-03,2.91574e-03
2.03880e+03,6.04986e+00,0.00000e+00,1.59404e-06,1.68441e-03,2.91748e-03
2.03880e+03,1.06622e+01,0.00000e+00,-8.97320e-07,1.68441e-03,2.91748e-03
2.03880e+03,1.52746e+01,0.00000e+00,-3.38868e-06,1.68342e-03,2.91578e-03
2.04720e+03,1.40008e+00,0.00000e+00,5.10123e-07,2.88889e-04,5.00371e-04
2.04720e+03,5.89253e+00,0.00000e+00,2.11753e-07,2.89035e-04,5.00624e-04
2.04720e+03,1.03850e+01,0.00000e+00,-8.66173e-08,2.89035e-04,5.00624e-04
2.04720e+03,1.48774e+01,0.00000e+00,-3.84988e-07,2.88893e-04,5.00377e-04
2.05000e+03,1.38762e+00,0.00000e+00,0.00000e+00,0.00000e+00,0.00000e+00
2.05000e+03,5.84009e+00,0.00000e+00,0.00000e+00,0.00000e+00,0.00000e+00
2.05000e+03,1.02925e+01,0.00000e+00,0.00000e+00,0.00000e+00,0.00000e+00
2.05000e+03,1.47450e+01,0.00000e+00,0.00000e+00,0.00000e+00,0.00000e+00
MESA INFERIOR 
--------------------------------------------------------------------------------------------------------------------------------------------------------------------------------------------------------------------------------------------------------------------------------------------------------------------------------------------------------------------------------
X,Y,Z,Sigma,Von Mises
0.00000e+00,4.05613e+00,0.00000e+00,0.00000e+00,0.00000e+00
1.07300e+02,4.01639e+00,0.00000e+00,0.00000e+00,0.00000e+00
2.14300e+02,3.97676e+00,0.00000e+00,0.00000e+00,0.00000e+00
3.20700e+02,3.93736e+00,0.00000e+00,0.00000e+00,0.00000e+00
4.26200e+02,3.89829e+00,0.00000e+00,0.00000e+00,0.00000e+00
5.30600e+02,3.85963e+00,0.00000e+00,0.00000e+00,0.00000e+00
6.33500e+02,3.82152e+00,0.00000e+00,0.00000e+00,0.00000e+00
7.34700e+02,3.78404e+00,0.00000e+00,0.00000e+00,0.00000e+00
8.33800e+02,3.74734e+00,0.00000e+00,0.00000e+00,0.00000e+00
9.30700e+02,3.71145e+00,0.00000e+00,0.00000e+00,0.00000e+00
1.02500e+03,3.67653e+00,0.00000e+00,0.00000e+00,0.00000e+00
1.11650e+03,3.64264e+00,0.00000e+00,0.00000e+00,0.00000e+00
1.20500e+03,3.54704e+00,0.00000e+00,0.00000e+00,0.00000e+00
1.29010e+03,3.41832e+00,0.00000e+00,0.00000e+00,0.00000e+00
1.37170e+03,3.29489e+00,0.00000e+00,0.00000e+00,0.00000e+00
1.44960e+03,3.17706e+00,0.00000e+00,0.00000e+00,0.00000e+00
1.52340e+03,3.06543e+00,0.00000e+00,0.00000e+00,0.00000e+00
1.59310e+03,2.96000e+00,0.00000e+00,0.00000e+00,0.00000e+00
1.65850e+03,2.86108e+00,0.00000e+00,0.00000e+00,0.00000e+00
1.71930e+03,2.76911e+00,0.00000e+00,0.00000e+00,0.00000e+00
1.77540e+03,2.60964e+00,0.00000e+00,0.00000e+00,0.00000e+00
1.82660e+03,2.38179e+00,0.00000e+00,0.00000e+00,0.00000e+00
1.87280e+03,2.17619e+00,0.00000e+00,0.00000e+00,0.00000e+00
1.91380e+03,1.99374e+00,0.00000e+00,0.00000e+00,0.00000e+00
1.94970e+03,1.83398e+00,0.00000e+00,0.00000e+00,0.00000e+00
1.98010e+03,1.69869e+00,0.00000e+00,0.00000e+00,0.00000e+00
2.00520e+03,1.58699e+00,0.00000e+00,0.00000e+00,0.00000e+00
2.02480e+03,1.49977e+00,0.00000e+00,0.00000e+00,0.00000e+00
2.03880e+03,1.43746e+00,0.00000e+00,0.00000e+00,0.00000e+00
2.04720e+03,1.40008e+00,0.00000e+00,0.00000e+00,0.00000e+00
2.05000e+03,1.38762e+00,0.00000e+00,0.00000e+00,0.00000e+00
--------------------------------------------------------------------------------------------------------------------------------------------------------------------------------------------------------------------------------------------------------------------------------------------------------------------------------------------------------------------------------

MESA SUPERIOR 
--------------------------------------------------------------------------------------------------------------------------------------------------------------------------------------------------------------------------------------------------------------------------------------------------------------------------------------------------------------------------------
X,Y,Z,Sigma,Von Mises
0.00000e+00,4.31008e+01,0.00000e+00,0.00000e+00,0.00000e+00
1.07300e+02,4.26785e+01,0.00000e+00,0.00000e+00,0.00000e+00
2.14300e+02,4.22575e+01,0.00000e+00,0.00000e+00,0.00000e+00
3.20700e+02,4.18388e+01,0.00000e+00,0.00000e+00,0.00000e+00
4.26200e+02,4.14236e+01,0.00000e+00,0.00000e+00,0.00000e+00
5.30600e+02,4.10127e+01,0.00000e+00,0.00000e+00,0.00000e+00
6.33500e+02,4.06078e+01,0.00000e+00,0.00000e+00,0.00000e+00
7.34700e+02,4.02095e+01,0.00000e+00,0.00000e+00,0.00000e+00
8.33800e+02,3.98196e+01,0.00000e+00,0.00000e+00,0.00000e+00
9.30700e+02,3.94382e+01,0.00000e+00,0.00000e+00,0.00000e+00
1.02500e+03,3.90671e+01,0.00000e+00,0.00000e+00,0.00000e+00
1.11650e+03,3.87070e+01,0.00000e+00,0.00000e+00,0.00000e+00
1.20500e+03,3.76912e+01,0.00000e+00,0.00000e+00,0.00000e+00
1.29010e+03,3.63234e+01,0.00000e+00,0.00000e+00,0.00000e+00
1.37170e+03,3.50118e+01,0.00000e+00,0.00000e+00,0.00000e+00
1.44960e+03,3.37597e+01,0.00000e+00,0.00000e+00,0.00000e+00
1.52340e+03,3.25736e+01,0.00000e+00,0.00000e+00,0.00000e+00
1.59310e+03,3.14533e+01,0.00000e+00,0.00000e+00,0.00000e+00
1.65850e+03,3.04021e+01,0.00000e+00,0.00000e+00,0.00000e+00
1.71930e+03,2.94249e+01,0.00000e+00,0.00000e+00,0.00000e+00
1.77540e+03,2.77303e+01,0.00000e+00,0.00000e+00,0.00000e+00
1.82660e+03,2.53092e+01,0.00000e+00,0.00000e+00,0.00000e+00
1.87280e+03,2.31244e+01,0.00000e+00,0.00000e+00,0.00000e+00
1.91380e+03,2.11856e+01,0.00000e+00,0.00000e+00,0.00000e+00
1.94970e+03,1.94880e+01,0.00000e+00,0.00000e+00,0.00000e+00
1.98010e+03,1.80504e+01,0.00000e+00,0.00000e+00,0.00000e+00
2.00520e+03,1.68635e+01,0.00000e+00,0.00000e+00,0.00000e+00
2.02480e+03,1.59367e+01,0.00000e+00,0.00000e+00,0.00000e+00
2.03880e+03,1.52746e+01,0.00000e+00,0.00000e+00,0.00000e+00
2.04720e+03,1.48774e+01,0.00000e+00,0.00000e+00,0.00000e+00
2.05000e+03,1.47450e+01,0.00000e+00,0.00000e+00,0.00000e+00
--------------------------------------------------------------------------------------------------------------------------------------------------------------------------------------------------------------------------------------------------------------------------------------------------------------------------------------------------------------------------------

