----------------------------------------------
LOG MATLAB Estruturas Copyright Charles 2020
----------------------------------------------

VISÃO GERAL POR SEÇÃO
--------------------------------------------------------------------------------------------------------------------------------------------------------------------------------------------------------------------------------------------------------------------------------------------------------------------------------------------------------------------------------
SEÇÃO,POSIÇÃO .25c,, ESFORÇOS,,,,,INÉRCIAS,,,,CENTROS GEOMÉTRICOS,,,DEFLEXÇOES,,,,,TENSÕES NORMAIS,,,,,,,,TENSÕES CISALHAMENTO,,,TENSÕES DE VON MISES
NUMERO,X,Y,MFz,MFy,MTx,Vz,Vy,EIzz,EIyy,EIzy,GJ,Zcg,Ycg,Zcc,Z,Y,Z´,Y´,Theta,Sigma_Chap+,Sigma_Chap-,Sigma_Lam+,Sigma_Lam-,Sigma_Mesa+,Sigma_Mesa-,Sigma_Alma+,Sigma_Alma-,  Tau_Alma,  Tau_Chap,  Tau_Lam, Von Mises_Alma,  Von Mises_Chap,  Von Mises_Lam
--------------------------------------------------------------------------------------------------------------------------------------------------------------------------------------------------------------------------------------------------------------------------------------------------------------------------------------------------------------------------------
01,0.00000e+00,0.00000e+00,2.58182e+05,-3.61444e+04,-1.15473e+04,-4.59646e+01,2.94000e+02,2.43720e+09,3.02407e+09,6.88619e+08,3.62283e+07,8.66395e+01,2.17434e+01,7.43235e+01,0.00000e+00,0.00000e+00,0.00000e+00,0.00000e+00,0.00000e+00,4.36066e+00,-3.41759e+00,0.00000e+00,0.00000e+00,1.71849e+02,-1.87359e+02,2.14980e-01,-2.34383e-01,8.74519e-01,7.95497e-01,0.00000e+00,1.53080e+00,4.44704e+00,0.00000e+00
02,1.07300e+02,0.00000e+00,2.27659e+05,-3.13858e+04,-1.07310e+04,-4.27311e+01,2.74925e+02,2.38487e+09,2.93941e+09,6.69313e+08,3.52339e+07,8.58583e+01,2.15452e+01,7.36225e+01,-2.10642e-01,6.39004e-01,-3.92623e-03,1.19106e-02,-3.34401e-02,3.88307e+00,-3.04973e+00,0.00000e+00,0.00000e+00,1.53467e+02,-1.67067e+02,1.91984e-01,-2.08998e-01,8.26669e-01,7.50869e-01,0.00000e+00,1.44519e+00,3.97076e+00,0.00000e+00
03,2.14300e+02,0.00000e+00,1.99244e+05,-2.69864e+04,-9.93556e+03,-3.95011e+01,2.56196e+02,2.33333e+09,2.85653e+09,6.50412e+08,3.42575e+07,8.50782e+01,2.13473e+01,7.29231e+01,-8.18154e-01,2.48350e+00,-7.42914e-03,2.25661e-02,-6.52508e-02,3.43028e+00,-2.70176e+00,0.00000e+00,0.00000e+00,1.36058e+02,-1.47865e+02,1.70207e-01,-1.84976e-01,7.78762e-01,7.06265e-01,0.00000e+00,1.35978e+00,3.51932e+00,0.00000e+00
04,3.20700e+02,0.00000e+00,1.72983e+05,-2.29586e+04,-9.16140e+03,-3.62090e+01,2.37449e+02,2.28273e+09,2.77562e+09,6.31961e+08,3.33193e+07,8.43013e+01,2.11503e+01,7.22271e+01,-1.77302e+00,5.38636e+00,-1.05195e-02,3.19989e-02,-9.53080e-02,3.00478e+00,-2.37489e+00,0.00000e+00,0.00000e+00,1.19686e+02,-1.29825e+02,1.49725e-01,-1.62409e-01,7.29866e-01,6.61349e-01,0.00000e+00,1.27297e+00,3.09474e+00,0.00000e+00
05,4.26200e+02,0.00000e+00,1.48904e+05,-1.93103e+04,-8.40875e+03,-3.29531e+01,2.19008e+02,2.23318e+09,2.69686e+09,6.14002e+08,3.24079e+07,8.35299e+01,2.09548e+01,7.15366e+01,-3.02496e+00,9.19787e+00,-1.32138e-02,4.02570e-02,-1.23499e-01,2.60816e+00,-2.07022e+00,0.00000e+00,0.00000e+00,1.04408e+02,-1.13014e+02,1.30612e-01,-1.41379e-01,6.80771e-01,6.16426e-01,0.00000e+00,1.18611e+00,2.69886e+00,0.00000e+00
06,5.30600e+02,0.00000e+00,1.26984e+05,-1.60370e+04,-7.67820e+03,-2.97550e+01,2.00926e+02,2.18477e+09,2.62035e+09,5.96558e+08,3.15233e+07,8.27655e+01,2.07610e+01,7.08528e+01,-4.52564e+00,1.37740e+01,-1.55350e-02,4.74078e-02,-1.49757e-01,2.24116e+00,-1.78819e+00,0.00000e+00,0.00000e+00,9.02476e+01,-9.74586e+01,1.12898e-01,-1.21919e-01,6.31619e-01,5.71582e-01,0.00000e+00,1.09942e+00,2.33254e+00,0.00000e+00
07,6.33500e+02,0.00000e+00,1.07215e+05,-1.31362e+04,-6.97561e+03,-2.66257e+01,1.83300e+02,2.13765e+09,2.54632e+09,5.79679e+08,3.06719e+07,8.20110e+01,2.05698e+01,7.01785e+01,-6.22558e+00,1.89665e+01,-1.75057e-02,5.35151e-02,-1.73990e-01,1.90505e+00,-1.52969e+00,0.00000e+00,0.00000e+00,7.72455e+01,-8.32019e+01,9.66327e-02,-1.04084e-01,5.82749e-01,5.27204e-01,0.00000e+00,1.01347e+00,1.99771e+00,0.00000e+00
08,7.34700e+02,0.00000e+00,8.95326e+04,-1.05958e+04,-6.30069e+03,-2.35799e+01,1.66164e+02,2.09189e+09,2.47483e+09,5.63383e+08,2.98537e+07,8.12680e+01,2.03815e+01,6.95148e+01,-8.08065e+00,2.46427e+01,-1.91557e-02,5.86647e-02,-1.96177e-01,1.60005e+00,-1.29488e+00,0.00000e+00,0.00000e+00,6.54012e+01,-7.02436e+01,8.18158e-02,-8.78736e-02,5.34275e-01,4.83352e-01,0.00000e+00,9.28436e-01,1.69440e+00,0.00000e+00
09,8.33800e+02,0.00000e+00,7.38871e+04,-8.40398e+03,-5.65261e+03,-2.06538e+01,1.49589e+02,2.04762e+09,2.40610e+09,5.47713e+08,2.90668e+07,8.05393e+01,2.01969e+01,6.88645e+01,-1.00463e+01,3.06682e+01,-2.05137e-02,6.29380e-02,-2.16271e-01,1.32661e+00,-1.08345e+00,0.00000e+00,0.00000e+00,5.47276e+01,-5.85960e+01,6.84633e-02,-7.33026e-02,4.86399e-01,4.40081e-01,0.00000e+00,8.44641e-01,1.42283e+00,0.00000e+00
10,9.30700e+02,0.00000e+00,6.01685e+04,-6.53781e+03,-5.02742e+03,-1.78637e+01,1.33560e+02,2.00486e+09,2.34009e+09,5.32666e+08,2.83055e+07,7.98259e+01,2.00162e+01,6.82283e+01,-1.20874e+01,3.69362e+01,-2.16140e-02,6.64338e-02,-2.34298e-01,1.08397e+00,-8.95181e-01,0.00000e+00,0.00000e+00,4.51950e+01,-4.82234e+01,5.65382e-02,-6.03267e-02,4.39072e-01,3.97226e-01,0.00000e+00,7.61981e-01,1.18190e+00,0.00000e+00
11,1.02500e+03,0.00000e+00,4.82941e+04,-4.97480e+03,-4.42334e+03,-1.52861e+01,1.18284e+02,1.96375e+09,2.27699e+09,5.18282e+08,2.75515e+07,7.91308e+01,1.98401e+01,6.76088e+01,-1.41667e+01,4.33332e+01,-2.24874e-02,6.92397e-02,-2.50243e-01,8.71670e-01,-7.29329e-01,0.00000e+00,0.00000e+00,3.67913e+01,-3.91076e+01,4.60253e-02,-4.89230e-02,3.92871e-01,3.54924e-01,0.00000e+00,6.81428e-01,9.70619e-01,0.00000e+00
12,1.11650e+03,0.00000e+00,3.81481e+04,-3.68634e+03,-3.83759e+03,-1.28771e+01,1.03486e+02,1.92432e+09,2.21681e+09,5.04566e+08,2.68148e+07,7.84554e+01,1.96691e+01,6.70073e+01,-1.62554e+01,4.97698e+01,-2.31667e-02,7.14505e-02,-2.64135e-01,6.88746e-01,-5.85055e-01,0.00000e+00,0.00000e+00,2.94802e+01,-3.12025e+01,3.68792e-02,-3.90338e-02,3.47072e-01,3.12810e-01,0.00000e+00,6.01710e-01,7.87947e-01,0.00000e+00
13,1.20500e+03,0.00000e+00,2.96065e+04,-2.64207e+03,-3.27775e+03,-1.07222e+01,8.95438e+01,1.32148e+09,1.95268e+09,4.45208e+08,2.44293e+07,7.39632e+01,1.86188e+01,6.42675e+01,-1.83322e+01,5.61839e+01,-2.37670e-02,7.34997e-02,-2.76405e-01,7.25248e-01,-6.76919e-01,0.00000e+00,0.00000e+00,3.31867e+01,-3.49473e+01,4.15160e-02,-4.37185e-02,3.05166e-01,3.12961e-01,0.00000e+00,5.29519e-01,8.29518e-01,0.00000e+00
14,1.29010e+03,0.00000e+00,2.25380e+04,-1.81523e+03,-2.77268e+03,-8.70993e+00,7.65787e+01,1.21619e+09,1.75686e+09,4.00479e+08,2.20992e+07,7.15330e+01,1.79989e+01,6.20379e+01,-2.03778e+01,6.25204e+01,-2.43066e-02,7.54215e-02,-2.87453e-01,5.72711e-01,-5.41744e-01,0.00000e+00,0.00000e+00,2.65392e+01,-2.77803e+01,3.32000e-02,-3.47526e-02,2.72550e-01,2.79114e-01,0.00000e+00,4.72615e-01,6.93687e-01,0.00000e+00
15,1.37170e+03,0.00000e+00,1.67779e+04,-1.18159e+03,-2.32671e+03,-6.82055e+00,6.45990e+01,1.12002e+09,1.58132e+09,3.60391e+08,2.00332e+07,6.91884e+01,1.74013e+01,5.98941e+01,-2.23781e+01,6.87361e+01,-2.47218e-02,7.69241e-02,-2.97310e-01,4.41081e-01,-4.24541e-01,0.00000e+00,0.00000e+00,2.07611e+01,-2.15830e+01,2.59717e-02,-2.70000e-02,2.40332e-01,2.46534e-01,0.00000e+00,4.16519e-01,5.75424e-01,0.00000e+00
16,1.44960e+03,0.00000e+00,1.21704e+04,-7.16720e+02,-1.93178e+03,-5.11439e+00,5.36959e+01,1.03251e+09,1.42458e+09,3.24609e+08,1.81950e+07,6.69366e+01,1.68278e+01,5.78421e+01,-2.43160e+01,7.47730e+01,-2.50305e-02,7.80650e-02,-3.05969e-01,3.29966e-01,-3.24855e-01,0.00000e+00,0.00000e+00,1.58273e+01,-1.63270e+01,1.97996e-02,-2.04248e-02,2.08925e-01,2.15213e-01,0.00000e+00,3.61937e-01,4.73378e-01,0.00000e+00
17,1.52340e+03,0.00000e+00,8.57656e+03,-3.94983e+02,-1.57872e+03,-3.60476e+00,4.36967e+01,9.53418e+08,1.28561e+09,2.92889e+08,1.65747e+07,6.47909e+01,1.62818e+01,5.58929e+01,-2.61713e+01,8.05650e+01,-2.52507e-02,7.89004e-02,-3.13402e-01,2.39048e-01,-2.41796e-01,0.00000e+00,0.00000e+00,1.17187e+01,-1.19863e+01,1.46599e-02,-1.49946e-02,1.77896e-01,1.84592e-01,0.00000e+00,3.08167e-01,3.84848e-01,0.00000e+00
18,1.59310e+03,0.00000e+00,5.84688e+03,-1.88804e+02,-1.26277e+03,-2.31143e+00,3.46300e+01,8.82075e+08,1.16263e+09,2.64824e+08,1.51452e+07,6.27531e+01,1.57637e+01,5.40474e+01,-2.79366e+01,8.60849e+01,-2.54016e-02,7.94909e-02,-3.19627e-01,1.67031e-01,-1.74368e-01,0.00000e+00,0.00000e+00,8.38821e+00,-8.50284e+00,1.04935e-02,-1.06369e-02,1.47565e-01,1.54706e-01,0.00000e+00,2.55615e-01,3.08046e-01,0.00000e+00
19,1.65850e+03,0.00000e+00,3.84693e+03,-7.12114e+01,-9.77662e+02,-1.28468e+00,2.65304e+01,8.18049e+08,1.05434e+09,2.40117e+08,1.38740e+07,6.08309e+01,1.52752e+01,5.23116e+01,-2.96011e+01,9.12967e+01,-2.55002e-02,7.98907e-02,-3.24658e-01,1.12436e-01,-1.21298e-01,0.00000e+00,0.00000e+00,5.78654e+00,-5.81366e+00,7.23886e-03,-7.27280e-03,1.18245e-01,1.25407e-01,0.00000e+00,2.04822e-01,2.40780e-01,0.00000e+00
20,1.71930e+03,0.00000e+00,2.45050e+03,-1.60012e+01,-7.20317e+02,-5.31442e-01,1.94048e+01,7.61023e+08,9.59670e+08,2.18523e+08,1.27367e+07,5.90349e+01,1.48192e+01,5.06943e+01,-3.11533e+01,9.61619e+01,-2.55617e-02,8.01495e-02,-3.28519e-01,7.33270e-02,-8.15061e-02,0.00000e+00,0.00000e+00,3.85403e+00,-3.84271e+00,4.82132e-03,-4.80717e-03,9.02696e-02,9.67403e-02,0.00000e+00,1.56360e-01,1.81086e-01,0.00000e+00
21,1.77540e+03,0.00000e+00,1.52882e+03,1.96829e+00,-4.91075e+02,-1.09182e-01,1.34536e+01,3.98519e+08,7.29057e+08,1.66652e+08,8.90732e+06,5.21005e+01,1.31900e+01,4.07358e+01,-3.25887e+01,1.00664e+02,-2.56113e-02,8.03652e-02,-3.31652e-01,8.44344e-02,-9.54061e-02,0.00000e+00,0.00000e+00,4.50437e+00,-4.44186e+00,5.63489e-03,-5.55669e-03,1.09034e-01,8.64211e-02,0.00000e+00,1.88862e-01,1.69432e-01,0.00000e+00
22,1.82660e+03,0.00000e+00,9.59524e+02,2.64286e+00,-3.06542e+02,8.28320e-02,8.78468e+00,3.22692e+08,5.63581e+08,1.28741e+08,6.90577e+06,4.80842e+01,1.21552e+01,3.73499e+01,-3.39012e+01,1.04784e+02,-2.56550e-02,8.05574e-02,-3.34200e-01,5.93692e-02,-6.72648e-02,0.00000e+00,0.00000e+00,3.17190e+00,-3.12801e+00,3.96799e-03,-3.91308e-03,7.92353e-02,6.20885e-02,0.00000e+00,1.37246e-01,1.21202e-01,0.00000e+00
23,1.87280e+03,0.00000e+00,6.20764e+02,2.24291e-01,-1.81034e+02,2.18678e-02,5.88028e+00,2.62353e+08,4.36581e+08,9.96683e+07,5.21945e+06,4.43938e+01,1.12070e+01,3.42731e+01,-3.50871e+01,1.08509e+02,-2.56858e-02,8.06928e-02,-3.36026e-01,4.30153e-02,-4.85742e-02,0.00000e+00,0.00000e+00,2.29076e+00,-2.26502e+00,2.86570e-03,-2.83350e-03,5.77699e-02,4.34076e-02,0.00000e+00,1.00065e-01,8.53884e-02,0.00000e+00
24,1.91380e+03,0.00000e+00,3.79594e+02,-6.52886e-01,-1.81034e+02,2.09213e-02,5.88408e+00,2.14932e+08,3.40501e+08,7.76906e+07,4.14588e+06,4.10625e+01,1.03532e+01,3.15244e+01,-3.61407e+01,1.11819e+02,-2.57070e-02,8.07854e-02,-3.37632e-01,2.93223e-02,-3.29985e-02,0.00000e+00,0.00000e+00,1.55671e+00,-1.54274e+00,1.94742e-03,-1.92995e-03,6.47263e-02,4.91320e-02,0.00000e+00,1.12111e-01,8.94539e-02,0.00000e+00
25,1.94970e+03,0.00000e+00,1.95431e+02,-2.45855e-01,-1.23355e+02,-4.35971e-02,4.37574e+00,1.77937e+08,2.68420e+08,6.12136e+07,3.23078e+06,3.80992e+01,9.59536e+00,2.91026e+01,-3.70638e+01,1.14720e+02,-2.57198e-02,8.08414e-02,-3.39102e-01,1.66945e-02,-1.88038e-02,0.00000e+00,0.00000e+00,8.86528e-01,-8.78964e-01,1.10903e-03,-1.09957e-03,5.24403e-02,3.88174e-02,0.00000e+00,9.08300e-02,6.90442e-02,0.00000e+00
26,1.98010e+03,0.00000e+00,8.62988e+01,7.08283e-01,-7.60226e+01,-1.91751e-02,2.80398e+00,1.49784e+08,2.15653e+08,4.91590e+07,2.60438e+06,3.55543e+01,8.94582e+00,2.70403e+01,-3.78458e+01,1.17178e+02,-2.57260e-02,8.08689e-02,-3.40126e-01,8.00965e-03,-9.20040e-03,0.00000e+00,0.00000e+00,4.31189e-01,-4.25107e-01,5.39410e-04,-5.31802e-04,3.67406e-02,2.70929e-02,0.00000e+00,6.36369e-02,4.75374e-02,0.00000e+00
27,2.00520e+03,0.00000e+00,3.11637e+01,8.10193e-01,-4.32692e+01,1.10547e-02,1.58925e+00,1.28656e+08,1.77484e+08,4.04436e+07,2.17577e+06,3.34272e+01,8.40385e+00,2.53292e+01,-3.84915e+01,1.19208e+02,-2.57285e-02,8.08800e-02,-3.40742e-01,3.08686e-03,-3.68433e-03,0.00000e+00,0.00000e+00,1.70391e-01,-1.66143e-01,2.13157e-04,-2.07841e-04,2.27842e-02,1.70738e-02,0.00000e+00,3.94634e-02,2.97213e-02,0.00000e+00
28,2.02480e+03,0.00000e+00,8.31308e+00,4.47354e-01,-2.13511e+01,2.59696e-02,7.42453e-01,1.13447e+08,1.50904e+08,3.43767e+07,1.89931e+06,3.17493e+01,7.97693e+00,2.39876e+01,-3.89958e+01,1.20794e+02,-2.57291e-02,8.08833e-02,-3.41047e-01,8.77781e-04,-1.09123e-03,0.00000e+00,0.00000e+00,4.93012e-02,-4.72450e-02,6.16749e-05,-5.91027e-05,1.16533e-02,9.08160e-03,0.00000e+00,2.01842e-02,1.57524e-02,0.00000e+00
29,2.03880e+03,0.00000e+00,1.36390e+00,1.32527e-01,-7.65694e+00,1.90056e-02,2.50286e-01,1.03260e+08,1.33576e+08,3.04229e+07,1.72133e+06,3.05414e+01,7.66993e+00,2.30264e+01,-3.93560e+01,1.21926e+02,-2.57293e-02,8.08839e-02,-3.41156e-01,1.54010e-04,-2.00126e-04,0.00000e+00,0.00000e+00,8.69553e-03,-8.11214e-03,1.08780e-05,-1.01482e-05,4.23967e-03,3.44061e-03,0.00000e+00,7.34333e-03,5.96108e-03,0.00000e+00
30,2.04720e+03,0.00000e+00,1.56349e-01,2.63519e-02,-1.41358e+00,6.27426e-03,3.72259e-02,9.74134e+07,1.23821e+08,2.81976e+07,1.68480e+06,2.98129e+01,7.48488e+00,2.24484e+01,-3.95721e+01,1.22605e+02,-2.57293e-02,8.08840e-02,-3.41179e-01,1.87259e-05,-2.62265e-05,0.00000e+00,0.00000e+00,1.06605e-03,-9.52275e-04,1.33361e-06,-1.19128e-06,7.05336e-04,6.37943e-04,0.00000e+00,1.22168e-03,1.10508e-03,0.00000e+00
31,2.05000e+03,0.00000e+00,0.00000e+00,0.00000e+00,0.00000e+00,0.00000e+00,0.00000e+00,5.74754e+07,1.08343e+08,2.47732e+07,NaN,2.74871e+01,6.96602e+00,2.15905e+01,-3.96442e+01,1.22832e+02,-2.57293e-02,8.08840e-02,-3.41180e-01,0.00000e+00,0.00000e+00,0.00000e+00,0.00000e+00,0.00000e+00,0.00000e+00,0.00000e+00,0.00000e+00,0.00000e+00,0.00000e+00,0.00000e+00,0.00000e+00,0.00000e+00,0.00000e+00
--------------------------------------------------------------------------------------------------------------------------------------------------------------------------------------------------------------------------------------------------------------------------------------------------------------------------------------------------------------------------------

CHAPEADO 
--------------------------------------------------------------------------------------------------------------------------------------------------------------------------------------------------------------------------------------------------------------------------------------------------------------------------------------------------------------------------------
X,Y,Z,Sigma,Tau,Von Mises
0.00000e+00,4.31008e+01,0.00000e+00,-3.34833e+00,7.95497e-01,3.62074e+00
0.00000e+00,4.28837e+01,-3.27521e+00,-3.37654e+00,7.82809e-01,3.63860e+00
0.00000e+00,4.25950e+01,-6.55041e+00,-3.39296e+00,7.69813e-01,3.64555e+00
0.00000e+00,4.23033e+01,-9.82562e+00,-3.40892e+00,7.56521e-01,3.65208e+00
0.00000e+00,4.19484e+01,-1.31008e+01,-3.41446e+00,7.42959e-01,3.64890e+00
0.00000e+00,4.15787e+01,-1.63760e+01,-3.41759e+00,7.29145e-01,3.64347e+00
0.00000e+00,4.11605e+01,-1.96512e+01,-3.41272e+00,7.15101e-01,3.63054e+00
0.00000e+00,4.07187e+01,-2.29264e+01,-3.40398e+00,7.00846e-01,3.61395e+00
0.00000e+00,4.02378e+01,-2.62017e+01,-3.38882e+00,6.86399e-01,3.59132e+00
0.00000e+00,3.97249e+01,-2.94769e+01,-3.36839e+00,6.71779e-01,3.56370e+00
0.00000e+00,3.91766e+01,-3.27521e+01,-3.34216e+00,6.57005e-01,3.53058e+00
0.00000e+00,3.85857e+01,-3.60273e+01,-3.30891e+00,6.42097e-01,3.49081e+00
0.00000e+00,3.79511e+01,-3.93025e+01,-3.26846e+00,6.27074e-01,3.44420e+00
0.00000e+00,3.72545e+01,-4.25777e+01,-3.21784e+00,6.11961e-01,3.38792e+00
0.00000e+00,3.64976e+01,-4.58529e+01,-3.15730e+00,5.96789e-01,3.32220e+00
0.00000e+00,3.56687e+01,-4.91281e+01,-3.08491e+00,5.81580e-01,3.24520e+00
0.00000e+00,3.47420e+01,-5.24033e+01,-2.99645e+00,5.66387e-01,3.15295e+00
0.00000e+00,3.37474e+01,-5.56785e+01,-2.89684e+00,5.51221e-01,3.05011e+00
0.00000e+00,3.26000e+01,-5.89537e+01,-2.77208e+00,5.36164e-01,2.92350e+00
0.00000e+00,3.13892e+01,-6.22289e+01,-2.63691e+00,5.21250e-01,2.78718e+00
0.00000e+00,3.00018e+01,-6.55041e+01,-2.47271e+00,5.06518e-01,2.62373e+00
0.00000e+00,2.84730e+01,-6.87793e+01,-2.28525e+00,4.92091e-01,2.43902e+00
0.00000e+00,2.68002e+01,-7.20546e+01,-2.07412e+00,4.77993e-01,2.23325e+00
0.00000e+00,2.48857e+01,-7.53298e+01,-1.82326e+00,4.64276e-01,1.99272e+00
0.00000e+00,2.26913e+01,-7.86050e+01,-1.52637e+00,4.51107e-01,1.71473e+00
0.00000e+00,2.01805e+01,-8.18802e+01,-1.17746e+00,4.38643e-01,1.40130e+00
0.00000e+00,1.72108e+01,-8.51554e+01,-7.53099e-01,4.26990e-01,1.05552e+00
0.00000e+00,1.33989e+01,-8.84306e+01,-1.90279e-01,4.16716e-01,7.46433e-01
0.00000e+00,8.24350e+00,-9.17058e+01,5.93440e-01,4.10439e-01,9.26041e-01
0.00000e+00,-3.34020e+00,-9.49810e+01,2.43405e+00,4.12928e-01,2.53696e+00
0.00000e+00,-4.17620e+00,-9.49886e+01,2.57136e+00,4.20654e-01,2.67259e+00
0.00000e+00,-1.17928e+01,-9.15961e+01,3.88981e+00,4.35305e-01,3.96221e+00
0.00000e+00,-1.27149e+01,-8.82037e+01,4.10762e+00,4.46128e-01,4.17967e+00
0.00000e+00,-1.30332e+01,-8.48113e+01,4.22613e+00,4.57518e-01,4.29978e+00
0.00000e+00,-1.30814e+01,-8.14188e+01,4.30026e+00,4.69436e-01,4.37645e+00
0.00000e+00,-1.29264e+01,-7.80264e+01,4.34095e+00,4.81787e-01,4.42043e+00
0.00000e+00,-1.26437e+01,-7.46339e+01,4.36066e+00,4.94501e-01,4.44397e+00
0.00000e+00,-1.22328e+01,-7.12415e+01,4.35930e+00,5.07503e-01,4.44704e+00
0.00000e+00,-1.17438e+01,-6.78490e+01,4.34508e+00,5.20728e-01,4.43770e+00
0.00000e+00,-1.12094e+01,-6.44565e+01,4.32342e+00,5.34145e-01,4.42130e+00
0.00000e+00,-1.06068e+01,-6.10641e+01,4.29052e+00,5.47714e-01,4.39415e+00
0.00000e+00,-9.96142e+00,-5.76716e+01,4.25060e+00,5.61400e-01,4.36041e+00
0.00000e+00,-9.27449e+00,-5.42792e+01,4.20385e+00,5.75175e-01,4.32029e+00
0.00000e+00,-8.54615e+00,-5.08867e+01,4.15029e+00,5.89010e-01,4.27384e+00
0.00000e+00,-7.79185e+00,-4.74943e+01,4.09247e+00,6.02882e-01,4.22359e+00
0.00000e+00,-7.00429e+00,-4.41018e+01,4.02917e+00,6.16770e-01,4.16838e+00
0.00000e+00,-6.19544e+00,-4.07094e+01,3.96237e+00,6.30651e-01,4.11018e+00
0.00000e+00,-5.36748e+00,-3.73169e+01,3.89243e+00,6.44513e-01,4.04935e+00
0.00000e+00,-4.52248e+00,-3.39245e+01,3.81969e+00,6.58338e-01,3.98626e+00
0.00000e+00,-3.67026e+00,-3.05320e+01,3.74577e+00,6.72118e-01,3.92250e+00
0.00000e+00,-2.80686e+00,-2.71396e+01,3.67000e+00,6.85844e-01,3.85747e+00
0.00000e+00,-1.94159e+00,-2.37472e+01,3.59393e+00,6.99510e-01,3.79266e+00
0.00000e+00,-1.06964e+00,-2.03547e+01,3.51676e+00,7.13113e-01,3.72735e+00
0.00000e+00,-1.97780e-01,-1.69622e+01,3.43960e+00,7.26648e-01,3.66264e+00
0.00000e+00,6.70785e-01,-1.35698e+01,3.36298e+00,7.40115e-01,3.59902e+00
0.00000e+00,1.53935e+00,-1.01774e+01,3.28637e+00,7.53510e-01,3.53604e+00
0.00000e+00,2.38735e+00,-6.78490e+00,3.21314e+00,7.66841e-01,3.47684e+00
0.00000e+00,3.23151e+00,-3.39245e+00,3.14053e+00,7.80114e-01,3.41887e+00
1.07300e+02,4.26785e+01,0.00000e+00,-2.98568e+00,7.50869e-01,3.25664e+00
1.07300e+02,4.24636e+01,-3.24312e+00,-3.01130e+00,7.38986e-01,3.27204e+00
1.07300e+02,4.21777e+01,-6.48624e+00,-3.02641e+00,7.26814e-01,3.27779e+00
1.07300e+02,4.18889e+01,-9.72936e+00,-3.04109e+00,7.14364e-01,3.28317e+00
1.07300e+02,4.15374e+01,-1.29725e+01,-3.04649e+00,7.01662e-01,3.27995e+00
1.07300e+02,4.11714e+01,-1.62156e+01,-3.04973e+00,6.88725e-01,3.27473e+00
1.07300e+02,4.07572e+01,-1.94587e+01,-3.04584e+00,6.75571e-01,3.26287e+00
1.07300e+02,4.03197e+01,-2.27018e+01,-3.03849e+00,6.62220e-01,3.24777e+00
1.07300e+02,3.98436e+01,-2.59450e+01,-3.02541e+00,6.48689e-01,3.22731e+00
1.07300e+02,3.93357e+01,-2.91881e+01,-3.00763e+00,6.34996e-01,3.20242e+00
1.07300e+02,3.87928e+01,-3.24312e+01,-2.98467e+00,6.21159e-01,3.17266e+00
1.07300e+02,3.82077e+01,-3.56743e+01,-2.95544e+00,6.07196e-01,3.13699e+00
1.07300e+02,3.75793e+01,-3.89174e+01,-2.91980e+00,5.93126e-01,3.09526e+00
1.07300e+02,3.68895e+01,-4.21606e+01,-2.87508e+00,5.78971e-01,3.04495e+00
1.07300e+02,3.61401e+01,-4.54037e+01,-2.82151e+00,5.64762e-01,2.98627e+00
1.07300e+02,3.53192e+01,-4.86468e+01,-2.75736e+00,5.50517e-01,2.91757e+00
1.07300e+02,3.44016e+01,-5.18899e+01,-2.67888e+00,5.36288e-01,2.83535e+00
1.07300e+02,3.34168e+01,-5.51330e+01,-2.59044e+00,5.22084e-01,2.74373e+00
1.07300e+02,3.22806e+01,-5.83762e+01,-2.47956e+00,5.07982e-01,2.63104e+00
1.07300e+02,3.10816e+01,-6.16193e+01,-2.35939e+00,4.94014e-01,2.50976e+00
1.07300e+02,2.97079e+01,-6.48624e+01,-2.21332e+00,4.80217e-01,2.36445e+00
1.07300e+02,2.81940e+01,-6.81055e+01,-2.04650e+00,4.66704e-01,2.20036e+00
1.07300e+02,2.65376e+01,-7.13486e+01,-1.85855e+00,4.53500e-01,2.01772e+00
1.07300e+02,2.46419e+01,-7.45918e+01,-1.63514e+00,4.40654e-01,1.80450e+00
1.07300e+02,2.24690e+01,-7.78349e+01,-1.37067e+00,4.28320e-01,1.55856e+00
1.07300e+02,1.99828e+01,-8.10780e+01,-1.05977e+00,4.16647e-01,1.28215e+00
1.07300e+02,1.70422e+01,-8.43211e+01,-6.81550e-01,4.05733e-01,9.78962e-01
1.07300e+02,1.32676e+01,-8.75642e+01,-1.79776e-01,3.96111e-01,7.09247e-01
1.07300e+02,8.16273e+00,-9.08074e+01,5.19114e-01,3.90233e-01,8.52247e-01
1.07300e+02,-3.30748e+00,-9.40505e+01,2.16111e+00,3.92564e-01,2.26555e+00
1.07300e+02,-4.13529e+00,-9.40580e+01,2.28363e+00,3.99800e-01,2.38631e+00
1.07300e+02,-1.16772e+01,-9.06988e+01,3.46059e+00,4.13522e-01,3.53394e+00
1.07300e+02,-1.25904e+01,-8.73396e+01,3.65542e+00,4.23660e-01,3.72834e+00
1.07300e+02,-1.29055e+01,-8.39804e+01,3.76163e+00,4.34327e-01,3.83612e+00
1.07300e+02,-1.29533e+01,-8.06211e+01,3.82824e+00,4.45489e-01,3.90523e+00
1.07300e+02,-1.27997e+01,-7.72619e+01,3.86502e+00,4.57057e-01,3.94526e+00
1.07300e+02,-1.25198e+01,-7.39027e+01,3.88307e+00,4.68964e-01,3.96712e+00
1.07300e+02,-1.21130e+01,-7.05435e+01,3.88232e+00,4.81141e-01,3.97076e+00
1.07300e+02,-1.16287e+01,-6.71843e+01,3.87011e+00,4.93528e-01,3.96339e+00
1.07300e+02,-1.10996e+01,-6.38251e+01,3.85124e+00,5.06093e-01,3.94974e+00
1.07300e+02,-1.05029e+01,-6.04659e+01,3.82235e+00,5.18802e-01,3.92655e+00
1.07300e+02,-9.86382e+00,-5.71066e+01,3.78720e+00,5.31620e-01,3.89753e+00
1.07300e+02,-9.18363e+00,-5.37474e+01,3.74594e+00,5.44521e-01,3.86285e+00
1.07300e+02,-8.46243e+00,-5.03882e+01,3.69862e+00,5.57478e-01,3.82258e+00
1.07300e+02,-7.71552e+00,-4.70290e+01,3.64748e+00,5.70470e-01,3.77894e+00
1.07300e+02,-6.93567e+00,-4.36698e+01,3.59146e+00,5.83477e-01,3.73094e+00
1.07300e+02,-6.13474e+00,-4.03106e+01,3.53232e+00,5.96478e-01,3.68031e+00
1.07300e+02,-5.31490e+00,-3.69514e+01,3.47038e+00,6.09460e-01,3.62738e+00
1.07300e+02,-4.47818e+00,-3.35921e+01,3.40594e+00,6.22409e-01,3.57248e+00
1.07300e+02,-3.63431e+00,-3.02329e+01,3.34043e+00,6.35314e-01,3.51701e+00
1.07300e+02,-2.77936e+00,-2.68737e+01,3.27329e+00,6.48169e-01,3.46046e+00
1.07300e+02,-1.92257e+00,-2.35145e+01,3.20587e+00,6.60968e-01,3.40415e+00
1.07300e+02,-1.05916e+00,-2.01553e+01,3.13748e+00,6.73708e-01,3.34745e+00
1.07300e+02,-1.95842e-01,-1.67961e+01,3.06909e+00,6.86384e-01,3.29131e+00
1.07300e+02,6.64213e-01,-1.34369e+01,3.00119e+00,6.98997e-01,3.23619e+00
1.07300e+02,1.52427e+00,-1.00776e+01,2.93329e+00,7.11542e-01,3.18168e+00
1.07300e+02,2.36396e+00,-6.71843e+00,2.86841e+00,7.24026e-01,3.13056e+00
1.07300e+02,3.19985e+00,-3.35921e+00,2.80409e+00,7.36458e-01,3.08059e+00
2.14300e+02,4.22575e+01,0.00000e+00,-2.64252e+00,7.06265e-01,2.91193e+00
2.14300e+02,4.20447e+01,-3.21112e+00,-2.66572e+00,6.95173e-01,2.92504e+00
2.14300e+02,4.17615e+01,-6.42224e+00,-2.67960e+00,6.83812e-01,2.92968e+00
2.14300e+02,4.14756e+01,-9.63337e+00,-2.69311e+00,6.72193e-01,2.93400e+00
2.14300e+02,4.11276e+01,-1.28445e+01,-2.69839e+00,6.60338e-01,2.93077e+00
2.14300e+02,4.07652e+01,-1.60556e+01,-2.70176e+00,6.48262e-01,2.92579e+00
2.14300e+02,4.03551e+01,-1.92667e+01,-2.69882e+00,6.35986e-01,2.91497e+00
2.14300e+02,3.99219e+01,-2.24779e+01,-2.69281e+00,6.23524e-01,2.90130e+00
2.14300e+02,3.94505e+01,-2.56890e+01,-2.68172e+00,6.10895e-01,2.88292e+00
2.14300e+02,3.89476e+01,-2.89001e+01,-2.66647e+00,5.98115e-01,2.86065e+00
2.14300e+02,3.84101e+01,-3.21112e+01,-2.64664e+00,5.85201e-01,2.83409e+00
2.14300e+02,3.78307e+01,-3.53223e+01,-2.62125e+00,5.72169e-01,2.80234e+00
2.14300e+02,3.72085e+01,-3.85335e+01,-2.59019e+00,5.59036e-01,2.76525e+00
2.14300e+02,3.65256e+01,-4.17446e+01,-2.55107e+00,5.45826e-01,2.72062e+00
2.14300e+02,3.57835e+01,-4.49557e+01,-2.50412e+00,5.32563e-01,2.66861e+00
2.14300e+02,3.49707e+01,-4.81668e+01,-2.44780e+00,5.19268e-01,2.60780e+00
2.14300e+02,3.40622e+01,-5.13780e+01,-2.37879e+00,5.05988e-01,2.53509e+00
2.14300e+02,3.30871e+01,-5.45891e+01,-2.30095e+00,4.92731e-01,2.45412e+00
2.14300e+02,3.19621e+01,-5.78002e+01,-2.20324e+00,4.79569e-01,2.35462e+00
2.14300e+02,3.07750e+01,-6.10113e+01,-2.09729e+00,4.66533e-01,2.24758e+00
2.14300e+02,2.94148e+01,-6.42224e+01,-1.96841e+00,4.53655e-01,2.11944e+00
2.14300e+02,2.79159e+01,-6.74336e+01,-1.82114e+00,4.41044e-01,1.97487e+00
2.14300e+02,2.62758e+01,-7.06447e+01,-1.65516e+00,4.28720e-01,1.81410e+00
2.14300e+02,2.43988e+01,-7.38558e+01,-1.45777e+00,4.16730e-01,1.62668e+00
2.14300e+02,2.22473e+01,-7.70669e+01,-1.22400e+00,4.05219e-01,1.41095e+00
2.14300e+02,1.97856e+01,-8.02781e+01,-9.49121e-01,3.94324e-01,1.16932e+00
2.14300e+02,1.68740e+01,-8.34892e+01,-6.14600e-01,3.84138e-01,9.05770e-01
2.14300e+02,1.31367e+01,-8.67003e+01,-1.70638e-01,3.75158e-01,6.71824e-01
2.14300e+02,8.08220e+00,-8.99114e+01,4.47926e-01,3.69673e-01,7.81416e-01
2.14300e+02,-3.27484e+00,-9.31226e+01,1.90187e+00,3.71848e-01,2.00797e+00
2.14300e+02,-4.09449e+00,-9.31300e+01,2.01040e+00,3.78602e-01,2.11464e+00
2.14300e+02,-1.15620e+01,-8.98039e+01,3.05345e+00,3.91410e-01,3.12781e+00
2.14300e+02,-1.24661e+01,-8.64779e+01,3.22655e+00,4.00871e-01,3.30041e+00
2.14300e+02,-1.27781e+01,-8.31518e+01,3.32115e+00,4.10827e-01,3.39652e+00
2.14300e+02,-1.28255e+01,-7.98257e+01,3.38067e+00,4.21245e-01,3.45851e+00
2.14300e+02,-1.26734e+01,-7.64996e+01,3.41377e+00,4.32042e-01,3.49482e+00
2.14300e+02,-1.23963e+01,-7.31736e+01,3.43028e+00,4.43155e-01,3.51510e+00
2.14300e+02,-1.19935e+01,-6.98475e+01,3.43013e+00,4.54520e-01,3.51932e+00
2.14300e+02,-1.15140e+01,-6.65214e+01,3.41983e+00,4.66081e-01,3.51382e+00
2.14300e+02,-1.09901e+01,-6.31954e+01,3.40364e+00,4.77809e-01,3.50281e+00
2.14300e+02,-1.03992e+01,-5.98693e+01,3.37857e+00,4.89670e-01,3.48340e+00
2.14300e+02,-9.76651e+00,-5.65432e+01,3.34795e+00,5.01633e-01,3.45885e+00
2.14300e+02,-9.09302e+00,-5.32171e+01,3.31193e+00,5.13674e-01,3.42935e+00
2.14300e+02,-8.37893e+00,-4.98911e+01,3.27053e+00,5.25767e-01,3.39494e+00
2.14300e+02,-7.63939e+00,-4.65650e+01,3.22575e+00,5.37893e-01,3.35760e+00
2.14300e+02,-6.86724e+00,-4.32389e+01,3.17665e+00,5.50032e-01,3.31643e+00
2.14300e+02,-6.07421e+00,-3.99129e+01,3.12478e+00,5.62166e-01,3.27298e+00
2.14300e+02,-5.26246e+00,-3.65868e+01,3.07044e+00,5.74283e-01,3.22753e+00
2.14300e+02,-4.43399e+00,-3.32607e+01,3.01387e+00,5.86368e-01,3.18039e+00
2.14300e+02,-3.59845e+00,-2.99346e+01,2.95637e+00,5.98412e-01,3.13280e+00
2.14300e+02,-2.75194e+00,-2.66086e+01,2.89742e+00,6.10410e-01,3.08429e+00
2.14300e+02,-1.90360e+00,-2.32825e+01,2.83822e+00,6.22355e-01,3.03603e+00
2.14300e+02,-1.04871e+00,-1.99564e+01,2.77815e+00,6.34246e-01,2.98746e+00
2.14300e+02,-1.93910e-01,-1.66304e+01,2.71810e+00,6.46076e-01,2.93944e+00
2.14300e+02,6.57660e-01,-1.33043e+01,2.65847e+00,6.57847e-01,2.89236e+00
2.14300e+02,1.50923e+00,-9.97821e+00,2.59885e+00,6.69556e-01,2.84586e+00
2.14300e+02,2.34063e+00,-6.65214e+00,2.54190e+00,6.81208e-01,2.80239e+00
2.14300e+02,3.16828e+00,-3.32607e+00,2.48544e+00,6.92810e-01,2.75996e+00
3.20700e+02,4.18388e+01,0.00000e+00,-2.32013e+00,6.61349e-01,2.58750e+00
3.20700e+02,4.16280e+01,-3.17930e+00,-2.34106e+00,6.51053e-01,2.59849e+00
3.20700e+02,4.13477e+01,-6.35861e+00,-2.35380e+00,6.40507e-01,2.60213e+00
3.20700e+02,4.10646e+01,-9.53791e+00,-2.36621e+00,6.29721e-01,2.60549e+00
3.20700e+02,4.07201e+01,-1.27172e+01,-2.37139e+00,6.18715e-01,2.60229e+00
3.20700e+02,4.03613e+01,-1.58965e+01,-2.37489e+00,6.07506e-01,2.59755e+00
3.20700e+02,3.99553e+01,-1.90758e+01,-2.37284e+00,5.96110e-01,2.58774e+00
3.20700e+02,3.95264e+01,-2.22551e+01,-2.36810e+00,5.84543e-01,2.57545e+00
3.20700e+02,3.90596e+01,-2.54344e+01,-2.35890e+00,5.72819e-01,2.55906e+00
3.20700e+02,3.85617e+01,-2.86137e+01,-2.34603e+00,5.60956e-01,2.53927e+00
3.20700e+02,3.80295e+01,-3.17930e+01,-2.32914e+00,5.48968e-01,2.51575e+00
3.20700e+02,3.74559e+01,-3.49724e+01,-2.30737e+00,5.36871e-01,2.48770e+00
3.20700e+02,3.68398e+01,-3.81517e+01,-2.28061e+00,5.24680e-01,2.45501e+00
3.20700e+02,3.61637e+01,-4.13310e+01,-2.24678e+00,5.12417e-01,2.41572e+00
3.20700e+02,3.54289e+01,-4.45103e+01,-2.20605e+00,5.00106e-01,2.37002e+00
3.20700e+02,3.46242e+01,-4.76896e+01,-2.15710e+00,4.87765e-01,2.31664e+00
3.20700e+02,3.37247e+01,-5.08689e+01,-2.09699e+00,4.75437e-01,2.25288e+00
3.20700e+02,3.27593e+01,-5.40482e+01,-2.02912e+00,4.63131e-01,2.18193e+00
3.20700e+02,3.16454e+01,-5.72275e+01,-1.94379e+00,4.50914e-01,2.09483e+00
3.20700e+02,3.04701e+01,-6.04068e+01,-1.85123e+00,4.38812e-01,2.00118e+00
3.20700e+02,2.91233e+01,-6.35861e+01,-1.73850e+00,4.26859e-01,1.88919e+00
3.20700e+02,2.76393e+01,-6.67654e+01,-1.60962e+00,4.15152e-01,1.76293e+00
3.20700e+02,2.60154e+01,-6.99447e+01,-1.46430e+00,4.03713e-01,1.62269e+00
3.20700e+02,2.41570e+01,-7.31240e+01,-1.29137e+00,3.92583e-01,1.45946e+00
3.20700e+02,2.20269e+01,-7.63033e+01,-1.08648e+00,3.81898e-01,1.27200e+00
3.20700e+02,1.95896e+01,-7.94826e+01,-8.45450e-01,3.71785e-01,1.06276e+00
3.20700e+02,1.67068e+01,-8.26619e+01,-5.52012e-01,3.62330e-01,8.35803e-01
3.20700e+02,1.30066e+01,-8.58412e+01,-1.62399e-01,3.53994e-01,6.34278e-01
3.20700e+02,8.00212e+00,-8.90205e+01,3.80655e-01,3.48902e-01,7.14211e-01
3.20700e+02,-3.24239e+00,-9.21998e+01,1.65785e+00,3.50922e-01,1.76575e+00
3.20700e+02,-4.05392e+00,-9.22072e+01,1.75321e+00,3.57192e-01,1.85917e+00
3.20700e+02,-1.14474e+01,-8.89141e+01,2.67041e+00,3.69081e-01,2.74586e+00
3.20700e+02,-1.23426e+01,-8.56210e+01,2.82308e+00,3.77864e-01,2.89795e+00
3.20700e+02,-1.26515e+01,-8.23279e+01,2.90677e+00,3.87106e-01,2.98310e+00
3.20700e+02,-1.26984e+01,-7.90348e+01,2.95964e+00,3.96776e-01,3.03838e+00
3.20700e+02,-1.25479e+01,-7.57416e+01,2.98928e+00,4.06798e-01,3.07120e+00
3.20700e+02,-1.22734e+01,-7.24485e+01,3.00435e+00,4.17114e-01,3.09000e+00
3.20700e+02,-1.18746e+01,-6.91554e+01,3.00478e+00,4.27664e-01,3.09474e+00
3.20700e+02,-1.13999e+01,-6.58623e+01,2.99629e+00,4.38396e-01,3.09101e+00
3.20700e+02,-1.08812e+01,-6.25692e+01,2.98262e+00,4.49282e-01,3.08246e+00
3.20700e+02,-1.02962e+01,-5.92761e+01,2.96114e+00,4.60292e-01,3.06659e+00
3.20700e+02,-9.66973e+00,-5.59829e+01,2.93479e+00,4.71397e-01,3.04625e+00
3.20700e+02,-9.00292e+00,-5.26898e+01,2.90370e+00,4.82574e-01,3.02160e+00
3.20700e+02,-8.29591e+00,-4.93967e+01,2.86787e+00,4.93800e-01,2.99269e+00
3.20700e+02,-7.56370e+00,-4.61036e+01,2.82908e+00,5.05055e-01,2.96124e+00
3.20700e+02,-6.79920e+00,-4.28105e+01,2.78649e+00,5.16323e-01,2.92648e+00
3.20700e+02,-6.01403e+00,-3.95174e+01,2.74147e+00,5.27587e-01,2.88976e+00
3.20700e+02,-5.21032e+00,-3.62243e+01,2.69426e+00,5.38834e-01,2.85133e+00
3.20700e+02,-4.39006e+00,-3.29311e+01,2.64512e+00,5.50052e-01,2.81146e+00
3.20700e+02,-3.56279e+00,-2.96380e+01,2.59514e+00,5.61232e-01,2.77123e+00
3.20700e+02,-2.72467e+00,-2.63449e+01,2.54389e+00,5.72369e-01,2.73024e+00
3.20700e+02,-1.88474e+00,-2.30518e+01,2.49243e+00,5.83457e-01,2.68951e+00
3.20700e+02,-1.03832e+00,-1.97587e+01,2.44020e+00,5.94494e-01,2.64855e+00
3.20700e+02,-1.91989e-01,-1.64656e+01,2.38798e+00,6.05475e-01,2.60811e+00
3.20700e+02,6.51143e-01,-1.31725e+01,2.33614e+00,6.16402e-01,2.56854e+00
3.20700e+02,1.49428e+00,-9.87934e+00,2.28430e+00,6.27270e-01,2.52951e+00
3.20700e+02,2.31744e+00,-6.58623e+00,2.23481e+00,6.38086e-01,2.49316e+00
3.20700e+02,3.13689e+00,-3.29311e+00,2.18575e+00,6.48855e-01,2.45775e+00
4.26200e+02,4.14236e+01,0.00000e+00,-2.01970e+00,6.16426e-01,2.28454e+00
4.26200e+02,4.12150e+01,-3.14776e+00,-2.03849e+00,6.06915e-01,2.29358e+00
4.26200e+02,4.09374e+01,-6.29551e+00,-2.05015e+00,5.97172e-01,2.29630e+00
4.26200e+02,4.06571e+01,-9.44327e+00,-2.06153e+00,5.87208e-01,2.29877e+00
4.26200e+02,4.03160e+01,-1.25910e+01,-2.06661e+00,5.77042e-01,2.29560e+00
4.26200e+02,3.99607e+01,-1.57388e+01,-2.07022e+00,5.66687e-01,2.29112e+00
4.26200e+02,3.95588e+01,-1.88865e+01,-2.06900e+00,5.56160e-01,2.28225e+00
4.26200e+02,3.91341e+01,-2.20343e+01,-2.06543e+00,5.45474e-01,2.27126e+00
4.26200e+02,3.86720e+01,-2.51820e+01,-2.05797e+00,5.34644e-01,2.25672e+00
4.26200e+02,3.81790e+01,-2.83298e+01,-2.04732e+00,5.23686e-01,2.23926e+00
4.26200e+02,3.76521e+01,-3.14776e+01,-2.03317e+00,5.12611e-01,2.21857e+00
4.26200e+02,3.70842e+01,-3.46253e+01,-2.01476e+00,5.01436e-01,2.19398e+00
4.26200e+02,3.64743e+01,-3.77731e+01,-1.99200e+00,4.90175e-01,2.16538e+00
4.26200e+02,3.58048e+01,-4.09208e+01,-1.96308e+00,4.78847e-01,2.13109e+00
4.26200e+02,3.50774e+01,-4.40686e+01,-1.92816e+00,4.67475e-01,2.09126e+00
4.26200e+02,3.42806e+01,-4.72163e+01,-1.88606e+00,4.56074e-01,2.04480e+00
4.26200e+02,3.33901e+01,-5.03641e+01,-1.83424e+00,4.44687e-01,1.98939e+00
4.26200e+02,3.24342e+01,-5.35118e+01,-1.77566e+00,4.33319e-01,1.92776e+00
4.26200e+02,3.13314e+01,-5.66596e+01,-1.70187e+00,4.22033e-01,1.85222e+00
4.26200e+02,3.01677e+01,-5.98074e+01,-1.62177e+00,4.10855e-01,1.77103e+00
4.26200e+02,2.88343e+01,-6.29551e+01,-1.52411e+00,3.99812e-01,1.67405e+00
4.26200e+02,2.73650e+01,-6.61029e+01,-1.41236e+00,3.88998e-01,1.56484e+00
4.26200e+02,2.57573e+01,-6.92506e+01,-1.28629e+00,3.78431e-01,1.44367e+00
4.26200e+02,2.39173e+01,-7.23984e+01,-1.13617e+00,3.68150e-01,1.30288e+00
4.26200e+02,2.18083e+01,-7.55461e+01,-9.58188e-01,3.58279e-01,1.14158e+00
4.26200e+02,1.93952e+01,-7.86939e+01,-7.48720e-01,3.48938e-01,9.62213e-01
4.26200e+02,1.65410e+01,-8.18417e+01,-4.93583e-01,3.40204e-01,7.68661e-01
4.26200e+02,1.28775e+01,-8.49894e+01,-1.54639e-01,3.32504e-01,5.96313e-01
4.26200e+02,7.92271e+00,-8.81372e+01,3.18011e-01,3.27801e-01,6.50762e-01
4.26200e+02,-3.21022e+00,-9.12849e+01,1.43038e+00,3.29667e-01,1.54014e+00
4.26200e+02,-4.01369e+00,-9.12922e+01,1.51348e+00,3.35459e-01,1.62118e+00
4.26200e+02,-1.13339e+01,-8.80318e+01,2.31330e+00,3.46441e-01,2.38986e+00
4.26200e+02,-1.22201e+01,-8.47713e+01,2.44692e+00,3.54555e-01,2.52280e+00
4.26200e+02,-1.25260e+01,-8.15109e+01,2.52043e+00,3.63092e-01,2.59770e+00
4.26200e+02,-1.25724e+01,-7.82505e+01,2.56708e+00,3.72025e-01,2.64672e+00
4.26200e+02,-1.24233e+01,-7.49900e+01,2.59349e+00,3.81283e-01,2.67625e+00
4.26200e+02,-1.21516e+01,-7.17296e+01,2.60720e+00,3.90813e-01,2.69364e+00
4.26200e+02,-1.17568e+01,-6.84692e+01,2.60816e+00,4.00558e-01,2.69886e+00
4.26200e+02,-1.12868e+01,-6.52087e+01,2.60134e+00,4.10472e-01,2.69674e+00
4.26200e+02,-1.07732e+01,-6.19483e+01,2.59001e+00,4.20528e-01,2.69048e+00
4.26200e+02,-1.01940e+01,-5.86879e+01,2.57188e+00,4.30699e-01,2.67788e+00
4.26200e+02,-9.57378e+00,-5.54274e+01,2.54950e+00,4.40956e-01,2.66144e+00
4.26200e+02,-8.91358e+00,-5.21670e+01,2.52298e+00,4.51282e-01,2.64129e+00
4.26200e+02,-8.21359e+00,-4.89065e+01,2.49235e+00,4.61651e-01,2.61747e+00
4.26200e+02,-7.48864e+00,-4.56461e+01,2.45913e+00,4.72048e-01,2.59149e+00
4.26200e+02,-6.73173e+00,-4.23857e+01,2.42260e+00,4.82457e-01,2.56267e+00
4.26200e+02,-5.95435e+00,-3.91252e+01,2.38395e+00,4.92862e-01,2.53218e+00
4.26200e+02,-5.15861e+00,-3.58648e+01,2.34340e+00,5.03251e-01,2.50026e+00
4.26200e+02,-4.34650e+00,-3.26044e+01,2.30115e+00,5.13613e-01,2.46712e+00
4.26200e+02,-3.52744e+00,-2.93439e+01,2.25819e+00,5.23941e-01,2.43371e+00
4.26200e+02,-2.69763e+00,-2.60835e+01,2.21411e+00,5.34228e-01,2.39968e+00
4.26200e+02,-1.86603e+00,-2.28231e+01,2.16984e+00,5.44471e-01,2.36592e+00
4.26200e+02,-1.02802e+00,-1.95626e+01,2.12492e+00,5.54666e-01,2.33200e+00
4.26200e+02,-1.90083e-01,-1.63022e+01,2.08000e+00,5.64810e-01,2.29857e+00
4.26200e+02,6.44682e-01,-1.30417e+01,2.03541e+00,5.74903e-01,2.26593e+00
4.26200e+02,1.47945e+00,-9.78131e+00,1.99081e+00,5.84942e-01,2.23379e+00
4.26200e+02,2.29445e+00,-6.52087e+00,1.94827e+00,5.94933e-01,2.20399e+00
4.26200e+02,3.10576e+00,-3.26044e+00,1.90611e+00,6.04881e-01,2.17506e+00
5.30600e+02,4.10127e+01,0.00000e+00,-1.74170e+00,5.71582e-01,2.00341e+00
5.30600e+02,4.08062e+01,-3.11654e+00,-1.75850e+00,5.62843e-01,2.01065e+00
5.30600e+02,4.05314e+01,-6.23307e+00,-1.76915e+00,5.53891e-01,2.01253e+00
5.30600e+02,4.02539e+01,-9.34961e+00,-1.77954e+00,5.44735e-01,2.01419e+00
5.30600e+02,3.99161e+01,-1.24661e+01,-1.78450e+00,5.35394e-01,2.01106e+00
5.30600e+02,3.95644e+01,-1.55827e+01,-1.78819e+00,5.25879e-01,2.00681e+00
5.30600e+02,3.91664e+01,-1.86992e+01,-1.78771e+00,5.16206e-01,1.99883e+00
5.30600e+02,3.87460e+01,-2.18158e+01,-1.78520e+00,5.06388e-01,1.98903e+00
5.30600e+02,3.82884e+01,-2.49323e+01,-1.77934e+00,4.96437e-01,1.97621e+00
5.30600e+02,3.78003e+01,-2.80488e+01,-1.77072e+00,4.86368e-01,1.96090e+00
5.30600e+02,3.72787e+01,-3.11654e+01,-1.75907e+00,4.76192e-01,1.94284e+00
5.30600e+02,3.67164e+01,-3.42819e+01,-1.74376e+00,4.65924e-01,1.92144e+00
5.30600e+02,3.61125e+01,-3.73984e+01,-1.72468e+00,4.55577e-01,1.89662e+00
5.30600e+02,3.54497e+01,-4.05150e+01,-1.70029e+00,4.45168e-01,1.86695e+00
5.30600e+02,3.47295e+01,-4.36315e+01,-1.67071e+00,4.34719e-01,1.83255e+00
5.30600e+02,3.39406e+01,-4.67480e+01,-1.63494e+00,4.24244e-01,1.79248e+00
5.30600e+02,3.30589e+01,-4.98646e+01,-1.59078e+00,4.13780e-01,1.74477e+00
5.30600e+02,3.21125e+01,-5.29811e+01,-1.54078e+00,4.03335e-01,1.69176e+00
5.30600e+02,3.10206e+01,-5.60976e+01,-1.47765e+00,3.92965e-01,1.62688e+00
5.30600e+02,2.98685e+01,-5.92142e+01,-1.40908e+00,3.82694e-01,1.55720e+00
5.30600e+02,2.85484e+01,-6.23307e+01,-1.32533e+00,3.72548e-01,1.47407e+00
5.30600e+02,2.70936e+01,-6.54473e+01,-1.22944e+00,3.62612e-01,1.38057e+00
5.30600e+02,2.55018e+01,-6.85638e+01,-1.12117e+00,3.52903e-01,1.27696e+00
5.30600e+02,2.36801e+01,-7.16803e+01,-9.92138e-01,3.43456e-01,1.15682e+00
5.30600e+02,2.15920e+01,-7.47969e+01,-8.39056e-01,3.34387e-01,1.01954e+00
5.30600e+02,1.92028e+01,-7.79134e+01,-6.58791e-01,3.25804e-01,8.67439e-01
5.30600e+02,1.63770e+01,-8.10299e+01,-4.39099e-01,3.17779e-01,7.04100e-01
5.30600e+02,1.27498e+01,-8.41465e+01,-1.47053e-01,3.10704e-01,5.57885e-01
5.30600e+02,7.84413e+00,-8.72630e+01,2.60424e-01,3.06383e-01,5.91128e-01
5.30600e+02,-3.17838e+00,-9.03795e+01,1.22019e+00,3.08098e-01,1.33178e+00
5.30600e+02,-3.97388e+00,-9.03868e+01,1.29193e+00,3.13420e-01,1.40135e+00
5.30600e+02,-1.12214e+01,-8.71587e+01,1.98303e+00,3.23511e-01,2.06068e+00
5.30600e+02,-1.20989e+01,-8.39306e+01,2.09898e+00,3.30966e-01,2.17585e+00
5.30600e+02,-1.24018e+01,-8.07025e+01,2.16304e+00,3.38811e-01,2.24123e+00
5.30600e+02,-1.24477e+01,-7.74744e+01,2.20391e+00,3.47018e-01,2.28440e+00
5.30600e+02,-1.23001e+01,-7.42463e+01,2.22731e+00,3.55525e-01,2.31087e+00
5.30600e+02,-1.20311e+01,-7.10182e+01,2.23974e+00,3.64281e-01,2.32692e+00
5.30600e+02,-1.16402e+01,-6.77901e+01,2.24116e+00,3.73236e-01,2.33254e+00
5.30600e+02,-1.11748e+01,-6.45620e+01,2.23587e+00,3.82344e-01,2.33188e+00
5.30600e+02,-1.06664e+01,-6.13339e+01,2.22668e+00,3.91584e-01,2.32769e+00
5.30600e+02,-1.00929e+01,-5.81058e+01,2.21162e+00,4.00930e-01,2.31808e+00
5.30600e+02,-9.47882e+00,-5.48777e+01,2.19290e+00,4.10355e-01,2.30521e+00
5.30600e+02,-8.82518e+00,-5.16496e+01,2.17060e+00,4.19842e-01,2.28917e+00
5.30600e+02,-8.13212e+00,-4.84215e+01,2.14475e+00,4.29369e-01,2.27003e+00
5.30600e+02,-7.41437e+00,-4.51934e+01,2.11666e+00,4.38923e-01,2.24905e+00
5.30600e+02,-6.66496e+00,-4.19653e+01,2.08572e+00,4.48487e-01,2.22568e+00
5.30600e+02,-5.89529e+00,-3.87372e+01,2.05295e+00,4.58047e-01,2.20091e+00
5.30600e+02,-5.10745e+00,-3.55091e+01,2.01854e+00,4.67592e-01,2.17495e+00
5.30600e+02,-4.30339e+00,-3.22810e+01,1.98266e+00,4.77113e-01,2.14799e+00
5.30600e+02,-3.49245e+00,-2.90529e+01,1.94616e+00,4.86603e-01,2.12082e+00
5.30600e+02,-2.67088e+00,-2.58248e+01,1.90870e+00,4.96055e-01,2.09317e+00
5.30600e+02,-1.84753e+00,-2.25967e+01,1.87108e+00,5.05466e-01,2.06578e+00
5.30600e+02,-1.01782e+00,-1.93686e+01,1.83289e+00,5.14833e-01,2.03829e+00
5.30600e+02,-1.88198e-01,-1.61405e+01,1.79470e+00,5.24153e-01,2.01126e+00
5.30600e+02,6.38288e-01,-1.29124e+01,1.75680e+00,5.33427e-01,1.98494e+00
5.30600e+02,1.46477e+00,-9.68430e+00,1.71890e+00,5.42651e-01,1.95909e+00
5.30600e+02,2.27169e+00,-6.45620e+00,1.68276e+00,5.51831e-01,1.93526e+00
5.30600e+02,3.07496e+00,-3.22810e+00,1.64696e+00,5.60971e-01,1.91221e+00
6.33500e+02,4.06078e+01,0.00000e+00,-1.48692e+00,5.27204e-01,1.74492e+00
6.33500e+02,4.04033e+01,-3.08576e+00,-1.50185e+00,5.19220e-01,1.75052e+00
6.33500e+02,4.01312e+01,-6.17153e+00,-1.51153e+00,5.11041e-01,1.75163e+00
6.33500e+02,3.98564e+01,-9.25729e+00,-1.52099e+00,5.02676e-01,1.75255e+00
6.33500e+02,3.95220e+01,-1.23431e+01,-1.52580e+00,4.94141e-01,1.74945e+00
6.33500e+02,3.91738e+01,-1.54288e+01,-1.52953e+00,4.85448e-01,1.74540e+00
6.33500e+02,3.87797e+01,-1.85146e+01,-1.52969e+00,4.76610e-01,1.73823e+00
6.33500e+02,3.83634e+01,-2.16004e+01,-1.52812e+00,4.67639e-01,1.72951e+00
6.33500e+02,3.79104e+01,-2.46861e+01,-1.52369e+00,4.58547e-01,1.71826e+00
6.33500e+02,3.74271e+01,-2.77719e+01,-1.51690e+00,4.49347e-01,1.70491e+00
6.33500e+02,3.69106e+01,-3.08576e+01,-1.50751e+00,4.40050e-01,1.68924e+00
6.33500e+02,3.63539e+01,-3.39434e+01,-1.49500e+00,4.30669e-01,1.67076e+00
6.33500e+02,3.57559e+01,-3.70292e+01,-1.47927e+00,4.21215e-01,1.64939e+00
6.33500e+02,3.50997e+01,-4.01149e+01,-1.45899e+00,4.11705e-01,1.62393e+00
6.33500e+02,3.43866e+01,-4.32007e+01,-1.43428e+00,4.02158e-01,1.59448e+00
6.33500e+02,3.36055e+01,-4.62865e+01,-1.40428e+00,3.92588e-01,1.56025e+00
6.33500e+02,3.27325e+01,-4.93722e+01,-1.36711e+00,3.83027e-01,1.51958e+00
6.33500e+02,3.17954e+01,-5.24580e+01,-1.32495e+00,3.73485e-01,1.47444e+00
6.33500e+02,3.07144e+01,-5.55438e+01,-1.27156e+00,3.64010e-01,1.41929e+00
6.33500e+02,2.95736e+01,-5.86295e+01,-1.21352e+00,3.54626e-01,1.36011e+00
6.33500e+02,2.82665e+01,-6.17153e+01,-1.14251e+00,3.45356e-01,1.28963e+00
6.33500e+02,2.68261e+01,-6.48011e+01,-1.06111e+00,3.36278e-01,1.21046e+00
6.33500e+02,2.52500e+01,-6.78868e+01,-9.69142e-01,3.27407e-01,1.12286e+00
6.33500e+02,2.34463e+01,-7.09726e+01,-8.59425e-01,3.18776e-01,1.02150e+00
6.33500e+02,2.13788e+01,-7.40584e+01,-7.29148e-01,3.10490e-01,9.06019e-01
6.33500e+02,1.90132e+01,-7.71441e+01,-5.75636e-01,3.02648e-01,7.78553e-01
6.33500e+02,1.62153e+01,-8.02299e+01,-3.88422e-01,2.95316e-01,6.42267e-01
6.33500e+02,1.26239e+01,-8.33156e+01,-1.39363e-01,2.88853e-01,5.19355e-01
6.33500e+02,7.76668e+00,-8.64014e+01,2.08366e-01,2.84905e-01,5.35658e-01
6.33500e+02,-3.14700e+00,-8.94872e+01,1.02818e+00,2.86472e-01,1.14164e+00
6.33500e+02,-3.93464e+00,-8.94943e+01,1.08950e+00,2.91335e-01,1.20068e+00
6.33500e+02,-1.11106e+01,-8.62981e+01,1.68083e+00,3.00555e-01,1.75960e+00
6.33500e+02,-1.19795e+01,-8.31019e+01,1.78054e+00,3.07366e-01,1.85842e+00
6.33500e+02,-1.22793e+01,-7.99057e+01,1.83589e+00,3.14533e-01,1.91502e+00
6.33500e+02,-1.23248e+01,-7.67094e+01,1.87142e+00,3.22032e-01,1.95278e+00
6.33500e+02,-1.21787e+01,-7.35132e+01,1.89202e+00,3.29805e-01,1.97637e+00
6.33500e+02,-1.19123e+01,-7.03170e+01,1.90324e+00,3.37805e-01,1.99114e+00
6.33500e+02,-1.15252e+01,-6.71208e+01,1.90505e+00,3.45986e-01,1.99708e+00
6.33500e+02,-1.10645e+01,-6.39245e+01,1.90112e+00,3.54308e-01,1.99771e+00
6.33500e+02,-1.05611e+01,-6.07283e+01,1.89386e+00,3.62750e-01,1.99536e+00
6.33500e+02,-9.99326e+00,-5.75321e+01,1.88159e+00,3.71288e-01,1.98845e+00
6.33500e+02,-9.38524e+00,-5.43358e+01,1.86618e+00,3.79899e-01,1.97878e+00
6.33500e+02,-8.73804e+00,-5.11396e+01,1.84771e+00,3.88567e-01,1.96647e+00
6.33500e+02,-8.05183e+00,-4.79434e+01,1.82621e+00,3.97272e-01,1.95154e+00
6.33500e+02,-7.34116e+00,-4.47472e+01,1.80280e+00,4.06000e-01,1.93509e+00
6.33500e+02,-6.59916e+00,-4.15509e+01,1.77694e+00,4.14738e-01,1.91665e+00
6.33500e+02,-5.83709e+00,-3.83547e+01,1.74953e+00,4.23473e-01,1.89706e+00
6.33500e+02,-5.05702e+00,-3.51585e+01,1.72071e+00,4.32194e-01,1.87649e+00
6.33500e+02,-4.26090e+00,-3.19623e+01,1.69063e+00,4.40893e-01,1.85510e+00
6.33500e+02,-3.45797e+00,-2.87660e+01,1.66003e+00,4.49562e-01,1.83358e+00
6.33500e+02,-2.64450e+00,-2.55698e+01,1.62861e+00,4.58198e-01,1.81168e+00
6.33500e+02,-1.82928e+00,-2.23736e+01,1.59705e+00,4.66796e-01,1.79004e+00
6.33500e+02,-1.00777e+00,-1.91774e+01,1.56500e+00,4.75355e-01,1.76836e+00
6.33500e+02,-1.86340e-01,-1.59811e+01,1.53295e+00,4.83870e-01,1.74709e+00
6.33500e+02,6.31986e-01,-1.27849e+01,1.50115e+00,4.92343e-01,1.72646e+00
6.33500e+02,1.45031e+00,-9.58868e+00,1.46935e+00,5.00770e-01,1.70625e+00
6.33500e+02,2.24926e+00,-6.39245e+00,1.43905e+00,5.09156e-01,1.68778e+00
6.33500e+02,3.04460e+00,-3.19623e+00,1.40904e+00,5.17507e-01,1.66998e+00
7.34700e+02,4.02095e+01,0.00000e+00,-1.25534e+00,4.83352e-01,1.50889e+00
7.34700e+02,4.00070e+01,-3.05550e+00,-1.26853e+00,4.76102e-01,1.51301e+00
7.34700e+02,3.97376e+01,-6.11100e+00,-1.27727e+00,4.68677e-01,1.51340e+00
7.34700e+02,3.94656e+01,-9.16651e+00,-1.28583e+00,4.61082e-01,1.51365e+00
7.34700e+02,3.91344e+01,-1.22220e+01,-1.29046e+00,4.53334e-01,1.51057e+00
7.34700e+02,3.87896e+01,-1.52775e+01,-1.29418e+00,4.45442e-01,1.50670e+00
7.34700e+02,3.83994e+01,-1.83330e+01,-1.29488e+00,4.37418e-01,1.50024e+00
7.34700e+02,3.79872e+01,-2.13885e+01,-1.29411e+00,4.29274e-01,1.49250e+00
7.34700e+02,3.75386e+01,-2.44440e+01,-1.29093e+00,4.21020e-01,1.48265e+00
7.34700e+02,3.70601e+01,-2.74995e+01,-1.28575e+00,4.12667e-01,1.47106e+00
7.34700e+02,3.65486e+01,-3.05550e+01,-1.27838e+00,4.04227e-01,1.45755e+00
7.34700e+02,3.59973e+01,-3.36105e+01,-1.26836e+00,3.95710e-01,1.44170e+00
7.34700e+02,3.54053e+01,-3.66660e+01,-1.25562e+00,3.87127e-01,1.42344e+00
7.34700e+02,3.47554e+01,-3.97215e+01,-1.23904e+00,3.78493e-01,1.40178e+00
7.34700e+02,3.40493e+01,-4.27770e+01,-1.21872e+00,3.69826e-01,1.37680e+00
7.34700e+02,3.32760e+01,-4.58325e+01,-1.19392e+00,3.61137e-01,1.34785e+00
7.34700e+02,3.24115e+01,-4.88880e+01,-1.16305e+00,3.52458e-01,1.31354e+00
7.34700e+02,3.14836e+01,-5.19435e+01,-1.12797e+00,3.43794e-01,1.27550e+00
7.34700e+02,3.04131e+01,-5.49990e+01,-1.08340e+00,3.35193e-01,1.22915e+00
7.34700e+02,2.92835e+01,-5.80545e+01,-1.03489e+00,3.26673e-01,1.17947e+00
7.34700e+02,2.79893e+01,-6.11100e+01,-9.75425e-01,3.18258e-01,1.12041e+00
7.34700e+02,2.65630e+01,-6.41655e+01,-9.07173e-01,3.10016e-01,1.05418e+00
7.34700e+02,2.50024e+01,-6.72210e+01,-8.29982e-01,3.01963e-01,9.81028e-01
7.34700e+02,2.32164e+01,-7.02765e+01,-7.37788e-01,2.94127e-01,8.96585e-01
7.34700e+02,2.11691e+01,-7.33320e+01,-6.28213e-01,2.86605e-01,8.00674e-01
7.34700e+02,1.88268e+01,-7.63875e+01,-4.98994e-01,2.79486e-01,6.95221e-01
7.34700e+02,1.60563e+01,-7.94430e+01,-3.41284e-01,2.72829e-01,5.82908e-01
7.34700e+02,1.25001e+01,-8.24985e+01,-1.31287e-01,2.66961e-01,4.80668e-01
7.34700e+02,7.69051e+00,-8.55540e+01,1.62125e-01,2.63378e-01,4.84137e-01
7.34700e+02,-3.11614e+00,-8.86096e+01,8.54645e-01,2.64801e-01,9.69936e-01
7.34700e+02,-3.89606e+00,-8.86166e+01,9.06487e-01,2.69215e-01,1.01939e+00
7.34700e+02,-1.10017e+01,-8.54518e+01,1.40699e+00,2.77586e-01,1.48687e+00
7.34700e+02,-1.18620e+01,-8.22869e+01,1.49187e+00,2.83770e-01,1.57075e+00
7.34700e+02,-1.21589e+01,-7.91220e+01,1.53925e+00,2.90276e-01,1.61928e+00
7.34700e+02,-1.22039e+01,-7.59571e+01,1.56987e+00,2.97085e-01,1.65205e+00
7.34700e+02,-1.20592e+01,-7.27922e+01,1.58786e+00,3.04141e-01,1.67297e+00
7.34700e+02,-1.17955e+01,-6.96274e+01,1.59793e+00,3.11404e-01,1.68651e+00
7.34700e+02,-1.14122e+01,-6.64625e+01,1.60005e+00,3.18831e-01,1.69266e+00
7.34700e+02,-1.09560e+01,-6.32976e+01,1.59731e+00,3.26386e-01,1.69440e+00
7.34700e+02,-1.04575e+01,-6.01327e+01,1.59175e+00,3.34050e-01,1.69365e+00
7.34700e+02,-9.89525e+00,-5.69678e+01,1.58196e+00,3.41802e-01,1.68911e+00
7.34700e+02,-9.29319e+00,-5.38030e+01,1.56951e+00,3.49620e-01,1.68228e+00
7.34700e+02,-8.65235e+00,-5.06381e+01,1.55449e+00,3.57489e-01,1.67327e+00
7.34700e+02,-7.97287e+00,-4.74732e+01,1.53689e+00,3.65391e-01,1.66210e+00
7.34700e+02,-7.26917e+00,-4.43083e+01,1.51768e+00,3.73315e-01,1.64968e+00
7.34700e+02,-6.53444e+00,-4.11434e+01,1.49641e+00,3.81248e-01,1.63563e+00
7.34700e+02,-5.77984e+00,-3.79786e+01,1.47381e+00,3.89177e-01,1.62065e+00
7.34700e+02,-5.00742e+00,-3.48137e+01,1.45003e+00,3.97095e-01,1.60488e+00
7.34700e+02,-4.21911e+00,-3.16488e+01,1.42519e+00,4.04992e-01,1.58846e+00
7.34700e+02,-3.42406e+00,-2.84839e+01,1.39990e+00,4.12863e-01,1.57197e+00
7.34700e+02,-2.61857e+00,-2.53190e+01,1.37392e+00,4.20702e-01,1.55519e+00
7.34700e+02,-1.81134e+00,-2.21542e+01,1.34782e+00,4.28508e-01,1.53866e+00
7.34700e+02,-9.97887e-01,-1.89893e+01,1.32130e+00,4.36278e-01,1.52212e+00
7.34700e+02,-1.84513e-01,-1.58244e+01,1.29479e+00,4.44008e-01,1.50596e+00
7.34700e+02,6.25788e-01,-1.26595e+01,1.26849e+00,4.51700e-01,1.49036e+00
7.34700e+02,1.43609e+00,-9.49464e+00,1.24219e+00,4.59351e-01,1.47514e+00
7.34700e+02,2.22720e+00,-6.32976e+00,1.21716e+00,4.66964e-01,1.46139e+00
7.34700e+02,3.01474e+00,-3.16488e+00,1.19237e+00,4.74545e-01,1.44822e+00
8.33800e+02,3.98196e+01,0.00000e+00,-1.04718e+00,4.40081e-01,1.29522e+00
8.33800e+02,3.96190e+01,-3.02587e+00,-1.05874e+00,4.33546e-01,1.29800e+00
8.33800e+02,3.93522e+01,-6.05173e+00,-1.06658e+00,4.26851e-01,1.29777e+00
8.33800e+02,3.90828e+01,-9.07760e+00,-1.07427e+00,4.20004e-01,1.29741e+00
8.33800e+02,3.87549e+01,-1.21035e+01,-1.07868e+00,4.13018e-01,1.29433e+00
8.33800e+02,3.84134e+01,-1.51293e+01,-1.08232e+00,4.05903e-01,1.29062e+00
8.33800e+02,3.80270e+01,-1.81552e+01,-1.08345e+00,3.98669e-01,1.28478e+00
8.33800e+02,3.76188e+01,-2.11811e+01,-1.08335e+00,3.91326e-01,1.27791e+00
8.33800e+02,3.71745e+01,-2.42069e+01,-1.08122e+00,3.83884e-01,1.26931e+00
8.33800e+02,3.67006e+01,-2.72328e+01,-1.07744e+00,3.76354e-01,1.25929e+00
8.33800e+02,3.61941e+01,-3.02587e+01,-1.07182e+00,3.68744e-01,1.24768e+00
8.33800e+02,3.56482e+01,-3.32845e+01,-1.06399e+00,3.61066e-01,1.23417e+00
8.33800e+02,3.50619e+01,-3.63104e+01,-1.05389e+00,3.53328e-01,1.21869e+00
8.33800e+02,3.44183e+01,-3.93363e+01,-1.04058e+00,3.45544e-01,1.20042e+00
8.33800e+02,3.37191e+01,-4.23621e+01,-1.02413e+00,3.37730e-01,1.17942e+00
8.33800e+02,3.29532e+01,-4.53880e+01,-1.00395e+00,3.29896e-01,1.15517e+00
8.33800e+02,3.20971e+01,-4.84139e+01,-9.78708e-01,3.22072e-01,1.12653e+00
8.33800e+02,3.11783e+01,-5.14397e+01,-9.49939e-01,3.14261e-01,1.09484e+00
8.33800e+02,3.01182e+01,-5.44656e+01,-9.13240e-01,3.06506e-01,1.05634e+00
8.33800e+02,2.89995e+01,-5.74915e+01,-8.73253e-01,2.98825e-01,1.01512e+00
8.33800e+02,2.77178e+01,-6.05173e+01,-8.24111e-01,2.91238e-01,9.66239e-01
8.33800e+02,2.63054e+01,-6.35432e+01,-7.67629e-01,2.83808e-01,9.11535e-01
8.33800e+02,2.47599e+01,-6.65691e+01,-7.03680e-01,2.76547e-01,8.51235e-01
8.33800e+02,2.29912e+01,-6.95949e+01,-6.27196e-01,2.69483e-01,7.81818e-01
8.33800e+02,2.09638e+01,-7.26208e+01,-5.36191e-01,2.62701e-01,7.03234e-01
8.33800e+02,1.86442e+01,-7.56467e+01,-4.28775e-01,2.56283e-01,6.17164e-01
8.33800e+02,1.59005e+01,-7.86725e+01,-2.97556e-01,2.50282e-01,5.25798e-01
8.33800e+02,1.23789e+01,-8.16984e+01,-1.22655e-01,2.44992e-01,4.41710e-01
8.33800e+02,7.61592e+00,-8.47243e+01,1.21935e-01,2.41762e-01,4.36136e-01
8.33800e+02,-3.08591e+00,-8.77501e+01,6.99957e-01,2.43045e-01,8.16794e-01
8.33800e+02,-3.85827e+00,-8.77572e+01,7.43267e-01,2.47025e-01,8.57619e-01
8.33800e+02,-1.08950e+01,-8.46230e+01,1.16197e+00,2.54571e-01,1.24282e+00
8.33800e+02,-1.17470e+01,-8.14888e+01,1.23344e+00,2.60146e-01,1.31316e+00
8.33800e+02,-1.20409e+01,-7.83546e+01,1.27358e+00,2.66013e-01,1.35436e+00
8.33800e+02,-1.20856e+01,-7.52204e+01,1.29972e+00,2.72151e-01,1.38256e+00
8.33800e+02,-1.19423e+01,-7.20862e+01,1.31531e+00,2.78512e-01,1.40098e+00
8.33800e+02,-1.16811e+01,-6.89521e+01,1.32428e+00,2.85060e-01,1.41333e+00
8.33800e+02,-1.13015e+01,-6.58179e+01,1.32661e+00,2.91756e-01,1.41959e+00
8.33800e+02,-1.08497e+01,-6.26837e+01,1.32488e+00,2.98568e-01,1.42223e+00
8.33800e+02,-1.03561e+01,-5.95495e+01,1.32079e+00,3.05478e-01,1.42283e+00
8.33800e+02,-9.79928e+00,-5.64153e+01,1.31317e+00,3.12466e-01,1.42032e+00
8.33800e+02,-9.20306e+00,-5.32811e+01,1.30333e+00,3.19514e-01,1.41596e+00
8.33800e+02,-8.56843e+00,-5.01469e+01,1.29134e+00,3.26608e-01,1.40981e+00
8.33800e+02,-7.89554e+00,-4.70128e+01,1.27719e+00,3.33733e-01,1.40191e+00
8.33800e+02,-7.19866e+00,-4.38786e+01,1.26170e+00,3.40877e-01,1.39301e+00
8.33800e+02,-6.47106e+00,-4.07444e+01,1.24449e+00,3.48029e-01,1.38279e+00
8.33800e+02,-5.72378e+00,-3.76102e+01,1.22617e+00,3.55177e-01,1.37184e+00
8.33800e+02,-4.95886e+00,-3.44760e+01,1.20686e+00,3.62315e-01,1.36027e+00
8.33800e+02,-4.17819e+00,-3.13418e+01,1.18666e+00,3.69435e-01,1.34819e+00
8.33800e+02,-3.39085e+00,-2.82077e+01,1.16609e+00,3.76531e-01,1.33608e+00
8.33800e+02,-2.59317e+00,-2.50735e+01,1.14494e+00,3.83599e-01,1.32376e+00
8.33800e+02,-1.79378e+00,-2.19393e+01,1.12370e+00,3.90636e-01,1.31167e+00
8.33800e+02,-9.88209e-01,-1.88051e+01,1.10211e+00,3.97640e-01,1.29961e+00
8.33800e+02,-1.82723e-01,-1.56709e+01,1.08052e+00,4.04609e-01,1.28789e+00
8.33800e+02,6.19718e-01,-1.25367e+01,1.05910e+00,4.11544e-01,1.27664e+00
8.33800e+02,1.42216e+00,-9.40255e+00,1.03769e+00,4.18441e-01,1.26573e+00
8.33800e+02,2.20560e+00,-6.26837e+00,1.01734e+00,4.25305e-01,1.25604e+00
8.33800e+02,2.98550e+00,-3.13418e+00,9.97185e-01,4.32139e-01,1.24684e+00
9.30700e+02,3.94382e+01,0.00000e+00,-8.61809e-01,3.97226e-01,1.10276e+00
9.30700e+02,3.92396e+01,-2.99689e+00,-8.71846e-01,3.91382e-01,1.10438e+00
9.30700e+02,3.89754e+01,-5.99378e+00,-8.78817e-01,3.85396e-01,1.10359e+00
9.30700e+02,3.87085e+01,-8.99067e+00,-8.85665e-01,3.79274e-01,1.10270e+00
9.30700e+02,3.83837e+01,-1.19876e+01,-8.89807e-01,3.73028e-01,1.09964e+00
9.30700e+02,3.80455e+01,-1.49844e+01,-8.93320e-01,3.66666e-01,1.09606e+00
9.30700e+02,3.76628e+01,-1.79813e+01,-8.94754e-01,3.60198e-01,1.09079e+00
9.30700e+02,3.72585e+01,-2.09782e+01,-8.95181e-01,3.53632e-01,1.08467e+00
9.30700e+02,3.68185e+01,-2.39751e+01,-8.93938e-01,3.46979e-01,1.07718e+00
9.30700e+02,3.63492e+01,-2.69720e+01,-8.91324e-01,3.40246e-01,1.06853e+00
9.30700e+02,3.58475e+01,-2.99689e+01,-8.87201e-01,3.33442e-01,1.05862e+00
9.30700e+02,3.53068e+01,-3.29658e+01,-8.81253e-01,3.26576e-01,1.04717e+00
9.30700e+02,3.47261e+01,-3.59627e+01,-8.73434e-01,3.19657e-01,1.03413e+00
9.30700e+02,3.40887e+01,-3.89596e+01,-8.62969e-01,3.12698e-01,1.01885e+00
9.30700e+02,3.33962e+01,-4.19565e+01,-8.49924e-01,3.05711e-01,1.00137e+00
9.30700e+02,3.26376e+01,-4.49533e+01,-8.33796e-01,2.98707e-01,9.81271e-01
9.30700e+02,3.17897e+01,-4.79502e+01,-8.13492e-01,2.91711e-01,9.57630e-01
9.30700e+02,3.08797e+01,-5.09471e+01,-7.90285e-01,2.84727e-01,9.31535e-01
9.30700e+02,2.98297e+01,-5.39440e+01,-7.60539e-01,2.77793e-01,8.99960e-01
9.30700e+02,2.87218e+01,-5.69409e+01,-7.28085e-01,2.70926e-01,8.66204e-01
9.30700e+02,2.74524e+01,-5.99378e+01,-6.88082e-01,2.64142e-01,8.26299e-01
9.30700e+02,2.60534e+01,-6.29347e+01,-6.42030e-01,2.57499e-01,7.81741e-01
9.30700e+02,2.45228e+01,-6.59316e+01,-5.89821e-01,2.51007e-01,7.32736e-01
9.30700e+02,2.27710e+01,-6.89285e+01,-5.27279e-01,2.44691e-01,6.76494e-01
9.30700e+02,2.07631e+01,-7.19254e+01,-4.52768e-01,2.38627e-01,6.13048e-01
9.30700e+02,1.84656e+01,-7.49222e+01,-3.64727e-01,2.32889e-01,5.43817e-01
9.30700e+02,1.57483e+01,-7.79191e+01,-2.57064e-01,2.27523e-01,4.70513e-01
9.30700e+02,1.22603e+01,-8.09160e+01,-1.13393e-01,2.22793e-01,4.02204e-01
9.30700e+02,7.54299e+00,-8.39129e+01,8.77276e-02,2.19905e-01,3.90859e-01
9.30700e+02,-3.05636e+00,-8.69098e+01,5.63712e-01,2.21052e-01,6.81443e-01
9.30700e+02,-3.82132e+00,-8.69168e+01,5.99414e-01,2.24611e-01,7.14596e-01
9.30700e+02,-1.07906e+01,-8.38126e+01,9.45097e-01,2.31359e-01,1.02654e+00
9.30700e+02,-1.16345e+01,-8.07084e+01,1.00454e+00,2.36344e-01,1.08475e+00
9.30700e+02,-1.19256e+01,-7.76042e+01,1.03816e+00,2.41589e-01,1.11931e+00
9.30700e+02,-1.19698e+01,-7.45001e+01,1.06023e+00,2.47077e-01,1.14334e+00
9.30700e+02,-1.18279e+01,-7.13959e+01,1.07361e+00,2.52765e-01,1.15944e+00
9.30700e+02,-1.15692e+01,-6.82917e+01,1.08153e+00,2.58620e-01,1.17062e+00
9.30700e+02,-1.11933e+01,-6.51876e+01,1.08397e+00,2.64607e-01,1.17688e+00
9.30700e+02,-1.07458e+01,-6.20834e+01,1.08307e+00,2.70697e-01,1.18020e+00
9.30700e+02,-1.02569e+01,-5.89792e+01,1.08023e+00,2.76875e-01,1.18190e+00
9.30700e+02,-9.70544e+00,-5.58751e+01,1.07448e+00,2.83123e-01,1.18109e+00
9.30700e+02,-9.11493e+00,-5.27709e+01,1.06689e+00,2.89425e-01,1.17879e+00
9.30700e+02,-8.48637e+00,-4.96667e+01,1.05753e+00,2.95768e-01,1.17508e+00
9.30700e+02,-7.81993e+00,-4.65625e+01,1.04640e+00,3.02138e-01,1.16996e+00
9.30700e+02,-7.12973e+00,-4.34584e+01,1.03415e+00,3.08526e-01,1.16406e+00
9.30700e+02,-6.40909e+00,-4.03542e+01,1.02049e+00,3.14920e-01,1.15712e+00
9.30700e+02,-5.66897e+00,-3.72500e+01,1.00591e+00,3.21312e-01,1.14960e+00
9.30700e+02,-4.91137e+00,-3.41459e+01,9.90520e-01,3.27694e-01,1.14161e+00
9.30700e+02,-4.13818e+00,-3.10417e+01,9.74399e-01,3.34059e-01,1.13324e+00
9.30700e+02,-3.35837e+00,-2.79375e+01,9.57969e-01,3.40404e-01,1.12487e+00
9.30700e+02,-2.56834e+00,-2.48334e+01,9.41061e-01,3.46723e-01,1.11635e+00
9.30700e+02,-1.77660e+00,-2.17292e+01,9.24073e-01,3.53015e-01,1.10805e+00
9.30700e+02,-9.78745e-01,-1.86250e+01,9.06799e-01,3.59278e-01,1.09978e+00
9.30700e+02,-1.80973e-01,-1.55208e+01,8.89530e-01,3.65509e-01,1.09181e+00
9.30700e+02,6.13784e-01,-1.24167e+01,8.72401e-01,3.71709e-01,1.08424e+00
9.30700e+02,1.40854e+00,-9.31251e+00,8.55272e-01,3.77876e-01,1.07697e+00
9.30700e+02,2.18448e+00,-6.20834e+00,8.39023e-01,3.84013e-01,1.07068e+00
9.30700e+02,2.95691e+00,-3.10417e+00,8.22938e-01,3.90123e-01,1.06481e+00
1.02500e+03,3.90671e+01,0.00000e+00,-6.98899e-01,3.54924e-01,9.30792e-01
1.02500e+03,3.88704e+01,-2.96869e+00,-7.07528e-01,3.49742e-01,9.31425e-01
1.02500e+03,3.86086e+01,-5.93738e+00,-7.13665e-01,3.44433e-01,9.30172e-01
1.02500e+03,3.83443e+01,-8.90607e+00,-7.19703e-01,3.39003e-01,9.28839e-01
1.02500e+03,3.80226e+01,-1.18748e+01,-7.23541e-01,3.33464e-01,9.25800e-01
1.02500e+03,3.76875e+01,-1.48435e+01,-7.26869e-01,3.27821e-01,9.22355e-01
1.02500e+03,3.73084e+01,-1.78121e+01,-7.28509e-01,3.22085e-01,9.17573e-01
1.02500e+03,3.69079e+01,-2.07808e+01,-7.29329e-01,3.16262e-01,9.12133e-01
1.02500e+03,3.64721e+01,-2.37495e+01,-7.28793e-01,3.10361e-01,9.05600e-01
1.02500e+03,3.60071e+01,-2.67182e+01,-7.27143e-01,3.04390e-01,8.98163e-01
1.02500e+03,3.55102e+01,-2.96869e+01,-7.24267e-01,2.98356e-01,8.89726e-01
1.02500e+03,3.49746e+01,-3.26556e+01,-7.19908e-01,2.92267e-01,8.80073e-01
1.02500e+03,3.43994e+01,-3.56243e+01,-7.14030e-01,2.86131e-01,8.69167e-01
1.02500e+03,3.37680e+01,-3.85930e+01,-7.06001e-01,2.79959e-01,8.56486e-01
1.02500e+03,3.30819e+01,-4.15617e+01,-6.95876e-01,2.73763e-01,8.42070e-01
1.02500e+03,3.23305e+01,-4.45304e+01,-6.83247e-01,2.67551e-01,8.25577e-01
1.02500e+03,3.14906e+01,-4.74990e+01,-6.67224e-01,2.61346e-01,8.06284e-01
1.02500e+03,3.05891e+01,-5.04677e+01,-6.48843e-01,2.55153e-01,7.85051e-01
1.02500e+03,2.95491e+01,-5.34364e+01,-6.25149e-01,2.49004e-01,7.59487e-01
1.02500e+03,2.84516e+01,-5.64051e+01,-5.99255e-01,2.42913e-01,7.32207e-01
1.02500e+03,2.71940e+01,-5.93738e+01,-5.67228e-01,2.36897e-01,7.00077e-01
1.02500e+03,2.58083e+01,-6.23425e+01,-5.30286e-01,2.31005e-01,6.64299e-01
1.02500e+03,2.42920e+01,-6.53112e+01,-4.88342e-01,2.25248e-01,6.25051e-01
1.02500e+03,2.25567e+01,-6.82799e+01,-4.38003e-01,2.19647e-01,5.80156e-01
1.02500e+03,2.05677e+01,-7.12486e+01,-3.77939e-01,2.14269e-01,5.29690e-01
1.02500e+03,1.82919e+01,-7.42173e+01,-3.06883e-01,2.09180e-01,4.74812e-01
1.02500e+03,1.56001e+01,-7.71859e+01,-2.19885e-01,2.04422e-01,4.16790e-01
1.02500e+03,1.21450e+01,-8.01546e+01,-1.03631e-01,2.00227e-01,3.61956e-01
1.02500e+03,7.47201e+00,-8.31233e+01,5.92980e-02,1.97666e-01,3.47465e-01
1.02500e+03,-3.02760e+00,-8.60920e+01,4.45544e-01,1.98684e-01,5.62970e-01
1.02500e+03,-3.78536e+00,-8.60989e+01,4.74549e-01,2.01840e-01,5.89419e-01
1.02500e+03,-1.06891e+01,-8.30239e+01,7.55895e-01,2.07824e-01,8.37227e-01
1.02500e+03,-1.15250e+01,-7.99490e+01,8.04679e-01,2.12245e-01,8.84676e-01
1.02500e+03,-1.18134e+01,-7.68740e+01,8.32482e-01,2.16897e-01,9.13323e-01
1.02500e+03,-1.18572e+01,-7.37991e+01,8.50908e-01,2.21764e-01,9.33585e-01
1.02500e+03,-1.17166e+01,-7.07241e+01,8.62268e-01,2.26808e-01,9.47540e-01
1.02500e+03,-1.14604e+01,-6.76491e+01,8.69195e-01,2.32001e-01,9.57587e-01
1.02500e+03,-1.10880e+01,-6.45742e+01,8.71670e-01,2.37310e-01,9.63721e-01
1.02500e+03,-1.06447e+01,-6.14992e+01,8.71430e-01,2.42711e-01,9.67531e-01
1.02500e+03,-1.01604e+01,-5.84243e+01,8.69615e-01,2.48190e-01,9.70064e-01
1.02500e+03,-9.61411e+00,-5.53493e+01,8.65426e-01,2.53732e-01,9.70619e-01
1.02500e+03,-9.02916e+00,-5.22743e+01,8.59755e-01,2.59320e-01,9.70010e-01
1.02500e+03,-8.40652e+00,-4.91994e+01,8.52639e-01,2.64946e-01,9.68288e-01
1.02500e+03,-7.74634e+00,-4.61244e+01,8.44085e-01,2.70595e-01,9.65476e-01
1.02500e+03,-7.06264e+00,-4.30495e+01,8.34629e-01,2.76260e-01,9.62062e-01
1.02500e+03,-6.34878e+00,-3.99745e+01,8.24017e-01,2.81931e-01,9.57841e-01
1.02500e+03,-5.61563e+00,-3.68995e+01,8.12666e-01,2.87599e-01,9.53187e-01
1.02500e+03,-4.86516e+00,-3.38246e+01,8.00651e-01,2.93259e-01,9.48179e-01
1.02500e+03,-4.09924e+00,-3.07496e+01,7.88044e-01,2.98904e-01,9.42891e-01
1.02500e+03,-3.32677e+00,-2.76746e+01,7.75186e-01,3.04531e-01,9.37619e-01
1.02500e+03,-2.54417e+00,-2.45997e+01,7.61939e-01,3.10135e-01,9.32257e-01
1.02500e+03,-1.75988e+00,-2.15247e+01,7.48628e-01,3.15715e-01,9.27077e-01
1.02500e+03,-9.69535e-01,-1.84498e+01,7.35085e-01,3.21269e-01,9.21949e-01
1.02500e+03,-1.79270e-01,-1.53748e+01,7.21545e-01,3.26795e-01,9.17067e-01
1.02500e+03,6.08008e-01,-1.22998e+01,7.08119e-01,3.32293e-01,9.12518e-01
1.02500e+03,1.39529e+00,-9.22488e+00,6.94693e-01,3.37762e-01,9.08211e-01
1.02500e+03,2.16392e+00,-6.14992e+00,6.81982e-01,3.43204e-01,9.04692e-01
1.02500e+03,2.92908e+00,-3.07496e+00,6.69404e-01,3.48623e-01,9.01508e-01
1.11650e+03,3.87070e+01,0.00000e+00,-5.57626e-01,3.12810e-01,7.77493e-01
1.11650e+03,3.85121e+01,-2.94133e+00,-5.64966e-01,3.08269e-01,7.77352e-01
1.11650e+03,3.82528e+01,-5.88266e+00,-5.70314e-01,3.03618e-01,7.75763e-01
1.11650e+03,3.79909e+01,-8.82398e+00,-5.75582e-01,2.98861e-01,7.74111e-01
1.11650e+03,3.76721e+01,-1.17653e+01,-5.79092e-01,2.94008e-01,7.71148e-01
1.11650e+03,3.73401e+01,-1.47066e+01,-5.82194e-01,2.89065e-01,7.67870e-01
1.11650e+03,3.69645e+01,-1.76480e+01,-5.83946e-01,2.84039e-01,7.63562e-01
1.11650e+03,3.65678e+01,-2.05893e+01,-5.85043e-01,2.78938e-01,7.58745e-01
1.11650e+03,3.61359e+01,-2.35306e+01,-5.85055e-01,2.73768e-01,7.53085e-01
1.11650e+03,3.56753e+01,-2.64720e+01,-5.84177e-01,2.68537e-01,7.46726e-01
1.11650e+03,3.51829e+01,-2.94133e+01,-5.82319e-01,2.63251e-01,7.39593e-01
1.11650e+03,3.46522e+01,-3.23546e+01,-5.79275e-01,2.57916e-01,7.31520e-01
1.11650e+03,3.40823e+01,-3.52959e+01,-5.75016e-01,2.52541e-01,7.22478e-01
1.11650e+03,3.34567e+01,-3.82373e+01,-5.69038e-01,2.47133e-01,7.12059e-01
1.11650e+03,3.27770e+01,-4.11786e+01,-5.61384e-01,2.41705e-01,7.00297e-01
1.11650e+03,3.20325e+01,-4.41199e+01,-5.51728e-01,2.36263e-01,6.86924e-01
1.11650e+03,3.12004e+01,-4.70612e+01,-5.39359e-01,2.30827e-01,6.71380e-01
1.11650e+03,3.03072e+01,-5.00026e+01,-5.25103e-01,2.25401e-01,6.54332e-01
1.11650e+03,2.92767e+01,-5.29439e+01,-5.06601e-01,2.20014e-01,6.33927e-01
1.11650e+03,2.81893e+01,-5.58852e+01,-4.86339e-01,2.14678e-01,6.12198e-01
1.11650e+03,2.69434e+01,-5.88266e+01,-4.61174e-01,2.09408e-01,5.86717e-01
1.11650e+03,2.55704e+01,-6.17679e+01,-4.32079e-01,2.04246e-01,5.58428e-01
1.11650e+03,2.40681e+01,-6.47092e+01,-3.98986e-01,1.99203e-01,5.27479e-01
1.11650e+03,2.23488e+01,-6.76505e+01,-3.59180e-01,1.94295e-01,4.92201e-01
1.11650e+03,2.03781e+01,-7.05919e+01,-3.11598e-01,1.89584e-01,4.52681e-01
1.11650e+03,1.81233e+01,-7.35332e+01,-2.55229e-01,1.85126e-01,4.09825e-01
1.11650e+03,1.54563e+01,-7.64745e+01,-1.86113e-01,1.80957e-01,3.64520e-01
1.11650e+03,1.20330e+01,-7.94159e+01,-9.36068e-02,1.77282e-01,3.21013e-01
1.11650e+03,7.40314e+00,-8.23572e+01,3.62171e-02,1.75039e-01,3.05332e-01
1.11650e+03,-2.99970e+00,-8.52985e+01,3.44587e-01,1.75930e-01,4.59995e-01
1.11650e+03,-3.75047e+00,-8.53053e+01,3.67776e-01,1.78696e-01,4.80683e-01
1.11650e+03,-1.05906e+01,-8.22587e+01,5.93175e-01,1.83938e-01,6.73317e-01
1.11650e+03,-1.14188e+01,-7.92121e+01,6.32636e-01,1.87811e-01,7.11370e-01
1.11650e+03,-1.17045e+01,-7.61655e+01,6.55322e-01,1.91887e-01,7.34784e-01
1.11650e+03,-1.17479e+01,-7.31189e+01,6.70510e-01,1.96151e-01,7.51671e-01
1.11650e+03,-1.16086e+01,-7.00722e+01,6.80050e-01,2.00570e-01,7.63645e-01
1.11650e+03,-1.13547e+01,-6.70256e+01,6.86045e-01,2.05119e-01,7.72580e-01
1.11650e+03,-1.09858e+01,-6.39790e+01,6.88481e-01,2.09771e-01,7.78471e-01
1.11650e+03,-1.05466e+01,-6.09324e+01,6.88746e-01,2.14502e-01,7.82563e-01
1.11650e+03,-1.00667e+01,-5.78858e+01,6.87751e-01,2.19302e-01,7.85673e-01
1.11650e+03,-9.52550e+00,-5.48391e+01,6.84859e-01,2.24157e-01,7.87256e-01
1.11650e+03,-8.94594e+00,-5.17925e+01,6.80782e-01,2.29053e-01,7.87947e-01
1.11650e+03,-8.32904e+00,-4.87459e+01,6.75550e-01,2.33981e-01,7.87788e-01
1.11650e+03,-7.67495e+00,-4.56993e+01,6.69167e-01,2.38931e-01,7.86796e-01
1.11650e+03,-6.99754e+00,-4.26527e+01,6.62064e-01,2.43893e-01,7.85353e-01
1.11650e+03,-6.29027e+00,-3.96060e+01,6.54036e-01,2.48861e-01,7.83300e-01
1.11650e+03,-5.56387e+00,-3.65594e+01,6.45418e-01,2.53827e-01,7.80928e-01
1.11650e+03,-4.82031e+00,-3.35128e+01,6.36268e-01,2.58786e-01,7.78298e-01
1.11650e+03,-4.06146e+00,-3.04662e+01,6.26646e-01,2.63731e-01,7.75466e-01
1.11650e+03,-3.29611e+00,-2.74196e+01,6.16822e-01,2.68660e-01,7.72661e-01
1.11650e+03,-2.52072e+00,-2.43730e+01,6.06688e-01,2.73570e-01,7.69800e-01
1.11650e+03,-1.74366e+00,-2.13263e+01,5.96503e-01,2.78458e-01,7.67094e-01
1.11650e+03,-9.60599e-01,-1.82797e+01,5.86131e-01,2.83324e-01,7.64439e-01
1.11650e+03,-1.77618e-01,-1.52331e+01,5.75763e-01,2.88165e-01,7.61984e-01
1.11650e+03,6.02404e-01,-1.21865e+01,5.65485e-01,2.92982e-01,7.59795e-01
1.11650e+03,1.38243e+00,-9.13986e+00,5.55208e-01,2.97773e-01,7.57801e-01
1.11650e+03,2.14398e+00,-6.09324e+00,5.45502e-01,3.02541e-01,7.56416e-01
1.11650e+03,2.90209e+00,-3.04662e+00,5.35903e-01,3.07288e-01,7.55294e-01
1.20500e+03,3.76912e+01,0.00000e+00,-6.24550e-01,3.12961e-01,8.26981e-01
1.20500e+03,3.75014e+01,-2.86413e+00,-6.35255e-01,3.07443e-01,8.28923e-01
1.20500e+03,3.72488e+01,-5.72827e+00,-6.43724e-01,3.01790e-01,8.29224e-01
1.20500e+03,3.69938e+01,-8.59240e+00,-6.52104e-01,2.96008e-01,8.29518e-01
1.20500e+03,3.66834e+01,-1.14565e+01,-6.58509e-01,2.90108e-01,8.28324e-01
1.20500e+03,3.63602e+01,-1.43207e+01,-6.64456e-01,2.84098e-01,8.26823e-01
1.20500e+03,3.59944e+01,-1.71848e+01,-6.68888e-01,2.77987e-01,8.24161e-01
1.20500e+03,3.56080e+01,-2.00489e+01,-6.72584e-01,2.71785e-01,8.20957e-01
1.20500e+03,3.51875e+01,-2.29131e+01,-6.75062e-01,2.65498e-01,8.16809e-01
1.20500e+03,3.47390e+01,-2.57772e+01,-6.76541e-01,2.59137e-01,8.11889e-01
1.20500e+03,3.42596e+01,-2.86413e+01,-6.76919e-01,2.52708e-01,8.06103e-01
1.20500e+03,3.37428e+01,-3.15055e+01,-6.75965e-01,2.46220e-01,7.99251e-01
1.20500e+03,3.31878e+01,-3.43696e+01,-6.73648e-01,2.39681e-01,7.91292e-01
1.20500e+03,3.25787e+01,-3.72337e+01,-6.69400e-01,2.33104e-01,7.81734e-01
1.20500e+03,3.19168e+01,-4.00979e+01,-6.63271e-01,2.26501e-01,7.70608e-01
1.20500e+03,3.11919e+01,-4.29620e+01,-6.54893e-01,2.19881e-01,7.57580e-01
1.20500e+03,3.03815e+01,-4.58261e+01,-6.43470e-01,2.13268e-01,7.41958e-01
1.20500e+03,2.95118e+01,-4.86903e+01,-6.29928e-01,2.06666e-01,7.24529e-01
1.20500e+03,2.85084e+01,-5.15544e+01,-6.11619e-01,2.00112e-01,7.03002e-01
1.20500e+03,2.74495e+01,-5.44186e+01,-5.91333e-01,1.93619e-01,6.79809e-01
1.20500e+03,2.62363e+01,-5.72827e+01,-5.65542e-01,1.87206e-01,6.51902e-01
1.20500e+03,2.48993e+01,-6.01468e+01,-5.35339e-01,1.80925e-01,6.20314e-01
1.20500e+03,2.34365e+01,-6.30110e+01,-5.00646e-01,1.74786e-01,5.85062e-01
1.20500e+03,2.17623e+01,-6.58751e+01,-4.58417e-01,1.68814e-01,5.43729e-01
1.20500e+03,1.98433e+01,-6.87392e+01,-4.07458e-01,1.63080e-01,4.95789e-01
1.20500e+03,1.76476e+01,-7.16034e+01,-3.46631e-01,1.57652e-01,4.41266e-01
1.20500e+03,1.50506e+01,-7.44675e+01,-2.71493e-01,1.52577e-01,3.78877e-01
1.20500e+03,1.17172e+01,-7.73316e+01,-1.70092e-01,1.48102e-01,3.07788e-01
1.20500e+03,7.20885e+00,-8.01958e+01,-2.67915e-02,1.45364e-01,2.53200e-01
1.20500e+03,-2.92097e+00,-8.30599e+01,3.16979e-01,1.46444e-01,4.05972e-01
1.20500e+03,-3.65204e+00,-8.30665e+01,3.43010e-01,1.49805e-01,4.30093e-01
1.20500e+03,-1.03126e+01,-8.00999e+01,5.98638e-01,1.56180e-01,6.56920e-01
1.20500e+03,-1.11191e+01,-7.71332e+01,6.45497e-01,1.60891e-01,7.03082e-01
1.20500e+03,-1.13974e+01,-7.41666e+01,6.73521e-01,1.65849e-01,7.32221e-01
1.20500e+03,-1.14396e+01,-7.11999e+01,6.93127e-01,1.71036e-01,7.53781e-01
1.20500e+03,-1.13040e+01,-6.82332e+01,7.06391e-01,1.76413e-01,7.69645e-01
1.20500e+03,-1.10567e+01,-6.52666e+01,7.15675e-01,1.81948e-01,7.81988e-01
1.20500e+03,-1.06975e+01,-6.22999e+01,7.20962e-01,1.87608e-01,7.90808e-01
1.20500e+03,-1.02698e+01,-5.93332e+01,7.23812e-01,1.93366e-01,7.97543e-01
1.20500e+03,-9.80253e+00,-5.63666e+01,7.25248e-01,1.99208e-01,8.03141e-01
1.20500e+03,-9.27551e+00,-5.33999e+01,7.24554e-01,2.05116e-01,8.06967e-01
1.20500e+03,-8.71115e+00,-5.04333e+01,7.22528e-01,2.11075e-01,8.09757e-01
1.20500e+03,-8.11045e+00,-4.74666e+01,7.19206e-01,2.17074e-01,8.11555e-01
1.20500e+03,-7.47352e+00,-4.44999e+01,7.14593e-01,2.23099e-01,8.12381e-01
1.20500e+03,-6.81389e+00,-4.15333e+01,7.09170e-01,2.29140e-01,8.12673e-01
1.20500e+03,-6.12518e+00,-3.85666e+01,7.02709e-01,2.35189e-01,8.12245e-01
1.20500e+03,-5.41785e+00,-3.55999e+01,6.95585e-01,2.41235e-01,8.11431e-01
1.20500e+03,-4.69381e+00,-3.26333e+01,6.87865e-01,2.47272e-01,8.10302e-01
1.20500e+03,-3.95486e+00,-2.96666e+01,6.79613e-01,2.53295e-01,8.08918e-01
1.20500e+03,-3.20961e+00,-2.67000e+01,6.71136e-01,2.59297e-01,8.07545e-01
1.20500e+03,-2.45457e+00,-2.37333e+01,6.62310e-01,2.65276e-01,8.06083e-01
1.20500e+03,-1.69790e+00,-2.07666e+01,6.53427e-01,2.71230e-01,8.04776e-01
1.20500e+03,-9.35389e-01,-1.78000e+01,6.44335e-01,2.77157e-01,8.03502e-01
1.20500e+03,-1.72956e-01,-1.48333e+01,6.35245e-01,2.83054e-01,8.02430e-01
1.20500e+03,5.86594e-01,-1.18666e+01,6.26259e-01,2.88922e-01,8.01640e-01
1.20500e+03,1.34615e+00,-8.89999e+00,6.17272e-01,2.94758e-01,8.01045e-01
1.20500e+03,2.08771e+00,-5.93332e+00,6.08927e-01,3.00568e-01,8.01133e-01
1.20500e+03,2.82592e+00,-2.96666e+00,6.00701e-01,3.06352e-01,8.01497e-01
1.29010e+03,3.63234e+01,0.00000e+00,-4.96466e-01,2.79114e-01,6.92959e-01
1.29010e+03,3.61405e+01,-2.76019e+00,-5.05354e-01,2.74360e-01,6.93687e-01
1.29010e+03,3.58971e+01,-5.52039e+00,-5.12458e-01,2.69489e-01,6.93172e-01
1.29010e+03,3.56513e+01,-8.28058e+00,-5.19492e-01,2.64508e-01,6.92651e-01
1.29010e+03,3.53522e+01,-1.10408e+01,-5.24951e-01,2.59425e-01,6.90998e-01
1.29010e+03,3.50407e+01,-1.38010e+01,-5.30045e-01,2.54248e-01,6.89111e-01
1.29010e+03,3.46882e+01,-1.65612e+01,-5.33931e-01,2.48984e-01,6.86339e-01
1.29010e+03,3.43158e+01,-1.93214e+01,-5.37230e-01,2.43641e-01,6.83153e-01
1.29010e+03,3.39106e+01,-2.20816e+01,-5.39559e-01,2.38225e-01,6.79248e-01
1.29010e+03,3.34783e+01,-2.48418e+01,-5.41090e-01,2.32745e-01,6.74751e-01
1.29010e+03,3.30163e+01,-2.76019e+01,-5.41744e-01,2.27206e-01,6.69593e-01
1.29010e+03,3.25183e+01,-3.03621e+01,-5.41337e-01,2.21617e-01,6.63617e-01
1.29010e+03,3.19834e+01,-3.31223e+01,-5.39842e-01,2.15985e-01,6.56794e-01
1.29010e+03,3.13964e+01,-3.58825e+01,-5.36808e-01,2.10319e-01,6.48741e-01
1.29010e+03,3.07585e+01,-3.86427e+01,-5.32274e-01,2.04631e-01,6.39482e-01
1.29010e+03,3.00599e+01,-4.14029e+01,-5.25948e-01,1.98928e-01,6.28759e-01
1.29010e+03,2.92790e+01,-4.41631e+01,-5.17193e-01,1.93231e-01,6.16039e-01
1.29010e+03,2.84408e+01,-4.69233e+01,-5.06750e-01,1.87545e-01,6.01926e-01
1.29010e+03,2.74738e+01,-4.96835e+01,-4.92506e-01,1.81899e-01,5.84657e-01
1.29010e+03,2.64534e+01,-5.24437e+01,-4.76686e-01,1.76306e-01,5.66110e-01
1.29010e+03,2.52842e+01,-5.52039e+01,-4.56477e-01,1.70782e-01,5.43940e-01
1.29010e+03,2.39957e+01,-5.79641e+01,-4.32750e-01,1.65371e-01,5.18957e-01
1.29010e+03,2.25860e+01,-6.07243e+01,-4.05444e-01,1.60084e-01,4.91188e-01
1.29010e+03,2.09725e+01,-6.34845e+01,-3.72130e-01,1.54940e-01,4.58802e-01
1.29010e+03,1.91232e+01,-6.62447e+01,-3.31855e-01,1.50000e-01,4.21460e-01
1.29010e+03,1.70072e+01,-6.90049e+01,-2.83714e-01,1.45325e-01,3.79278e-01
1.29010e+03,1.45045e+01,-7.17651e+01,-2.24164e-01,1.40954e-01,3.31441e-01
1.29010e+03,1.12920e+01,-7.45253e+01,-1.43675e-01,1.37099e-01,2.77545e-01
1.29010e+03,6.94724e+00,-7.72855e+01,-2.97822e-02,1.34742e-01,2.35273e-01
1.29010e+03,-2.81497e+00,-8.00457e+01,2.43935e-01,1.35673e-01,3.38711e-01
1.29010e+03,-3.51951e+00,-8.00521e+01,2.64687e-01,1.38568e-01,3.57299e-01
1.29010e+03,-9.93839e+00,-7.71931e+01,4.68850e-01,1.44061e-01,5.31112e-01
1.29010e+03,-1.07156e+01,-7.43341e+01,5.06573e-01,1.48119e-01,5.67832e-01
1.29010e+03,-1.09838e+01,-7.14751e+01,5.29280e-01,1.52389e-01,5.91443e-01
1.29010e+03,-1.10244e+01,-6.86160e+01,5.45277e-01,1.56858e-01,6.09212e-01
1.29010e+03,-1.08937e+01,-6.57570e+01,5.56216e-01,1.61490e-01,6.22586e-01
1.29010e+03,-1.06555e+01,-6.28980e+01,5.63983e-01,1.66257e-01,6.33247e-01
1.29010e+03,-1.03093e+01,-6.00390e+01,5.68564e-01,1.71133e-01,6.41190e-01
1.29010e+03,-9.89713e+00,-5.71800e+01,5.71201e-01,1.76093e-01,6.47532e-01
1.29010e+03,-9.44680e+00,-5.43210e+01,5.72711e-01,1.81125e-01,6.53006e-01
1.29010e+03,-8.93890e+00,-5.14620e+01,5.72523e-01,1.86215e-01,6.57123e-01
1.29010e+03,-8.39503e+00,-4.86030e+01,5.71274e-01,1.91348e-01,6.60451e-01
1.29010e+03,-7.81612e+00,-4.57440e+01,5.68991e-01,1.96515e-01,6.63027e-01
1.29010e+03,-7.20231e+00,-4.28850e+01,5.65678e-01,2.01705e-01,6.64865e-01
1.29010e+03,-6.56662e+00,-4.00260e+01,5.61720e-01,2.06908e-01,6.66305e-01
1.29010e+03,-5.90290e+00,-3.71670e+01,5.56934e-01,2.12118e-01,6.67202e-01
1.29010e+03,-5.22123e+00,-3.43080e+01,5.51620e-01,2.17326e-01,6.67814e-01
1.29010e+03,-4.52347e+00,-3.14490e+01,5.45830e-01,2.22526e-01,6.68195e-01
1.29010e+03,-3.81134e+00,-2.85900e+01,5.39617e-01,2.27714e-01,6.68391e-01
1.29010e+03,-3.09313e+00,-2.57310e+01,5.33224e-01,2.32884e-01,6.68605e-01
1.29010e+03,-2.36549e+00,-2.28720e+01,5.26553e-01,2.38034e-01,6.68759e-01
1.29010e+03,-1.63628e+00,-2.00130e+01,5.19836e-01,2.43162e-01,6.69039e-01
1.29010e+03,-9.01444e-01,-1.71540e+01,5.12953e-01,2.48266e-01,6.69350e-01
1.29010e+03,-1.66680e-01,-1.42950e+01,5.06072e-01,2.53345e-01,6.69821e-01
1.29010e+03,5.65307e-01,-1.14360e+01,4.99272e-01,2.58400e-01,6.70510e-01
1.29010e+03,1.29729e+00,-8.57701e+00,4.92473e-01,2.63427e-01,6.71350e-01
1.29010e+03,2.01195e+00,-5.71800e+00,4.86185e-01,2.68430e-01,6.72711e-01
1.29010e+03,2.72337e+00,-2.85900e+00,4.79993e-01,2.73412e-01,6.74281e-01
1.37170e+03,3.50118e+01,0.00000e+00,-3.85714e-01,2.46534e-01,5.75424e-01
1.37170e+03,3.48355e+01,-2.66053e+00,-3.92992e-01,2.42495e-01,5.75200e-01
1.37170e+03,3.46009e+01,-5.32106e+00,-3.98881e-01,2.38357e-01,5.74063e-01
1.37170e+03,3.43640e+01,-7.98159e+00,-4.04713e-01,2.34126e-01,5.72920e-01
1.37170e+03,3.40757e+01,-1.06421e+01,-4.09319e-01,2.29807e-01,5.70943e-01
1.37170e+03,3.37754e+01,-1.33027e+01,-4.13640e-01,2.25409e-01,5.68793e-01
1.37170e+03,3.34357e+01,-1.59632e+01,-4.17019e-01,2.20937e-01,5.65990e-01
1.37170e+03,3.30768e+01,-1.86237e+01,-4.19941e-01,2.16398e-01,5.62880e-01
1.37170e+03,3.26861e+01,-2.12842e+01,-4.22106e-01,2.11797e-01,5.59238e-01
1.37170e+03,3.22695e+01,-2.39448e+01,-4.23649e-01,2.07142e-01,5.55159e-01
1.37170e+03,3.18241e+01,-2.66053e+01,-4.24509e-01,2.02437e-01,5.50590e-01
1.37170e+03,3.13441e+01,-2.92658e+01,-4.24541e-01,1.97689e-01,5.45415e-01
1.37170e+03,3.08286e+01,-3.19264e+01,-4.23726e-01,1.92904e-01,5.39611e-01
1.37170e+03,3.02627e+01,-3.45869e+01,-4.21711e-01,1.88091e-01,5.32893e-01
1.37170e+03,2.96479e+01,-3.72474e+01,-4.18526e-01,1.83259e-01,5.25277e-01
1.37170e+03,2.89745e+01,-3.99080e+01,-4.13945e-01,1.78415e-01,5.16571e-01
1.37170e+03,2.82218e+01,-4.25685e+01,-4.07470e-01,1.73575e-01,5.06376e-01
1.37170e+03,2.74139e+01,-4.52290e+01,-3.99679e-01,1.68745e-01,4.95144e-01
1.37170e+03,2.64818e+01,-4.78895e+01,-3.88925e-01,1.63949e-01,4.81560e-01
1.37170e+03,2.54982e+01,-5.05501e+01,-3.76942e-01,1.59198e-01,4.67031e-01
1.37170e+03,2.43712e+01,-5.32106e+01,-3.61539e-01,1.54505e-01,4.49807e-01
1.37170e+03,2.31293e+01,-5.58711e+01,-3.43393e-01,1.49909e-01,4.30508e-01
1.37170e+03,2.17704e+01,-5.85317e+01,-3.22457e-01,1.45418e-01,4.09167e-01
1.37170e+03,2.02153e+01,-6.11922e+01,-2.96837e-01,1.41048e-01,3.84442e-01
1.37170e+03,1.84327e+01,-6.38527e+01,-2.65791e-01,1.36853e-01,3.56133e-01
1.37170e+03,1.63931e+01,-6.65133e+01,-2.28613e-01,1.32882e-01,3.24402e-01
1.37170e+03,1.39807e+01,-6.91738e+01,-1.82541e-01,1.29169e-01,2.88747e-01
1.37170e+03,1.08843e+01,-7.18343e+01,-1.20147e-01,1.25895e-01,2.48965e-01
1.37170e+03,6.69639e+00,-7.44949e+01,-3.17126e-02,1.23893e-01,2.16920e-01
1.37170e+03,-2.71333e+00,-7.71554e+01,1.81310e-01,1.24684e-01,2.81979e-01
1.37170e+03,-3.39243e+00,-7.71616e+01,1.97487e-01,1.27144e-01,2.95800e-01
1.37170e+03,-9.57954e+00,-7.44058e+01,3.57002e-01,1.31810e-01,4.23760e-01
1.37170e+03,-1.03287e+01,-7.16500e+01,3.86771e-01,1.35258e-01,4.52190e-01
1.37170e+03,-1.05872e+01,-6.88942e+01,4.04835e-01,1.38885e-01,4.70913e-01
1.37170e+03,-1.06264e+01,-6.61385e+01,4.17667e-01,1.42682e-01,4.85304e-01
1.37170e+03,-1.05004e+01,-6.33827e+01,4.26557e-01,1.46616e-01,4.96427e-01
1.37170e+03,-1.02708e+01,-6.06269e+01,4.32974e-01,1.50666e-01,5.05537e-01
1.37170e+03,-9.93701e+00,-5.78712e+01,4.36908e-01,1.54808e-01,5.12626e-01
1.37170e+03,-9.53977e+00,-5.51154e+01,4.39326e-01,1.59022e-01,5.18528e-01
1.37170e+03,-9.10569e+00,-5.23596e+01,4.40866e-01,1.63296e-01,5.23793e-01
1.37170e+03,-8.61613e+00,-4.96039e+01,4.41081e-01,1.67619e-01,5.28054e-01
1.37170e+03,-8.09190e+00,-4.68481e+01,4.40470e-01,1.71979e-01,5.31737e-01
1.37170e+03,-7.53389e+00,-4.40923e+01,4.39052e-01,1.76369e-01,5.34869e-01
1.37170e+03,-6.94225e+00,-4.13365e+01,4.36832e-01,1.80777e-01,5.37460e-01
1.37170e+03,-6.32951e+00,-3.85808e+01,4.34109e-01,1.85197e-01,5.39763e-01
1.37170e+03,-5.68976e+00,-3.58250e+01,4.30741e-01,1.89622e-01,5.41671e-01
1.37170e+03,-5.03271e+00,-3.30692e+01,4.26961e-01,1.94046e-01,5.43375e-01
1.37170e+03,-4.36014e+00,-3.03135e+01,4.22810e-01,1.98463e-01,5.44914e-01
1.37170e+03,-3.67372e+00,-2.75577e+01,4.18329e-01,2.02869e-01,5.46321e-01
1.37170e+03,-2.98144e+00,-2.48019e+01,4.13708e-01,2.07261e-01,5.47745e-01
1.37170e+03,-2.28008e+00,-2.20462e+01,4.08870e-01,2.11635e-01,5.49129e-01
1.37170e+03,-1.57720e+00,-1.92904e+01,4.03996e-01,2.15991e-01,5.50607e-01
1.37170e+03,-8.68894e-01,-1.65346e+01,3.98993e-01,2.20326e-01,5.52110e-01
1.37170e+03,-1.60661e-01,-1.37788e+01,3.93991e-01,2.24640e-01,5.53731e-01
1.37170e+03,5.44895e-01,-1.10231e+01,3.89053e-01,2.28933e-01,5.55511e-01
1.37170e+03,1.25045e+00,-8.26731e+00,3.84115e-01,2.33203e-01,5.57400e-01
1.37170e+03,1.93930e+00,-5.51154e+00,3.79576e-01,2.37452e-01,5.59668e-01
1.37170e+03,2.62503e+00,-2.75577e+00,3.75111e-01,2.41683e-01,5.62086e-01
1.44960e+03,3.37597e+01,0.00000e+00,-2.91783e-01,2.15213e-01,4.73378e-01
1.44960e+03,3.35897e+01,-2.56538e+00,-2.97635e-01,2.11832e-01,4.72446e-01
1.44960e+03,3.33635e+01,-5.13077e+00,-3.02433e-01,2.08369e-01,4.70871e-01
1.44960e+03,3.31351e+01,-7.69615e+00,-3.07188e-01,2.04828e-01,4.69284e-01
1.44960e+03,3.28571e+01,-1.02615e+01,-3.11012e-01,2.01214e-01,4.67108e-01
1.44960e+03,3.25675e+01,-1.28269e+01,-3.14619e-01,1.97533e-01,4.64805e-01
1.44960e+03,3.22399e+01,-1.53923e+01,-3.17511e-01,1.93791e-01,4.62037e-01
1.44960e+03,3.18939e+01,-1.79577e+01,-3.20056e-01,1.89992e-01,4.59050e-01
1.44960e+03,3.15172e+01,-2.05231e+01,-3.22027e-01,1.86142e-01,4.55684e-01
1.44960e+03,3.11155e+01,-2.30885e+01,-3.23525e-01,1.82246e-01,4.52006e-01
1.44960e+03,3.06860e+01,-2.56538e+01,-3.24504e-01,1.78308e-01,4.47979e-01
1.44960e+03,3.02232e+01,-2.82192e+01,-3.24855e-01,1.74335e-01,4.43519e-01
1.44960e+03,2.97261e+01,-3.07846e+01,-3.24562e-01,1.70331e-01,4.38610e-01
1.44960e+03,2.91805e+01,-3.33500e+01,-3.23358e-01,1.66303e-01,4.33049e-01
1.44960e+03,2.85877e+01,-3.59154e+01,-3.21266e-01,1.62260e-01,4.26845e-01
1.44960e+03,2.79383e+01,-3.84808e+01,-3.18113e-01,1.58206e-01,4.19861e-01
1.44960e+03,2.72125e+01,-4.10462e+01,-3.13523e-01,1.54157e-01,4.11813e-01
1.44960e+03,2.64335e+01,-4.36115e+01,-3.07933e-01,1.50114e-01,4.03021e-01
1.44960e+03,2.55347e+01,-4.61769e+01,-3.00093e-01,1.46101e-01,3.92546e-01
1.44960e+03,2.45863e+01,-4.87423e+01,-2.91321e-01,1.42126e-01,3.81401e-01
1.44960e+03,2.34997e+01,-5.13077e+01,-2.79950e-01,1.38199e-01,3.68332e-01
1.44960e+03,2.23022e+01,-5.38731e+01,-2.66497e-01,1.34353e-01,3.53798e-01
1.44960e+03,2.09919e+01,-5.64385e+01,-2.50926e-01,1.30595e-01,3.37829e-01
1.44960e+03,1.94923e+01,-5.90039e+01,-2.31797e-01,1.26938e-01,3.19484e-01
1.44960e+03,1.77735e+01,-6.15692e+01,-2.08549e-01,1.23427e-01,2.98656e-01
1.44960e+03,1.58069e+01,-6.41346e+01,-1.80644e-01,1.20105e-01,2.75513e-01
1.44960e+03,1.34808e+01,-6.67000e+01,-1.45985e-01,1.16998e-01,2.49754e-01
1.44960e+03,1.04950e+01,-6.92654e+01,-9.89318e-02,1.14258e-01,2.21252e-01
1.44960e+03,6.45692e+00,-7.18308e+01,-3.21051e-02,1.12584e-01,1.97626e-01
1.44960e+03,-2.61629e+00,-7.43962e+01,1.29329e-01,1.13246e-01,2.34947e-01
1.44960e+03,-3.27111e+00,-7.44021e+01,1.41611e-01,1.15305e-01,2.44826e-01
1.44960e+03,-9.23696e+00,-7.17449e+01,2.63078e-01,1.19210e-01,3.34430e-01
1.44960e+03,-9.95928e+00,-6.90877e+01,2.86022e-01,1.22095e-01,3.55711e-01
1.44960e+03,-1.02085e+01,-6.64305e+01,3.00077e-01,1.25131e-01,3.70161e-01
1.44960e+03,-1.02464e+01,-6.37732e+01,3.10159e-01,1.28308e-01,3.81559e-01
1.44960e+03,-1.01249e+01,-6.11160e+01,3.17248e-01,1.31600e-01,3.90643e-01
1.44960e+03,-9.90345e+00,-5.84588e+01,3.22458e-01,1.34989e-01,3.98304e-01
1.44960e+03,-9.58164e+00,-5.58016e+01,3.25783e-01,1.38455e-01,4.04530e-01
1.44960e+03,-9.19861e+00,-5.31444e+01,3.27957e-01,1.41981e-01,4.09917e-01
1.44960e+03,-8.78006e+00,-5.04872e+01,3.29464e-01,1.45558e-01,4.14859e-01
1.44960e+03,-8.30801e+00,-4.78299e+01,3.29966e-01,1.49176e-01,4.19092e-01
1.44960e+03,-7.80252e+00,-4.51727e+01,3.29840e-01,1.52824e-01,4.22918e-01
1.44960e+03,-7.26447e+00,-4.25155e+01,3.29101e-01,1.56497e-01,4.26359e-01
1.44960e+03,-6.69398e+00,-3.98583e+01,3.27753e-01,1.60186e-01,4.29419e-01
1.44960e+03,-6.10316e+00,-3.72011e+01,3.26024e-01,1.63884e-01,4.32280e-01
1.44960e+03,-5.48628e+00,-3.45438e+01,3.23804e-01,1.67587e-01,4.34863e-01
1.44960e+03,-4.85273e+00,-3.18866e+01,3.21271e-01,1.71289e-01,4.37304e-01
1.44960e+03,-4.20421e+00,-2.92294e+01,3.18457e-01,1.74985e-01,4.39630e-01
1.44960e+03,-3.54234e+00,-2.65722e+01,3.15393e-01,1.78672e-01,4.41863e-01
1.44960e+03,-2.87482e+00,-2.39150e+01,3.12222e-01,1.82346e-01,4.44109e-01
1.44960e+03,-2.19854e+00,-2.12577e+01,3.08886e-01,1.86006e-01,4.46324e-01
1.44960e+03,-1.52080e+00,-1.86005e+01,3.05523e-01,1.89651e-01,4.48605e-01
1.44960e+03,-8.37821e-01,-1.59433e+01,3.02061e-01,1.93278e-01,4.50900e-01
1.44960e+03,-1.54916e-01,-1.32861e+01,2.98601e-01,1.96888e-01,4.53274e-01
1.44960e+03,5.25408e-01,-1.06289e+01,2.95190e-01,2.00480e-01,4.55756e-01
1.44960e+03,1.20573e+00,-7.97166e+00,2.91778e-01,2.04052e-01,4.58308e-01
1.44960e+03,1.86995e+00,-5.31444e+00,2.88669e-01,2.07608e-01,4.61121e-01
1.44960e+03,2.53116e+00,-2.65722e+00,2.85617e-01,2.11148e-01,4.64034e-01
1.52340e+03,3.25736e+01,0.00000e+00,-2.14209e-01,1.84592e-01,3.84848e-01
1.52340e+03,3.24095e+01,-2.47525e+00,-2.18809e-01,1.81823e-01,3.83479e-01
1.52340e+03,3.21913e+01,-4.95049e+00,-2.22631e-01,1.78987e-01,3.81672e-01
1.52340e+03,3.19709e+01,-7.42574e+00,-2.26422e-01,1.76086e-01,3.79849e-01
1.52340e+03,3.17026e+01,-9.90099e+00,-2.29526e-01,1.73126e-01,3.77624e-01
1.52340e+03,3.14232e+01,-1.23762e+01,-2.32470e-01,1.70111e-01,3.75307e-01
1.52340e+03,3.11072e+01,-1.48515e+01,-2.34887e-01,1.67046e-01,3.72673e-01
1.52340e+03,3.07733e+01,-1.73267e+01,-2.37049e-01,1.63934e-01,3.69886e-01
1.52340e+03,3.04098e+01,-1.98020e+01,-2.38786e-01,1.60781e-01,3.66838e-01
1.52340e+03,3.00222e+01,-2.22772e+01,-2.40176e-01,1.57590e-01,3.63577e-01
1.52340e+03,2.96079e+01,-2.47525e+01,-2.41183e-01,1.54365e-01,3.60076e-01
1.52340e+03,2.91613e+01,-2.72277e+01,-2.41727e-01,1.51111e-01,3.56280e-01
1.52340e+03,2.86816e+01,-2.97030e+01,-2.41796e-01,1.47832e-01,3.52176e-01
1.52340e+03,2.81552e+01,-3.21782e+01,-2.41193e-01,1.44533e-01,3.47625e-01
1.52340e+03,2.75832e+01,-3.46535e+01,-2.39936e-01,1.41221e-01,3.42636e-01
1.52340e+03,2.69567e+01,-3.71287e+01,-2.37897e-01,1.37901e-01,3.37112e-01
1.52340e+03,2.62564e+01,-3.96040e+01,-2.34798e-01,1.34584e-01,3.30861e-01
1.52340e+03,2.55047e+01,-4.20792e+01,-2.30962e-01,1.31274e-01,3.24101e-01
1.52340e+03,2.46375e+01,-4.45544e+01,-2.25467e-01,1.27987e-01,3.16192e-01
1.52340e+03,2.37225e+01,-4.70297e+01,-2.19285e-01,1.24731e-01,3.07830e-01
1.52340e+03,2.26740e+01,-4.95049e+01,-2.11187e-01,1.21515e-01,2.98157e-01
1.52340e+03,2.15185e+01,-5.19802e+01,-2.01554e-01,1.18365e-01,2.87498e-01
1.52340e+03,2.02543e+01,-5.44554e+01,-1.90359e-01,1.15287e-01,2.75881e-01
1.52340e+03,1.88075e+01,-5.69307e+01,-1.76543e-01,1.12293e-01,2.62671e-01
1.52340e+03,1.71490e+01,-5.94059e+01,-1.59688e-01,1.09418e-01,2.47824e-01
1.52340e+03,1.52515e+01,-6.18812e+01,-1.39401e-01,1.06696e-01,2.31484e-01
1.52340e+03,1.30071e+01,-6.43564e+01,-1.14135e-01,1.04152e-01,2.13471e-01
1.52340e+03,1.01263e+01,-6.68317e+01,-7.97309e-02,1.01909e-01,1.93683e-01
1.52340e+03,6.23005e+00,-6.93069e+01,-3.07495e-02,1.00538e-01,1.76831e-01
1.52340e+03,-2.52437e+00,-7.17822e+01,8.79788e-02,1.01081e-01,1.95940e-01
1.52340e+03,-3.15618e+00,-7.17879e+01,9.70333e-02,1.02767e-01,2.02728e-01
1.52340e+03,-8.91241e+00,-6.92241e+01,1.86877e-01,1.05966e-01,2.61934e-01
1.52340e+03,-9.60935e+00,-6.66602e+01,2.04087e-01,1.08328e-01,2.77230e-01
1.52340e+03,-9.84985e+00,-6.40963e+01,2.14744e-01,1.10815e-01,2.88019e-01
1.52340e+03,-9.88634e+00,-6.15325e+01,2.22472e-01,1.13417e-01,2.96789e-01
1.52340e+03,-9.76914e+00,-5.89686e+01,2.27993e-01,1.16114e-01,3.04020e-01
1.52340e+03,-9.55548e+00,-5.64048e+01,2.32130e-01,1.18889e-01,3.10303e-01
1.52340e+03,-9.24498e+00,-5.38409e+01,2.34876e-01,1.21728e-01,3.15626e-01
1.52340e+03,-8.87540e+00,-5.12771e+01,2.36775e-01,1.24616e-01,3.20389e-01
1.52340e+03,-8.47156e+00,-4.87132e+01,2.38181e-01,1.27545e-01,3.24859e-01
1.52340e+03,-8.01609e+00,-4.61494e+01,2.38846e-01,1.30508e-01,3.28853e-01
1.52340e+03,-7.52837e+00,-4.35855e+01,2.39048e-01,1.33496e-01,3.32577e-01
1.52340e+03,-7.00922e+00,-4.10217e+01,2.38799e-01,1.36504e-01,3.36043e-01
1.52340e+03,-6.45878e+00,-3.84578e+01,2.38101e-01,1.39525e-01,3.39254e-01
1.52340e+03,-5.88872e+00,-3.58940e+01,2.37120e-01,1.42554e-01,3.42331e-01
1.52340e+03,-5.29352e+00,-3.33301e+01,2.35780e-01,1.45586e-01,3.45222e-01
1.52340e+03,-4.68222e+00,-3.07662e+01,2.34208e-01,1.48617e-01,3.48015e-01
1.52340e+03,-4.05649e+00,-2.82024e+01,2.32428e-01,1.51644e-01,3.50729e-01
1.52340e+03,-3.41788e+00,-2.56385e+01,2.30464e-01,1.54664e-01,3.53378e-01
1.52340e+03,-2.77381e+00,-2.30747e+01,2.28422e-01,1.57673e-01,3.56032e-01
1.52340e+03,-2.12129e+00,-2.05108e+01,2.26258e-01,1.60670e-01,3.58660e-01
1.52340e+03,-1.46736e+00,-1.79470e+01,2.24074e-01,1.63655e-01,3.61328e-01
1.52340e+03,-8.08383e-01,-1.53831e+01,2.21817e-01,1.66626e-01,3.63999e-01
1.52340e+03,-1.49473e-01,-1.28193e+01,2.19561e-01,1.69581e-01,3.66716e-01
1.52340e+03,5.06948e-01,-1.02554e+01,2.17342e-01,1.72523e-01,3.69499e-01
1.52340e+03,1.16337e+00,-7.69156e+00,2.15122e-01,1.75448e-01,3.72322e-01
1.52340e+03,1.80424e+00,-5.12771e+00,2.13125e-01,1.78360e-01,3.75312e-01
1.52340e+03,2.44222e+00,-2.56385e+00,2.11170e-01,1.81259e-01,3.78361e-01
1.59310e+03,3.14533e+01,0.00000e+00,-1.51956e-01,1.54706e-01,3.08046e-01
1.59310e+03,3.12949e+01,-2.39012e+00,-1.55463e-01,1.52498e-01,3.06489e-01
1.59310e+03,3.10841e+01,-4.78023e+00,-1.58416e-01,1.50236e-01,3.04645e-01
1.59310e+03,3.08713e+01,-7.17035e+00,-1.61347e-01,1.47923e-01,3.02781e-01
1.59310e+03,3.06123e+01,-9.56047e+00,-1.63788e-01,1.45563e-01,3.00653e-01
1.59310e+03,3.03425e+01,-1.19506e+01,-1.66116e-01,1.43159e-01,2.98459e-01
1.59310e+03,3.00373e+01,-1.43407e+01,-1.68068e-01,1.40715e-01,2.96055e-01
1.59310e+03,2.97149e+01,-1.67308e+01,-1.69837e-01,1.38234e-01,2.93548e-01
1.59310e+03,2.93640e+01,-1.91209e+01,-1.71305e-01,1.35719e-01,2.90869e-01
1.59310e+03,2.89896e+01,-2.15111e+01,-1.72525e-01,1.33175e-01,2.88048e-01
1.59310e+03,2.85896e+01,-2.39012e+01,-1.73472e-01,1.30603e-01,2.85069e-01
1.59310e+03,2.81583e+01,-2.62913e+01,-1.74089e-01,1.28009e-01,2.81896e-01
1.59310e+03,2.76952e+01,-2.86814e+01,-1.74368e-01,1.25394e-01,2.78523e-01
1.59310e+03,2.71869e+01,-3.10715e+01,-1.74168e-01,1.22763e-01,2.74858e-01
1.59310e+03,2.66345e+01,-3.34616e+01,-1.73502e-01,1.20123e-01,2.70908e-01
1.59310e+03,2.60296e+01,-3.58518e+01,-1.72278e-01,1.17475e-01,2.66611e-01
1.59310e+03,2.53533e+01,-3.82419e+01,-1.70300e-01,1.14831e-01,2.61841e-01
1.59310e+03,2.46276e+01,-4.06320e+01,-1.67796e-01,1.12191e-01,2.56742e-01
1.59310e+03,2.37902e+01,-4.30221e+01,-1.64110e-01,1.09571e-01,2.50897e-01
1.59310e+03,2.29066e+01,-4.54122e+01,-1.59935e-01,1.06975e-01,2.44765e-01
1.59310e+03,2.18941e+01,-4.78023e+01,-1.54394e-01,1.04410e-01,2.37786e-01
1.59310e+03,2.07785e+01,-5.01925e+01,-1.47760e-01,1.01899e-01,2.30181e-01
1.59310e+03,1.95577e+01,-5.25826e+01,-1.40013e-01,9.94450e-02,2.21972e-01
1.59310e+03,1.81606e+01,-5.49727e+01,-1.30397e-01,9.70574e-02,2.12753e-01
1.59310e+03,1.65592e+01,-5.73628e+01,-1.18617e-01,9.47651e-02,2.02512e-01
1.59310e+03,1.47269e+01,-5.97529e+01,-1.04391e-01,9.25956e-02,1.91362e-01
1.59310e+03,1.25597e+01,-6.21430e+01,-8.66169e-02,9.05670e-02,1.79192e-01
1.59310e+03,9.77800e+00,-6.45332e+01,-6.23320e-02,8.87786e-02,1.65922e-01
1.59310e+03,6.01578e+00,-6.69233e+01,-2.76598e-02,8.76860e-02,1.54375e-01
1.59310e+03,-2.43755e+00,-6.93134e+01,5.67108e-02,8.81191e-02,1.62822e-01
1.59310e+03,-3.04763e+00,-6.93189e+01,6.31621e-02,8.94639e-02,1.67334e-01
1.59310e+03,-8.60589e+00,-6.68433e+01,1.27418e-01,9.20142e-02,2.04047e-01
1.59310e+03,-9.27886e+00,-6.43676e+01,1.39919e-01,9.38983e-02,2.14542e-01
1.59310e+03,-9.51109e+00,-6.18919e+01,1.47751e-01,9.58810e-02,2.22283e-01
1.59310e+03,-9.54632e+00,-5.94162e+01,1.53495e-01,9.79556e-02,2.28794e-01
1.59310e+03,-9.43315e+00,-5.69406e+01,1.57667e-01,1.00106e-01,2.34355e-01
1.59310e+03,-9.22684e+00,-5.44649e+01,1.60853e-01,1.02319e-01,2.39335e-01
1.59310e+03,-8.92702e+00,-5.19892e+01,1.63047e-01,1.04582e-01,2.43715e-01
1.59310e+03,-8.57016e+00,-4.95135e+01,1.64638e-01,1.06885e-01,2.47747e-01
1.59310e+03,-8.18020e+00,-4.70379e+01,1.65878e-01,1.09220e-01,2.51600e-01
1.59310e+03,-7.74040e+00,-4.45622e+01,1.66589e-01,1.11583e-01,2.55155e-01
1.59310e+03,-7.26945e+00,-4.20865e+01,1.66971e-01,1.13965e-01,2.58541e-01
1.59310e+03,-6.76816e+00,-3.96108e+01,1.67031e-01,1.16364e-01,2.61765e-01
1.59310e+03,-6.23665e+00,-3.71351e+01,1.66772e-01,1.18772e-01,2.64827e-01
1.59310e+03,-5.68619e+00,-3.46595e+01,1.66311e-01,1.21187e-01,2.67803e-01
1.59310e+03,-5.11146e+00,-3.21838e+01,1.65593e-01,1.23605e-01,2.70658e-01
1.59310e+03,-4.52119e+00,-2.97081e+01,1.64711e-01,1.26022e-01,2.73449e-01
1.59310e+03,-3.91698e+00,-2.72324e+01,1.63681e-01,1.28435e-01,2.76185e-01
1.59310e+03,-3.30033e+00,-2.47568e+01,1.62519e-01,1.30842e-01,2.78876e-01
1.59310e+03,-2.67841e+00,-2.22811e+01,1.61302e-01,1.33241e-01,2.81564e-01
1.59310e+03,-2.04833e+00,-1.98054e+01,1.59998e-01,1.35631e-01,2.84230e-01
1.59310e+03,-1.41689e+00,-1.73297e+01,1.58679e-01,1.38011e-01,2.86914e-01
1.59310e+03,-7.80581e-01,-1.48541e+01,1.57309e-01,1.40379e-01,2.89595e-01
1.59310e+03,-1.44332e-01,-1.23784e+01,1.55940e-01,1.42736e-01,2.92297e-01
1.59310e+03,4.89512e-01,-9.90271e+00,1.54596e-01,1.45081e-01,2.95034e-01
1.59310e+03,1.12336e+00,-7.42703e+00,1.53252e-01,1.47413e-01,2.97788e-01
1.59310e+03,1.74219e+00,-4.95135e+00,1.52067e-01,1.49734e-01,3.00641e-01
1.59310e+03,2.35823e+00,-2.47568e+00,1.50911e-01,1.52045e-01,3.03525e-01
1.65850e+03,3.04021e+01,0.00000e+00,-1.03897e-01,1.25407e-01,2.40780e-01
1.65850e+03,3.02490e+01,-2.31024e+00,-1.06471e-01,1.23705e-01,2.39259e-01
1.65850e+03,3.00453e+01,-4.62048e+00,-1.08664e-01,1.21962e-01,2.37555e-01
1.65850e+03,2.98396e+01,-6.93072e+00,-1.10842e-01,1.20180e-01,2.35829e-01
1.65850e+03,2.95892e+01,-9.24096e+00,-1.12684e-01,1.18361e-01,2.33935e-01
1.65850e+03,2.93285e+01,-1.15512e+01,-1.14447e-01,1.16509e-01,2.31993e-01
1.65850e+03,2.90335e+01,-1.38614e+01,-1.15953e-01,1.14625e-01,2.29917e-01
1.65850e+03,2.87218e+01,-1.61717e+01,-1.17333e-01,1.12713e-01,2.27772e-01
1.65850e+03,2.83826e+01,-1.84819e+01,-1.18507e-01,1.10776e-01,2.25517e-01
1.65850e+03,2.80208e+01,-2.07921e+01,-1.19509e-01,1.08815e-01,2.23170e-01
1.65850e+03,2.76341e+01,-2.31024e+01,-1.20325e-01,1.06834e-01,2.20723e-01
1.65850e+03,2.72173e+01,-2.54126e+01,-1.20914e-01,1.04835e-01,2.18154e-01
1.65850e+03,2.67696e+01,-2.77229e+01,-1.21271e-01,1.02820e-01,2.15458e-01
1.65850e+03,2.62783e+01,-3.00331e+01,-1.21298e-01,1.00793e-01,2.12582e-01
1.65850e+03,2.57444e+01,-3.23433e+01,-1.21006e-01,9.87583e-02,2.09528e-01
1.65850e+03,2.51597e+01,-3.46536e+01,-1.20331e-01,9.67185e-02,2.06259e-01
1.65850e+03,2.45060e+01,-3.69638e+01,-1.19137e-01,9.46809e-02,2.02700e-01
1.65850e+03,2.38045e+01,-3.92741e+01,-1.17583e-01,9.26470e-02,1.98937e-01
1.65850e+03,2.29951e+01,-4.15843e+01,-1.15217e-01,9.06276e-02,1.94718e-01
1.65850e+03,2.21410e+01,-4.38945e+01,-1.12514e-01,8.86275e-02,1.90326e-01
1.65850e+03,2.11624e+01,-4.62048e+01,-1.08874e-01,8.66517e-02,1.85416e-01
1.65850e+03,2.00840e+01,-4.85150e+01,-1.04483e-01,8.47167e-02,1.80132e-01
1.65850e+03,1.89041e+01,-5.08253e+01,-9.93278e-02,8.28259e-02,1.74489e-01
1.65850e+03,1.75537e+01,-5.31355e+01,-9.28892e-02,8.09863e-02,1.68240e-01
1.65850e+03,1.60058e+01,-5.54457e+01,-8.49642e-02,7.92201e-02,1.61389e-01
1.65850e+03,1.42348e+01,-5.77560e+01,-7.53593e-02,7.75486e-02,1.54014e-01
1.65850e+03,1.21400e+01,-6.00662e+01,-6.33178e-02,7.59857e-02,1.46050e-01
1.65850e+03,9.45122e+00,-6.23764e+01,-4.68049e-02,7.46078e-02,1.37440e-01
1.65850e+03,5.81473e+00,-6.46867e+01,-2.31583e-02,7.37662e-02,1.29849e-01
1.65850e+03,-2.35608e+00,-6.69969e+01,3.46195e-02,7.41001e-02,1.32932e-01
1.65850e+03,-2.94577e+00,-6.70023e+01,3.90496e-02,7.51364e-02,1.35872e-01
1.65850e+03,-8.31828e+00,-6.46093e+01,8.33497e-02,7.71017e-02,1.57420e-01
1.65850e+03,-8.96876e+00,-6.22164e+01,9.21059e-02,7.85535e-02,1.64303e-01
1.65850e+03,-9.19322e+00,-5.98235e+01,9.76552e-02,8.00812e-02,1.69634e-01
1.65850e+03,-9.22728e+00,-5.74305e+01,1.01771e-01,8.16797e-02,1.74276e-01
1.65850e+03,-9.11789e+00,-5.50376e+01,1.04808e-01,8.33365e-02,1.78380e-01
1.65850e+03,-8.91848e+00,-5.26447e+01,1.07166e-01,8.50418e-02,1.82156e-01
1.65850e+03,-8.62868e+00,-5.02517e+01,1.08845e-01,8.67858e-02,1.85587e-01
1.65850e+03,-8.28374e+00,-4.78588e+01,1.10108e-01,8.85599e-02,1.88818e-01
1.65850e+03,-7.90682e+00,-4.54658e+01,1.11130e-01,9.03595e-02,1.91949e-01
1.65850e+03,-7.48171e+00,-4.30729e+01,1.11790e-01,9.21797e-02,1.94906e-01
1.65850e+03,-7.02650e+00,-4.06800e+01,1.12224e-01,9.40154e-02,1.97765e-01
1.65850e+03,-6.54196e+00,-3.82870e+01,1.12436e-01,9.58632e-02,2.00527e-01
1.65850e+03,-6.02822e+00,-3.58941e+01,1.12429e-01,9.77190e-02,2.03193e-01
1.65850e+03,-5.49615e+00,-3.35011e+01,1.12283e-01,9.95798e-02,2.05806e-01
1.65850e+03,-4.94063e+00,-3.11082e+01,1.11962e-01,1.01443e-01,2.08344e-01
1.65850e+03,-4.37009e+00,-2.87153e+01,1.11527e-01,1.03305e-01,2.10841e-01
1.65850e+03,-3.78607e+00,-2.63223e+01,1.10990e-01,1.05164e-01,2.13301e-01
1.65850e+03,-3.19003e+00,-2.39294e+01,1.10363e-01,1.07019e-01,2.15729e-01
1.65850e+03,-2.58890e+00,-2.15364e+01,1.09698e-01,1.08867e-01,2.18151e-01
1.65850e+03,-1.97988e+00,-1.91435e+01,1.08974e-01,1.10708e-01,2.20555e-01
1.65850e+03,-1.36954e+00,-1.67506e+01,1.08239e-01,1.12542e-01,2.22963e-01
1.65850e+03,-7.54494e-01,-1.43576e+01,1.07469e-01,1.14366e-01,2.25364e-01
1.65850e+03,-1.39508e-01,-1.19647e+01,1.06700e-01,1.16182e-01,2.27771e-01
1.65850e+03,4.73153e-01,-9.57176e+00,1.05948e-01,1.17989e-01,2.30193e-01
1.65850e+03,1.08581e+00,-7.17882e+00,1.05196e-01,1.19786e-01,2.32620e-01
1.65850e+03,1.68397e+00,-4.78588e+00,1.04553e-01,1.21574e-01,2.35100e-01
1.65850e+03,2.27942e+00,-2.39294e+00,1.03931e-01,1.23354e-01,2.37593e-01
1.71930e+03,2.94249e+01,0.00000e+00,-6.86738e-02,9.67403e-02,1.81086e-01
1.71930e+03,2.92767e+01,-2.23598e+00,-7.04805e-02,9.54890e-02,1.79783e-01
1.71930e+03,2.90795e+01,-4.47196e+00,-7.20346e-02,9.42073e-02,1.78365e-01
1.71930e+03,2.88804e+01,-6.70794e+00,-7.35785e-02,9.28964e-02,1.76927e-01
1.71930e+03,2.86381e+01,-8.94392e+00,-7.48995e-02,9.15589e-02,1.75383e-01
1.71930e+03,2.83857e+01,-1.11799e+01,-7.61687e-02,9.01966e-02,1.73804e-01
1.71930e+03,2.81002e+01,-1.34159e+01,-7.72667e-02,8.88115e-02,1.72141e-01
1.71930e+03,2.77986e+01,-1.56519e+01,-7.82816e-02,8.74057e-02,1.70433e-01
1.71930e+03,2.74703e+01,-1.78878e+01,-7.91589e-02,8.59809e-02,1.68654e-01
1.71930e+03,2.71201e+01,-2.01238e+01,-7.99233e-02,8.45391e-02,1.66818e-01
1.71930e+03,2.67458e+01,-2.23598e+01,-8.05633e-02,8.30820e-02,1.64919e-01
1.71930e+03,2.63424e+01,-2.45958e+01,-8.10530e-02,8.16118e-02,1.62945e-01
1.71930e+03,2.59091e+01,-2.68317e+01,-8.13886e-02,8.01301e-02,1.60893e-01
1.71930e+03,2.54336e+01,-2.90677e+01,-8.15061e-02,7.86397e-02,1.58732e-01
1.71930e+03,2.49169e+01,-3.13037e+01,-8.14111e-02,7.71434e-02,1.56464e-01
1.71930e+03,2.43509e+01,-3.35397e+01,-8.10621e-02,7.56435e-02,1.54068e-01
1.71930e+03,2.37183e+01,-3.57757e+01,-8.03690e-02,7.41451e-02,1.51498e-01
1.71930e+03,2.30393e+01,-3.80116e+01,-7.94367e-02,7.26495e-02,1.48809e-01
1.71930e+03,2.22560e+01,-4.02476e+01,-7.79657e-02,7.11646e-02,1.45849e-01
1.71930e+03,2.14293e+01,-4.24836e+01,-7.62715e-02,6.96938e-02,1.42790e-01
1.71930e+03,2.04822e+01,-4.47196e+01,-7.39554e-02,6.82409e-02,1.39427e-01
1.71930e+03,1.94385e+01,-4.69556e+01,-7.11409e-02,6.68181e-02,1.35849e-01
1.71930e+03,1.82964e+01,-4.91915e+01,-6.78192e-02,6.54277e-02,1.32067e-01
1.71930e+03,1.69894e+01,-5.14275e+01,-6.36462e-02,6.40750e-02,1.27936e-01
1.71930e+03,1.54913e+01,-5.36635e+01,-5.84869e-02,6.27763e-02,1.23464e-01
1.71930e+03,1.37772e+01,-5.58995e+01,-5.22130e-02,6.15472e-02,1.18703e-01
1.71930e+03,1.17498e+01,-5.81355e+01,-4.43224e-02,6.03980e-02,1.13614e-01
1.71930e+03,9.14742e+00,-6.03714e+01,-3.34651e-02,5.93849e-02,1.08165e-01
1.71930e+03,5.62782e+00,-6.26074e+01,-1.78745e-02,5.87662e-02,1.03344e-01
1.71930e+03,-2.28035e+00,-6.48434e+01,2.03621e-02,5.90119e-02,1.04220e-01
1.71930e+03,-2.85109e+00,-6.48486e+01,2.33013e-02,5.97741e-02,1.06121e-01
1.71930e+03,-8.05090e+00,-6.25326e+01,5.27969e-02,6.12193e-02,1.18452e-01
1.71930e+03,-8.68047e+00,-6.02165e+01,5.87091e-02,6.22869e-02,1.22824e-01
1.71930e+03,-8.89772e+00,-5.79005e+01,6.24936e-02,6.34104e-02,1.26365e-01
1.71930e+03,-8.93068e+00,-5.55845e+01,6.53272e-02,6.45859e-02,1.29544e-01
1.71930e+03,-8.82481e+00,-5.32685e+01,6.74443e-02,6.58042e-02,1.32436e-01
1.71930e+03,-8.63181e+00,-5.09525e+01,6.91118e-02,6.70583e-02,1.35155e-01
1.71930e+03,-8.35132e+00,-4.86364e+01,7.03278e-02,6.83407e-02,1.37686e-01
1.71930e+03,-8.01747e+00,-4.63204e+01,7.12685e-02,6.96452e-02,1.40109e-01
1.71930e+03,-7.65266e+00,-4.40044e+01,7.20495e-02,7.09686e-02,1.42481e-01
1.71930e+03,-7.24122e+00,-4.16884e+01,7.25898e-02,7.23070e-02,1.44756e-01
1.71930e+03,-6.80064e+00,-3.93724e+01,7.29798e-02,7.36569e-02,1.46976e-01
1.71930e+03,-6.33168e+00,-3.70563e+01,7.32232e-02,7.50157e-02,1.49143e-01
1.71930e+03,-5.83445e+00,-3.47403e+01,7.33208e-02,7.63803e-02,1.51254e-01
1.71930e+03,-5.31949e+00,-3.24243e+01,7.33270e-02,7.77485e-02,1.53334e-01
1.71930e+03,-4.78182e+00,-3.01083e+01,7.32159e-02,7.91184e-02,1.55370e-01
1.71930e+03,-4.22962e+00,-2.77922e+01,7.30298e-02,8.04876e-02,1.57379e-01
1.71930e+03,-3.66437e+00,-2.54762e+01,7.27765e-02,8.18548e-02,1.59365e-01
1.71930e+03,-3.08749e+00,-2.31602e+01,7.24631e-02,8.32185e-02,1.61328e-01
1.71930e+03,-2.50568e+00,-2.08442e+01,7.21243e-02,8.45777e-02,1.63285e-01
1.71930e+03,-1.91624e+00,-1.85282e+01,7.17460e-02,8.59315e-02,1.65228e-01
1.71930e+03,-1.32552e+00,-1.62121e+01,7.13612e-02,8.72795e-02,1.67169e-01
1.71930e+03,-7.30242e-01,-1.38961e+01,7.09529e-02,8.86212e-02,1.69102e-01
1.71930e+03,-1.35024e-01,-1.15801e+01,7.05449e-02,8.99562e-02,1.71035e-01
1.71930e+03,4.57944e-01,-9.26408e+00,7.01485e-02,9.12846e-02,1.72972e-01
1.71930e+03,1.05091e+00,-6.94806e+00,6.97520e-02,9.26058e-02,1.74908e-01
1.71930e+03,1.62984e+00,-4.63204e+00,6.94281e-02,9.39206e-02,1.76871e-01
1.71930e+03,2.20615e+00,-2.31602e+00,6.91176e-02,9.52299e-02,1.78839e-01
1.77540e+03,2.77303e+01,0.00000e+00,-7.93813e-02,8.64211e-02,1.69432e-01
1.77540e+03,2.75906e+01,-2.10721e+00,-8.15666e-02,8.49048e-02,1.68165e-01
1.77540e+03,2.74048e+01,-4.21442e+00,-8.34583e-02,8.33513e-02,1.66756e-01
1.77540e+03,2.72172e+01,-6.32163e+00,-8.53382e-02,8.17621e-02,1.65341e-01
1.77540e+03,2.69888e+01,-8.42884e+00,-8.69590e-02,8.01404e-02,1.63797e-01
1.77540e+03,2.67510e+01,-1.05361e+01,-8.85196e-02,7.84883e-02,1.62225e-01
1.77540e+03,2.64819e+01,-1.26433e+01,-8.98811e-02,7.68083e-02,1.60553e-01
1.77540e+03,2.61977e+01,-1.47505e+01,-9.11461e-02,7.51029e-02,1.58836e-01
1.77540e+03,2.58883e+01,-1.68577e+01,-9.22512e-02,7.33742e-02,1.57040e-01
1.77540e+03,2.55583e+01,-1.89649e+01,-9.32250e-02,7.16246e-02,1.55181e-01
1.77540e+03,2.52056e+01,-2.10721e+01,-9.40543e-02,6.98563e-02,1.53251e-01
1.77540e+03,2.48254e+01,-2.31793e+01,-9.47088e-02,6.80717e-02,1.51232e-01
1.77540e+03,2.44171e+01,-2.52865e+01,-9.51842e-02,6.62731e-02,1.49119e-01
1.77540e+03,2.39689e+01,-2.73937e+01,-9.54061e-02,6.44636e-02,1.46864e-01
1.77540e+03,2.34819e+01,-2.95009e+01,-9.53811e-02,6.26468e-02,1.44469e-01
1.77540e+03,2.29486e+01,-3.16082e+01,-9.50607e-02,6.08252e-02,1.41900e-01
1.77540e+03,2.23524e+01,-3.37154e+01,-9.43405e-02,5.90054e-02,1.39086e-01
1.77540e+03,2.17125e+01,-3.58226e+01,-9.33421e-02,5.71887e-02,1.36104e-01
1.77540e+03,2.09743e+01,-3.79298e+01,-9.17177e-02,5.53848e-02,1.32720e-01
1.77540e+03,2.01952e+01,-4.00370e+01,-8.98338e-02,5.35978e-02,1.29183e-01
1.77540e+03,1.93026e+01,-4.21442e+01,-8.72271e-02,5.18323e-02,1.25173e-01
1.77540e+03,1.83190e+01,-4.42514e+01,-8.40410e-02,5.01031e-02,1.20805e-01
1.77540e+03,1.72428e+01,-4.63586e+01,-8.02654e-02,4.84131e-02,1.16078e-01
1.77540e+03,1.60110e+01,-4.84658e+01,-7.55002e-02,4.67686e-02,1.10735e-01
1.77540e+03,1.45992e+01,-5.05731e+01,-6.95887e-02,4.51894e-02,1.04732e-01
1.77540e+03,1.29838e+01,-5.26803e+01,-6.23817e-02,4.36944e-02,9.80769e-02
1.77540e+03,1.10731e+01,-5.47875e+01,-5.32955e-02,4.22961e-02,9.05940e-02
1.77540e+03,8.62063e+00,-5.68947e+01,-4.07609e-02,4.10624e-02,8.19744e-02
1.77540e+03,5.30372e+00,-5.90019e+01,-2.27247e-02,4.03057e-02,7.34170e-02
1.77540e+03,-2.14903e+00,-6.11091e+01,2.16339e-02,4.06004e-02,7.35745e-02
1.77540e+03,-2.68689e+00,-6.11140e+01,2.50500e-02,4.15239e-02,7.61590e-02
1.77540e+03,-7.58725e+00,-5.89314e+01,5.94224e-02,4.32768e-02,9.56539e-02
1.77540e+03,-8.18057e+00,-5.67487e+01,6.63828e-02,4.45725e-02,1.01817e-01
1.77540e+03,-8.38530e+00,-5.45661e+01,7.08701e-02,4.59363e-02,1.06550e-01
1.77540e+03,-8.41637e+00,-5.23834e+01,7.42520e-02,4.73636e-02,1.10649e-01
1.77540e+03,-8.31659e+00,-5.02008e+01,7.68012e-02,4.88431e-02,1.14260e-01
1.77540e+03,-8.13471e+00,-4.80181e+01,7.88278e-02,5.03663e-02,1.17576e-01
1.77540e+03,-7.87037e+00,-4.58355e+01,8.03297e-02,5.19242e-02,1.20587e-01
1.77540e+03,-7.55575e+00,-4.36529e+01,8.15114e-02,5.35092e-02,1.23425e-01
1.77540e+03,-7.21195e+00,-4.14702e+01,8.25076e-02,5.51173e-02,1.26179e-01
1.77540e+03,-6.82421e+00,-3.92876e+01,8.32240e-02,5.67440e-02,1.28786e-01
1.77540e+03,-6.40900e+00,-3.71049e+01,8.37656e-02,5.83849e-02,1.31313e-01
1.77540e+03,-5.96704e+00,-3.49223e+01,8.41370e-02,6.00367e-02,1.33762e-01
1.77540e+03,-5.49844e+00,-3.27396e+01,8.43389e-02,6.16959e-02,1.36133e-01
1.77540e+03,-5.01314e+00,-3.05570e+01,8.44344e-02,6.33598e-02,1.38465e-01
1.77540e+03,-4.50644e+00,-2.83744e+01,8.43937e-02,6.50258e-02,1.40739e-01
1.77540e+03,-3.98604e+00,-2.61917e+01,8.42658e-02,6.66914e-02,1.42982e-01
1.77540e+03,-3.45334e+00,-2.40091e+01,8.40597e-02,6.83548e-02,1.45200e-01
1.77540e+03,-2.90969e+00,-2.18264e+01,8.37839e-02,7.00140e-02,1.47396e-01
1.77540e+03,-2.36138e+00,-1.96438e+01,8.34784e-02,7.16681e-02,1.49591e-01
1.77540e+03,-1.80588e+00,-1.74611e+01,8.31272e-02,7.33159e-02,1.51775e-01
1.77540e+03,-1.24918e+00,-1.52785e+01,8.27683e-02,7.49569e-02,1.53968e-01
1.77540e+03,-6.88187e-01,-1.30959e+01,8.23821e-02,7.65905e-02,1.56157e-01
1.77540e+03,-1.27248e-01,-1.09132e+01,8.19962e-02,7.82161e-02,1.58356e-01
1.77540e+03,4.31571e-01,-8.73057e+00,8.16238e-02,7.98339e-02,1.60570e-01
1.77540e+03,9.90390e-01,-6.54793e+00,8.12514e-02,8.14433e-02,1.62791e-01
1.77540e+03,1.53598e+00,-4.36529e+00,8.09633e-02,8.30452e-02,1.65059e-01
1.77540e+03,2.07910e+00,-2.18264e+00,8.06908e-02,8.46405e-02,1.67341e-01
1.82660e+03,2.53092e+01,0.00000e+00,-5.59012e-02,6.20885e-02,1.21202e-01
1.82660e+03,2.51817e+01,-1.92323e+00,-5.74462e-02,6.10744e-02,1.20376e-01
1.82660e+03,2.50121e+01,-3.84646e+00,-5.87844e-02,6.00355e-02,1.19450e-01
1.82660e+03,2.48409e+01,-5.76969e+00,-6.01143e-02,5.89728e-02,1.18520e-01
1.82660e+03,2.46324e+01,-7.69292e+00,-6.12617e-02,5.78884e-02,1.17500e-01
1.82660e+03,2.44154e+01,-9.61614e+00,-6.23667e-02,5.67836e-02,1.16459e-01
1.82660e+03,2.41698e+01,-1.15394e+01,-6.33316e-02,5.56603e-02,1.15348e-01
1.82660e+03,2.39103e+01,-1.34626e+01,-6.42285e-02,5.45200e-02,1.14204e-01
1.82660e+03,2.36280e+01,-1.53858e+01,-6.50128e-02,5.33641e-02,1.13004e-01
1.82660e+03,2.33268e+01,-1.73091e+01,-6.57046e-02,5.21943e-02,1.11758e-01
1.82660e+03,2.30049e+01,-1.92323e+01,-6.62947e-02,5.10121e-02,1.10461e-01
1.82660e+03,2.26579e+01,-2.11555e+01,-6.67616e-02,4.98189e-02,1.09100e-01
1.82660e+03,2.22852e+01,-2.30787e+01,-6.71025e-02,4.86165e-02,1.07673e-01
1.82660e+03,2.18762e+01,-2.50020e+01,-6.72648e-02,4.74067e-02,1.06145e-01
1.82660e+03,2.14317e+01,-2.69252e+01,-6.72533e-02,4.61921e-02,1.04519e-01
1.82660e+03,2.09449e+01,-2.88484e+01,-6.70337e-02,4.49744e-02,1.02770e-01
1.82660e+03,2.04008e+01,-3.07717e+01,-6.65326e-02,4.37578e-02,1.00851e-01
1.82660e+03,1.98168e+01,-3.26949e+01,-6.58356e-02,4.25434e-02,9.88137e-02
1.82660e+03,1.91430e+01,-3.46181e+01,-6.46978e-02,4.13375e-02,9.64996e-02
1.82660e+03,1.84320e+01,-3.65413e+01,-6.33773e-02,4.01429e-02,9.40800e-02
1.82660e+03,1.76173e+01,-3.84646e+01,-6.15477e-02,3.89628e-02,9.13369e-02
1.82660e+03,1.67196e+01,-4.03878e+01,-5.93101e-02,3.78070e-02,8.83504e-02
1.82660e+03,1.57373e+01,-4.23110e+01,-5.66574e-02,3.66774e-02,8.51220e-02
1.82660e+03,1.46131e+01,-4.42343e+01,-5.33079e-02,3.55782e-02,8.14810e-02
1.82660e+03,1.33245e+01,-4.61575e+01,-4.91511e-02,3.45227e-02,7.74034e-02
1.82660e+03,1.18502e+01,-4.80807e+01,-4.40820e-02,3.35235e-02,7.29020e-02
1.82660e+03,1.01063e+01,-5.00040e+01,-3.76896e-02,3.25890e-02,6.78722e-02
1.82660e+03,7.86795e+00,-5.19272e+01,-2.88688e-02,3.17647e-02,6.21321e-02
1.82660e+03,4.84065e+00,-5.38504e+01,-1.61739e-02,3.12594e-02,5.65070e-02
1.82660e+03,-1.96139e+00,-5.57736e+01,1.50573e-02,3.14568e-02,5.65271e-02
1.82660e+03,-2.45230e+00,-5.57781e+01,1.74629e-02,3.20744e-02,5.82344e-02
1.82660e+03,-6.92480e+00,-5.37860e+01,4.16741e-02,3.32464e-02,7.10824e-02
1.82660e+03,-7.46632e+00,-5.17940e+01,4.65818e-02,3.41127e-02,7.52390e-02
1.82660e+03,-7.65318e+00,-4.98019e+01,4.97481e-02,3.50245e-02,7.84539e-02
1.82660e+03,-7.68153e+00,-4.78098e+01,5.21359e-02,3.59787e-02,8.12499e-02
1.82660e+03,-7.59047e+00,-4.58177e+01,5.39373e-02,3.69677e-02,8.37202e-02
1.82660e+03,-7.42446e+00,-4.38257e+01,5.53707e-02,3.79859e-02,8.59925e-02
1.82660e+03,-7.18321e+00,-4.18336e+01,5.64347e-02,3.90274e-02,8.80583e-02
1.82660e+03,-6.89605e+00,-3.98415e+01,5.72732e-02,4.00868e-02,9.00060e-02
1.82660e+03,-6.58227e+00,-3.78494e+01,5.79809e-02,4.11617e-02,9.18948e-02
1.82660e+03,-6.22838e+00,-3.58574e+01,5.84917e-02,4.22490e-02,9.36815e-02
1.82660e+03,-5.84943e+00,-3.38653e+01,5.88794e-02,4.33458e-02,9.54115e-02
1.82660e+03,-5.44606e+00,-3.18732e+01,5.91473e-02,4.44498e-02,9.70863e-02
1.82660e+03,-5.01837e+00,-2.98811e+01,5.92957e-02,4.55588e-02,9.87055e-02
1.82660e+03,-4.57544e+00,-2.78891e+01,5.93692e-02,4.66708e-02,1.00296e-01
1.82660e+03,-4.11298e+00,-2.58970e+01,5.93469e-02,4.77842e-02,1.01843e-01
1.82660e+03,-3.63801e+00,-2.39049e+01,5.92631e-02,4.88974e-02,1.03368e-01
1.82660e+03,-3.15183e+00,-2.19128e+01,5.91243e-02,5.00090e-02,1.04873e-01
1.82660e+03,-2.65564e+00,-1.99208e+01,5.89363e-02,5.11178e-02,1.06361e-01
1.82660e+03,-2.15521e+00,-1.79287e+01,5.87275e-02,5.22232e-02,1.07846e-01
1.82660e+03,-1.64821e+00,-1.59366e+01,5.84865e-02,5.33243e-02,1.09321e-01
1.82660e+03,-1.14012e+00,-1.39445e+01,5.82400e-02,5.44208e-02,1.10801e-01
1.82660e+03,-6.28101e-01,-1.19525e+01,5.79743e-02,5.55124e-02,1.12276e-01
1.82660e+03,-1.16138e-01,-9.96038e+00,5.77089e-02,5.65986e-02,1.13756e-01
1.82660e+03,3.93890e-01,-7.96830e+00,5.74530e-02,5.76796e-02,1.15246e-01
1.82660e+03,9.03919e-01,-5.97623e+00,5.71970e-02,5.87549e-02,1.16739e-01
1.82660e+03,1.40187e+00,-3.98415e+00,5.70004e-02,5.98252e-02,1.18263e-01
1.82660e+03,1.89757e+00,-1.99208e+00,5.68149e-02,6.08910e-02,1.19796e-01
1.87280e+03,2.31244e+01,0.00000e+00,-4.04786e-02,4.34076e-02,8.53884e-02
1.87280e+03,2.30080e+01,-1.75721e+00,-4.15865e-02,4.27137e-02,8.48693e-02
1.87280e+03,2.28531e+01,-3.51443e+00,-4.25448e-02,4.20027e-02,8.42778e-02
1.87280e+03,2.26966e+01,-5.27164e+00,-4.34972e-02,4.12756e-02,8.36841e-02
1.87280e+03,2.25061e+01,-7.02886e+00,-4.43175e-02,4.05335e-02,8.30237e-02
1.87280e+03,2.23078e+01,-8.78607e+00,-4.51072e-02,3.97776e-02,8.23495e-02
1.87280e+03,2.20834e+01,-1.05433e+01,-4.57956e-02,3.90090e-02,8.16232e-02
1.87280e+03,2.18464e+01,-1.23005e+01,-4.64348e-02,3.82288e-02,8.08735e-02
1.87280e+03,2.15884e+01,-1.40577e+01,-4.69926e-02,3.74380e-02,8.00819e-02
1.87280e+03,2.13132e+01,-1.58149e+01,-4.74835e-02,3.66377e-02,7.92568e-02
1.87280e+03,2.10191e+01,-1.75721e+01,-4.79008e-02,3.58288e-02,7.83939e-02
1.87280e+03,2.07020e+01,-1.93294e+01,-4.82291e-02,3.50126e-02,7.74835e-02
1.87280e+03,2.03615e+01,-2.10866e+01,-4.84662e-02,3.41899e-02,7.65234e-02
1.87280e+03,1.99878e+01,-2.28438e+01,-4.85742e-02,3.33623e-02,7.54890e-02
1.87280e+03,1.95817e+01,-2.46010e+01,-4.85564e-02,3.25314e-02,7.43815e-02
1.87280e+03,1.91369e+01,-2.63582e+01,-4.83883e-02,3.16984e-02,7.31833e-02
1.87280e+03,1.86398e+01,-2.81154e+01,-4.80165e-02,3.08662e-02,7.18593e-02
1.87280e+03,1.81062e+01,-2.98726e+01,-4.75031e-02,3.00355e-02,7.04481e-02
1.87280e+03,1.74905e+01,-3.16299e+01,-4.66709e-02,2.92106e-02,6.88327e-02
1.87280e+03,1.68409e+01,-3.33871e+01,-4.57066e-02,2.83935e-02,6.71391e-02
1.87280e+03,1.60966e+01,-3.51443e+01,-4.43741e-02,2.75863e-02,6.52079e-02
1.87280e+03,1.52763e+01,-3.69015e+01,-4.27466e-02,2.67957e-02,6.30975e-02
1.87280e+03,1.43788e+01,-3.86587e+01,-4.08189e-02,2.60230e-02,6.08094e-02
1.87280e+03,1.33517e+01,-4.04159e+01,-3.83873e-02,2.52712e-02,5.82194e-02
1.87280e+03,1.21743e+01,-4.21731e+01,-3.53720e-02,2.45493e-02,5.53099e-02
1.87280e+03,1.08272e+01,-4.39304e+01,-3.16968e-02,2.38660e-02,5.20908e-02
1.87280e+03,9.23393e+00,-4.56876e+01,-2.70648e-02,2.32269e-02,4.84868e-02
1.87280e+03,7.18879e+00,-4.74448e+01,-2.06767e-02,2.26632e-02,4.43666e-02
1.87280e+03,4.42280e+00,-4.92020e+01,-1.14869e-02,2.23180e-02,4.03265e-02
1.87280e+03,-1.79208e+00,-5.09592e+01,1.11073e-02,2.24533e-02,4.04453e-02
1.87280e+03,-2.24062e+00,-5.09633e+01,1.28469e-02,2.28759e-02,4.16528e-02
1.87280e+03,-6.32705e+00,-4.91432e+01,3.03455e-02,2.36778e-02,5.10173e-02
1.87280e+03,-6.82182e+00,-4.73231e+01,3.38848e-02,2.42704e-02,5.39939e-02
1.87280e+03,-6.99255e+00,-4.55029e+01,3.61648e-02,2.48942e-02,5.62766e-02
1.87280e+03,-7.01846e+00,-4.36828e+01,3.78818e-02,2.55469e-02,5.82492e-02
1.87280e+03,-6.93525e+00,-4.18627e+01,3.91748e-02,2.62235e-02,5.99807e-02
1.87280e+03,-6.78358e+00,-4.00426e+01,4.02016e-02,2.69200e-02,6.15649e-02
1.87280e+03,-6.56315e+00,-3.82225e+01,4.09613e-02,2.76324e-02,6.29958e-02
1.87280e+03,-6.30078e+00,-3.64024e+01,4.15579e-02,2.83571e-02,6.43384e-02
1.87280e+03,-6.01408e+00,-3.45822e+01,4.20600e-02,2.90923e-02,6.56363e-02
1.87280e+03,-5.69074e+00,-3.27621e+01,4.24197e-02,2.98360e-02,6.68580e-02
1.87280e+03,-5.34450e+00,-3.09420e+01,4.26903e-02,3.05861e-02,6.80367e-02
1.87280e+03,-4.97595e+00,-2.91219e+01,4.28743e-02,3.13412e-02,6.91739e-02
1.87280e+03,-4.58518e+00,-2.73018e+01,4.29719e-02,3.20997e-02,7.02691e-02
1.87280e+03,-4.18049e+00,-2.54816e+01,4.30153e-02,3.28602e-02,7.13422e-02
1.87280e+03,-3.75794e+00,-2.36615e+01,4.29895e-02,3.36217e-02,7.23834e-02
1.87280e+03,-3.32398e+00,-2.18414e+01,4.29192e-02,3.43829e-02,7.34072e-02
1.87280e+03,-2.87976e+00,-2.00213e+01,4.28090e-02,3.51432e-02,7.44160e-02
1.87280e+03,-2.42640e+00,-1.82012e+01,4.26634e-02,3.59014e-02,7.54116e-02
1.87280e+03,-1.96917e+00,-1.63811e+01,4.25026e-02,3.66573e-02,7.64052e-02
1.87280e+03,-1.50594e+00,-1.45609e+01,4.23186e-02,3.74103e-02,7.73916e-02
1.87280e+03,-1.04170e+00,-1.27408e+01,4.21307e-02,3.81601e-02,7.83809e-02
1.87280e+03,-5.73883e-01,-1.09207e+01,4.19288e-02,3.89065e-02,7.93673e-02
1.87280e+03,-1.06113e-01,-9.10059e+00,4.17271e-02,3.96492e-02,8.03575e-02
1.87280e+03,3.59890e-01,-7.28047e+00,4.15323e-02,4.03883e-02,8.13547e-02
1.87280e+03,8.25892e-01,-5.46035e+00,4.13375e-02,4.11236e-02,8.23543e-02
1.87280e+03,1.28086e+00,-3.64024e+00,4.11856e-02,4.18553e-02,8.33778e-02
1.87280e+03,1.73377e+00,-1.82012e+00,4.10417e-02,4.25840e-02,8.44075e-02
1.91380e+03,2.11856e+01,0.00000e+00,-2.75707e-02,4.91320e-02,8.94539e-02
1.91380e+03,2.10789e+01,-1.60989e+00,-2.83183e-02,4.84236e-02,8.85238e-02
1.91380e+03,2.09370e+01,-3.21977e+00,-2.89641e-02,4.76979e-02,8.75453e-02
1.91380e+03,2.07936e+01,-4.82966e+00,-2.96059e-02,4.69556e-02,8.65505e-02
1.91380e+03,2.06192e+01,-6.43954e+00,-3.01578e-02,4.61981e-02,8.55120e-02
1.91380e+03,2.04375e+01,-8.04943e+00,-3.06890e-02,4.54266e-02,8.44543e-02
1.91380e+03,2.02319e+01,-9.65931e+00,-3.11511e-02,4.46421e-02,8.33615e-02
1.91380e+03,2.00147e+01,-1.12692e+01,-3.15799e-02,4.38457e-02,8.22473e-02
1.91380e+03,1.97784e+01,-1.28791e+01,-3.19532e-02,4.30385e-02,8.11046e-02
1.91380e+03,1.95262e+01,-1.44890e+01,-3.22810e-02,4.22217e-02,7.99380e-02
1.91380e+03,1.92568e+01,-1.60989e+01,-3.25588e-02,4.13962e-02,7.87464e-02
1.91380e+03,1.89663e+01,-1.77087e+01,-3.27760e-02,4.05631e-02,7.75265e-02
1.91380e+03,1.86544e+01,-1.93186e+01,-3.29312e-02,3.97235e-02,7.62780e-02
1.91380e+03,1.83120e+01,-2.09285e+01,-3.29985e-02,3.88789e-02,7.49907e-02
1.91380e+03,1.79399e+01,-2.25384e+01,-3.29803e-02,3.80309e-02,7.36665e-02
1.91380e+03,1.75325e+01,-2.41483e+01,-3.28598e-02,3.71808e-02,7.22979e-02
1.91380e+03,1.70770e+01,-2.57582e+01,-3.26007e-02,3.63315e-02,7.08713e-02
1.91380e+03,1.65881e+01,-2.73680e+01,-3.22452e-02,3.54837e-02,6.94049e-02
1.91380e+03,1.60241e+01,-2.89779e+01,-3.16729e-02,3.46419e-02,6.78481e-02
1.91380e+03,1.54289e+01,-3.05878e+01,-3.10107e-02,3.38081e-02,6.62618e-02
1.91380e+03,1.47470e+01,-3.21977e+01,-3.00980e-02,3.29844e-02,6.45740e-02
1.91380e+03,1.39955e+01,-3.38076e+01,-2.89847e-02,3.21777e-02,6.28197e-02
1.91380e+03,1.31733e+01,-3.54175e+01,-2.76671e-02,3.13893e-02,6.10027e-02
1.91380e+03,1.22322e+01,-3.70274e+01,-2.60066e-02,3.06222e-02,5.90719e-02
1.91380e+03,1.11536e+01,-3.86372e+01,-2.39490e-02,2.98856e-02,5.70350e-02
1.91380e+03,9.91946e+00,-4.02471e+01,-2.14425e-02,2.91884e-02,5.49151e-02
1.91380e+03,8.45973e+00,-4.18570e+01,-1.82850e-02,2.85363e-02,5.27002e-02
1.91380e+03,6.58606e+00,-4.34669e+01,-1.39328e-02,2.79613e-02,5.03947e-02
1.91380e+03,4.05198e+00,-4.50768e+01,-7.67459e-03,2.76093e-02,4.84326e-02
1.91380e+03,-1.64183e+00,-4.66867e+01,7.70317e-03,2.77476e-02,4.86737e-02
1.91380e+03,-2.05276e+00,-4.66904e+01,8.88672e-03,2.81790e-02,4.96099e-02
1.91380e+03,-5.79657e+00,-4.50229e+01,2.07853e-02,2.89975e-02,5.43562e-02
1.91380e+03,-6.24986e+00,-4.33554e+01,2.31868e-02,2.96024e-02,5.62720e-02
1.91380e+03,-6.40628e+00,-4.16879e+01,2.47316e-02,3.02390e-02,5.79210e-02
1.91380e+03,-6.43001e+00,-4.00204e+01,2.58934e-02,3.09051e-02,5.94630e-02
1.91380e+03,-6.35378e+00,-3.83528e+01,2.67667e-02,3.15956e-02,6.09205e-02
1.91380e+03,-6.21483e+00,-3.66853e+01,2.74589e-02,3.23064e-02,6.23306e-02
1.91380e+03,-6.01288e+00,-3.50178e+01,2.79694e-02,3.30333e-02,6.36858e-02
1.91380e+03,-5.77251e+00,-3.33503e+01,2.83689e-02,3.37728e-02,6.50124e-02
1.91380e+03,-5.50985e+00,-3.16828e+01,2.87042e-02,3.45231e-02,6.63284e-02
1.91380e+03,-5.21362e+00,-3.00153e+01,2.89425e-02,3.52819e-02,6.76174e-02
1.91380e+03,-4.89640e+00,-2.83477e+01,2.91203e-02,3.60474e-02,6.88928e-02
1.91380e+03,-4.55876e+00,-2.66802e+01,2.92390e-02,3.68179e-02,7.01540e-02
1.91380e+03,-4.20075e+00,-2.50127e+01,2.92991e-02,3.75917e-02,7.13992e-02
1.91380e+03,-3.82998e+00,-2.33452e+01,2.93223e-02,3.83677e-02,7.26364e-02
1.91380e+03,-3.44287e+00,-2.16777e+01,2.92983e-02,3.91447e-02,7.38600e-02
1.91380e+03,-3.04529e+00,-2.00102e+01,2.92441e-02,3.99213e-02,7.50757e-02
1.91380e+03,-2.63832e+00,-1.83427e+01,2.91628e-02,4.06969e-02,7.62836e-02
1.91380e+03,-2.22297e+00,-1.66751e+01,2.90574e-02,4.14706e-02,7.74839e-02
1.91380e+03,-1.80407e+00,-1.50076e+01,2.89417e-02,4.22417e-02,7.86811e-02
1.91380e+03,-1.37967e+00,-1.33401e+01,2.88101e-02,4.30099e-02,7.98722e-02
1.91380e+03,-9.54362e-01,-1.16726e+01,2.86759e-02,4.37748e-02,8.10618e-02
1.91380e+03,-5.25768e-01,-1.00051e+01,2.85322e-02,4.45362e-02,8.22467e-02
1.91380e+03,-9.72161e-02,-8.33757e+00,2.83886e-02,4.52939e-02,8.34298e-02
1.91380e+03,3.29716e-01,-6.67006e+00,2.82497e-02,4.60479e-02,8.46125e-02
1.91380e+03,7.56647e-01,-5.00254e+00,2.81108e-02,4.67979e-02,8.57924e-02
1.91380e+03,1.17347e+00,-3.33503e+00,2.80011e-02,4.75443e-02,8.69796e-02
1.91380e+03,1.58841e+00,-1.66751e+00,2.78968e-02,4.82876e-02,8.81664e-02
1.94970e+03,1.94880e+01,0.00000e+00,-1.57081e-02,3.88174e-02,6.90442e-02
1.94970e+03,1.93899e+01,-1.48088e+00,-1.61343e-02,3.82811e-02,6.82396e-02
1.94970e+03,1.92593e+01,-2.96177e+00,-1.65024e-02,3.77317e-02,6.74046e-02
1.94970e+03,1.91274e+01,-4.44265e+00,-1.68683e-02,3.71698e-02,6.65531e-02
1.94970e+03,1.89669e+01,-5.92353e+00,-1.71830e-02,3.65964e-02,6.56746e-02
1.94970e+03,1.87998e+01,-7.40441e+00,-1.74859e-02,3.60124e-02,6.47798e-02
1.94970e+03,1.86107e+01,-8.88530e+00,-1.77494e-02,3.54185e-02,6.38628e-02
1.94970e+03,1.84109e+01,-1.03662e+01,-1.79939e-02,3.48158e-02,6.29301e-02
1.94970e+03,1.81935e+01,-1.18471e+01,-1.82069e-02,3.42048e-02,6.19790e-02
1.94970e+03,1.79616e+01,-1.33279e+01,-1.83939e-02,3.35865e-02,6.10123e-02
1.94970e+03,1.77137e+01,-1.48088e+01,-1.85525e-02,3.29617e-02,6.00301e-02
1.94970e+03,1.74465e+01,-1.62897e+01,-1.86765e-02,3.23312e-02,5.90315e-02
1.94970e+03,1.71596e+01,-1.77706e+01,-1.87652e-02,3.16957e-02,5.80171e-02
1.94970e+03,1.68446e+01,-1.92515e+01,-1.88038e-02,3.10565e-02,5.69833e-02
1.94970e+03,1.65024e+01,-2.07324e+01,-1.87937e-02,3.04147e-02,5.59318e-02
1.94970e+03,1.61276e+01,-2.22132e+01,-1.87254e-02,2.97713e-02,5.48601e-02
1.94970e+03,1.57086e+01,-2.36941e+01,-1.85781e-02,2.91285e-02,5.37639e-02
1.94970e+03,1.52589e+01,-2.51750e+01,-1.83760e-02,2.84869e-02,5.26516e-02
1.94970e+03,1.47401e+01,-2.66559e+01,-1.80503e-02,2.78499e-02,5.15040e-02
1.94970e+03,1.41926e+01,-2.81368e+01,-1.76734e-02,2.72189e-02,5.03483e-02
1.94970e+03,1.35653e+01,-2.96177e+01,-1.71538e-02,2.65955e-02,4.91550e-02
1.94970e+03,1.28740e+01,-3.10985e+01,-1.65199e-02,2.59850e-02,4.79434e-02
1.94970e+03,1.21177e+01,-3.25794e+01,-1.57697e-02,2.53884e-02,4.67161e-02
1.94970e+03,1.12521e+01,-3.40603e+01,-1.48242e-02,2.48079e-02,4.54538e-02
1.94970e+03,1.02599e+01,-3.55412e+01,-1.36524e-02,2.42505e-02,4.41662e-02
1.94970e+03,9.12460e+00,-3.70221e+01,-1.22250e-02,2.37230e-02,4.28694e-02
1.94970e+03,7.78184e+00,-3.85029e+01,-1.04268e-02,2.32296e-02,4.15640e-02
1.94970e+03,6.05831e+00,-3.99838e+01,-7.94799e-03,2.27946e-02,4.02734e-02
1.94970e+03,3.72729e+00,-4.14647e+01,-4.38351e-03,2.25284e-02,3.92658e-02
1.94970e+03,-1.51027e+00,-4.29456e+01,4.37558e-03,2.26333e-02,3.94454e-02
1.94970e+03,-1.88827e+00,-4.29490e+01,5.04974e-03,2.29598e-02,4.00869e-02
1.94970e+03,-5.33209e+00,-4.14151e+01,1.18276e-02,2.35794e-02,4.25189e-02
1.94970e+03,-5.74905e+00,-3.98812e+01,1.31959e-02,2.40372e-02,4.36749e-02
1.94970e+03,-5.89293e+00,-3.83473e+01,1.40761e-02,2.45190e-02,4.47402e-02
1.94970e+03,-5.91477e+00,-3.68135e+01,1.47382e-02,2.50232e-02,4.57788e-02
1.94970e+03,-5.84465e+00,-3.52796e+01,1.52360e-02,2.55458e-02,4.67963e-02
1.94970e+03,-5.71682e+00,-3.37457e+01,1.56306e-02,2.60837e-02,4.78058e-02
1.94970e+03,-5.53106e+00,-3.22118e+01,1.59217e-02,2.66338e-02,4.88014e-02
1.94970e+03,-5.30995e+00,-3.06779e+01,1.61496e-02,2.71935e-02,4.97922e-02
1.94970e+03,-5.06834e+00,-2.91440e+01,1.63408e-02,2.77612e-02,5.07846e-02
1.94970e+03,-4.79584e+00,-2.76101e+01,1.64769e-02,2.83355e-02,5.17705e-02
1.94970e+03,-4.50405e+00,-2.60762e+01,1.65785e-02,2.89147e-02,5.27544e-02
1.94970e+03,-4.19345e+00,-2.45423e+01,1.66465e-02,2.94977e-02,5.37350e-02
1.94970e+03,-3.86414e+00,-2.30084e+01,1.66810e-02,3.00833e-02,5.47108e-02
1.94970e+03,-3.52308e+00,-2.14745e+01,1.66945e-02,3.06705e-02,5.56844e-02
1.94970e+03,-3.16699e+00,-1.99406e+01,1.66812e-02,3.12584e-02,5.66527e-02
1.94970e+03,-2.80126e+00,-1.84067e+01,1.66506e-02,3.18461e-02,5.76174e-02
1.94970e+03,-2.42690e+00,-1.68728e+01,1.66046e-02,3.24329e-02,5.85781e-02
1.94970e+03,-2.04484e+00,-1.53389e+01,1.65449e-02,3.30183e-02,5.95345e-02
1.94970e+03,-1.65951e+00,-1.38050e+01,1.64793e-02,3.36017e-02,6.04880e-02
1.94970e+03,-1.26912e+00,-1.22712e+01,1.64046e-02,3.41829e-02,6.14372e-02
1.94970e+03,-8.77888e-01,-1.07373e+01,1.63285e-02,3.47617e-02,6.23838e-02
1.94970e+03,-4.83637e-01,-9.20336e+00,1.62469e-02,3.53378e-02,6.33264e-02
1.94970e+03,-8.94260e-02,-7.66947e+00,1.61655e-02,3.59110e-02,6.42660e-02
1.94970e+03,3.03295e-01,-6.13558e+00,1.60867e-02,3.64814e-02,6.52032e-02
1.94970e+03,6.96016e-01,-4.60168e+00,1.60079e-02,3.70487e-02,6.61368e-02
1.94970e+03,1.07944e+00,-3.06779e+00,1.59457e-02,3.76134e-02,6.70714e-02
1.94970e+03,1.46113e+00,-1.53389e+00,1.58866e-02,3.81757e-02,6.80040e-02
1.98010e+03,1.80504e+01,0.00000e+00,-7.59717e-03,2.70929e-02,4.75374e-02
1.98010e+03,1.79595e+01,-1.37164e+00,-7.81147e-03,2.67440e-02,4.69760e-02
1.98010e+03,1.78386e+01,-2.74329e+00,-7.99766e-03,2.63865e-02,4.63973e-02
1.98010e+03,1.77165e+01,-4.11493e+00,-8.18273e-03,2.60209e-02,4.58063e-02
1.98010e+03,1.75678e+01,-5.48657e+00,-8.34299e-03,2.56478e-02,4.52000e-02
1.98010e+03,1.74130e+01,-6.85822e+00,-8.49749e-03,2.52678e-02,4.45824e-02
1.98010e+03,1.72378e+01,-8.22986e+00,-8.63294e-03,2.48814e-02,4.39521e-02
1.98010e+03,1.70528e+01,-9.60150e+00,-8.75915e-03,2.44892e-02,4.33116e-02
1.98010e+03,1.68514e+01,-1.09731e+01,-8.87006e-03,2.40917e-02,4.26604e-02
1.98010e+03,1.66366e+01,-1.23448e+01,-8.96839e-03,2.36895e-02,4.20001e-02
1.98010e+03,1.64070e+01,-1.37164e+01,-9.05290e-03,2.32830e-02,4.13309e-02
1.98010e+03,1.61595e+01,-1.50881e+01,-9.12067e-03,2.28727e-02,4.06531e-02
1.98010e+03,1.58938e+01,-1.64597e+01,-9.17131e-03,2.24593e-02,3.99672e-02
1.98010e+03,1.56020e+01,-1.78314e+01,-9.19767e-03,2.20434e-02,3.92726e-02
1.98010e+03,1.52851e+01,-1.92030e+01,-9.20040e-03,2.16259e-02,3.85706e-02
1.98010e+03,1.49379e+01,-2.05747e+01,-9.17487e-03,2.12074e-02,3.78607e-02
1.98010e+03,1.45498e+01,-2.19463e+01,-9.11106e-03,2.07892e-02,3.71428e-02
1.98010e+03,1.41333e+01,-2.33179e+01,-9.02062e-03,2.03718e-02,3.64199e-02
1.98010e+03,1.36527e+01,-2.46896e+01,-8.87027e-03,1.99574e-02,3.56872e-02
1.98010e+03,1.31457e+01,-2.60612e+01,-8.69508e-03,1.95469e-02,3.49550e-02
1.98010e+03,1.25646e+01,-2.74329e+01,-8.45071e-03,1.91414e-02,3.42140e-02
1.98010e+03,1.19244e+01,-2.88045e+01,-8.15088e-03,1.87443e-02,3.34736e-02
1.98010e+03,1.12238e+01,-3.01762e+01,-7.79462e-03,1.83562e-02,3.27354e-02
1.98010e+03,1.04220e+01,-3.15478e+01,-7.34364e-03,1.79786e-02,3.19941e-02
1.98010e+03,9.50303e+00,-3.29194e+01,-6.78295e-03,1.76161e-02,3.12568e-02
1.98010e+03,8.45151e+00,-3.42911e+01,-6.09825e-03,1.72729e-02,3.05328e-02
1.98010e+03,7.20780e+00,-3.56627e+01,-5.23368e-03,1.69520e-02,2.98246e-02
1.98010e+03,5.61141e+00,-3.70344e+01,-4.03905e-03,1.66691e-02,2.91529e-02
1.98010e+03,3.45234e+00,-3.84060e+01,-2.31783e-03,1.64961e-02,2.86659e-02
1.98010e+03,-1.39886e+00,-3.97777e+01,1.92287e-03,1.65644e-02,2.87547e-02
1.98010e+03,-1.74898e+00,-3.97808e+01,2.24983e-03,1.67769e-02,2.91454e-02
1.98010e+03,-4.93876e+00,-3.83601e+01,5.54513e-03,1.71800e-02,3.02689e-02
1.98010e+03,-5.32496e+00,-3.69394e+01,6.21666e-03,1.74779e-02,3.09043e-02
1.98010e+03,-5.45823e+00,-3.55186e+01,6.65148e-03,1.77913e-02,3.15252e-02
1.98010e+03,-5.47846e+00,-3.40979e+01,6.98049e-03,1.81193e-02,3.21505e-02
1.98010e+03,-5.41351e+00,-3.26771e+01,7.22980e-03,1.84593e-02,3.27797e-02
1.98010e+03,-5.29511e+00,-3.12564e+01,7.42909e-03,1.88092e-02,3.34148e-02
1.98010e+03,-5.12305e+00,-2.98356e+01,7.57816e-03,1.91671e-02,3.40523e-02
1.98010e+03,-4.91825e+00,-2.84149e+01,7.69659e-03,1.95312e-02,3.46935e-02
1.98010e+03,-4.69446e+00,-2.69941e+01,7.79724e-03,1.99005e-02,3.53396e-02
1.98010e+03,-4.44207e+00,-2.55734e+01,7.87113e-03,2.02740e-02,3.59870e-02
1.98010e+03,-4.17180e+00,-2.41527e+01,7.92828e-03,2.06508e-02,3.66364e-02
1.98010e+03,-3.88412e+00,-2.27319e+01,7.96915e-03,2.10301e-02,3.72867e-02
1.98010e+03,-3.57909e+00,-2.13112e+01,7.99378e-03,2.14110e-02,3.79367e-02
1.98010e+03,-3.26320e+00,-1.98904e+01,8.00823e-03,2.17929e-02,3.85866e-02
1.98010e+03,-2.93337e+00,-1.84697e+01,8.00965e-03,2.21753e-02,3.92350e-02
1.98010e+03,-2.59462e+00,-1.70489e+01,8.00272e-03,2.25575e-02,3.98820e-02
1.98010e+03,-2.24788e+00,-1.56282e+01,7.98831e-03,2.29393e-02,4.05270e-02
1.98010e+03,-1.89400e+00,-1.42074e+01,7.96721e-03,2.33200e-02,4.11697e-02
1.98010e+03,-1.53709e+00,-1.27867e+01,7.94329e-03,2.36995e-02,4.18102e-02
1.98010e+03,-1.17550e+00,-1.13660e+01,7.91498e-03,2.40775e-02,4.24478e-02
1.98010e+03,-8.13129e-01,-9.94521e+00,7.88594e-03,2.44539e-02,4.30832e-02
1.98010e+03,-4.47961e-01,-8.52447e+00,7.85429e-03,2.48285e-02,4.37156e-02
1.98010e+03,-8.28294e-02,-7.10372e+00,7.82266e-03,2.52013e-02,4.43454e-02
1.98010e+03,2.80922e-01,-5.68298e+00,7.79233e-03,2.55723e-02,4.49727e-02
1.98010e+03,6.44673e-01,-4.26223e+00,7.76200e-03,2.59413e-02,4.55971e-02
1.98010e+03,9.99811e-01,-2.84149e+00,7.73974e-03,2.63085e-02,4.62203e-02
1.98010e+03,1.35334e+00,-1.42074e+00,7.71897e-03,2.66741e-02,4.68414e-02
2.00520e+03,1.68635e+01,0.00000e+00,-2.96916e-03,1.70738e-02,2.97213e-02
2.00520e+03,1.67786e+01,-1.28145e+00,-3.05946e-03,1.68734e-02,2.93853e-02
2.00520e+03,1.66656e+01,-2.56290e+00,-3.13872e-03,1.66682e-02,2.90403e-02
2.00520e+03,1.65515e+01,-3.84435e+00,-3.21753e-03,1.64583e-02,2.86876e-02
2.00520e+03,1.64126e+01,-5.12580e+00,-3.28659e-03,1.62441e-02,2.83269e-02
2.00520e+03,1.62680e+01,-6.40725e+00,-3.35339e-03,1.60260e-02,2.79596e-02
2.00520e+03,1.61044e+01,-7.68870e+00,-3.41270e-03,1.58042e-02,2.75855e-02
2.00520e+03,1.59315e+01,-8.97015e+00,-3.46837e-03,1.55790e-02,2.72057e-02
2.00520e+03,1.57433e+01,-1.02516e+01,-3.51804e-03,1.53508e-02,2.68202e-02
2.00520e+03,1.55427e+01,-1.15330e+01,-3.56276e-03,1.51199e-02,2.64297e-02
2.00520e+03,1.53282e+01,-1.28145e+01,-3.60205e-03,1.48866e-02,2.60347e-02
2.00520e+03,1.50970e+01,-1.40959e+01,-3.63477e-03,1.46511e-02,2.56355e-02
2.00520e+03,1.48486e+01,-1.53774e+01,-3.66074e-03,1.44138e-02,2.52324e-02
2.00520e+03,1.45761e+01,-1.66588e+01,-3.67718e-03,1.41751e-02,2.48258e-02
2.00520e+03,1.42800e+01,-1.79403e+01,-3.68433e-03,1.39354e-02,2.44164e-02
2.00520e+03,1.39556e+01,-1.92217e+01,-3.68037e-03,1.36952e-02,2.40045e-02
2.00520e+03,1.35931e+01,-2.05032e+01,-3.66137e-03,1.34552e-02,2.35909e-02
2.00520e+03,1.32039e+01,-2.17846e+01,-3.63191e-03,1.32156e-02,2.31764e-02
2.00520e+03,1.27550e+01,-2.30661e+01,-3.57889e-03,1.29777e-02,2.27612e-02
2.00520e+03,1.22812e+01,-2.43475e+01,-3.51612e-03,1.27421e-02,2.23483e-02
2.00520e+03,1.17384e+01,-2.56290e+01,-3.42615e-03,1.25094e-02,2.19361e-02
2.00520e+03,1.11403e+01,-2.69104e+01,-3.31440e-03,1.22814e-02,2.15288e-02
2.00520e+03,1.04858e+01,-2.81919e+01,-3.18046e-03,1.20587e-02,2.11271e-02
2.00520e+03,9.73672e+00,-2.94733e+01,-3.00930e-03,1.18420e-02,2.07305e-02
2.00520e+03,8.87814e+00,-3.07548e+01,-2.79502e-03,1.16339e-02,2.03435e-02
2.00520e+03,7.89577e+00,-3.20362e+01,-2.53200e-03,1.14370e-02,1.99706e-02
2.00520e+03,6.73385e+00,-3.33177e+01,-2.19829e-03,1.12528e-02,1.96141e-02
2.00520e+03,5.24243e+00,-3.45991e+01,-1.73486e-03,1.10905e-02,1.92875e-02
2.00520e+03,3.22533e+00,-3.58806e+01,-1.06448e-03,1.09912e-02,1.90671e-02
2.00520e+03,-1.30688e+00,-3.71620e+01,5.96083e-04,1.10305e-02,1.91146e-02
2.00520e+03,-1.63397e+00,-3.71650e+01,7.24569e-04,1.11525e-02,1.93303e-02
2.00520e+03,-4.61400e+00,-3.58377e+01,2.02595e-03,1.13839e-02,1.98213e-02
2.00520e+03,-4.97481e+00,-3.45104e+01,2.29616e-03,1.15549e-02,2.01449e-02
2.00520e+03,-5.09932e+00,-3.31830e+01,2.47335e-03,1.17348e-02,2.04752e-02
2.00520e+03,-5.11821e+00,-3.18557e+01,2.60895e-03,1.19231e-02,2.08155e-02
2.00520e+03,-5.05754e+00,-3.05284e+01,2.71322e-03,1.21182e-02,2.11640e-02
2.00520e+03,-4.94693e+00,-2.92011e+01,2.79784e-03,1.23191e-02,2.15199e-02
2.00520e+03,-4.78618e+00,-2.78738e+01,2.86272e-03,1.25245e-02,2.18811e-02
2.00520e+03,-4.59485e+00,-2.65464e+01,2.91556e-03,1.27334e-02,2.22469e-02
2.00520e+03,-4.38577e+00,-2.52191e+01,2.96141e-03,1.29454e-02,2.26169e-02
2.00520e+03,-4.14998e+00,-2.38918e+01,2.99675e-03,1.31598e-02,2.29896e-02
2.00520e+03,-3.89748e+00,-2.25645e+01,3.02550e-03,1.33761e-02,2.33648e-02
2.00520e+03,-3.62871e+00,-2.12371e+01,3.04786e-03,1.35937e-02,2.37415e-02
2.00520e+03,-3.34375e+00,-1.99098e+01,3.06383e-03,1.38124e-02,2.41191e-02
2.00520e+03,-3.04862e+00,-1.85825e+01,3.07581e-03,1.40316e-02,2.44972e-02
2.00520e+03,-2.74048e+00,-1.72552e+01,3.08266e-03,1.42510e-02,2.48752e-02
2.00520e+03,-2.42401e+00,-1.59279e+01,3.08623e-03,1.44704e-02,2.52528e-02
2.00520e+03,-2.10007e+00,-1.46005e+01,3.08686e-03,1.46895e-02,2.56295e-02
2.00520e+03,-1.76946e+00,-1.32732e+01,3.08487e-03,1.49079e-02,2.60049e-02
2.00520e+03,-1.43602e+00,-1.19459e+01,3.08176e-03,1.51257e-02,2.63792e-02
2.00520e+03,-1.09820e+00,-1.06186e+01,3.07693e-03,1.53427e-02,2.67518e-02
2.00520e+03,-7.59661e-01,-9.29125e+00,3.07181e-03,1.55587e-02,2.71229e-02
2.00520e+03,-4.18505e-01,-7.96393e+00,3.06566e-03,1.57737e-02,2.74922e-02
2.00520e+03,-7.73829e-02,-6.63661e+00,3.05953e-03,1.59876e-02,2.78598e-02
2.00520e+03,2.62450e-01,-5.30929e+00,3.05390e-03,1.62005e-02,2.82257e-02
2.00520e+03,6.02282e-01,-3.98196e+00,3.04828e-03,1.64122e-02,2.85897e-02
2.00520e+03,9.34067e-01,-2.65464e+00,3.04582e-03,1.66229e-02,2.89524e-02
2.00520e+03,1.26435e+00,-1.32732e+00,3.04395e-03,1.68327e-02,2.93136e-02
2.02480e+03,1.59367e+01,0.00000e+00,-8.44324e-04,9.08160e-03,1.57524e-02
2.02480e+03,1.58564e+01,-1.21102e+00,-8.73088e-04,8.98705e-03,1.55905e-02
2.02480e+03,1.57496e+01,-2.42204e+00,-8.98683e-04,8.89020e-03,1.54245e-02
2.02480e+03,1.56418e+01,-3.63306e+00,-9.24151e-04,8.79115e-03,1.52547e-02
2.02480e+03,1.55106e+01,-4.84408e+00,-9.46822e-04,8.69007e-03,1.50814e-02
2.02480e+03,1.53739e+01,-6.05509e+00,-9.68843e-04,8.58713e-03,1.49049e-02
2.02480e+03,1.52192e+01,-7.26611e+00,-9.88717e-04,8.48246e-03,1.47253e-02
2.02480e+03,1.50559e+01,-8.47713e+00,-1.00755e-03,8.37622e-03,1.45430e-02
2.02480e+03,1.48781e+01,-9.68815e+00,-1.02465e-03,8.26854e-03,1.43581e-02
2.02480e+03,1.46884e+01,-1.08992e+01,-1.04034e-03,8.15958e-03,1.41710e-02
2.02480e+03,1.44857e+01,-1.21102e+01,-1.05447e-03,8.04946e-03,1.39819e-02
2.02480e+03,1.42672e+01,-1.33212e+01,-1.06672e-03,7.93835e-03,1.37909e-02
2.02480e+03,1.40325e+01,-1.45322e+01,-1.07703e-03,7.82637e-03,1.35984e-02
2.02480e+03,1.37750e+01,-1.57432e+01,-1.08460e-03,7.71372e-03,1.34045e-02
2.02480e+03,1.34951e+01,-1.69543e+01,-1.08951e-03,7.60064e-03,1.32097e-02
2.02480e+03,1.31886e+01,-1.81653e+01,-1.09123e-03,7.48727e-03,1.30142e-02
2.02480e+03,1.28460e+01,-1.93763e+01,-1.08864e-03,7.37403e-03,1.28185e-02
2.02480e+03,1.24782e+01,-2.05873e+01,-1.08305e-03,7.26098e-03,1.26229e-02
2.02480e+03,1.20540e+01,-2.17983e+01,-1.07070e-03,7.14875e-03,1.24282e-02
2.02480e+03,1.16063e+01,-2.30094e+01,-1.05555e-03,7.03758e-03,1.22351e-02
2.02480e+03,1.10933e+01,-2.42204e+01,-1.03259e-03,6.92776e-03,1.20436e-02
2.02480e+03,1.05280e+01,-2.54314e+01,-1.00339e-03,6.82021e-03,1.18555e-02
2.02480e+03,9.90946e+00,-2.66424e+01,-9.67825e-04,6.71512e-03,1.16711e-02
2.02480e+03,9.20158e+00,-2.78534e+01,-9.21580e-04,6.61287e-03,1.14908e-02
2.02480e+03,8.39019e+00,-2.90645e+01,-8.62965e-04,6.51469e-03,1.13167e-02
2.02480e+03,7.46181e+00,-3.02755e+01,-7.90367e-04,6.42178e-03,1.11509e-02
2.02480e+03,6.36374e+00,-3.14865e+01,-6.97490e-04,6.33490e-03,1.09945e-02
2.02480e+03,4.95429e+00,-3.26975e+01,-5.67399e-04,6.25831e-03,1.08545e-02
2.02480e+03,3.04806e+00,-3.39085e+01,-3.77936e-04,6.21150e-03,1.07653e-02
2.02480e+03,-1.23505e+00,-3.51195e+01,9.55952e-05,6.23004e-03,1.07912e-02
2.02480e+03,-1.54416e+00,-3.51224e+01,1.32449e-04,6.28762e-03,1.08913e-02
2.02480e+03,-4.36041e+00,-3.38680e+01,5.08756e-04,6.39683e-03,1.10913e-02
2.02480e+03,-4.70139e+00,-3.26136e+01,5.89236e-04,6.47751e-03,1.12348e-02
2.02480e+03,-4.81905e+00,-3.13592e+01,6.43027e-04,6.56242e-03,1.13846e-02
2.02480e+03,-4.83691e+00,-3.01049e+01,6.84890e-04,6.65125e-03,1.15407e-02
2.02480e+03,-4.77957e+00,-2.88505e+01,7.17766e-04,6.74333e-03,1.17018e-02
2.02480e+03,-4.67504e+00,-2.75961e+01,7.45002e-04,6.83811e-03,1.18674e-02
2.02480e+03,-4.52312e+00,-2.63418e+01,7.66575e-04,6.93503e-03,1.20363e-02
2.02480e+03,-4.34231e+00,-2.50874e+01,7.84694e-04,7.03363e-03,1.22078e-02
2.02480e+03,-4.14473e+00,-2.38330e+01,8.00810e-04,7.13365e-03,1.23818e-02
2.02480e+03,-3.92189e+00,-2.25787e+01,8.13907e-04,7.23481e-03,1.25575e-02
2.02480e+03,-3.68327e+00,-2.13243e+01,8.25118e-04,7.33684e-03,1.27345e-02
2.02480e+03,-3.42927e+00,-2.00699e+01,8.34491e-04,7.43955e-03,1.29127e-02
2.02480e+03,-3.15997e+00,-1.88155e+01,8.42035e-04,7.54269e-03,1.30914e-02
2.02480e+03,-2.88106e+00,-1.75612e+01,8.48431e-04,7.64612e-03,1.32706e-02
2.02480e+03,-2.58986e+00,-1.63068e+01,8.53357e-04,7.74966e-03,1.34499e-02
2.02480e+03,-2.29078e+00,-1.50524e+01,8.57343e-04,7.85316e-03,1.36291e-02
2.02480e+03,-1.98465e+00,-1.37981e+01,8.60484e-04,7.95651e-03,1.38079e-02
2.02480e+03,-1.67220e+00,-1.25437e+01,8.62872e-04,8.05959e-03,1.39863e-02
2.02480e+03,-1.35709e+00,-1.12893e+01,8.64941e-04,8.16234e-03,1.41640e-02
2.02480e+03,-1.03784e+00,-1.00350e+01,8.66516e-04,8.26468e-03,1.43411e-02
2.02480e+03,-7.17909e-01,-8.78059e+00,8.68008e-04,8.36659e-03,1.45173e-02
2.02480e+03,-3.95503e-01,-7.52622e+00,8.69206e-04,8.46802e-03,1.46928e-02
2.02480e+03,-7.31298e-02,-6.27185e+00,8.70407e-04,8.56894e-03,1.48673e-02
2.02480e+03,2.48025e-01,-5.01748e+00,8.71754e-04,8.66937e-03,1.50411e-02
2.02480e+03,5.69180e-01,-3.76311e+00,8.73101e-04,8.76925e-03,1.52139e-02
2.02480e+03,8.82730e-01,-2.50874e+00,8.75356e-04,8.86866e-03,1.53859e-02
2.02480e+03,1.19486e+00,-1.25437e+00,8.77781e-04,8.96764e-03,1.55572e-02
2.03880e+03,1.52746e+01,0.00000e+00,-1.44974e-04,3.44061e-03,5.96108e-03
2.03880e+03,1.51977e+01,-1.16071e+00,-1.50770e-04,3.40851e-03,5.90564e-03
2.03880e+03,1.50954e+01,-2.32142e+00,-1.56014e-04,3.37562e-03,5.84883e-03
2.03880e+03,1.49920e+01,-3.48213e+00,-1.61237e-04,3.34198e-03,5.79073e-03
2.03880e+03,1.48662e+01,-4.64285e+00,-1.65972e-04,3.30766e-03,5.73144e-03
2.03880e+03,1.47352e+01,-5.80356e+00,-1.70595e-04,3.27271e-03,5.67106e-03
2.03880e+03,1.45870e+01,-6.96427e+00,-1.74843e-04,3.23716e-03,5.60966e-03
2.03880e+03,1.44304e+01,-8.12498e+00,-1.78910e-04,3.20109e-03,5.54733e-03
2.03880e+03,1.42600e+01,-9.28569e+00,-1.82677e-04,3.16453e-03,5.48416e-03
2.03880e+03,1.40782e+01,-1.04464e+01,-1.86197e-04,3.12753e-03,5.42024e-03
2.03880e+03,1.38839e+01,-1.16071e+01,-1.89446e-04,3.09014e-03,5.35563e-03
2.03880e+03,1.36745e+01,-1.27678e+01,-1.92366e-04,3.05241e-03,5.29042e-03
2.03880e+03,1.34496e+01,-1.39285e+01,-1.94949e-04,3.01439e-03,5.22471e-03
2.03880e+03,1.32028e+01,-1.50892e+01,-1.97057e-04,2.97614e-03,5.15859e-03
2.03880e+03,1.29345e+01,-1.62500e+01,-1.98700e-04,2.93774e-03,5.09220e-03
2.03880e+03,1.26407e+01,-1.74107e+01,-1.99789e-04,2.89925e-03,5.02562e-03
2.03880e+03,1.23123e+01,-1.85714e+01,-2.00126e-04,2.86080e-03,4.95909e-03
2.03880e+03,1.19599e+01,-1.97321e+01,-1.99941e-04,2.82242e-03,4.89265e-03
2.03880e+03,1.15532e+01,-2.08928e+01,-1.98580e-04,2.78431e-03,4.82665e-03
2.03880e+03,1.11241e+01,-2.20535e+01,-1.96731e-04,2.74656e-03,4.76125e-03
2.03880e+03,1.06324e+01,-2.32142e+01,-1.93524e-04,2.70928e-03,4.69659e-03
2.03880e+03,1.00906e+01,-2.43749e+01,-1.89228e-04,2.67276e-03,4.63322e-03
2.03880e+03,9.49781e+00,-2.55357e+01,-1.83826e-04,2.63708e-03,4.57125e-03
2.03880e+03,8.81933e+00,-2.66964e+01,-1.76563e-04,2.60236e-03,4.51088e-03
2.03880e+03,8.04165e+00,-2.78571e+01,-1.67148e-04,2.56903e-03,4.45283e-03
2.03880e+03,7.15183e+00,-2.90178e+01,-1.55298e-04,2.53749e-03,4.39780e-03
2.03880e+03,6.09938e+00,-3.01785e+01,-1.39918e-04,2.50799e-03,4.34622e-03
2.03880e+03,4.74849e+00,-3.13392e+01,-1.18059e-04,2.48199e-03,4.30055e-03
2.03880e+03,2.92144e+00,-3.24999e+01,-8.58642e-05,2.46610e-03,4.27228e-03
2.03880e+03,-1.18374e+00,-3.36606e+01,-4.21624e-06,2.47240e-03,4.28233e-03
2.03880e+03,-1.48002e+00,-3.36633e+01,2.19784e-06,2.49196e-03,4.31619e-03
2.03880e+03,-4.17927e+00,-3.24611e+01,6.85258e-05,2.52904e-03,4.38096e-03
2.03880e+03,-4.50609e+00,-3.12588e+01,8.33535e-05,2.55643e-03,4.42866e-03
2.03880e+03,-4.61886e+00,-3.00565e+01,9.35350e-05,2.58526e-03,4.47878e-03
2.03880e+03,-4.63598e+00,-2.88543e+01,1.01640e-04,2.61543e-03,4.53119e-03
2.03880e+03,-4.58102e+00,-2.76520e+01,1.08180e-04,2.64669e-03,4.58548e-03
2.03880e+03,-4.48083e+00,-2.64498e+01,1.13739e-04,2.67887e-03,4.64134e-03
2.03880e+03,-4.33523e+00,-2.52475e+01,1.18311e-04,2.71178e-03,4.69843e-03
2.03880e+03,-4.16192e+00,-2.40452e+01,1.22282e-04,2.74526e-03,4.75650e-03
2.03880e+03,-3.97255e+00,-2.28430e+01,1.25905e-04,2.77922e-03,4.81539e-03
2.03880e+03,-3.75897e+00,-2.16407e+01,1.29002e-04,2.81357e-03,4.87495e-03
2.03880e+03,-3.53026e+00,-2.04384e+01,1.31771e-04,2.84821e-03,4.93500e-03
2.03880e+03,-3.28682e+00,-1.92362e+01,1.34219e-04,2.88308e-03,4.99544e-03
2.03880e+03,-3.02870e+00,-1.80339e+01,1.36350e-04,2.91810e-03,5.05613e-03
2.03880e+03,-2.76138e+00,-1.68317e+01,1.38280e-04,2.95321e-03,5.11698e-03
2.03880e+03,-2.48228e+00,-1.56294e+01,1.39955e-04,2.98837e-03,5.17789e-03
2.03880e+03,-2.19562e+00,-1.44271e+01,1.41465e-04,3.02351e-03,5.23878e-03
2.03880e+03,-1.90220e+00,-1.32249e+01,1.42829e-04,3.05860e-03,5.29957e-03
2.03880e+03,-1.60274e+00,-1.20226e+01,1.44062e-04,3.09359e-03,5.36020e-03
2.03880e+03,-1.30072e+00,-1.08204e+01,1.45239e-04,3.12848e-03,5.42062e-03
2.03880e+03,-9.94731e-01,-9.61809e+00,1.46330e-04,3.16322e-03,5.48081e-03
2.03880e+03,-6.88086e-01,-8.41583e+00,1.47407e-04,3.19782e-03,5.54074e-03
2.03880e+03,-3.79073e-01,-7.21357e+00,1.48432e-04,3.23225e-03,5.60039e-03
2.03880e+03,-7.00919e-02,-6.01131e+00,1.49458e-04,3.26652e-03,5.65974e-03
2.03880e+03,2.37722e-01,-4.80905e+00,1.50510e-04,3.30061e-03,5.71880e-03
2.03880e+03,5.45535e-01,-3.60678e+00,1.51561e-04,3.33452e-03,5.77754e-03
2.03880e+03,8.46060e-01,-2.40452e+00,1.52771e-04,3.36827e-03,5.83601e-03
2.03880e+03,1.14523e+00,-1.20226e+00,1.54010e-04,3.40187e-03,5.89422e-03
2.04720e+03,1.48774e+01,0.00000e+00,-1.70183e-05,6.37943e-04,1.10508e-03
2.04720e+03,1.48025e+01,-1.13053e+00,-1.78677e-05,6.33147e-04,1.09679e-03
2.04720e+03,1.47028e+01,-2.26105e+00,-1.86509e-05,6.28234e-04,1.08829e-03
2.04720e+03,1.46021e+01,-3.39158e+00,-1.94314e-05,6.23209e-04,1.07960e-03
2.04720e+03,1.44796e+01,-4.52211e+00,-2.01534e-05,6.18082e-04,1.07074e-03
2.04720e+03,1.43520e+01,-5.65264e+00,-2.08619e-05,6.12860e-04,1.06171e-03
2.04720e+03,1.42077e+01,-6.78316e+00,-2.15254e-05,6.07550e-04,1.05253e-03
2.04720e+03,1.40552e+01,-7.91369e+00,-2.21672e-05,6.02161e-04,1.04321e-03
2.04720e+03,1.38892e+01,-9.04422e+00,-2.27729e-05,5.96699e-04,1.03376e-03
2.04720e+03,1.37121e+01,-1.01747e+01,-2.33490e-05,5.91172e-04,1.02421e-03
2.04720e+03,1.35229e+01,-1.13053e+01,-2.38925e-05,5.85587e-04,1.01455e-03
2.04720e+03,1.33189e+01,-1.24358e+01,-2.43965e-05,5.79951e-04,1.00480e-03
2.04720e+03,1.30998e+01,-1.35663e+01,-2.48601e-05,5.74271e-04,9.94977e-04
2.04720e+03,1.28594e+01,-1.46969e+01,-2.52666e-05,5.68558e-04,9.85095e-04
2.04720e+03,1.25982e+01,-1.58274e+01,-2.56173e-05,5.62822e-04,9.75172e-04
2.04720e+03,1.23120e+01,-1.69579e+01,-2.59014e-05,5.57072e-04,9.65224e-04
2.04720e+03,1.19922e+01,-1.80884e+01,-2.60953e-05,5.51328e-04,9.55284e-04
2.04720e+03,1.16489e+01,-1.92190e+01,-2.62265e-05,5.45594e-04,9.45361e-04
2.04720e+03,1.12528e+01,-2.03495e+01,-2.62164e-05,5.39902e-04,9.35505e-04
2.04720e+03,1.08348e+01,-2.14800e+01,-2.61477e-05,5.34263e-04,9.25741e-04
2.04720e+03,1.03559e+01,-2.26105e+01,-2.59160e-05,5.28694e-04,9.16091e-04
2.04720e+03,9.82823e+00,-2.37411e+01,-2.55536e-05,5.23239e-04,9.06637e-04
2.04720e+03,9.25081e+00,-2.48716e+01,-2.50582e-05,5.17909e-04,8.97395e-04
2.04720e+03,8.58998e+00,-2.60021e+01,-2.43395e-05,5.12724e-04,8.88397e-04
2.04720e+03,7.83252e+00,-2.71326e+01,-2.33622e-05,5.07745e-04,8.79750e-04
2.04720e+03,6.96585e+00,-2.82632e+01,-2.20927e-05,5.03033e-04,8.71558e-04
2.04720e+03,5.94077e+00,-2.93937e+01,-2.03991e-05,4.98627e-04,8.63888e-04
2.04720e+03,4.62500e+00,-3.05242e+01,-1.79276e-05,4.94743e-04,8.57108e-04
2.04720e+03,2.84547e+00,-3.16548e+01,-1.42150e-05,4.92371e-04,8.52930e-04
2.04720e+03,-1.15296e+00,-3.27853e+01,-4.56376e-06,4.93312e-04,8.54454e-04
2.04720e+03,-1.44153e+00,-3.27879e+01,-3.79389e-06,4.96233e-04,8.59510e-04
2.04720e+03,-4.07059e+00,-3.16169e+01,4.32988e-06,5.01773e-04,8.69107e-04
2.04720e+03,-4.38891e+00,-3.04459e+01,6.26932e-06,5.05866e-04,8.76207e-04
2.04720e+03,-4.49875e+00,-2.92749e+01,7.65082e-06,5.10172e-04,8.83677e-04
2.04720e+03,-4.51542e+00,-2.81039e+01,8.78295e-06,5.14678e-04,8.91492e-04
2.04720e+03,-4.46189e+00,-2.69329e+01,9.72720e-06,5.19348e-04,8.99590e-04
2.04720e+03,-4.36430e+00,-2.57619e+01,1.05536e-05,5.24155e-04,9.07925e-04
2.04720e+03,-4.22249e+00,-2.45909e+01,1.12615e-05,5.29071e-04,9.16448e-04
2.04720e+03,-4.05369e+00,-2.34199e+01,1.18973e-05,5.34072e-04,9.25117e-04
2.04720e+03,-3.86924e+00,-2.22489e+01,1.24912e-05,5.39145e-04,9.33910e-04
2.04720e+03,-3.66121e+00,-2.10779e+01,1.30219e-05,5.44276e-04,9.42803e-04
2.04720e+03,-3.43845e+00,-1.99069e+01,1.35133e-05,5.49451e-04,9.51772e-04
2.04720e+03,-3.20134e+00,-1.87359e+01,1.39662e-05,5.54659e-04,9.60800e-04
2.04720e+03,-2.94994e+00,-1.75649e+01,1.43809e-05,5.59890e-04,9.69865e-04
2.04720e+03,-2.68957e+00,-1.63940e+01,1.47716e-05,5.65136e-04,9.78955e-04
2.04720e+03,-2.41772e+00,-1.52230e+01,1.51315e-05,5.70387e-04,9.88054e-04
2.04720e+03,-2.13852e+00,-1.40520e+01,1.54718e-05,5.75636e-04,9.97150e-04
2.04720e+03,-1.85273e+00,-1.28810e+01,1.57945e-05,5.80877e-04,1.00623e-03
2.04720e+03,-1.56106e+00,-1.17100e+01,1.61014e-05,5.86105e-04,1.01529e-03
2.04720e+03,-1.26689e+00,-1.05390e+01,1.64016e-05,5.91315e-04,1.02432e-03
2.04720e+03,-9.68863e-01,-9.36797e+00,1.66915e-05,5.96505e-04,1.03331e-03
2.04720e+03,-6.70192e-01,-8.19698e+00,1.69797e-05,6.01672e-04,1.04227e-03
2.04720e+03,-3.69215e-01,-7.02598e+00,1.72617e-05,6.06816e-04,1.05118e-03
2.04720e+03,-6.82691e-02,-5.85498e+00,1.75438e-05,6.11934e-04,1.06005e-03
2.04720e+03,2.31540e-01,-4.68399e+00,1.78289e-05,6.17026e-04,1.06887e-03
2.04720e+03,5.31348e-01,-3.51299e+00,1.81140e-05,6.22091e-04,1.07765e-03
2.04720e+03,8.24058e-01,-2.34199e+00,1.84182e-05,6.27132e-04,1.08638e-03
2.04720e+03,1.11544e+00,-1.17100e+00,1.87259e-05,6.32151e-04,1.09508e-03
2.05000e+03,1.47450e+01,0.00000e+00,0.00000e+00,0.00000e+00,0.00000e+00
2.05000e+03,1.46708e+01,-1.12047e+00,0.00000e+00,0.00000e+00,0.00000e+00
2.05000e+03,1.45720e+01,-2.24093e+00,0.00000e+00,0.00000e+00,0.00000e+00
2.05000e+03,1.44722e+01,-3.36140e+00,0.00000e+00,0.00000e+00,0.00000e+00
2.05000e+03,1.43508e+01,-4.48186e+00,0.00000e+00,0.00000e+00,0.00000e+00
2.05000e+03,1.42243e+01,-5.60233e+00,0.00000e+00,0.00000e+00,0.00000e+00
2.05000e+03,1.40812e+01,-6.72279e+00,0.00000e+00,0.00000e+00,0.00000e+00
2.05000e+03,1.39301e+01,-7.84326e+00,0.00000e+00,0.00000e+00,0.00000e+00
2.05000e+03,1.37656e+01,-8.96372e+00,0.00000e+00,0.00000e+00,0.00000e+00
2.05000e+03,1.35901e+01,-1.00842e+01,0.00000e+00,0.00000e+00,0.00000e+00
2.05000e+03,1.34025e+01,-1.12047e+01,0.00000e+00,0.00000e+00,0.00000e+00
2.05000e+03,1.32004e+01,-1.23251e+01,0.00000e+00,0.00000e+00,0.00000e+00
2.05000e+03,1.29833e+01,-1.34456e+01,0.00000e+00,0.00000e+00,0.00000e+00
2.05000e+03,1.27450e+01,-1.45661e+01,0.00000e+00,0.00000e+00,0.00000e+00
2.05000e+03,1.24860e+01,-1.56865e+01,0.00000e+00,0.00000e+00,0.00000e+00
2.05000e+03,1.22024e+01,-1.68070e+01,0.00000e+00,0.00000e+00,0.00000e+00
2.05000e+03,1.18854e+01,-1.79274e+01,0.00000e+00,0.00000e+00,0.00000e+00
2.05000e+03,1.15452e+01,-1.90479e+01,0.00000e+00,0.00000e+00,0.00000e+00
2.05000e+03,1.11526e+01,-2.01684e+01,0.00000e+00,0.00000e+00,0.00000e+00
2.05000e+03,1.07384e+01,-2.12888e+01,0.00000e+00,0.00000e+00,0.00000e+00
2.05000e+03,1.02638e+01,-2.24093e+01,0.00000e+00,0.00000e+00,0.00000e+00
2.05000e+03,9.74076e+00,-2.35298e+01,0.00000e+00,0.00000e+00,0.00000e+00
2.05000e+03,9.16848e+00,-2.46502e+01,0.00000e+00,0.00000e+00,0.00000e+00
2.05000e+03,8.51353e+00,-2.57707e+01,0.00000e+00,0.00000e+00,0.00000e+00
2.05000e+03,7.76281e+00,-2.68912e+01,0.00000e+00,0.00000e+00,0.00000e+00
2.05000e+03,6.90385e+00,-2.80116e+01,0.00000e+00,0.00000e+00,0.00000e+00
2.05000e+03,5.88790e+00,-2.91321e+01,0.00000e+00,0.00000e+00,0.00000e+00
2.05000e+03,4.58384e+00,-3.02526e+01,0.00000e+00,0.00000e+00,0.00000e+00
2.05000e+03,2.82014e+00,-3.13730e+01,0.00000e+00,0.00000e+00,0.00000e+00
2.05000e+03,-1.14270e+00,-3.24935e+01,0.00000e+00,0.00000e+00,0.00000e+00
2.05000e+03,-1.42870e+00,-3.24961e+01,0.00000e+00,0.00000e+00,0.00000e+00
2.05000e+03,-4.03436e+00,-3.13355e+01,0.00000e+00,0.00000e+00,0.00000e+00
2.05000e+03,-4.34985e+00,-3.01749e+01,0.00000e+00,0.00000e+00,0.00000e+00
2.05000e+03,-4.45871e+00,-2.90144e+01,0.00000e+00,0.00000e+00,0.00000e+00
2.05000e+03,-4.47523e+00,-2.78538e+01,0.00000e+00,0.00000e+00,0.00000e+00
2.05000e+03,-4.42218e+00,-2.66932e+01,0.00000e+00,0.00000e+00,0.00000e+00
2.05000e+03,-4.32546e+00,-2.55327e+01,0.00000e+00,0.00000e+00,0.00000e+00
2.05000e+03,-4.18491e+00,-2.43721e+01,0.00000e+00,0.00000e+00,0.00000e+00
2.05000e+03,-4.01761e+00,-2.32115e+01,0.00000e+00,0.00000e+00,0.00000e+00
2.05000e+03,-3.83480e+00,-2.20509e+01,0.00000e+00,0.00000e+00,0.00000e+00
2.05000e+03,-3.62863e+00,-2.08903e+01,0.00000e+00,0.00000e+00,0.00000e+00
2.05000e+03,-3.40785e+00,-1.97298e+01,0.00000e+00,0.00000e+00,0.00000e+00
2.05000e+03,-3.17285e+00,-1.85692e+01,0.00000e+00,0.00000e+00,0.00000e+00
2.05000e+03,-2.92368e+00,-1.74086e+01,0.00000e+00,0.00000e+00,0.00000e+00
2.05000e+03,-2.66563e+00,-1.62480e+01,0.00000e+00,0.00000e+00,0.00000e+00
2.05000e+03,-2.39621e+00,-1.50875e+01,0.00000e+00,0.00000e+00,0.00000e+00
2.05000e+03,-2.11949e+00,-1.39269e+01,0.00000e+00,0.00000e+00,0.00000e+00
2.05000e+03,-1.83624e+00,-1.27663e+01,0.00000e+00,0.00000e+00,0.00000e+00
2.05000e+03,-1.54717e+00,-1.16057e+01,0.00000e+00,0.00000e+00,0.00000e+00
2.05000e+03,-1.25562e+00,-1.04452e+01,0.00000e+00,0.00000e+00,0.00000e+00
2.05000e+03,-9.60241e-01,-9.28460e+00,0.00000e+00,0.00000e+00,0.00000e+00
2.05000e+03,-6.64227e-01,-8.12402e+00,0.00000e+00,0.00000e+00,0.00000e+00
2.05000e+03,-3.65929e-01,-6.96345e+00,0.00000e+00,0.00000e+00,0.00000e+00
2.05000e+03,-6.76615e-02,-5.80287e+00,0.00000e+00,0.00000e+00,0.00000e+00
2.05000e+03,2.29479e-01,-4.64230e+00,0.00000e+00,0.00000e+00,0.00000e+00
2.05000e+03,5.26620e-01,-3.48173e+00,0.00000e+00,0.00000e+00,0.00000e+00
2.05000e+03,8.16724e-01,-2.32115e+00,0.00000e+00,0.00000e+00,0.00000e+00
2.05000e+03,1.10552e+00,-1.16058e+00,0.00000e+00,0.00000e+00,0.00000e+00
--------------------------------------------------------------------------------------------------------------------------------------------------------------------------------------------------------------------------------------------------------------------------------------------------------------------------------------------------------------------------------

LAMINADO 
--------------------------------------------------------------------------------------------------------------------------------------------------------------------------------------------------------------------------------------------------------------------------------------------------------------------------------------------------------------------------------
X,Y,Z,Sigma,Tau,Von Mises
0.00000e+00,4.31008e+01,0.00000e+00,0.00000e+00,0.00000e+00,0.00000e+00
0.00000e+00,4.28837e+01,-3.27521e+00,0.00000e+00,0.00000e+00,0.00000e+00
0.00000e+00,4.25950e+01,-6.55041e+00,0.00000e+00,0.00000e+00,0.00000e+00
0.00000e+00,4.23033e+01,-9.82562e+00,0.00000e+00,0.00000e+00,0.00000e+00
0.00000e+00,4.19484e+01,-1.31008e+01,0.00000e+00,0.00000e+00,0.00000e+00
0.00000e+00,4.15787e+01,-1.63760e+01,0.00000e+00,0.00000e+00,0.00000e+00
0.00000e+00,4.11605e+01,-1.96512e+01,0.00000e+00,0.00000e+00,0.00000e+00
0.00000e+00,4.07187e+01,-2.29264e+01,0.00000e+00,0.00000e+00,0.00000e+00
0.00000e+00,4.02378e+01,-2.62017e+01,0.00000e+00,0.00000e+00,0.00000e+00
0.00000e+00,3.97249e+01,-2.94769e+01,0.00000e+00,0.00000e+00,0.00000e+00
0.00000e+00,3.91766e+01,-3.27521e+01,0.00000e+00,0.00000e+00,0.00000e+00
0.00000e+00,3.85857e+01,-3.60273e+01,0.00000e+00,0.00000e+00,0.00000e+00
0.00000e+00,3.79511e+01,-3.93025e+01,0.00000e+00,0.00000e+00,0.00000e+00
0.00000e+00,3.72545e+01,-4.25777e+01,0.00000e+00,0.00000e+00,0.00000e+00
0.00000e+00,3.64976e+01,-4.58529e+01,0.00000e+00,0.00000e+00,0.00000e+00
0.00000e+00,3.56687e+01,-4.91281e+01,0.00000e+00,0.00000e+00,0.00000e+00
0.00000e+00,3.47420e+01,-5.24033e+01,0.00000e+00,0.00000e+00,0.00000e+00
0.00000e+00,3.37474e+01,-5.56785e+01,0.00000e+00,0.00000e+00,0.00000e+00
0.00000e+00,3.26000e+01,-5.89537e+01,0.00000e+00,0.00000e+00,0.00000e+00
0.00000e+00,3.13892e+01,-6.22289e+01,0.00000e+00,0.00000e+00,0.00000e+00
0.00000e+00,3.00018e+01,-6.55041e+01,0.00000e+00,0.00000e+00,0.00000e+00
0.00000e+00,2.84730e+01,-6.87793e+01,0.00000e+00,0.00000e+00,0.00000e+00
0.00000e+00,2.68002e+01,-7.20546e+01,0.00000e+00,0.00000e+00,0.00000e+00
0.00000e+00,2.48857e+01,-7.53298e+01,0.00000e+00,0.00000e+00,0.00000e+00
0.00000e+00,2.26913e+01,-7.86050e+01,0.00000e+00,0.00000e+00,0.00000e+00
0.00000e+00,2.01805e+01,-8.18802e+01,0.00000e+00,0.00000e+00,0.00000e+00
0.00000e+00,1.72108e+01,-8.51554e+01,0.00000e+00,0.00000e+00,0.00000e+00
0.00000e+00,1.33989e+01,-8.84306e+01,0.00000e+00,0.00000e+00,0.00000e+00
0.00000e+00,8.24350e+00,-9.17058e+01,0.00000e+00,0.00000e+00,0.00000e+00
0.00000e+00,-3.34020e+00,-9.49810e+01,0.00000e+00,0.00000e+00,0.00000e+00
0.00000e+00,-4.17620e+00,-9.49886e+01,0.00000e+00,0.00000e+00,0.00000e+00
0.00000e+00,-1.17928e+01,-9.15961e+01,0.00000e+00,0.00000e+00,0.00000e+00
0.00000e+00,-1.27149e+01,-8.82037e+01,0.00000e+00,0.00000e+00,0.00000e+00
0.00000e+00,-1.30332e+01,-8.48113e+01,0.00000e+00,0.00000e+00,0.00000e+00
0.00000e+00,-1.30814e+01,-8.14188e+01,0.00000e+00,0.00000e+00,0.00000e+00
0.00000e+00,-1.29264e+01,-7.80264e+01,0.00000e+00,0.00000e+00,0.00000e+00
0.00000e+00,-1.26437e+01,-7.46339e+01,0.00000e+00,0.00000e+00,0.00000e+00
0.00000e+00,-1.22328e+01,-7.12415e+01,0.00000e+00,0.00000e+00,0.00000e+00
0.00000e+00,-1.17438e+01,-6.78490e+01,0.00000e+00,0.00000e+00,0.00000e+00
0.00000e+00,-1.12094e+01,-6.44565e+01,0.00000e+00,0.00000e+00,0.00000e+00
0.00000e+00,-1.06068e+01,-6.10641e+01,0.00000e+00,0.00000e+00,0.00000e+00
0.00000e+00,-9.96142e+00,-5.76716e+01,0.00000e+00,0.00000e+00,0.00000e+00
0.00000e+00,-9.27449e+00,-5.42792e+01,0.00000e+00,0.00000e+00,0.00000e+00
0.00000e+00,-8.54615e+00,-5.08867e+01,0.00000e+00,0.00000e+00,0.00000e+00
0.00000e+00,-7.79185e+00,-4.74943e+01,0.00000e+00,0.00000e+00,0.00000e+00
0.00000e+00,-7.00429e+00,-4.41018e+01,0.00000e+00,0.00000e+00,0.00000e+00
0.00000e+00,-6.19544e+00,-4.07094e+01,0.00000e+00,0.00000e+00,0.00000e+00
0.00000e+00,-5.36748e+00,-3.73169e+01,0.00000e+00,0.00000e+00,0.00000e+00
0.00000e+00,-4.52248e+00,-3.39245e+01,0.00000e+00,0.00000e+00,0.00000e+00
0.00000e+00,-3.67026e+00,-3.05320e+01,0.00000e+00,0.00000e+00,0.00000e+00
0.00000e+00,-2.80686e+00,-2.71396e+01,0.00000e+00,0.00000e+00,0.00000e+00
0.00000e+00,-1.94159e+00,-2.37472e+01,0.00000e+00,0.00000e+00,0.00000e+00
0.00000e+00,-1.06964e+00,-2.03547e+01,0.00000e+00,0.00000e+00,0.00000e+00
0.00000e+00,-1.97780e-01,-1.69622e+01,0.00000e+00,0.00000e+00,0.00000e+00
0.00000e+00,6.70785e-01,-1.35698e+01,0.00000e+00,0.00000e+00,0.00000e+00
0.00000e+00,1.53935e+00,-1.01774e+01,0.00000e+00,0.00000e+00,0.00000e+00
0.00000e+00,2.38735e+00,-6.78490e+00,0.00000e+00,0.00000e+00,0.00000e+00
0.00000e+00,3.23151e+00,-3.39245e+00,0.00000e+00,0.00000e+00,0.00000e+00
1.07300e+02,4.26785e+01,0.00000e+00,0.00000e+00,0.00000e+00,0.00000e+00
1.07300e+02,4.24636e+01,-3.24312e+00,0.00000e+00,0.00000e+00,0.00000e+00
1.07300e+02,4.21777e+01,-6.48624e+00,0.00000e+00,0.00000e+00,0.00000e+00
1.07300e+02,4.18889e+01,-9.72936e+00,0.00000e+00,0.00000e+00,0.00000e+00
1.07300e+02,4.15374e+01,-1.29725e+01,0.00000e+00,0.00000e+00,0.00000e+00
1.07300e+02,4.11714e+01,-1.62156e+01,0.00000e+00,0.00000e+00,0.00000e+00
1.07300e+02,4.07572e+01,-1.94587e+01,0.00000e+00,0.00000e+00,0.00000e+00
1.07300e+02,4.03197e+01,-2.27018e+01,0.00000e+00,0.00000e+00,0.00000e+00
1.07300e+02,3.98436e+01,-2.59450e+01,0.00000e+00,0.00000e+00,0.00000e+00
1.07300e+02,3.93357e+01,-2.91881e+01,0.00000e+00,0.00000e+00,0.00000e+00
1.07300e+02,3.87928e+01,-3.24312e+01,0.00000e+00,0.00000e+00,0.00000e+00
1.07300e+02,3.82077e+01,-3.56743e+01,0.00000e+00,0.00000e+00,0.00000e+00
1.07300e+02,3.75793e+01,-3.89174e+01,0.00000e+00,0.00000e+00,0.00000e+00
1.07300e+02,3.68895e+01,-4.21606e+01,0.00000e+00,0.00000e+00,0.00000e+00
1.07300e+02,3.61401e+01,-4.54037e+01,0.00000e+00,0.00000e+00,0.00000e+00
1.07300e+02,3.53192e+01,-4.86468e+01,0.00000e+00,0.00000e+00,0.00000e+00
1.07300e+02,3.44016e+01,-5.18899e+01,0.00000e+00,0.00000e+00,0.00000e+00
1.07300e+02,3.34168e+01,-5.51330e+01,0.00000e+00,0.00000e+00,0.00000e+00
1.07300e+02,3.22806e+01,-5.83762e+01,0.00000e+00,0.00000e+00,0.00000e+00
1.07300e+02,3.10816e+01,-6.16193e+01,0.00000e+00,0.00000e+00,0.00000e+00
1.07300e+02,2.97079e+01,-6.48624e+01,0.00000e+00,0.00000e+00,0.00000e+00
1.07300e+02,2.81940e+01,-6.81055e+01,0.00000e+00,0.00000e+00,0.00000e+00
1.07300e+02,2.65376e+01,-7.13486e+01,0.00000e+00,0.00000e+00,0.00000e+00
1.07300e+02,2.46419e+01,-7.45918e+01,0.00000e+00,0.00000e+00,0.00000e+00
1.07300e+02,2.24690e+01,-7.78349e+01,0.00000e+00,0.00000e+00,0.00000e+00
1.07300e+02,1.99828e+01,-8.10780e+01,0.00000e+00,0.00000e+00,0.00000e+00
1.07300e+02,1.70422e+01,-8.43211e+01,0.00000e+00,0.00000e+00,0.00000e+00
1.07300e+02,1.32676e+01,-8.75642e+01,0.00000e+00,0.00000e+00,0.00000e+00
1.07300e+02,8.16273e+00,-9.08074e+01,0.00000e+00,0.00000e+00,0.00000e+00
1.07300e+02,-3.30748e+00,-9.40505e+01,0.00000e+00,0.00000e+00,0.00000e+00
1.07300e+02,-4.13529e+00,-9.40580e+01,0.00000e+00,0.00000e+00,0.00000e+00
1.07300e+02,-1.16772e+01,-9.06988e+01,0.00000e+00,0.00000e+00,0.00000e+00
1.07300e+02,-1.25904e+01,-8.73396e+01,0.00000e+00,0.00000e+00,0.00000e+00
1.07300e+02,-1.29055e+01,-8.39804e+01,0.00000e+00,0.00000e+00,0.00000e+00
1.07300e+02,-1.29533e+01,-8.06211e+01,0.00000e+00,0.00000e+00,0.00000e+00
1.07300e+02,-1.27997e+01,-7.72619e+01,0.00000e+00,0.00000e+00,0.00000e+00
1.07300e+02,-1.25198e+01,-7.39027e+01,0.00000e+00,0.00000e+00,0.00000e+00
1.07300e+02,-1.21130e+01,-7.05435e+01,0.00000e+00,0.00000e+00,0.00000e+00
1.07300e+02,-1.16287e+01,-6.71843e+01,0.00000e+00,0.00000e+00,0.00000e+00
1.07300e+02,-1.10996e+01,-6.38251e+01,0.00000e+00,0.00000e+00,0.00000e+00
1.07300e+02,-1.05029e+01,-6.04659e+01,0.00000e+00,0.00000e+00,0.00000e+00
1.07300e+02,-9.86382e+00,-5.71066e+01,0.00000e+00,0.00000e+00,0.00000e+00
1.07300e+02,-9.18363e+00,-5.37474e+01,0.00000e+00,0.00000e+00,0.00000e+00
1.07300e+02,-8.46243e+00,-5.03882e+01,0.00000e+00,0.00000e+00,0.00000e+00
1.07300e+02,-7.71552e+00,-4.70290e+01,0.00000e+00,0.00000e+00,0.00000e+00
1.07300e+02,-6.93567e+00,-4.36698e+01,0.00000e+00,0.00000e+00,0.00000e+00
1.07300e+02,-6.13474e+00,-4.03106e+01,0.00000e+00,0.00000e+00,0.00000e+00
1.07300e+02,-5.31490e+00,-3.69514e+01,0.00000e+00,0.00000e+00,0.00000e+00
1.07300e+02,-4.47818e+00,-3.35921e+01,0.00000e+00,0.00000e+00,0.00000e+00
1.07300e+02,-3.63431e+00,-3.02329e+01,0.00000e+00,0.00000e+00,0.00000e+00
1.07300e+02,-2.77936e+00,-2.68737e+01,0.00000e+00,0.00000e+00,0.00000e+00
1.07300e+02,-1.92257e+00,-2.35145e+01,0.00000e+00,0.00000e+00,0.00000e+00
1.07300e+02,-1.05916e+00,-2.01553e+01,0.00000e+00,0.00000e+00,0.00000e+00
1.07300e+02,-1.95842e-01,-1.67961e+01,0.00000e+00,0.00000e+00,0.00000e+00
1.07300e+02,6.64213e-01,-1.34369e+01,0.00000e+00,0.00000e+00,0.00000e+00
1.07300e+02,1.52427e+00,-1.00776e+01,0.00000e+00,0.00000e+00,0.00000e+00
1.07300e+02,2.36396e+00,-6.71843e+00,0.00000e+00,0.00000e+00,0.00000e+00
1.07300e+02,3.19985e+00,-3.35921e+00,0.00000e+00,0.00000e+00,0.00000e+00
2.14300e+02,4.22575e+01,0.00000e+00,0.00000e+00,0.00000e+00,0.00000e+00
2.14300e+02,4.20447e+01,-3.21112e+00,0.00000e+00,0.00000e+00,0.00000e+00
2.14300e+02,4.17615e+01,-6.42224e+00,0.00000e+00,0.00000e+00,0.00000e+00
2.14300e+02,4.14756e+01,-9.63337e+00,0.00000e+00,0.00000e+00,0.00000e+00
2.14300e+02,4.11276e+01,-1.28445e+01,0.00000e+00,0.00000e+00,0.00000e+00
2.14300e+02,4.07652e+01,-1.60556e+01,0.00000e+00,0.00000e+00,0.00000e+00
2.14300e+02,4.03551e+01,-1.92667e+01,0.00000e+00,0.00000e+00,0.00000e+00
2.14300e+02,3.99219e+01,-2.24779e+01,0.00000e+00,0.00000e+00,0.00000e+00
2.14300e+02,3.94505e+01,-2.56890e+01,0.00000e+00,0.00000e+00,0.00000e+00
2.14300e+02,3.89476e+01,-2.89001e+01,0.00000e+00,0.00000e+00,0.00000e+00
2.14300e+02,3.84101e+01,-3.21112e+01,0.00000e+00,0.00000e+00,0.00000e+00
2.14300e+02,3.78307e+01,-3.53223e+01,0.00000e+00,0.00000e+00,0.00000e+00
2.14300e+02,3.72085e+01,-3.85335e+01,0.00000e+00,0.00000e+00,0.00000e+00
2.14300e+02,3.65256e+01,-4.17446e+01,0.00000e+00,0.00000e+00,0.00000e+00
2.14300e+02,3.57835e+01,-4.49557e+01,0.00000e+00,0.00000e+00,0.00000e+00
2.14300e+02,3.49707e+01,-4.81668e+01,0.00000e+00,0.00000e+00,0.00000e+00
2.14300e+02,3.40622e+01,-5.13780e+01,0.00000e+00,0.00000e+00,0.00000e+00
2.14300e+02,3.30871e+01,-5.45891e+01,0.00000e+00,0.00000e+00,0.00000e+00
2.14300e+02,3.19621e+01,-5.78002e+01,0.00000e+00,0.00000e+00,0.00000e+00
2.14300e+02,3.07750e+01,-6.10113e+01,0.00000e+00,0.00000e+00,0.00000e+00
2.14300e+02,2.94148e+01,-6.42224e+01,0.00000e+00,0.00000e+00,0.00000e+00
2.14300e+02,2.79159e+01,-6.74336e+01,0.00000e+00,0.00000e+00,0.00000e+00
2.14300e+02,2.62758e+01,-7.06447e+01,0.00000e+00,0.00000e+00,0.00000e+00
2.14300e+02,2.43988e+01,-7.38558e+01,0.00000e+00,0.00000e+00,0.00000e+00
2.14300e+02,2.22473e+01,-7.70669e+01,0.00000e+00,0.00000e+00,0.00000e+00
2.14300e+02,1.97856e+01,-8.02781e+01,0.00000e+00,0.00000e+00,0.00000e+00
2.14300e+02,1.68740e+01,-8.34892e+01,0.00000e+00,0.00000e+00,0.00000e+00
2.14300e+02,1.31367e+01,-8.67003e+01,0.00000e+00,0.00000e+00,0.00000e+00
2.14300e+02,8.08220e+00,-8.99114e+01,0.00000e+00,0.00000e+00,0.00000e+00
2.14300e+02,-3.27484e+00,-9.31226e+01,0.00000e+00,0.00000e+00,0.00000e+00
2.14300e+02,-4.09449e+00,-9.31300e+01,0.00000e+00,0.00000e+00,0.00000e+00
2.14300e+02,-1.15620e+01,-8.98039e+01,0.00000e+00,0.00000e+00,0.00000e+00
2.14300e+02,-1.24661e+01,-8.64779e+01,0.00000e+00,0.00000e+00,0.00000e+00
2.14300e+02,-1.27781e+01,-8.31518e+01,0.00000e+00,0.00000e+00,0.00000e+00
2.14300e+02,-1.28255e+01,-7.98257e+01,0.00000e+00,0.00000e+00,0.00000e+00
2.14300e+02,-1.26734e+01,-7.64996e+01,0.00000e+00,0.00000e+00,0.00000e+00
2.14300e+02,-1.23963e+01,-7.31736e+01,0.00000e+00,0.00000e+00,0.00000e+00
2.14300e+02,-1.19935e+01,-6.98475e+01,0.00000e+00,0.00000e+00,0.00000e+00
2.14300e+02,-1.15140e+01,-6.65214e+01,0.00000e+00,0.00000e+00,0.00000e+00
2.14300e+02,-1.09901e+01,-6.31954e+01,0.00000e+00,0.00000e+00,0.00000e+00
2.14300e+02,-1.03992e+01,-5.98693e+01,0.00000e+00,0.00000e+00,0.00000e+00
2.14300e+02,-9.76651e+00,-5.65432e+01,0.00000e+00,0.00000e+00,0.00000e+00
2.14300e+02,-9.09302e+00,-5.32171e+01,0.00000e+00,0.00000e+00,0.00000e+00
2.14300e+02,-8.37893e+00,-4.98911e+01,0.00000e+00,0.00000e+00,0.00000e+00
2.14300e+02,-7.63939e+00,-4.65650e+01,0.00000e+00,0.00000e+00,0.00000e+00
2.14300e+02,-6.86724e+00,-4.32389e+01,0.00000e+00,0.00000e+00,0.00000e+00
2.14300e+02,-6.07421e+00,-3.99129e+01,0.00000e+00,0.00000e+00,0.00000e+00
2.14300e+02,-5.26246e+00,-3.65868e+01,0.00000e+00,0.00000e+00,0.00000e+00
2.14300e+02,-4.43399e+00,-3.32607e+01,0.00000e+00,0.00000e+00,0.00000e+00
2.14300e+02,-3.59845e+00,-2.99346e+01,0.00000e+00,0.00000e+00,0.00000e+00
2.14300e+02,-2.75194e+00,-2.66086e+01,0.00000e+00,0.00000e+00,0.00000e+00
2.14300e+02,-1.90360e+00,-2.32825e+01,0.00000e+00,0.00000e+00,0.00000e+00
2.14300e+02,-1.04871e+00,-1.99564e+01,0.00000e+00,0.00000e+00,0.00000e+00
2.14300e+02,-1.93910e-01,-1.66304e+01,0.00000e+00,0.00000e+00,0.00000e+00
2.14300e+02,6.57660e-01,-1.33043e+01,0.00000e+00,0.00000e+00,0.00000e+00
2.14300e+02,1.50923e+00,-9.97821e+00,0.00000e+00,0.00000e+00,0.00000e+00
2.14300e+02,2.34063e+00,-6.65214e+00,0.00000e+00,0.00000e+00,0.00000e+00
2.14300e+02,3.16828e+00,-3.32607e+00,0.00000e+00,0.00000e+00,0.00000e+00
3.20700e+02,4.18388e+01,0.00000e+00,0.00000e+00,0.00000e+00,0.00000e+00
3.20700e+02,4.16280e+01,-3.17930e+00,0.00000e+00,0.00000e+00,0.00000e+00
3.20700e+02,4.13477e+01,-6.35861e+00,0.00000e+00,0.00000e+00,0.00000e+00
3.20700e+02,4.10646e+01,-9.53791e+00,0.00000e+00,0.00000e+00,0.00000e+00
3.20700e+02,4.07201e+01,-1.27172e+01,0.00000e+00,0.00000e+00,0.00000e+00
3.20700e+02,4.03613e+01,-1.58965e+01,0.00000e+00,0.00000e+00,0.00000e+00
3.20700e+02,3.99553e+01,-1.90758e+01,0.00000e+00,0.00000e+00,0.00000e+00
3.20700e+02,3.95264e+01,-2.22551e+01,0.00000e+00,0.00000e+00,0.00000e+00
3.20700e+02,3.90596e+01,-2.54344e+01,0.00000e+00,0.00000e+00,0.00000e+00
3.20700e+02,3.85617e+01,-2.86137e+01,0.00000e+00,0.00000e+00,0.00000e+00
3.20700e+02,3.80295e+01,-3.17930e+01,0.00000e+00,0.00000e+00,0.00000e+00
3.20700e+02,3.74559e+01,-3.49724e+01,0.00000e+00,0.00000e+00,0.00000e+00
3.20700e+02,3.68398e+01,-3.81517e+01,0.00000e+00,0.00000e+00,0.00000e+00
3.20700e+02,3.61637e+01,-4.13310e+01,0.00000e+00,0.00000e+00,0.00000e+00
3.20700e+02,3.54289e+01,-4.45103e+01,0.00000e+00,0.00000e+00,0.00000e+00
3.20700e+02,3.46242e+01,-4.76896e+01,0.00000e+00,0.00000e+00,0.00000e+00
3.20700e+02,3.37247e+01,-5.08689e+01,0.00000e+00,0.00000e+00,0.00000e+00
3.20700e+02,3.27593e+01,-5.40482e+01,0.00000e+00,0.00000e+00,0.00000e+00
3.20700e+02,3.16454e+01,-5.72275e+01,0.00000e+00,0.00000e+00,0.00000e+00
3.20700e+02,3.04701e+01,-6.04068e+01,0.00000e+00,0.00000e+00,0.00000e+00
3.20700e+02,2.91233e+01,-6.35861e+01,0.00000e+00,0.00000e+00,0.00000e+00
3.20700e+02,2.76393e+01,-6.67654e+01,0.00000e+00,0.00000e+00,0.00000e+00
3.20700e+02,2.60154e+01,-6.99447e+01,0.00000e+00,0.00000e+00,0.00000e+00
3.20700e+02,2.41570e+01,-7.31240e+01,0.00000e+00,0.00000e+00,0.00000e+00
3.20700e+02,2.20269e+01,-7.63033e+01,0.00000e+00,0.00000e+00,0.00000e+00
3.20700e+02,1.95896e+01,-7.94826e+01,0.00000e+00,0.00000e+00,0.00000e+00
3.20700e+02,1.67068e+01,-8.26619e+01,0.00000e+00,0.00000e+00,0.00000e+00
3.20700e+02,1.30066e+01,-8.58412e+01,0.00000e+00,0.00000e+00,0.00000e+00
3.20700e+02,8.00212e+00,-8.90205e+01,0.00000e+00,0.00000e+00,0.00000e+00
3.20700e+02,-3.24239e+00,-9.21998e+01,0.00000e+00,0.00000e+00,0.00000e+00
3.20700e+02,-4.05392e+00,-9.22072e+01,0.00000e+00,0.00000e+00,0.00000e+00
3.20700e+02,-1.14474e+01,-8.89141e+01,0.00000e+00,0.00000e+00,0.00000e+00
3.20700e+02,-1.23426e+01,-8.56210e+01,0.00000e+00,0.00000e+00,0.00000e+00
3.20700e+02,-1.26515e+01,-8.23279e+01,0.00000e+00,0.00000e+00,0.00000e+00
3.20700e+02,-1.26984e+01,-7.90348e+01,0.00000e+00,0.00000e+00,0.00000e+00
3.20700e+02,-1.25479e+01,-7.57416e+01,0.00000e+00,0.00000e+00,0.00000e+00
3.20700e+02,-1.22734e+01,-7.24485e+01,0.00000e+00,0.00000e+00,0.00000e+00
3.20700e+02,-1.18746e+01,-6.91554e+01,0.00000e+00,0.00000e+00,0.00000e+00
3.20700e+02,-1.13999e+01,-6.58623e+01,0.00000e+00,0.00000e+00,0.00000e+00
3.20700e+02,-1.08812e+01,-6.25692e+01,0.00000e+00,0.00000e+00,0.00000e+00
3.20700e+02,-1.02962e+01,-5.92761e+01,0.00000e+00,0.00000e+00,0.00000e+00
3.20700e+02,-9.66973e+00,-5.59829e+01,0.00000e+00,0.00000e+00,0.00000e+00
3.20700e+02,-9.00292e+00,-5.26898e+01,0.00000e+00,0.00000e+00,0.00000e+00
3.20700e+02,-8.29591e+00,-4.93967e+01,0.00000e+00,0.00000e+00,0.00000e+00
3.20700e+02,-7.56370e+00,-4.61036e+01,0.00000e+00,0.00000e+00,0.00000e+00
3.20700e+02,-6.79920e+00,-4.28105e+01,0.00000e+00,0.00000e+00,0.00000e+00
3.20700e+02,-6.01403e+00,-3.95174e+01,0.00000e+00,0.00000e+00,0.00000e+00
3.20700e+02,-5.21032e+00,-3.62243e+01,0.00000e+00,0.00000e+00,0.00000e+00
3.20700e+02,-4.39006e+00,-3.29311e+01,0.00000e+00,0.00000e+00,0.00000e+00
3.20700e+02,-3.56279e+00,-2.96380e+01,0.00000e+00,0.00000e+00,0.00000e+00
3.20700e+02,-2.72467e+00,-2.63449e+01,0.00000e+00,0.00000e+00,0.00000e+00
3.20700e+02,-1.88474e+00,-2.30518e+01,0.00000e+00,0.00000e+00,0.00000e+00
3.20700e+02,-1.03832e+00,-1.97587e+01,0.00000e+00,0.00000e+00,0.00000e+00
3.20700e+02,-1.91989e-01,-1.64656e+01,0.00000e+00,0.00000e+00,0.00000e+00
3.20700e+02,6.51143e-01,-1.31725e+01,0.00000e+00,0.00000e+00,0.00000e+00
3.20700e+02,1.49428e+00,-9.87934e+00,0.00000e+00,0.00000e+00,0.00000e+00
3.20700e+02,2.31744e+00,-6.58623e+00,0.00000e+00,0.00000e+00,0.00000e+00
3.20700e+02,3.13689e+00,-3.29311e+00,0.00000e+00,0.00000e+00,0.00000e+00
4.26200e+02,4.14236e+01,0.00000e+00,0.00000e+00,0.00000e+00,0.00000e+00
4.26200e+02,4.12150e+01,-3.14776e+00,0.00000e+00,0.00000e+00,0.00000e+00
4.26200e+02,4.09374e+01,-6.29551e+00,0.00000e+00,0.00000e+00,0.00000e+00
4.26200e+02,4.06571e+01,-9.44327e+00,0.00000e+00,0.00000e+00,0.00000e+00
4.26200e+02,4.03160e+01,-1.25910e+01,0.00000e+00,0.00000e+00,0.00000e+00
4.26200e+02,3.99607e+01,-1.57388e+01,0.00000e+00,0.00000e+00,0.00000e+00
4.26200e+02,3.95588e+01,-1.88865e+01,0.00000e+00,0.00000e+00,0.00000e+00
4.26200e+02,3.91341e+01,-2.20343e+01,0.00000e+00,0.00000e+00,0.00000e+00
4.26200e+02,3.86720e+01,-2.51820e+01,0.00000e+00,0.00000e+00,0.00000e+00
4.26200e+02,3.81790e+01,-2.83298e+01,0.00000e+00,0.00000e+00,0.00000e+00
4.26200e+02,3.76521e+01,-3.14776e+01,0.00000e+00,0.00000e+00,0.00000e+00
4.26200e+02,3.70842e+01,-3.46253e+01,0.00000e+00,0.00000e+00,0.00000e+00
4.26200e+02,3.64743e+01,-3.77731e+01,0.00000e+00,0.00000e+00,0.00000e+00
4.26200e+02,3.58048e+01,-4.09208e+01,0.00000e+00,0.00000e+00,0.00000e+00
4.26200e+02,3.50774e+01,-4.40686e+01,0.00000e+00,0.00000e+00,0.00000e+00
4.26200e+02,3.42806e+01,-4.72163e+01,0.00000e+00,0.00000e+00,0.00000e+00
4.26200e+02,3.33901e+01,-5.03641e+01,0.00000e+00,0.00000e+00,0.00000e+00
4.26200e+02,3.24342e+01,-5.35118e+01,0.00000e+00,0.00000e+00,0.00000e+00
4.26200e+02,3.13314e+01,-5.66596e+01,0.00000e+00,0.00000e+00,0.00000e+00
4.26200e+02,3.01677e+01,-5.98074e+01,0.00000e+00,0.00000e+00,0.00000e+00
4.26200e+02,2.88343e+01,-6.29551e+01,0.00000e+00,0.00000e+00,0.00000e+00
4.26200e+02,2.73650e+01,-6.61029e+01,0.00000e+00,0.00000e+00,0.00000e+00
4.26200e+02,2.57573e+01,-6.92506e+01,0.00000e+00,0.00000e+00,0.00000e+00
4.26200e+02,2.39173e+01,-7.23984e+01,0.00000e+00,0.00000e+00,0.00000e+00
4.26200e+02,2.18083e+01,-7.55461e+01,0.00000e+00,0.00000e+00,0.00000e+00
4.26200e+02,1.93952e+01,-7.86939e+01,0.00000e+00,0.00000e+00,0.00000e+00
4.26200e+02,1.65410e+01,-8.18417e+01,0.00000e+00,0.00000e+00,0.00000e+00
4.26200e+02,1.28775e+01,-8.49894e+01,0.00000e+00,0.00000e+00,0.00000e+00
4.26200e+02,7.92271e+00,-8.81372e+01,0.00000e+00,0.00000e+00,0.00000e+00
4.26200e+02,-3.21022e+00,-9.12849e+01,0.00000e+00,0.00000e+00,0.00000e+00
4.26200e+02,-4.01369e+00,-9.12922e+01,0.00000e+00,0.00000e+00,0.00000e+00
4.26200e+02,-1.13339e+01,-8.80318e+01,0.00000e+00,0.00000e+00,0.00000e+00
4.26200e+02,-1.22201e+01,-8.47713e+01,0.00000e+00,0.00000e+00,0.00000e+00
4.26200e+02,-1.25260e+01,-8.15109e+01,0.00000e+00,0.00000e+00,0.00000e+00
4.26200e+02,-1.25724e+01,-7.82505e+01,0.00000e+00,0.00000e+00,0.00000e+00
4.26200e+02,-1.24233e+01,-7.49900e+01,0.00000e+00,0.00000e+00,0.00000e+00
4.26200e+02,-1.21516e+01,-7.17296e+01,0.00000e+00,0.00000e+00,0.00000e+00
4.26200e+02,-1.17568e+01,-6.84692e+01,0.00000e+00,0.00000e+00,0.00000e+00
4.26200e+02,-1.12868e+01,-6.52087e+01,0.00000e+00,0.00000e+00,0.00000e+00
4.26200e+02,-1.07732e+01,-6.19483e+01,0.00000e+00,0.00000e+00,0.00000e+00
4.26200e+02,-1.01940e+01,-5.86879e+01,0.00000e+00,0.00000e+00,0.00000e+00
4.26200e+02,-9.57378e+00,-5.54274e+01,0.00000e+00,0.00000e+00,0.00000e+00
4.26200e+02,-8.91358e+00,-5.21670e+01,0.00000e+00,0.00000e+00,0.00000e+00
4.26200e+02,-8.21359e+00,-4.89065e+01,0.00000e+00,0.00000e+00,0.00000e+00
4.26200e+02,-7.48864e+00,-4.56461e+01,0.00000e+00,0.00000e+00,0.00000e+00
4.26200e+02,-6.73173e+00,-4.23857e+01,0.00000e+00,0.00000e+00,0.00000e+00
4.26200e+02,-5.95435e+00,-3.91252e+01,0.00000e+00,0.00000e+00,0.00000e+00
4.26200e+02,-5.15861e+00,-3.58648e+01,0.00000e+00,0.00000e+00,0.00000e+00
4.26200e+02,-4.34650e+00,-3.26044e+01,0.00000e+00,0.00000e+00,0.00000e+00
4.26200e+02,-3.52744e+00,-2.93439e+01,0.00000e+00,0.00000e+00,0.00000e+00
4.26200e+02,-2.69763e+00,-2.60835e+01,0.00000e+00,0.00000e+00,0.00000e+00
4.26200e+02,-1.86603e+00,-2.28231e+01,0.00000e+00,0.00000e+00,0.00000e+00
4.26200e+02,-1.02802e+00,-1.95626e+01,0.00000e+00,0.00000e+00,0.00000e+00
4.26200e+02,-1.90083e-01,-1.63022e+01,0.00000e+00,0.00000e+00,0.00000e+00
4.26200e+02,6.44682e-01,-1.30417e+01,0.00000e+00,0.00000e+00,0.00000e+00
4.26200e+02,1.47945e+00,-9.78131e+00,0.00000e+00,0.00000e+00,0.00000e+00
4.26200e+02,2.29445e+00,-6.52087e+00,0.00000e+00,0.00000e+00,0.00000e+00
4.26200e+02,3.10576e+00,-3.26044e+00,0.00000e+00,0.00000e+00,0.00000e+00
5.30600e+02,4.10127e+01,0.00000e+00,0.00000e+00,0.00000e+00,0.00000e+00
5.30600e+02,4.08062e+01,-3.11654e+00,0.00000e+00,0.00000e+00,0.00000e+00
5.30600e+02,4.05314e+01,-6.23307e+00,0.00000e+00,0.00000e+00,0.00000e+00
5.30600e+02,4.02539e+01,-9.34961e+00,0.00000e+00,0.00000e+00,0.00000e+00
5.30600e+02,3.99161e+01,-1.24661e+01,0.00000e+00,0.00000e+00,0.00000e+00
5.30600e+02,3.95644e+01,-1.55827e+01,0.00000e+00,0.00000e+00,0.00000e+00
5.30600e+02,3.91664e+01,-1.86992e+01,0.00000e+00,0.00000e+00,0.00000e+00
5.30600e+02,3.87460e+01,-2.18158e+01,0.00000e+00,0.00000e+00,0.00000e+00
5.30600e+02,3.82884e+01,-2.49323e+01,0.00000e+00,0.00000e+00,0.00000e+00
5.30600e+02,3.78003e+01,-2.80488e+01,0.00000e+00,0.00000e+00,0.00000e+00
5.30600e+02,3.72787e+01,-3.11654e+01,0.00000e+00,0.00000e+00,0.00000e+00
5.30600e+02,3.67164e+01,-3.42819e+01,0.00000e+00,0.00000e+00,0.00000e+00
5.30600e+02,3.61125e+01,-3.73984e+01,0.00000e+00,0.00000e+00,0.00000e+00
5.30600e+02,3.54497e+01,-4.05150e+01,0.00000e+00,0.00000e+00,0.00000e+00
5.30600e+02,3.47295e+01,-4.36315e+01,0.00000e+00,0.00000e+00,0.00000e+00
5.30600e+02,3.39406e+01,-4.67480e+01,0.00000e+00,0.00000e+00,0.00000e+00
5.30600e+02,3.30589e+01,-4.98646e+01,0.00000e+00,0.00000e+00,0.00000e+00
5.30600e+02,3.21125e+01,-5.29811e+01,0.00000e+00,0.00000e+00,0.00000e+00
5.30600e+02,3.10206e+01,-5.60976e+01,0.00000e+00,0.00000e+00,0.00000e+00
5.30600e+02,2.98685e+01,-5.92142e+01,0.00000e+00,0.00000e+00,0.00000e+00
5.30600e+02,2.85484e+01,-6.23307e+01,0.00000e+00,0.00000e+00,0.00000e+00
5.30600e+02,2.70936e+01,-6.54473e+01,0.00000e+00,0.00000e+00,0.00000e+00
5.30600e+02,2.55018e+01,-6.85638e+01,0.00000e+00,0.00000e+00,0.00000e+00
5.30600e+02,2.36801e+01,-7.16803e+01,0.00000e+00,0.00000e+00,0.00000e+00
5.30600e+02,2.15920e+01,-7.47969e+01,0.00000e+00,0.00000e+00,0.00000e+00
5.30600e+02,1.92028e+01,-7.79134e+01,0.00000e+00,0.00000e+00,0.00000e+00
5.30600e+02,1.63770e+01,-8.10299e+01,0.00000e+00,0.00000e+00,0.00000e+00
5.30600e+02,1.27498e+01,-8.41465e+01,0.00000e+00,0.00000e+00,0.00000e+00
5.30600e+02,7.84413e+00,-8.72630e+01,0.00000e+00,0.00000e+00,0.00000e+00
5.30600e+02,-3.17838e+00,-9.03795e+01,0.00000e+00,0.00000e+00,0.00000e+00
5.30600e+02,-3.97388e+00,-9.03868e+01,0.00000e+00,0.00000e+00,0.00000e+00
5.30600e+02,-1.12214e+01,-8.71587e+01,0.00000e+00,0.00000e+00,0.00000e+00
5.30600e+02,-1.20989e+01,-8.39306e+01,0.00000e+00,0.00000e+00,0.00000e+00
5.30600e+02,-1.24018e+01,-8.07025e+01,0.00000e+00,0.00000e+00,0.00000e+00
5.30600e+02,-1.24477e+01,-7.74744e+01,0.00000e+00,0.00000e+00,0.00000e+00
5.30600e+02,-1.23001e+01,-7.42463e+01,0.00000e+00,0.00000e+00,0.00000e+00
5.30600e+02,-1.20311e+01,-7.10182e+01,0.00000e+00,0.00000e+00,0.00000e+00
5.30600e+02,-1.16402e+01,-6.77901e+01,0.00000e+00,0.00000e+00,0.00000e+00
5.30600e+02,-1.11748e+01,-6.45620e+01,0.00000e+00,0.00000e+00,0.00000e+00
5.30600e+02,-1.06664e+01,-6.13339e+01,0.00000e+00,0.00000e+00,0.00000e+00
5.30600e+02,-1.00929e+01,-5.81058e+01,0.00000e+00,0.00000e+00,0.00000e+00
5.30600e+02,-9.47882e+00,-5.48777e+01,0.00000e+00,0.00000e+00,0.00000e+00
5.30600e+02,-8.82518e+00,-5.16496e+01,0.00000e+00,0.00000e+00,0.00000e+00
5.30600e+02,-8.13212e+00,-4.84215e+01,0.00000e+00,0.00000e+00,0.00000e+00
5.30600e+02,-7.41437e+00,-4.51934e+01,0.00000e+00,0.00000e+00,0.00000e+00
5.30600e+02,-6.66496e+00,-4.19653e+01,0.00000e+00,0.00000e+00,0.00000e+00
5.30600e+02,-5.89529e+00,-3.87372e+01,0.00000e+00,0.00000e+00,0.00000e+00
5.30600e+02,-5.10745e+00,-3.55091e+01,0.00000e+00,0.00000e+00,0.00000e+00
5.30600e+02,-4.30339e+00,-3.22810e+01,0.00000e+00,0.00000e+00,0.00000e+00
5.30600e+02,-3.49245e+00,-2.90529e+01,0.00000e+00,0.00000e+00,0.00000e+00
5.30600e+02,-2.67088e+00,-2.58248e+01,0.00000e+00,0.00000e+00,0.00000e+00
5.30600e+02,-1.84753e+00,-2.25967e+01,0.00000e+00,0.00000e+00,0.00000e+00
5.30600e+02,-1.01782e+00,-1.93686e+01,0.00000e+00,0.00000e+00,0.00000e+00
5.30600e+02,-1.88198e-01,-1.61405e+01,0.00000e+00,0.00000e+00,0.00000e+00
5.30600e+02,6.38288e-01,-1.29124e+01,0.00000e+00,0.00000e+00,0.00000e+00
5.30600e+02,1.46477e+00,-9.68430e+00,0.00000e+00,0.00000e+00,0.00000e+00
5.30600e+02,2.27169e+00,-6.45620e+00,0.00000e+00,0.00000e+00,0.00000e+00
5.30600e+02,3.07496e+00,-3.22810e+00,0.00000e+00,0.00000e+00,0.00000e+00
6.33500e+02,4.06078e+01,0.00000e+00,0.00000e+00,0.00000e+00,0.00000e+00
6.33500e+02,4.04033e+01,-3.08576e+00,0.00000e+00,0.00000e+00,0.00000e+00
6.33500e+02,4.01312e+01,-6.17153e+00,0.00000e+00,0.00000e+00,0.00000e+00
6.33500e+02,3.98564e+01,-9.25729e+00,0.00000e+00,0.00000e+00,0.00000e+00
6.33500e+02,3.95220e+01,-1.23431e+01,0.00000e+00,0.00000e+00,0.00000e+00
6.33500e+02,3.91738e+01,-1.54288e+01,0.00000e+00,0.00000e+00,0.00000e+00
6.33500e+02,3.87797e+01,-1.85146e+01,0.00000e+00,0.00000e+00,0.00000e+00
6.33500e+02,3.83634e+01,-2.16004e+01,0.00000e+00,0.00000e+00,0.00000e+00
6.33500e+02,3.79104e+01,-2.46861e+01,0.00000e+00,0.00000e+00,0.00000e+00
6.33500e+02,3.74271e+01,-2.77719e+01,0.00000e+00,0.00000e+00,0.00000e+00
6.33500e+02,3.69106e+01,-3.08576e+01,0.00000e+00,0.00000e+00,0.00000e+00
6.33500e+02,3.63539e+01,-3.39434e+01,0.00000e+00,0.00000e+00,0.00000e+00
6.33500e+02,3.57559e+01,-3.70292e+01,0.00000e+00,0.00000e+00,0.00000e+00
6.33500e+02,3.50997e+01,-4.01149e+01,0.00000e+00,0.00000e+00,0.00000e+00
6.33500e+02,3.43866e+01,-4.32007e+01,0.00000e+00,0.00000e+00,0.00000e+00
6.33500e+02,3.36055e+01,-4.62865e+01,0.00000e+00,0.00000e+00,0.00000e+00
6.33500e+02,3.27325e+01,-4.93722e+01,0.00000e+00,0.00000e+00,0.00000e+00
6.33500e+02,3.17954e+01,-5.24580e+01,0.00000e+00,0.00000e+00,0.00000e+00
6.33500e+02,3.07144e+01,-5.55438e+01,0.00000e+00,0.00000e+00,0.00000e+00
6.33500e+02,2.95736e+01,-5.86295e+01,0.00000e+00,0.00000e+00,0.00000e+00
6.33500e+02,2.82665e+01,-6.17153e+01,0.00000e+00,0.00000e+00,0.00000e+00
6.33500e+02,2.68261e+01,-6.48011e+01,0.00000e+00,0.00000e+00,0.00000e+00
6.33500e+02,2.52500e+01,-6.78868e+01,0.00000e+00,0.00000e+00,0.00000e+00
6.33500e+02,2.34463e+01,-7.09726e+01,0.00000e+00,0.00000e+00,0.00000e+00
6.33500e+02,2.13788e+01,-7.40584e+01,0.00000e+00,0.00000e+00,0.00000e+00
6.33500e+02,1.90132e+01,-7.71441e+01,0.00000e+00,0.00000e+00,0.00000e+00
6.33500e+02,1.62153e+01,-8.02299e+01,0.00000e+00,0.00000e+00,0.00000e+00
6.33500e+02,1.26239e+01,-8.33156e+01,0.00000e+00,0.00000e+00,0.00000e+00
6.33500e+02,7.76668e+00,-8.64014e+01,0.00000e+00,0.00000e+00,0.00000e+00
6.33500e+02,-3.14700e+00,-8.94872e+01,0.00000e+00,0.00000e+00,0.00000e+00
6.33500e+02,-3.93464e+00,-8.94943e+01,0.00000e+00,0.00000e+00,0.00000e+00
6.33500e+02,-1.11106e+01,-8.62981e+01,0.00000e+00,0.00000e+00,0.00000e+00
6.33500e+02,-1.19795e+01,-8.31019e+01,0.00000e+00,0.00000e+00,0.00000e+00
6.33500e+02,-1.22793e+01,-7.99057e+01,0.00000e+00,0.00000e+00,0.00000e+00
6.33500e+02,-1.23248e+01,-7.67094e+01,0.00000e+00,0.00000e+00,0.00000e+00
6.33500e+02,-1.21787e+01,-7.35132e+01,0.00000e+00,0.00000e+00,0.00000e+00
6.33500e+02,-1.19123e+01,-7.03170e+01,0.00000e+00,0.00000e+00,0.00000e+00
6.33500e+02,-1.15252e+01,-6.71208e+01,0.00000e+00,0.00000e+00,0.00000e+00
6.33500e+02,-1.10645e+01,-6.39245e+01,0.00000e+00,0.00000e+00,0.00000e+00
6.33500e+02,-1.05611e+01,-6.07283e+01,0.00000e+00,0.00000e+00,0.00000e+00
6.33500e+02,-9.99326e+00,-5.75321e+01,0.00000e+00,0.00000e+00,0.00000e+00
6.33500e+02,-9.38524e+00,-5.43358e+01,0.00000e+00,0.00000e+00,0.00000e+00
6.33500e+02,-8.73804e+00,-5.11396e+01,0.00000e+00,0.00000e+00,0.00000e+00
6.33500e+02,-8.05183e+00,-4.79434e+01,0.00000e+00,0.00000e+00,0.00000e+00
6.33500e+02,-7.34116e+00,-4.47472e+01,0.00000e+00,0.00000e+00,0.00000e+00
6.33500e+02,-6.59916e+00,-4.15509e+01,0.00000e+00,0.00000e+00,0.00000e+00
6.33500e+02,-5.83709e+00,-3.83547e+01,0.00000e+00,0.00000e+00,0.00000e+00
6.33500e+02,-5.05702e+00,-3.51585e+01,0.00000e+00,0.00000e+00,0.00000e+00
6.33500e+02,-4.26090e+00,-3.19623e+01,0.00000e+00,0.00000e+00,0.00000e+00
6.33500e+02,-3.45797e+00,-2.87660e+01,0.00000e+00,0.00000e+00,0.00000e+00
6.33500e+02,-2.64450e+00,-2.55698e+01,0.00000e+00,0.00000e+00,0.00000e+00
6.33500e+02,-1.82928e+00,-2.23736e+01,0.00000e+00,0.00000e+00,0.00000e+00
6.33500e+02,-1.00777e+00,-1.91774e+01,0.00000e+00,0.00000e+00,0.00000e+00
6.33500e+02,-1.86340e-01,-1.59811e+01,0.00000e+00,0.00000e+00,0.00000e+00
6.33500e+02,6.31986e-01,-1.27849e+01,0.00000e+00,0.00000e+00,0.00000e+00
6.33500e+02,1.45031e+00,-9.58868e+00,0.00000e+00,0.00000e+00,0.00000e+00
6.33500e+02,2.24926e+00,-6.39245e+00,0.00000e+00,0.00000e+00,0.00000e+00
6.33500e+02,3.04460e+00,-3.19623e+00,0.00000e+00,0.00000e+00,0.00000e+00
7.34700e+02,4.02095e+01,0.00000e+00,0.00000e+00,0.00000e+00,0.00000e+00
7.34700e+02,4.00070e+01,-3.05550e+00,0.00000e+00,0.00000e+00,0.00000e+00
7.34700e+02,3.97376e+01,-6.11100e+00,0.00000e+00,0.00000e+00,0.00000e+00
7.34700e+02,3.94656e+01,-9.16651e+00,0.00000e+00,0.00000e+00,0.00000e+00
7.34700e+02,3.91344e+01,-1.22220e+01,0.00000e+00,0.00000e+00,0.00000e+00
7.34700e+02,3.87896e+01,-1.52775e+01,0.00000e+00,0.00000e+00,0.00000e+00
7.34700e+02,3.83994e+01,-1.83330e+01,0.00000e+00,0.00000e+00,0.00000e+00
7.34700e+02,3.79872e+01,-2.13885e+01,0.00000e+00,0.00000e+00,0.00000e+00
7.34700e+02,3.75386e+01,-2.44440e+01,0.00000e+00,0.00000e+00,0.00000e+00
7.34700e+02,3.70601e+01,-2.74995e+01,0.00000e+00,0.00000e+00,0.00000e+00
7.34700e+02,3.65486e+01,-3.05550e+01,0.00000e+00,0.00000e+00,0.00000e+00
7.34700e+02,3.59973e+01,-3.36105e+01,0.00000e+00,0.00000e+00,0.00000e+00
7.34700e+02,3.54053e+01,-3.66660e+01,0.00000e+00,0.00000e+00,0.00000e+00
7.34700e+02,3.47554e+01,-3.97215e+01,0.00000e+00,0.00000e+00,0.00000e+00
7.34700e+02,3.40493e+01,-4.27770e+01,0.00000e+00,0.00000e+00,0.00000e+00
7.34700e+02,3.32760e+01,-4.58325e+01,0.00000e+00,0.00000e+00,0.00000e+00
7.34700e+02,3.24115e+01,-4.88880e+01,0.00000e+00,0.00000e+00,0.00000e+00
7.34700e+02,3.14836e+01,-5.19435e+01,0.00000e+00,0.00000e+00,0.00000e+00
7.34700e+02,3.04131e+01,-5.49990e+01,0.00000e+00,0.00000e+00,0.00000e+00
7.34700e+02,2.92835e+01,-5.80545e+01,0.00000e+00,0.00000e+00,0.00000e+00
7.34700e+02,2.79893e+01,-6.11100e+01,0.00000e+00,0.00000e+00,0.00000e+00
7.34700e+02,2.65630e+01,-6.41655e+01,0.00000e+00,0.00000e+00,0.00000e+00
7.34700e+02,2.50024e+01,-6.72210e+01,0.00000e+00,0.00000e+00,0.00000e+00
7.34700e+02,2.32164e+01,-7.02765e+01,0.00000e+00,0.00000e+00,0.00000e+00
7.34700e+02,2.11691e+01,-7.33320e+01,0.00000e+00,0.00000e+00,0.00000e+00
7.34700e+02,1.88268e+01,-7.63875e+01,0.00000e+00,0.00000e+00,0.00000e+00
7.34700e+02,1.60563e+01,-7.94430e+01,0.00000e+00,0.00000e+00,0.00000e+00
7.34700e+02,1.25001e+01,-8.24985e+01,0.00000e+00,0.00000e+00,0.00000e+00
7.34700e+02,7.69051e+00,-8.55540e+01,0.00000e+00,0.00000e+00,0.00000e+00
7.34700e+02,-3.11614e+00,-8.86096e+01,0.00000e+00,0.00000e+00,0.00000e+00
7.34700e+02,-3.89606e+00,-8.86166e+01,0.00000e+00,0.00000e+00,0.00000e+00
7.34700e+02,-1.10017e+01,-8.54518e+01,0.00000e+00,0.00000e+00,0.00000e+00
7.34700e+02,-1.18620e+01,-8.22869e+01,0.00000e+00,0.00000e+00,0.00000e+00
7.34700e+02,-1.21589e+01,-7.91220e+01,0.00000e+00,0.00000e+00,0.00000e+00
7.34700e+02,-1.22039e+01,-7.59571e+01,0.00000e+00,0.00000e+00,0.00000e+00
7.34700e+02,-1.20592e+01,-7.27922e+01,0.00000e+00,0.00000e+00,0.00000e+00
7.34700e+02,-1.17955e+01,-6.96274e+01,0.00000e+00,0.00000e+00,0.00000e+00
7.34700e+02,-1.14122e+01,-6.64625e+01,0.00000e+00,0.00000e+00,0.00000e+00
7.34700e+02,-1.09560e+01,-6.32976e+01,0.00000e+00,0.00000e+00,0.00000e+00
7.34700e+02,-1.04575e+01,-6.01327e+01,0.00000e+00,0.00000e+00,0.00000e+00
7.34700e+02,-9.89525e+00,-5.69678e+01,0.00000e+00,0.00000e+00,0.00000e+00
7.34700e+02,-9.29319e+00,-5.38030e+01,0.00000e+00,0.00000e+00,0.00000e+00
7.34700e+02,-8.65235e+00,-5.06381e+01,0.00000e+00,0.00000e+00,0.00000e+00
7.34700e+02,-7.97287e+00,-4.74732e+01,0.00000e+00,0.00000e+00,0.00000e+00
7.34700e+02,-7.26917e+00,-4.43083e+01,0.00000e+00,0.00000e+00,0.00000e+00
7.34700e+02,-6.53444e+00,-4.11434e+01,0.00000e+00,0.00000e+00,0.00000e+00
7.34700e+02,-5.77984e+00,-3.79786e+01,0.00000e+00,0.00000e+00,0.00000e+00
7.34700e+02,-5.00742e+00,-3.48137e+01,0.00000e+00,0.00000e+00,0.00000e+00
7.34700e+02,-4.21911e+00,-3.16488e+01,0.00000e+00,0.00000e+00,0.00000e+00
7.34700e+02,-3.42406e+00,-2.84839e+01,0.00000e+00,0.00000e+00,0.00000e+00
7.34700e+02,-2.61857e+00,-2.53190e+01,0.00000e+00,0.00000e+00,0.00000e+00
7.34700e+02,-1.81134e+00,-2.21542e+01,0.00000e+00,0.00000e+00,0.00000e+00
7.34700e+02,-9.97887e-01,-1.89893e+01,0.00000e+00,0.00000e+00,0.00000e+00
7.34700e+02,-1.84513e-01,-1.58244e+01,0.00000e+00,0.00000e+00,0.00000e+00
7.34700e+02,6.25788e-01,-1.26595e+01,0.00000e+00,0.00000e+00,0.00000e+00
7.34700e+02,1.43609e+00,-9.49464e+00,0.00000e+00,0.00000e+00,0.00000e+00
7.34700e+02,2.22720e+00,-6.32976e+00,0.00000e+00,0.00000e+00,0.00000e+00
7.34700e+02,3.01474e+00,-3.16488e+00,0.00000e+00,0.00000e+00,0.00000e+00
8.33800e+02,3.98196e+01,0.00000e+00,0.00000e+00,0.00000e+00,0.00000e+00
8.33800e+02,3.96190e+01,-3.02587e+00,0.00000e+00,0.00000e+00,0.00000e+00
8.33800e+02,3.93522e+01,-6.05173e+00,0.00000e+00,0.00000e+00,0.00000e+00
8.33800e+02,3.90828e+01,-9.07760e+00,0.00000e+00,0.00000e+00,0.00000e+00
8.33800e+02,3.87549e+01,-1.21035e+01,0.00000e+00,0.00000e+00,0.00000e+00
8.33800e+02,3.84134e+01,-1.51293e+01,0.00000e+00,0.00000e+00,0.00000e+00
8.33800e+02,3.80270e+01,-1.81552e+01,0.00000e+00,0.00000e+00,0.00000e+00
8.33800e+02,3.76188e+01,-2.11811e+01,0.00000e+00,0.00000e+00,0.00000e+00
8.33800e+02,3.71745e+01,-2.42069e+01,0.00000e+00,0.00000e+00,0.00000e+00
8.33800e+02,3.67006e+01,-2.72328e+01,0.00000e+00,0.00000e+00,0.00000e+00
8.33800e+02,3.61941e+01,-3.02587e+01,0.00000e+00,0.00000e+00,0.00000e+00
8.33800e+02,3.56482e+01,-3.32845e+01,0.00000e+00,0.00000e+00,0.00000e+00
8.33800e+02,3.50619e+01,-3.63104e+01,0.00000e+00,0.00000e+00,0.00000e+00
8.33800e+02,3.44183e+01,-3.93363e+01,0.00000e+00,0.00000e+00,0.00000e+00
8.33800e+02,3.37191e+01,-4.23621e+01,0.00000e+00,0.00000e+00,0.00000e+00
8.33800e+02,3.29532e+01,-4.53880e+01,0.00000e+00,0.00000e+00,0.00000e+00
8.33800e+02,3.20971e+01,-4.84139e+01,0.00000e+00,0.00000e+00,0.00000e+00
8.33800e+02,3.11783e+01,-5.14397e+01,0.00000e+00,0.00000e+00,0.00000e+00
8.33800e+02,3.01182e+01,-5.44656e+01,0.00000e+00,0.00000e+00,0.00000e+00
8.33800e+02,2.89995e+01,-5.74915e+01,0.00000e+00,0.00000e+00,0.00000e+00
8.33800e+02,2.77178e+01,-6.05173e+01,0.00000e+00,0.00000e+00,0.00000e+00
8.33800e+02,2.63054e+01,-6.35432e+01,0.00000e+00,0.00000e+00,0.00000e+00
8.33800e+02,2.47599e+01,-6.65691e+01,0.00000e+00,0.00000e+00,0.00000e+00
8.33800e+02,2.29912e+01,-6.95949e+01,0.00000e+00,0.00000e+00,0.00000e+00
8.33800e+02,2.09638e+01,-7.26208e+01,0.00000e+00,0.00000e+00,0.00000e+00
8.33800e+02,1.86442e+01,-7.56467e+01,0.00000e+00,0.00000e+00,0.00000e+00
8.33800e+02,1.59005e+01,-7.86725e+01,0.00000e+00,0.00000e+00,0.00000e+00
8.33800e+02,1.23789e+01,-8.16984e+01,0.00000e+00,0.00000e+00,0.00000e+00
8.33800e+02,7.61592e+00,-8.47243e+01,0.00000e+00,0.00000e+00,0.00000e+00
8.33800e+02,-3.08591e+00,-8.77501e+01,0.00000e+00,0.00000e+00,0.00000e+00
8.33800e+02,-3.85827e+00,-8.77572e+01,0.00000e+00,0.00000e+00,0.00000e+00
8.33800e+02,-1.08950e+01,-8.46230e+01,0.00000e+00,0.00000e+00,0.00000e+00
8.33800e+02,-1.17470e+01,-8.14888e+01,0.00000e+00,0.00000e+00,0.00000e+00
8.33800e+02,-1.20409e+01,-7.83546e+01,0.00000e+00,0.00000e+00,0.00000e+00
8.33800e+02,-1.20856e+01,-7.52204e+01,0.00000e+00,0.00000e+00,0.00000e+00
8.33800e+02,-1.19423e+01,-7.20862e+01,0.00000e+00,0.00000e+00,0.00000e+00
8.33800e+02,-1.16811e+01,-6.89521e+01,0.00000e+00,0.00000e+00,0.00000e+00
8.33800e+02,-1.13015e+01,-6.58179e+01,0.00000e+00,0.00000e+00,0.00000e+00
8.33800e+02,-1.08497e+01,-6.26837e+01,0.00000e+00,0.00000e+00,0.00000e+00
8.33800e+02,-1.03561e+01,-5.95495e+01,0.00000e+00,0.00000e+00,0.00000e+00
8.33800e+02,-9.79928e+00,-5.64153e+01,0.00000e+00,0.00000e+00,0.00000e+00
8.33800e+02,-9.20306e+00,-5.32811e+01,0.00000e+00,0.00000e+00,0.00000e+00
8.33800e+02,-8.56843e+00,-5.01469e+01,0.00000e+00,0.00000e+00,0.00000e+00
8.33800e+02,-7.89554e+00,-4.70128e+01,0.00000e+00,0.00000e+00,0.00000e+00
8.33800e+02,-7.19866e+00,-4.38786e+01,0.00000e+00,0.00000e+00,0.00000e+00
8.33800e+02,-6.47106e+00,-4.07444e+01,0.00000e+00,0.00000e+00,0.00000e+00
8.33800e+02,-5.72378e+00,-3.76102e+01,0.00000e+00,0.00000e+00,0.00000e+00
8.33800e+02,-4.95886e+00,-3.44760e+01,0.00000e+00,0.00000e+00,0.00000e+00
8.33800e+02,-4.17819e+00,-3.13418e+01,0.00000e+00,0.00000e+00,0.00000e+00
8.33800e+02,-3.39085e+00,-2.82077e+01,0.00000e+00,0.00000e+00,0.00000e+00
8.33800e+02,-2.59317e+00,-2.50735e+01,0.00000e+00,0.00000e+00,0.00000e+00
8.33800e+02,-1.79378e+00,-2.19393e+01,0.00000e+00,0.00000e+00,0.00000e+00
8.33800e+02,-9.88209e-01,-1.88051e+01,0.00000e+00,0.00000e+00,0.00000e+00
8.33800e+02,-1.82723e-01,-1.56709e+01,0.00000e+00,0.00000e+00,0.00000e+00
8.33800e+02,6.19718e-01,-1.25367e+01,0.00000e+00,0.00000e+00,0.00000e+00
8.33800e+02,1.42216e+00,-9.40255e+00,0.00000e+00,0.00000e+00,0.00000e+00
8.33800e+02,2.20560e+00,-6.26837e+00,0.00000e+00,0.00000e+00,0.00000e+00
8.33800e+02,2.98550e+00,-3.13418e+00,0.00000e+00,0.00000e+00,0.00000e+00
9.30700e+02,3.94382e+01,0.00000e+00,0.00000e+00,0.00000e+00,0.00000e+00
9.30700e+02,3.92396e+01,-2.99689e+00,0.00000e+00,0.00000e+00,0.00000e+00
9.30700e+02,3.89754e+01,-5.99378e+00,0.00000e+00,0.00000e+00,0.00000e+00
9.30700e+02,3.87085e+01,-8.99067e+00,0.00000e+00,0.00000e+00,0.00000e+00
9.30700e+02,3.83837e+01,-1.19876e+01,0.00000e+00,0.00000e+00,0.00000e+00
9.30700e+02,3.80455e+01,-1.49844e+01,0.00000e+00,0.00000e+00,0.00000e+00
9.30700e+02,3.76628e+01,-1.79813e+01,0.00000e+00,0.00000e+00,0.00000e+00
9.30700e+02,3.72585e+01,-2.09782e+01,0.00000e+00,0.00000e+00,0.00000e+00
9.30700e+02,3.68185e+01,-2.39751e+01,0.00000e+00,0.00000e+00,0.00000e+00
9.30700e+02,3.63492e+01,-2.69720e+01,0.00000e+00,0.00000e+00,0.00000e+00
9.30700e+02,3.58475e+01,-2.99689e+01,0.00000e+00,0.00000e+00,0.00000e+00
9.30700e+02,3.53068e+01,-3.29658e+01,0.00000e+00,0.00000e+00,0.00000e+00
9.30700e+02,3.47261e+01,-3.59627e+01,0.00000e+00,0.00000e+00,0.00000e+00
9.30700e+02,3.40887e+01,-3.89596e+01,0.00000e+00,0.00000e+00,0.00000e+00
9.30700e+02,3.33962e+01,-4.19565e+01,0.00000e+00,0.00000e+00,0.00000e+00
9.30700e+02,3.26376e+01,-4.49533e+01,0.00000e+00,0.00000e+00,0.00000e+00
9.30700e+02,3.17897e+01,-4.79502e+01,0.00000e+00,0.00000e+00,0.00000e+00
9.30700e+02,3.08797e+01,-5.09471e+01,0.00000e+00,0.00000e+00,0.00000e+00
9.30700e+02,2.98297e+01,-5.39440e+01,0.00000e+00,0.00000e+00,0.00000e+00
9.30700e+02,2.87218e+01,-5.69409e+01,0.00000e+00,0.00000e+00,0.00000e+00
9.30700e+02,2.74524e+01,-5.99378e+01,0.00000e+00,0.00000e+00,0.00000e+00
9.30700e+02,2.60534e+01,-6.29347e+01,0.00000e+00,0.00000e+00,0.00000e+00
9.30700e+02,2.45228e+01,-6.59316e+01,0.00000e+00,0.00000e+00,0.00000e+00
9.30700e+02,2.27710e+01,-6.89285e+01,0.00000e+00,0.00000e+00,0.00000e+00
9.30700e+02,2.07631e+01,-7.19254e+01,0.00000e+00,0.00000e+00,0.00000e+00
9.30700e+02,1.84656e+01,-7.49222e+01,0.00000e+00,0.00000e+00,0.00000e+00
9.30700e+02,1.57483e+01,-7.79191e+01,0.00000e+00,0.00000e+00,0.00000e+00
9.30700e+02,1.22603e+01,-8.09160e+01,0.00000e+00,0.00000e+00,0.00000e+00
9.30700e+02,7.54299e+00,-8.39129e+01,0.00000e+00,0.00000e+00,0.00000e+00
9.30700e+02,-3.05636e+00,-8.69098e+01,0.00000e+00,0.00000e+00,0.00000e+00
9.30700e+02,-3.82132e+00,-8.69168e+01,0.00000e+00,0.00000e+00,0.00000e+00
9.30700e+02,-1.07906e+01,-8.38126e+01,0.00000e+00,0.00000e+00,0.00000e+00
9.30700e+02,-1.16345e+01,-8.07084e+01,0.00000e+00,0.00000e+00,0.00000e+00
9.30700e+02,-1.19256e+01,-7.76042e+01,0.00000e+00,0.00000e+00,0.00000e+00
9.30700e+02,-1.19698e+01,-7.45001e+01,0.00000e+00,0.00000e+00,0.00000e+00
9.30700e+02,-1.18279e+01,-7.13959e+01,0.00000e+00,0.00000e+00,0.00000e+00
9.30700e+02,-1.15692e+01,-6.82917e+01,0.00000e+00,0.00000e+00,0.00000e+00
9.30700e+02,-1.11933e+01,-6.51876e+01,0.00000e+00,0.00000e+00,0.00000e+00
9.30700e+02,-1.07458e+01,-6.20834e+01,0.00000e+00,0.00000e+00,0.00000e+00
9.30700e+02,-1.02569e+01,-5.89792e+01,0.00000e+00,0.00000e+00,0.00000e+00
9.30700e+02,-9.70544e+00,-5.58751e+01,0.00000e+00,0.00000e+00,0.00000e+00
9.30700e+02,-9.11493e+00,-5.27709e+01,0.00000e+00,0.00000e+00,0.00000e+00
9.30700e+02,-8.48637e+00,-4.96667e+01,0.00000e+00,0.00000e+00,0.00000e+00
9.30700e+02,-7.81993e+00,-4.65625e+01,0.00000e+00,0.00000e+00,0.00000e+00
9.30700e+02,-7.12973e+00,-4.34584e+01,0.00000e+00,0.00000e+00,0.00000e+00
9.30700e+02,-6.40909e+00,-4.03542e+01,0.00000e+00,0.00000e+00,0.00000e+00
9.30700e+02,-5.66897e+00,-3.72500e+01,0.00000e+00,0.00000e+00,0.00000e+00
9.30700e+02,-4.91137e+00,-3.41459e+01,0.00000e+00,0.00000e+00,0.00000e+00
9.30700e+02,-4.13818e+00,-3.10417e+01,0.00000e+00,0.00000e+00,0.00000e+00
9.30700e+02,-3.35837e+00,-2.79375e+01,0.00000e+00,0.00000e+00,0.00000e+00
9.30700e+02,-2.56834e+00,-2.48334e+01,0.00000e+00,0.00000e+00,0.00000e+00
9.30700e+02,-1.77660e+00,-2.17292e+01,0.00000e+00,0.00000e+00,0.00000e+00
9.30700e+02,-9.78745e-01,-1.86250e+01,0.00000e+00,0.00000e+00,0.00000e+00
9.30700e+02,-1.80973e-01,-1.55208e+01,0.00000e+00,0.00000e+00,0.00000e+00
9.30700e+02,6.13784e-01,-1.24167e+01,0.00000e+00,0.00000e+00,0.00000e+00
9.30700e+02,1.40854e+00,-9.31251e+00,0.00000e+00,0.00000e+00,0.00000e+00
9.30700e+02,2.18448e+00,-6.20834e+00,0.00000e+00,0.00000e+00,0.00000e+00
9.30700e+02,2.95691e+00,-3.10417e+00,0.00000e+00,0.00000e+00,0.00000e+00
1.02500e+03,3.90671e+01,0.00000e+00,0.00000e+00,0.00000e+00,0.00000e+00
1.02500e+03,3.88704e+01,-2.96869e+00,0.00000e+00,0.00000e+00,0.00000e+00
1.02500e+03,3.86086e+01,-5.93738e+00,0.00000e+00,0.00000e+00,0.00000e+00
1.02500e+03,3.83443e+01,-8.90607e+00,0.00000e+00,0.00000e+00,0.00000e+00
1.02500e+03,3.80226e+01,-1.18748e+01,0.00000e+00,0.00000e+00,0.00000e+00
1.02500e+03,3.76875e+01,-1.48435e+01,0.00000e+00,0.00000e+00,0.00000e+00
1.02500e+03,3.73084e+01,-1.78121e+01,0.00000e+00,0.00000e+00,0.00000e+00
1.02500e+03,3.69079e+01,-2.07808e+01,0.00000e+00,0.00000e+00,0.00000e+00
1.02500e+03,3.64721e+01,-2.37495e+01,0.00000e+00,0.00000e+00,0.00000e+00
1.02500e+03,3.60071e+01,-2.67182e+01,0.00000e+00,0.00000e+00,0.00000e+00
1.02500e+03,3.55102e+01,-2.96869e+01,0.00000e+00,0.00000e+00,0.00000e+00
1.02500e+03,3.49746e+01,-3.26556e+01,0.00000e+00,0.00000e+00,0.00000e+00
1.02500e+03,3.43994e+01,-3.56243e+01,0.00000e+00,0.00000e+00,0.00000e+00
1.02500e+03,3.37680e+01,-3.85930e+01,0.00000e+00,0.00000e+00,0.00000e+00
1.02500e+03,3.30819e+01,-4.15617e+01,0.00000e+00,0.00000e+00,0.00000e+00
1.02500e+03,3.23305e+01,-4.45304e+01,0.00000e+00,0.00000e+00,0.00000e+00
1.02500e+03,3.14906e+01,-4.74990e+01,0.00000e+00,0.00000e+00,0.00000e+00
1.02500e+03,3.05891e+01,-5.04677e+01,0.00000e+00,0.00000e+00,0.00000e+00
1.02500e+03,2.95491e+01,-5.34364e+01,0.00000e+00,0.00000e+00,0.00000e+00
1.02500e+03,2.84516e+01,-5.64051e+01,0.00000e+00,0.00000e+00,0.00000e+00
1.02500e+03,2.71940e+01,-5.93738e+01,0.00000e+00,0.00000e+00,0.00000e+00
1.02500e+03,2.58083e+01,-6.23425e+01,0.00000e+00,0.00000e+00,0.00000e+00
1.02500e+03,2.42920e+01,-6.53112e+01,0.00000e+00,0.00000e+00,0.00000e+00
1.02500e+03,2.25567e+01,-6.82799e+01,0.00000e+00,0.00000e+00,0.00000e+00
1.02500e+03,2.05677e+01,-7.12486e+01,0.00000e+00,0.00000e+00,0.00000e+00
1.02500e+03,1.82919e+01,-7.42173e+01,0.00000e+00,0.00000e+00,0.00000e+00
1.02500e+03,1.56001e+01,-7.71859e+01,0.00000e+00,0.00000e+00,0.00000e+00
1.02500e+03,1.21450e+01,-8.01546e+01,0.00000e+00,0.00000e+00,0.00000e+00
1.02500e+03,7.47201e+00,-8.31233e+01,0.00000e+00,0.00000e+00,0.00000e+00
1.02500e+03,-3.02760e+00,-8.60920e+01,0.00000e+00,0.00000e+00,0.00000e+00
1.02500e+03,-3.78536e+00,-8.60989e+01,0.00000e+00,0.00000e+00,0.00000e+00
1.02500e+03,-1.06891e+01,-8.30239e+01,0.00000e+00,0.00000e+00,0.00000e+00
1.02500e+03,-1.15250e+01,-7.99490e+01,0.00000e+00,0.00000e+00,0.00000e+00
1.02500e+03,-1.18134e+01,-7.68740e+01,0.00000e+00,0.00000e+00,0.00000e+00
1.02500e+03,-1.18572e+01,-7.37991e+01,0.00000e+00,0.00000e+00,0.00000e+00
1.02500e+03,-1.17166e+01,-7.07241e+01,0.00000e+00,0.00000e+00,0.00000e+00
1.02500e+03,-1.14604e+01,-6.76491e+01,0.00000e+00,0.00000e+00,0.00000e+00
1.02500e+03,-1.10880e+01,-6.45742e+01,0.00000e+00,0.00000e+00,0.00000e+00
1.02500e+03,-1.06447e+01,-6.14992e+01,0.00000e+00,0.00000e+00,0.00000e+00
1.02500e+03,-1.01604e+01,-5.84243e+01,0.00000e+00,0.00000e+00,0.00000e+00
1.02500e+03,-9.61411e+00,-5.53493e+01,0.00000e+00,0.00000e+00,0.00000e+00
1.02500e+03,-9.02916e+00,-5.22743e+01,0.00000e+00,0.00000e+00,0.00000e+00
1.02500e+03,-8.40652e+00,-4.91994e+01,0.00000e+00,0.00000e+00,0.00000e+00
1.02500e+03,-7.74634e+00,-4.61244e+01,0.00000e+00,0.00000e+00,0.00000e+00
1.02500e+03,-7.06264e+00,-4.30495e+01,0.00000e+00,0.00000e+00,0.00000e+00
1.02500e+03,-6.34878e+00,-3.99745e+01,0.00000e+00,0.00000e+00,0.00000e+00
1.02500e+03,-5.61563e+00,-3.68995e+01,0.00000e+00,0.00000e+00,0.00000e+00
1.02500e+03,-4.86516e+00,-3.38246e+01,0.00000e+00,0.00000e+00,0.00000e+00
1.02500e+03,-4.09924e+00,-3.07496e+01,0.00000e+00,0.00000e+00,0.00000e+00
1.02500e+03,-3.32677e+00,-2.76746e+01,0.00000e+00,0.00000e+00,0.00000e+00
1.02500e+03,-2.54417e+00,-2.45997e+01,0.00000e+00,0.00000e+00,0.00000e+00
1.02500e+03,-1.75988e+00,-2.15247e+01,0.00000e+00,0.00000e+00,0.00000e+00
1.02500e+03,-9.69535e-01,-1.84498e+01,0.00000e+00,0.00000e+00,0.00000e+00
1.02500e+03,-1.79270e-01,-1.53748e+01,0.00000e+00,0.00000e+00,0.00000e+00
1.02500e+03,6.08008e-01,-1.22998e+01,0.00000e+00,0.00000e+00,0.00000e+00
1.02500e+03,1.39529e+00,-9.22488e+00,0.00000e+00,0.00000e+00,0.00000e+00
1.02500e+03,2.16392e+00,-6.14992e+00,0.00000e+00,0.00000e+00,0.00000e+00
1.02500e+03,2.92908e+00,-3.07496e+00,0.00000e+00,0.00000e+00,0.00000e+00
1.11650e+03,3.87070e+01,0.00000e+00,0.00000e+00,0.00000e+00,0.00000e+00
1.11650e+03,3.85121e+01,-2.94133e+00,0.00000e+00,0.00000e+00,0.00000e+00
1.11650e+03,3.82528e+01,-5.88266e+00,0.00000e+00,0.00000e+00,0.00000e+00
1.11650e+03,3.79909e+01,-8.82398e+00,0.00000e+00,0.00000e+00,0.00000e+00
1.11650e+03,3.76721e+01,-1.17653e+01,0.00000e+00,0.00000e+00,0.00000e+00
1.11650e+03,3.73401e+01,-1.47066e+01,0.00000e+00,0.00000e+00,0.00000e+00
1.11650e+03,3.69645e+01,-1.76480e+01,0.00000e+00,0.00000e+00,0.00000e+00
1.11650e+03,3.65678e+01,-2.05893e+01,0.00000e+00,0.00000e+00,0.00000e+00
1.11650e+03,3.61359e+01,-2.35306e+01,0.00000e+00,0.00000e+00,0.00000e+00
1.11650e+03,3.56753e+01,-2.64720e+01,0.00000e+00,0.00000e+00,0.00000e+00
1.11650e+03,3.51829e+01,-2.94133e+01,0.00000e+00,0.00000e+00,0.00000e+00
1.11650e+03,3.46522e+01,-3.23546e+01,0.00000e+00,0.00000e+00,0.00000e+00
1.11650e+03,3.40823e+01,-3.52959e+01,0.00000e+00,0.00000e+00,0.00000e+00
1.11650e+03,3.34567e+01,-3.82373e+01,0.00000e+00,0.00000e+00,0.00000e+00
1.11650e+03,3.27770e+01,-4.11786e+01,0.00000e+00,0.00000e+00,0.00000e+00
1.11650e+03,3.20325e+01,-4.41199e+01,0.00000e+00,0.00000e+00,0.00000e+00
1.11650e+03,3.12004e+01,-4.70612e+01,0.00000e+00,0.00000e+00,0.00000e+00
1.11650e+03,3.03072e+01,-5.00026e+01,0.00000e+00,0.00000e+00,0.00000e+00
1.11650e+03,2.92767e+01,-5.29439e+01,0.00000e+00,0.00000e+00,0.00000e+00
1.11650e+03,2.81893e+01,-5.58852e+01,0.00000e+00,0.00000e+00,0.00000e+00
1.11650e+03,2.69434e+01,-5.88266e+01,0.00000e+00,0.00000e+00,0.00000e+00
1.11650e+03,2.55704e+01,-6.17679e+01,0.00000e+00,0.00000e+00,0.00000e+00
1.11650e+03,2.40681e+01,-6.47092e+01,0.00000e+00,0.00000e+00,0.00000e+00
1.11650e+03,2.23488e+01,-6.76505e+01,0.00000e+00,0.00000e+00,0.00000e+00
1.11650e+03,2.03781e+01,-7.05919e+01,0.00000e+00,0.00000e+00,0.00000e+00
1.11650e+03,1.81233e+01,-7.35332e+01,0.00000e+00,0.00000e+00,0.00000e+00
1.11650e+03,1.54563e+01,-7.64745e+01,0.00000e+00,0.00000e+00,0.00000e+00
1.11650e+03,1.20330e+01,-7.94159e+01,0.00000e+00,0.00000e+00,0.00000e+00
1.11650e+03,7.40314e+00,-8.23572e+01,0.00000e+00,0.00000e+00,0.00000e+00
1.11650e+03,-2.99970e+00,-8.52985e+01,0.00000e+00,0.00000e+00,0.00000e+00
1.11650e+03,-3.75047e+00,-8.53053e+01,0.00000e+00,0.00000e+00,0.00000e+00
1.11650e+03,-1.05906e+01,-8.22587e+01,0.00000e+00,0.00000e+00,0.00000e+00
1.11650e+03,-1.14188e+01,-7.92121e+01,0.00000e+00,0.00000e+00,0.00000e+00
1.11650e+03,-1.17045e+01,-7.61655e+01,0.00000e+00,0.00000e+00,0.00000e+00
1.11650e+03,-1.17479e+01,-7.31189e+01,0.00000e+00,0.00000e+00,0.00000e+00
1.11650e+03,-1.16086e+01,-7.00722e+01,0.00000e+00,0.00000e+00,0.00000e+00
1.11650e+03,-1.13547e+01,-6.70256e+01,0.00000e+00,0.00000e+00,0.00000e+00
1.11650e+03,-1.09858e+01,-6.39790e+01,0.00000e+00,0.00000e+00,0.00000e+00
1.11650e+03,-1.05466e+01,-6.09324e+01,0.00000e+00,0.00000e+00,0.00000e+00
1.11650e+03,-1.00667e+01,-5.78858e+01,0.00000e+00,0.00000e+00,0.00000e+00
1.11650e+03,-9.52550e+00,-5.48391e+01,0.00000e+00,0.00000e+00,0.00000e+00
1.11650e+03,-8.94594e+00,-5.17925e+01,0.00000e+00,0.00000e+00,0.00000e+00
1.11650e+03,-8.32904e+00,-4.87459e+01,0.00000e+00,0.00000e+00,0.00000e+00
1.11650e+03,-7.67495e+00,-4.56993e+01,0.00000e+00,0.00000e+00,0.00000e+00
1.11650e+03,-6.99754e+00,-4.26527e+01,0.00000e+00,0.00000e+00,0.00000e+00
1.11650e+03,-6.29027e+00,-3.96060e+01,0.00000e+00,0.00000e+00,0.00000e+00
1.11650e+03,-5.56387e+00,-3.65594e+01,0.00000e+00,0.00000e+00,0.00000e+00
1.11650e+03,-4.82031e+00,-3.35128e+01,0.00000e+00,0.00000e+00,0.00000e+00
1.11650e+03,-4.06146e+00,-3.04662e+01,0.00000e+00,0.00000e+00,0.00000e+00
1.11650e+03,-3.29611e+00,-2.74196e+01,0.00000e+00,0.00000e+00,0.00000e+00
1.11650e+03,-2.52072e+00,-2.43730e+01,0.00000e+00,0.00000e+00,0.00000e+00
1.11650e+03,-1.74366e+00,-2.13263e+01,0.00000e+00,0.00000e+00,0.00000e+00
1.11650e+03,-9.60599e-01,-1.82797e+01,0.00000e+00,0.00000e+00,0.00000e+00
1.11650e+03,-1.77618e-01,-1.52331e+01,0.00000e+00,0.00000e+00,0.00000e+00
1.11650e+03,6.02404e-01,-1.21865e+01,0.00000e+00,0.00000e+00,0.00000e+00
1.11650e+03,1.38243e+00,-9.13986e+00,0.00000e+00,0.00000e+00,0.00000e+00
1.11650e+03,2.14398e+00,-6.09324e+00,0.00000e+00,0.00000e+00,0.00000e+00
1.11650e+03,2.90209e+00,-3.04662e+00,0.00000e+00,0.00000e+00,0.00000e+00
1.20500e+03,3.76912e+01,0.00000e+00,0.00000e+00,0.00000e+00,0.00000e+00
1.20500e+03,3.75014e+01,-2.86413e+00,0.00000e+00,0.00000e+00,0.00000e+00
1.20500e+03,3.72488e+01,-5.72827e+00,0.00000e+00,0.00000e+00,0.00000e+00
1.20500e+03,3.69938e+01,-8.59240e+00,0.00000e+00,0.00000e+00,0.00000e+00
1.20500e+03,3.66834e+01,-1.14565e+01,0.00000e+00,0.00000e+00,0.00000e+00
1.20500e+03,3.63602e+01,-1.43207e+01,0.00000e+00,0.00000e+00,0.00000e+00
1.20500e+03,3.59944e+01,-1.71848e+01,0.00000e+00,0.00000e+00,0.00000e+00
1.20500e+03,3.56080e+01,-2.00489e+01,0.00000e+00,0.00000e+00,0.00000e+00
1.20500e+03,3.51875e+01,-2.29131e+01,0.00000e+00,0.00000e+00,0.00000e+00
1.20500e+03,3.47390e+01,-2.57772e+01,0.00000e+00,0.00000e+00,0.00000e+00
1.20500e+03,3.42596e+01,-2.86413e+01,0.00000e+00,0.00000e+00,0.00000e+00
1.20500e+03,3.37428e+01,-3.15055e+01,0.00000e+00,0.00000e+00,0.00000e+00
1.20500e+03,3.31878e+01,-3.43696e+01,0.00000e+00,0.00000e+00,0.00000e+00
1.20500e+03,3.25787e+01,-3.72337e+01,0.00000e+00,0.00000e+00,0.00000e+00
1.20500e+03,3.19168e+01,-4.00979e+01,0.00000e+00,0.00000e+00,0.00000e+00
1.20500e+03,3.11919e+01,-4.29620e+01,0.00000e+00,0.00000e+00,0.00000e+00
1.20500e+03,3.03815e+01,-4.58261e+01,0.00000e+00,0.00000e+00,0.00000e+00
1.20500e+03,2.95118e+01,-4.86903e+01,0.00000e+00,0.00000e+00,0.00000e+00
1.20500e+03,2.85084e+01,-5.15544e+01,0.00000e+00,0.00000e+00,0.00000e+00
1.20500e+03,2.74495e+01,-5.44186e+01,0.00000e+00,0.00000e+00,0.00000e+00
1.20500e+03,2.62363e+01,-5.72827e+01,0.00000e+00,0.00000e+00,0.00000e+00
1.20500e+03,2.48993e+01,-6.01468e+01,0.00000e+00,0.00000e+00,0.00000e+00
1.20500e+03,2.34365e+01,-6.30110e+01,0.00000e+00,0.00000e+00,0.00000e+00
1.20500e+03,2.17623e+01,-6.58751e+01,0.00000e+00,0.00000e+00,0.00000e+00
1.20500e+03,1.98433e+01,-6.87392e+01,0.00000e+00,0.00000e+00,0.00000e+00
1.20500e+03,1.76476e+01,-7.16034e+01,0.00000e+00,0.00000e+00,0.00000e+00
1.20500e+03,1.50506e+01,-7.44675e+01,0.00000e+00,0.00000e+00,0.00000e+00
1.20500e+03,1.17172e+01,-7.73316e+01,0.00000e+00,0.00000e+00,0.00000e+00
1.20500e+03,7.20885e+00,-8.01958e+01,0.00000e+00,0.00000e+00,0.00000e+00
1.20500e+03,-2.92097e+00,-8.30599e+01,0.00000e+00,0.00000e+00,0.00000e+00
1.20500e+03,-3.65204e+00,-8.30665e+01,0.00000e+00,0.00000e+00,0.00000e+00
1.20500e+03,-1.03126e+01,-8.00999e+01,0.00000e+00,0.00000e+00,0.00000e+00
1.20500e+03,-1.11191e+01,-7.71332e+01,0.00000e+00,0.00000e+00,0.00000e+00
1.20500e+03,-1.13974e+01,-7.41666e+01,0.00000e+00,0.00000e+00,0.00000e+00
1.20500e+03,-1.14396e+01,-7.11999e+01,0.00000e+00,0.00000e+00,0.00000e+00
1.20500e+03,-1.13040e+01,-6.82332e+01,0.00000e+00,0.00000e+00,0.00000e+00
1.20500e+03,-1.10567e+01,-6.52666e+01,0.00000e+00,0.00000e+00,0.00000e+00
1.20500e+03,-1.06975e+01,-6.22999e+01,0.00000e+00,0.00000e+00,0.00000e+00
1.20500e+03,-1.02698e+01,-5.93332e+01,0.00000e+00,0.00000e+00,0.00000e+00
1.20500e+03,-9.80253e+00,-5.63666e+01,0.00000e+00,0.00000e+00,0.00000e+00
1.20500e+03,-9.27551e+00,-5.33999e+01,0.00000e+00,0.00000e+00,0.00000e+00
1.20500e+03,-8.71115e+00,-5.04333e+01,0.00000e+00,0.00000e+00,0.00000e+00
1.20500e+03,-8.11045e+00,-4.74666e+01,0.00000e+00,0.00000e+00,0.00000e+00
1.20500e+03,-7.47352e+00,-4.44999e+01,0.00000e+00,0.00000e+00,0.00000e+00
1.20500e+03,-6.81389e+00,-4.15333e+01,0.00000e+00,0.00000e+00,0.00000e+00
1.20500e+03,-6.12518e+00,-3.85666e+01,0.00000e+00,0.00000e+00,0.00000e+00
1.20500e+03,-5.41785e+00,-3.55999e+01,0.00000e+00,0.00000e+00,0.00000e+00
1.20500e+03,-4.69381e+00,-3.26333e+01,0.00000e+00,0.00000e+00,0.00000e+00
1.20500e+03,-3.95486e+00,-2.96666e+01,0.00000e+00,0.00000e+00,0.00000e+00
1.20500e+03,-3.20961e+00,-2.67000e+01,0.00000e+00,0.00000e+00,0.00000e+00
1.20500e+03,-2.45457e+00,-2.37333e+01,0.00000e+00,0.00000e+00,0.00000e+00
1.20500e+03,-1.69790e+00,-2.07666e+01,0.00000e+00,0.00000e+00,0.00000e+00
1.20500e+03,-9.35389e-01,-1.78000e+01,0.00000e+00,0.00000e+00,0.00000e+00
1.20500e+03,-1.72956e-01,-1.48333e+01,0.00000e+00,0.00000e+00,0.00000e+00
1.20500e+03,5.86594e-01,-1.18666e+01,0.00000e+00,0.00000e+00,0.00000e+00
1.20500e+03,1.34615e+00,-8.89999e+00,0.00000e+00,0.00000e+00,0.00000e+00
1.20500e+03,2.08771e+00,-5.93332e+00,0.00000e+00,0.00000e+00,0.00000e+00
1.20500e+03,2.82592e+00,-2.96666e+00,0.00000e+00,0.00000e+00,0.00000e+00
1.29010e+03,3.63234e+01,0.00000e+00,0.00000e+00,0.00000e+00,0.00000e+00
1.29010e+03,3.61405e+01,-2.76019e+00,0.00000e+00,0.00000e+00,0.00000e+00
1.29010e+03,3.58971e+01,-5.52039e+00,0.00000e+00,0.00000e+00,0.00000e+00
1.29010e+03,3.56513e+01,-8.28058e+00,0.00000e+00,0.00000e+00,0.00000e+00
1.29010e+03,3.53522e+01,-1.10408e+01,0.00000e+00,0.00000e+00,0.00000e+00
1.29010e+03,3.50407e+01,-1.38010e+01,0.00000e+00,0.00000e+00,0.00000e+00
1.29010e+03,3.46882e+01,-1.65612e+01,0.00000e+00,0.00000e+00,0.00000e+00
1.29010e+03,3.43158e+01,-1.93214e+01,0.00000e+00,0.00000e+00,0.00000e+00
1.29010e+03,3.39106e+01,-2.20816e+01,0.00000e+00,0.00000e+00,0.00000e+00
1.29010e+03,3.34783e+01,-2.48418e+01,0.00000e+00,0.00000e+00,0.00000e+00
1.29010e+03,3.30163e+01,-2.76019e+01,0.00000e+00,0.00000e+00,0.00000e+00
1.29010e+03,3.25183e+01,-3.03621e+01,0.00000e+00,0.00000e+00,0.00000e+00
1.29010e+03,3.19834e+01,-3.31223e+01,0.00000e+00,0.00000e+00,0.00000e+00
1.29010e+03,3.13964e+01,-3.58825e+01,0.00000e+00,0.00000e+00,0.00000e+00
1.29010e+03,3.07585e+01,-3.86427e+01,0.00000e+00,0.00000e+00,0.00000e+00
1.29010e+03,3.00599e+01,-4.14029e+01,0.00000e+00,0.00000e+00,0.00000e+00
1.29010e+03,2.92790e+01,-4.41631e+01,0.00000e+00,0.00000e+00,0.00000e+00
1.29010e+03,2.84408e+01,-4.69233e+01,0.00000e+00,0.00000e+00,0.00000e+00
1.29010e+03,2.74738e+01,-4.96835e+01,0.00000e+00,0.00000e+00,0.00000e+00
1.29010e+03,2.64534e+01,-5.24437e+01,0.00000e+00,0.00000e+00,0.00000e+00
1.29010e+03,2.52842e+01,-5.52039e+01,0.00000e+00,0.00000e+00,0.00000e+00
1.29010e+03,2.39957e+01,-5.79641e+01,0.00000e+00,0.00000e+00,0.00000e+00
1.29010e+03,2.25860e+01,-6.07243e+01,0.00000e+00,0.00000e+00,0.00000e+00
1.29010e+03,2.09725e+01,-6.34845e+01,0.00000e+00,0.00000e+00,0.00000e+00
1.29010e+03,1.91232e+01,-6.62447e+01,0.00000e+00,0.00000e+00,0.00000e+00
1.29010e+03,1.70072e+01,-6.90049e+01,0.00000e+00,0.00000e+00,0.00000e+00
1.29010e+03,1.45045e+01,-7.17651e+01,0.00000e+00,0.00000e+00,0.00000e+00
1.29010e+03,1.12920e+01,-7.45253e+01,0.00000e+00,0.00000e+00,0.00000e+00
1.29010e+03,6.94724e+00,-7.72855e+01,0.00000e+00,0.00000e+00,0.00000e+00
1.29010e+03,-2.81497e+00,-8.00457e+01,0.00000e+00,0.00000e+00,0.00000e+00
1.29010e+03,-3.51951e+00,-8.00521e+01,0.00000e+00,0.00000e+00,0.00000e+00
1.29010e+03,-9.93839e+00,-7.71931e+01,0.00000e+00,0.00000e+00,0.00000e+00
1.29010e+03,-1.07156e+01,-7.43341e+01,0.00000e+00,0.00000e+00,0.00000e+00
1.29010e+03,-1.09838e+01,-7.14751e+01,0.00000e+00,0.00000e+00,0.00000e+00
1.29010e+03,-1.10244e+01,-6.86160e+01,0.00000e+00,0.00000e+00,0.00000e+00
1.29010e+03,-1.08937e+01,-6.57570e+01,0.00000e+00,0.00000e+00,0.00000e+00
1.29010e+03,-1.06555e+01,-6.28980e+01,0.00000e+00,0.00000e+00,0.00000e+00
1.29010e+03,-1.03093e+01,-6.00390e+01,0.00000e+00,0.00000e+00,0.00000e+00
1.29010e+03,-9.89713e+00,-5.71800e+01,0.00000e+00,0.00000e+00,0.00000e+00
1.29010e+03,-9.44680e+00,-5.43210e+01,0.00000e+00,0.00000e+00,0.00000e+00
1.29010e+03,-8.93890e+00,-5.14620e+01,0.00000e+00,0.00000e+00,0.00000e+00
1.29010e+03,-8.39503e+00,-4.86030e+01,0.00000e+00,0.00000e+00,0.00000e+00
1.29010e+03,-7.81612e+00,-4.57440e+01,0.00000e+00,0.00000e+00,0.00000e+00
1.29010e+03,-7.20231e+00,-4.28850e+01,0.00000e+00,0.00000e+00,0.00000e+00
1.29010e+03,-6.56662e+00,-4.00260e+01,0.00000e+00,0.00000e+00,0.00000e+00
1.29010e+03,-5.90290e+00,-3.71670e+01,0.00000e+00,0.00000e+00,0.00000e+00
1.29010e+03,-5.22123e+00,-3.43080e+01,0.00000e+00,0.00000e+00,0.00000e+00
1.29010e+03,-4.52347e+00,-3.14490e+01,0.00000e+00,0.00000e+00,0.00000e+00
1.29010e+03,-3.81134e+00,-2.85900e+01,0.00000e+00,0.00000e+00,0.00000e+00
1.29010e+03,-3.09313e+00,-2.57310e+01,0.00000e+00,0.00000e+00,0.00000e+00
1.29010e+03,-2.36549e+00,-2.28720e+01,0.00000e+00,0.00000e+00,0.00000e+00
1.29010e+03,-1.63628e+00,-2.00130e+01,0.00000e+00,0.00000e+00,0.00000e+00
1.29010e+03,-9.01444e-01,-1.71540e+01,0.00000e+00,0.00000e+00,0.00000e+00
1.29010e+03,-1.66680e-01,-1.42950e+01,0.00000e+00,0.00000e+00,0.00000e+00
1.29010e+03,5.65307e-01,-1.14360e+01,0.00000e+00,0.00000e+00,0.00000e+00
1.29010e+03,1.29729e+00,-8.57701e+00,0.00000e+00,0.00000e+00,0.00000e+00
1.29010e+03,2.01195e+00,-5.71800e+00,0.00000e+00,0.00000e+00,0.00000e+00
1.29010e+03,2.72337e+00,-2.85900e+00,0.00000e+00,0.00000e+00,0.00000e+00
1.37170e+03,3.50118e+01,0.00000e+00,0.00000e+00,0.00000e+00,0.00000e+00
1.37170e+03,3.48355e+01,-2.66053e+00,0.00000e+00,0.00000e+00,0.00000e+00
1.37170e+03,3.46009e+01,-5.32106e+00,0.00000e+00,0.00000e+00,0.00000e+00
1.37170e+03,3.43640e+01,-7.98159e+00,0.00000e+00,0.00000e+00,0.00000e+00
1.37170e+03,3.40757e+01,-1.06421e+01,0.00000e+00,0.00000e+00,0.00000e+00
1.37170e+03,3.37754e+01,-1.33027e+01,0.00000e+00,0.00000e+00,0.00000e+00
1.37170e+03,3.34357e+01,-1.59632e+01,0.00000e+00,0.00000e+00,0.00000e+00
1.37170e+03,3.30768e+01,-1.86237e+01,0.00000e+00,0.00000e+00,0.00000e+00
1.37170e+03,3.26861e+01,-2.12842e+01,0.00000e+00,0.00000e+00,0.00000e+00
1.37170e+03,3.22695e+01,-2.39448e+01,0.00000e+00,0.00000e+00,0.00000e+00
1.37170e+03,3.18241e+01,-2.66053e+01,0.00000e+00,0.00000e+00,0.00000e+00
1.37170e+03,3.13441e+01,-2.92658e+01,0.00000e+00,0.00000e+00,0.00000e+00
1.37170e+03,3.08286e+01,-3.19264e+01,0.00000e+00,0.00000e+00,0.00000e+00
1.37170e+03,3.02627e+01,-3.45869e+01,0.00000e+00,0.00000e+00,0.00000e+00
1.37170e+03,2.96479e+01,-3.72474e+01,0.00000e+00,0.00000e+00,0.00000e+00
1.37170e+03,2.89745e+01,-3.99080e+01,0.00000e+00,0.00000e+00,0.00000e+00
1.37170e+03,2.82218e+01,-4.25685e+01,0.00000e+00,0.00000e+00,0.00000e+00
1.37170e+03,2.74139e+01,-4.52290e+01,0.00000e+00,0.00000e+00,0.00000e+00
1.37170e+03,2.64818e+01,-4.78895e+01,0.00000e+00,0.00000e+00,0.00000e+00
1.37170e+03,2.54982e+01,-5.05501e+01,0.00000e+00,0.00000e+00,0.00000e+00
1.37170e+03,2.43712e+01,-5.32106e+01,0.00000e+00,0.00000e+00,0.00000e+00
1.37170e+03,2.31293e+01,-5.58711e+01,0.00000e+00,0.00000e+00,0.00000e+00
1.37170e+03,2.17704e+01,-5.85317e+01,0.00000e+00,0.00000e+00,0.00000e+00
1.37170e+03,2.02153e+01,-6.11922e+01,0.00000e+00,0.00000e+00,0.00000e+00
1.37170e+03,1.84327e+01,-6.38527e+01,0.00000e+00,0.00000e+00,0.00000e+00
1.37170e+03,1.63931e+01,-6.65133e+01,0.00000e+00,0.00000e+00,0.00000e+00
1.37170e+03,1.39807e+01,-6.91738e+01,0.00000e+00,0.00000e+00,0.00000e+00
1.37170e+03,1.08843e+01,-7.18343e+01,0.00000e+00,0.00000e+00,0.00000e+00
1.37170e+03,6.69639e+00,-7.44949e+01,0.00000e+00,0.00000e+00,0.00000e+00
1.37170e+03,-2.71333e+00,-7.71554e+01,0.00000e+00,0.00000e+00,0.00000e+00
1.37170e+03,-3.39243e+00,-7.71616e+01,0.00000e+00,0.00000e+00,0.00000e+00
1.37170e+03,-9.57954e+00,-7.44058e+01,0.00000e+00,0.00000e+00,0.00000e+00
1.37170e+03,-1.03287e+01,-7.16500e+01,0.00000e+00,0.00000e+00,0.00000e+00
1.37170e+03,-1.05872e+01,-6.88942e+01,0.00000e+00,0.00000e+00,0.00000e+00
1.37170e+03,-1.06264e+01,-6.61385e+01,0.00000e+00,0.00000e+00,0.00000e+00
1.37170e+03,-1.05004e+01,-6.33827e+01,0.00000e+00,0.00000e+00,0.00000e+00
1.37170e+03,-1.02708e+01,-6.06269e+01,0.00000e+00,0.00000e+00,0.00000e+00
1.37170e+03,-9.93701e+00,-5.78712e+01,0.00000e+00,0.00000e+00,0.00000e+00
1.37170e+03,-9.53977e+00,-5.51154e+01,0.00000e+00,0.00000e+00,0.00000e+00
1.37170e+03,-9.10569e+00,-5.23596e+01,0.00000e+00,0.00000e+00,0.00000e+00
1.37170e+03,-8.61613e+00,-4.96039e+01,0.00000e+00,0.00000e+00,0.00000e+00
1.37170e+03,-8.09190e+00,-4.68481e+01,0.00000e+00,0.00000e+00,0.00000e+00
1.37170e+03,-7.53389e+00,-4.40923e+01,0.00000e+00,0.00000e+00,0.00000e+00
1.37170e+03,-6.94225e+00,-4.13365e+01,0.00000e+00,0.00000e+00,0.00000e+00
1.37170e+03,-6.32951e+00,-3.85808e+01,0.00000e+00,0.00000e+00,0.00000e+00
1.37170e+03,-5.68976e+00,-3.58250e+01,0.00000e+00,0.00000e+00,0.00000e+00
1.37170e+03,-5.03271e+00,-3.30692e+01,0.00000e+00,0.00000e+00,0.00000e+00
1.37170e+03,-4.36014e+00,-3.03135e+01,0.00000e+00,0.00000e+00,0.00000e+00
1.37170e+03,-3.67372e+00,-2.75577e+01,0.00000e+00,0.00000e+00,0.00000e+00
1.37170e+03,-2.98144e+00,-2.48019e+01,0.00000e+00,0.00000e+00,0.00000e+00
1.37170e+03,-2.28008e+00,-2.20462e+01,0.00000e+00,0.00000e+00,0.00000e+00
1.37170e+03,-1.57720e+00,-1.92904e+01,0.00000e+00,0.00000e+00,0.00000e+00
1.37170e+03,-8.68894e-01,-1.65346e+01,0.00000e+00,0.00000e+00,0.00000e+00
1.37170e+03,-1.60661e-01,-1.37788e+01,0.00000e+00,0.00000e+00,0.00000e+00
1.37170e+03,5.44895e-01,-1.10231e+01,0.00000e+00,0.00000e+00,0.00000e+00
1.37170e+03,1.25045e+00,-8.26731e+00,0.00000e+00,0.00000e+00,0.00000e+00
1.37170e+03,1.93930e+00,-5.51154e+00,0.00000e+00,0.00000e+00,0.00000e+00
1.37170e+03,2.62503e+00,-2.75577e+00,0.00000e+00,0.00000e+00,0.00000e+00
1.44960e+03,3.37597e+01,0.00000e+00,0.00000e+00,0.00000e+00,0.00000e+00
1.44960e+03,3.35897e+01,-2.56538e+00,0.00000e+00,0.00000e+00,0.00000e+00
1.44960e+03,3.33635e+01,-5.13077e+00,0.00000e+00,0.00000e+00,0.00000e+00
1.44960e+03,3.31351e+01,-7.69615e+00,0.00000e+00,0.00000e+00,0.00000e+00
1.44960e+03,3.28571e+01,-1.02615e+01,0.00000e+00,0.00000e+00,0.00000e+00
1.44960e+03,3.25675e+01,-1.28269e+01,0.00000e+00,0.00000e+00,0.00000e+00
1.44960e+03,3.22399e+01,-1.53923e+01,0.00000e+00,0.00000e+00,0.00000e+00
1.44960e+03,3.18939e+01,-1.79577e+01,0.00000e+00,0.00000e+00,0.00000e+00
1.44960e+03,3.15172e+01,-2.05231e+01,0.00000e+00,0.00000e+00,0.00000e+00
1.44960e+03,3.11155e+01,-2.30885e+01,0.00000e+00,0.00000e+00,0.00000e+00
1.44960e+03,3.06860e+01,-2.56538e+01,0.00000e+00,0.00000e+00,0.00000e+00
1.44960e+03,3.02232e+01,-2.82192e+01,0.00000e+00,0.00000e+00,0.00000e+00
1.44960e+03,2.97261e+01,-3.07846e+01,0.00000e+00,0.00000e+00,0.00000e+00
1.44960e+03,2.91805e+01,-3.33500e+01,0.00000e+00,0.00000e+00,0.00000e+00
1.44960e+03,2.85877e+01,-3.59154e+01,0.00000e+00,0.00000e+00,0.00000e+00
1.44960e+03,2.79383e+01,-3.84808e+01,0.00000e+00,0.00000e+00,0.00000e+00
1.44960e+03,2.72125e+01,-4.10462e+01,0.00000e+00,0.00000e+00,0.00000e+00
1.44960e+03,2.64335e+01,-4.36115e+01,0.00000e+00,0.00000e+00,0.00000e+00
1.44960e+03,2.55347e+01,-4.61769e+01,0.00000e+00,0.00000e+00,0.00000e+00
1.44960e+03,2.45863e+01,-4.87423e+01,0.00000e+00,0.00000e+00,0.00000e+00
1.44960e+03,2.34997e+01,-5.13077e+01,0.00000e+00,0.00000e+00,0.00000e+00
1.44960e+03,2.23022e+01,-5.38731e+01,0.00000e+00,0.00000e+00,0.00000e+00
1.44960e+03,2.09919e+01,-5.64385e+01,0.00000e+00,0.00000e+00,0.00000e+00
1.44960e+03,1.94923e+01,-5.90039e+01,0.00000e+00,0.00000e+00,0.00000e+00
1.44960e+03,1.77735e+01,-6.15692e+01,0.00000e+00,0.00000e+00,0.00000e+00
1.44960e+03,1.58069e+01,-6.41346e+01,0.00000e+00,0.00000e+00,0.00000e+00
1.44960e+03,1.34808e+01,-6.67000e+01,0.00000e+00,0.00000e+00,0.00000e+00
1.44960e+03,1.04950e+01,-6.92654e+01,0.00000e+00,0.00000e+00,0.00000e+00
1.44960e+03,6.45692e+00,-7.18308e+01,0.00000e+00,0.00000e+00,0.00000e+00
1.44960e+03,-2.61629e+00,-7.43962e+01,0.00000e+00,0.00000e+00,0.00000e+00
1.44960e+03,-3.27111e+00,-7.44021e+01,0.00000e+00,0.00000e+00,0.00000e+00
1.44960e+03,-9.23696e+00,-7.17449e+01,0.00000e+00,0.00000e+00,0.00000e+00
1.44960e+03,-9.95928e+00,-6.90877e+01,0.00000e+00,0.00000e+00,0.00000e+00
1.44960e+03,-1.02085e+01,-6.64305e+01,0.00000e+00,0.00000e+00,0.00000e+00
1.44960e+03,-1.02464e+01,-6.37732e+01,0.00000e+00,0.00000e+00,0.00000e+00
1.44960e+03,-1.01249e+01,-6.11160e+01,0.00000e+00,0.00000e+00,0.00000e+00
1.44960e+03,-9.90345e+00,-5.84588e+01,0.00000e+00,0.00000e+00,0.00000e+00
1.44960e+03,-9.58164e+00,-5.58016e+01,0.00000e+00,0.00000e+00,0.00000e+00
1.44960e+03,-9.19861e+00,-5.31444e+01,0.00000e+00,0.00000e+00,0.00000e+00
1.44960e+03,-8.78006e+00,-5.04872e+01,0.00000e+00,0.00000e+00,0.00000e+00
1.44960e+03,-8.30801e+00,-4.78299e+01,0.00000e+00,0.00000e+00,0.00000e+00
1.44960e+03,-7.80252e+00,-4.51727e+01,0.00000e+00,0.00000e+00,0.00000e+00
1.44960e+03,-7.26447e+00,-4.25155e+01,0.00000e+00,0.00000e+00,0.00000e+00
1.44960e+03,-6.69398e+00,-3.98583e+01,0.00000e+00,0.00000e+00,0.00000e+00
1.44960e+03,-6.10316e+00,-3.72011e+01,0.00000e+00,0.00000e+00,0.00000e+00
1.44960e+03,-5.48628e+00,-3.45438e+01,0.00000e+00,0.00000e+00,0.00000e+00
1.44960e+03,-4.85273e+00,-3.18866e+01,0.00000e+00,0.00000e+00,0.00000e+00
1.44960e+03,-4.20421e+00,-2.92294e+01,0.00000e+00,0.00000e+00,0.00000e+00
1.44960e+03,-3.54234e+00,-2.65722e+01,0.00000e+00,0.00000e+00,0.00000e+00
1.44960e+03,-2.87482e+00,-2.39150e+01,0.00000e+00,0.00000e+00,0.00000e+00
1.44960e+03,-2.19854e+00,-2.12577e+01,0.00000e+00,0.00000e+00,0.00000e+00
1.44960e+03,-1.52080e+00,-1.86005e+01,0.00000e+00,0.00000e+00,0.00000e+00
1.44960e+03,-8.37821e-01,-1.59433e+01,0.00000e+00,0.00000e+00,0.00000e+00
1.44960e+03,-1.54916e-01,-1.32861e+01,0.00000e+00,0.00000e+00,0.00000e+00
1.44960e+03,5.25408e-01,-1.06289e+01,0.00000e+00,0.00000e+00,0.00000e+00
1.44960e+03,1.20573e+00,-7.97166e+00,0.00000e+00,0.00000e+00,0.00000e+00
1.44960e+03,1.86995e+00,-5.31444e+00,0.00000e+00,0.00000e+00,0.00000e+00
1.44960e+03,2.53116e+00,-2.65722e+00,0.00000e+00,0.00000e+00,0.00000e+00
1.52340e+03,3.25736e+01,0.00000e+00,0.00000e+00,0.00000e+00,0.00000e+00
1.52340e+03,3.24095e+01,-2.47525e+00,0.00000e+00,0.00000e+00,0.00000e+00
1.52340e+03,3.21913e+01,-4.95049e+00,0.00000e+00,0.00000e+00,0.00000e+00
1.52340e+03,3.19709e+01,-7.42574e+00,0.00000e+00,0.00000e+00,0.00000e+00
1.52340e+03,3.17026e+01,-9.90099e+00,0.00000e+00,0.00000e+00,0.00000e+00
1.52340e+03,3.14232e+01,-1.23762e+01,0.00000e+00,0.00000e+00,0.00000e+00
1.52340e+03,3.11072e+01,-1.48515e+01,0.00000e+00,0.00000e+00,0.00000e+00
1.52340e+03,3.07733e+01,-1.73267e+01,0.00000e+00,0.00000e+00,0.00000e+00
1.52340e+03,3.04098e+01,-1.98020e+01,0.00000e+00,0.00000e+00,0.00000e+00
1.52340e+03,3.00222e+01,-2.22772e+01,0.00000e+00,0.00000e+00,0.00000e+00
1.52340e+03,2.96079e+01,-2.47525e+01,0.00000e+00,0.00000e+00,0.00000e+00
1.52340e+03,2.91613e+01,-2.72277e+01,0.00000e+00,0.00000e+00,0.00000e+00
1.52340e+03,2.86816e+01,-2.97030e+01,0.00000e+00,0.00000e+00,0.00000e+00
1.52340e+03,2.81552e+01,-3.21782e+01,0.00000e+00,0.00000e+00,0.00000e+00
1.52340e+03,2.75832e+01,-3.46535e+01,0.00000e+00,0.00000e+00,0.00000e+00
1.52340e+03,2.69567e+01,-3.71287e+01,0.00000e+00,0.00000e+00,0.00000e+00
1.52340e+03,2.62564e+01,-3.96040e+01,0.00000e+00,0.00000e+00,0.00000e+00
1.52340e+03,2.55047e+01,-4.20792e+01,0.00000e+00,0.00000e+00,0.00000e+00
1.52340e+03,2.46375e+01,-4.45544e+01,0.00000e+00,0.00000e+00,0.00000e+00
1.52340e+03,2.37225e+01,-4.70297e+01,0.00000e+00,0.00000e+00,0.00000e+00
1.52340e+03,2.26740e+01,-4.95049e+01,0.00000e+00,0.00000e+00,0.00000e+00
1.52340e+03,2.15185e+01,-5.19802e+01,0.00000e+00,0.00000e+00,0.00000e+00
1.52340e+03,2.02543e+01,-5.44554e+01,0.00000e+00,0.00000e+00,0.00000e+00
1.52340e+03,1.88075e+01,-5.69307e+01,0.00000e+00,0.00000e+00,0.00000e+00
1.52340e+03,1.71490e+01,-5.94059e+01,0.00000e+00,0.00000e+00,0.00000e+00
1.52340e+03,1.52515e+01,-6.18812e+01,0.00000e+00,0.00000e+00,0.00000e+00
1.52340e+03,1.30071e+01,-6.43564e+01,0.00000e+00,0.00000e+00,0.00000e+00
1.52340e+03,1.01263e+01,-6.68317e+01,0.00000e+00,0.00000e+00,0.00000e+00
1.52340e+03,6.23005e+00,-6.93069e+01,0.00000e+00,0.00000e+00,0.00000e+00
1.52340e+03,-2.52437e+00,-7.17822e+01,0.00000e+00,0.00000e+00,0.00000e+00
1.52340e+03,-3.15618e+00,-7.17879e+01,0.00000e+00,0.00000e+00,0.00000e+00
1.52340e+03,-8.91241e+00,-6.92241e+01,0.00000e+00,0.00000e+00,0.00000e+00
1.52340e+03,-9.60935e+00,-6.66602e+01,0.00000e+00,0.00000e+00,0.00000e+00
1.52340e+03,-9.84985e+00,-6.40963e+01,0.00000e+00,0.00000e+00,0.00000e+00
1.52340e+03,-9.88634e+00,-6.15325e+01,0.00000e+00,0.00000e+00,0.00000e+00
1.52340e+03,-9.76914e+00,-5.89686e+01,0.00000e+00,0.00000e+00,0.00000e+00
1.52340e+03,-9.55548e+00,-5.64048e+01,0.00000e+00,0.00000e+00,0.00000e+00
1.52340e+03,-9.24498e+00,-5.38409e+01,0.00000e+00,0.00000e+00,0.00000e+00
1.52340e+03,-8.87540e+00,-5.12771e+01,0.00000e+00,0.00000e+00,0.00000e+00
1.52340e+03,-8.47156e+00,-4.87132e+01,0.00000e+00,0.00000e+00,0.00000e+00
1.52340e+03,-8.01609e+00,-4.61494e+01,0.00000e+00,0.00000e+00,0.00000e+00
1.52340e+03,-7.52837e+00,-4.35855e+01,0.00000e+00,0.00000e+00,0.00000e+00
1.52340e+03,-7.00922e+00,-4.10217e+01,0.00000e+00,0.00000e+00,0.00000e+00
1.52340e+03,-6.45878e+00,-3.84578e+01,0.00000e+00,0.00000e+00,0.00000e+00
1.52340e+03,-5.88872e+00,-3.58940e+01,0.00000e+00,0.00000e+00,0.00000e+00
1.52340e+03,-5.29352e+00,-3.33301e+01,0.00000e+00,0.00000e+00,0.00000e+00
1.52340e+03,-4.68222e+00,-3.07662e+01,0.00000e+00,0.00000e+00,0.00000e+00
1.52340e+03,-4.05649e+00,-2.82024e+01,0.00000e+00,0.00000e+00,0.00000e+00
1.52340e+03,-3.41788e+00,-2.56385e+01,0.00000e+00,0.00000e+00,0.00000e+00
1.52340e+03,-2.77381e+00,-2.30747e+01,0.00000e+00,0.00000e+00,0.00000e+00
1.52340e+03,-2.12129e+00,-2.05108e+01,0.00000e+00,0.00000e+00,0.00000e+00
1.52340e+03,-1.46736e+00,-1.79470e+01,0.00000e+00,0.00000e+00,0.00000e+00
1.52340e+03,-8.08383e-01,-1.53831e+01,0.00000e+00,0.00000e+00,0.00000e+00
1.52340e+03,-1.49473e-01,-1.28193e+01,0.00000e+00,0.00000e+00,0.00000e+00
1.52340e+03,5.06948e-01,-1.02554e+01,0.00000e+00,0.00000e+00,0.00000e+00
1.52340e+03,1.16337e+00,-7.69156e+00,0.00000e+00,0.00000e+00,0.00000e+00
1.52340e+03,1.80424e+00,-5.12771e+00,0.00000e+00,0.00000e+00,0.00000e+00
1.52340e+03,2.44222e+00,-2.56385e+00,0.00000e+00,0.00000e+00,0.00000e+00
1.59310e+03,3.14533e+01,0.00000e+00,0.00000e+00,0.00000e+00,0.00000e+00
1.59310e+03,3.12949e+01,-2.39012e+00,0.00000e+00,0.00000e+00,0.00000e+00
1.59310e+03,3.10841e+01,-4.78023e+00,0.00000e+00,0.00000e+00,0.00000e+00
1.59310e+03,3.08713e+01,-7.17035e+00,0.00000e+00,0.00000e+00,0.00000e+00
1.59310e+03,3.06123e+01,-9.56047e+00,0.00000e+00,0.00000e+00,0.00000e+00
1.59310e+03,3.03425e+01,-1.19506e+01,0.00000e+00,0.00000e+00,0.00000e+00
1.59310e+03,3.00373e+01,-1.43407e+01,0.00000e+00,0.00000e+00,0.00000e+00
1.59310e+03,2.97149e+01,-1.67308e+01,0.00000e+00,0.00000e+00,0.00000e+00
1.59310e+03,2.93640e+01,-1.91209e+01,0.00000e+00,0.00000e+00,0.00000e+00
1.59310e+03,2.89896e+01,-2.15111e+01,0.00000e+00,0.00000e+00,0.00000e+00
1.59310e+03,2.85896e+01,-2.39012e+01,0.00000e+00,0.00000e+00,0.00000e+00
1.59310e+03,2.81583e+01,-2.62913e+01,0.00000e+00,0.00000e+00,0.00000e+00
1.59310e+03,2.76952e+01,-2.86814e+01,0.00000e+00,0.00000e+00,0.00000e+00
1.59310e+03,2.71869e+01,-3.10715e+01,0.00000e+00,0.00000e+00,0.00000e+00
1.59310e+03,2.66345e+01,-3.34616e+01,0.00000e+00,0.00000e+00,0.00000e+00
1.59310e+03,2.60296e+01,-3.58518e+01,0.00000e+00,0.00000e+00,0.00000e+00
1.59310e+03,2.53533e+01,-3.82419e+01,0.00000e+00,0.00000e+00,0.00000e+00
1.59310e+03,2.46276e+01,-4.06320e+01,0.00000e+00,0.00000e+00,0.00000e+00
1.59310e+03,2.37902e+01,-4.30221e+01,0.00000e+00,0.00000e+00,0.00000e+00
1.59310e+03,2.29066e+01,-4.54122e+01,0.00000e+00,0.00000e+00,0.00000e+00
1.59310e+03,2.18941e+01,-4.78023e+01,0.00000e+00,0.00000e+00,0.00000e+00
1.59310e+03,2.07785e+01,-5.01925e+01,0.00000e+00,0.00000e+00,0.00000e+00
1.59310e+03,1.95577e+01,-5.25826e+01,0.00000e+00,0.00000e+00,0.00000e+00
1.59310e+03,1.81606e+01,-5.49727e+01,0.00000e+00,0.00000e+00,0.00000e+00
1.59310e+03,1.65592e+01,-5.73628e+01,0.00000e+00,0.00000e+00,0.00000e+00
1.59310e+03,1.47269e+01,-5.97529e+01,0.00000e+00,0.00000e+00,0.00000e+00
1.59310e+03,1.25597e+01,-6.21430e+01,0.00000e+00,0.00000e+00,0.00000e+00
1.59310e+03,9.77800e+00,-6.45332e+01,0.00000e+00,0.00000e+00,0.00000e+00
1.59310e+03,6.01578e+00,-6.69233e+01,0.00000e+00,0.00000e+00,0.00000e+00
1.59310e+03,-2.43755e+00,-6.93134e+01,0.00000e+00,0.00000e+00,0.00000e+00
1.59310e+03,-3.04763e+00,-6.93189e+01,0.00000e+00,0.00000e+00,0.00000e+00
1.59310e+03,-8.60589e+00,-6.68433e+01,0.00000e+00,0.00000e+00,0.00000e+00
1.59310e+03,-9.27886e+00,-6.43676e+01,0.00000e+00,0.00000e+00,0.00000e+00
1.59310e+03,-9.51109e+00,-6.18919e+01,0.00000e+00,0.00000e+00,0.00000e+00
1.59310e+03,-9.54632e+00,-5.94162e+01,0.00000e+00,0.00000e+00,0.00000e+00
1.59310e+03,-9.43315e+00,-5.69406e+01,0.00000e+00,0.00000e+00,0.00000e+00
1.59310e+03,-9.22684e+00,-5.44649e+01,0.00000e+00,0.00000e+00,0.00000e+00
1.59310e+03,-8.92702e+00,-5.19892e+01,0.00000e+00,0.00000e+00,0.00000e+00
1.59310e+03,-8.57016e+00,-4.95135e+01,0.00000e+00,0.00000e+00,0.00000e+00
1.59310e+03,-8.18020e+00,-4.70379e+01,0.00000e+00,0.00000e+00,0.00000e+00
1.59310e+03,-7.74040e+00,-4.45622e+01,0.00000e+00,0.00000e+00,0.00000e+00
1.59310e+03,-7.26945e+00,-4.20865e+01,0.00000e+00,0.00000e+00,0.00000e+00
1.59310e+03,-6.76816e+00,-3.96108e+01,0.00000e+00,0.00000e+00,0.00000e+00
1.59310e+03,-6.23665e+00,-3.71351e+01,0.00000e+00,0.00000e+00,0.00000e+00
1.59310e+03,-5.68619e+00,-3.46595e+01,0.00000e+00,0.00000e+00,0.00000e+00
1.59310e+03,-5.11146e+00,-3.21838e+01,0.00000e+00,0.00000e+00,0.00000e+00
1.59310e+03,-4.52119e+00,-2.97081e+01,0.00000e+00,0.00000e+00,0.00000e+00
1.59310e+03,-3.91698e+00,-2.72324e+01,0.00000e+00,0.00000e+00,0.00000e+00
1.59310e+03,-3.30033e+00,-2.47568e+01,0.00000e+00,0.00000e+00,0.00000e+00
1.59310e+03,-2.67841e+00,-2.22811e+01,0.00000e+00,0.00000e+00,0.00000e+00
1.59310e+03,-2.04833e+00,-1.98054e+01,0.00000e+00,0.00000e+00,0.00000e+00
1.59310e+03,-1.41689e+00,-1.73297e+01,0.00000e+00,0.00000e+00,0.00000e+00
1.59310e+03,-7.80581e-01,-1.48541e+01,0.00000e+00,0.00000e+00,0.00000e+00
1.59310e+03,-1.44332e-01,-1.23784e+01,0.00000e+00,0.00000e+00,0.00000e+00
1.59310e+03,4.89512e-01,-9.90271e+00,0.00000e+00,0.00000e+00,0.00000e+00
1.59310e+03,1.12336e+00,-7.42703e+00,0.00000e+00,0.00000e+00,0.00000e+00
1.59310e+03,1.74219e+00,-4.95135e+00,0.00000e+00,0.00000e+00,0.00000e+00
1.59310e+03,2.35823e+00,-2.47568e+00,0.00000e+00,0.00000e+00,0.00000e+00
1.65850e+03,3.04021e+01,0.00000e+00,0.00000e+00,0.00000e+00,0.00000e+00
1.65850e+03,3.02490e+01,-2.31024e+00,0.00000e+00,0.00000e+00,0.00000e+00
1.65850e+03,3.00453e+01,-4.62048e+00,0.00000e+00,0.00000e+00,0.00000e+00
1.65850e+03,2.98396e+01,-6.93072e+00,0.00000e+00,0.00000e+00,0.00000e+00
1.65850e+03,2.95892e+01,-9.24096e+00,0.00000e+00,0.00000e+00,0.00000e+00
1.65850e+03,2.93285e+01,-1.15512e+01,0.00000e+00,0.00000e+00,0.00000e+00
1.65850e+03,2.90335e+01,-1.38614e+01,0.00000e+00,0.00000e+00,0.00000e+00
1.65850e+03,2.87218e+01,-1.61717e+01,0.00000e+00,0.00000e+00,0.00000e+00
1.65850e+03,2.83826e+01,-1.84819e+01,0.00000e+00,0.00000e+00,0.00000e+00
1.65850e+03,2.80208e+01,-2.07921e+01,0.00000e+00,0.00000e+00,0.00000e+00
1.65850e+03,2.76341e+01,-2.31024e+01,0.00000e+00,0.00000e+00,0.00000e+00
1.65850e+03,2.72173e+01,-2.54126e+01,0.00000e+00,0.00000e+00,0.00000e+00
1.65850e+03,2.67696e+01,-2.77229e+01,0.00000e+00,0.00000e+00,0.00000e+00
1.65850e+03,2.62783e+01,-3.00331e+01,0.00000e+00,0.00000e+00,0.00000e+00
1.65850e+03,2.57444e+01,-3.23433e+01,0.00000e+00,0.00000e+00,0.00000e+00
1.65850e+03,2.51597e+01,-3.46536e+01,0.00000e+00,0.00000e+00,0.00000e+00
1.65850e+03,2.45060e+01,-3.69638e+01,0.00000e+00,0.00000e+00,0.00000e+00
1.65850e+03,2.38045e+01,-3.92741e+01,0.00000e+00,0.00000e+00,0.00000e+00
1.65850e+03,2.29951e+01,-4.15843e+01,0.00000e+00,0.00000e+00,0.00000e+00
1.65850e+03,2.21410e+01,-4.38945e+01,0.00000e+00,0.00000e+00,0.00000e+00
1.65850e+03,2.11624e+01,-4.62048e+01,0.00000e+00,0.00000e+00,0.00000e+00
1.65850e+03,2.00840e+01,-4.85150e+01,0.00000e+00,0.00000e+00,0.00000e+00
1.65850e+03,1.89041e+01,-5.08253e+01,0.00000e+00,0.00000e+00,0.00000e+00
1.65850e+03,1.75537e+01,-5.31355e+01,0.00000e+00,0.00000e+00,0.00000e+00
1.65850e+03,1.60058e+01,-5.54457e+01,0.00000e+00,0.00000e+00,0.00000e+00
1.65850e+03,1.42348e+01,-5.77560e+01,0.00000e+00,0.00000e+00,0.00000e+00
1.65850e+03,1.21400e+01,-6.00662e+01,0.00000e+00,0.00000e+00,0.00000e+00
1.65850e+03,9.45122e+00,-6.23764e+01,0.00000e+00,0.00000e+00,0.00000e+00
1.65850e+03,5.81473e+00,-6.46867e+01,0.00000e+00,0.00000e+00,0.00000e+00
1.65850e+03,-2.35608e+00,-6.69969e+01,0.00000e+00,0.00000e+00,0.00000e+00
1.65850e+03,-2.94577e+00,-6.70023e+01,0.00000e+00,0.00000e+00,0.00000e+00
1.65850e+03,-8.31828e+00,-6.46093e+01,0.00000e+00,0.00000e+00,0.00000e+00
1.65850e+03,-8.96876e+00,-6.22164e+01,0.00000e+00,0.00000e+00,0.00000e+00
1.65850e+03,-9.19322e+00,-5.98235e+01,0.00000e+00,0.00000e+00,0.00000e+00
1.65850e+03,-9.22728e+00,-5.74305e+01,0.00000e+00,0.00000e+00,0.00000e+00
1.65850e+03,-9.11789e+00,-5.50376e+01,0.00000e+00,0.00000e+00,0.00000e+00
1.65850e+03,-8.91848e+00,-5.26447e+01,0.00000e+00,0.00000e+00,0.00000e+00
1.65850e+03,-8.62868e+00,-5.02517e+01,0.00000e+00,0.00000e+00,0.00000e+00
1.65850e+03,-8.28374e+00,-4.78588e+01,0.00000e+00,0.00000e+00,0.00000e+00
1.65850e+03,-7.90682e+00,-4.54658e+01,0.00000e+00,0.00000e+00,0.00000e+00
1.65850e+03,-7.48171e+00,-4.30729e+01,0.00000e+00,0.00000e+00,0.00000e+00
1.65850e+03,-7.02650e+00,-4.06800e+01,0.00000e+00,0.00000e+00,0.00000e+00
1.65850e+03,-6.54196e+00,-3.82870e+01,0.00000e+00,0.00000e+00,0.00000e+00
1.65850e+03,-6.02822e+00,-3.58941e+01,0.00000e+00,0.00000e+00,0.00000e+00
1.65850e+03,-5.49615e+00,-3.35011e+01,0.00000e+00,0.00000e+00,0.00000e+00
1.65850e+03,-4.94063e+00,-3.11082e+01,0.00000e+00,0.00000e+00,0.00000e+00
1.65850e+03,-4.37009e+00,-2.87153e+01,0.00000e+00,0.00000e+00,0.00000e+00
1.65850e+03,-3.78607e+00,-2.63223e+01,0.00000e+00,0.00000e+00,0.00000e+00
1.65850e+03,-3.19003e+00,-2.39294e+01,0.00000e+00,0.00000e+00,0.00000e+00
1.65850e+03,-2.58890e+00,-2.15364e+01,0.00000e+00,0.00000e+00,0.00000e+00
1.65850e+03,-1.97988e+00,-1.91435e+01,0.00000e+00,0.00000e+00,0.00000e+00
1.65850e+03,-1.36954e+00,-1.67506e+01,0.00000e+00,0.00000e+00,0.00000e+00
1.65850e+03,-7.54494e-01,-1.43576e+01,0.00000e+00,0.00000e+00,0.00000e+00
1.65850e+03,-1.39508e-01,-1.19647e+01,0.00000e+00,0.00000e+00,0.00000e+00
1.65850e+03,4.73153e-01,-9.57176e+00,0.00000e+00,0.00000e+00,0.00000e+00
1.65850e+03,1.08581e+00,-7.17882e+00,0.00000e+00,0.00000e+00,0.00000e+00
1.65850e+03,1.68397e+00,-4.78588e+00,0.00000e+00,0.00000e+00,0.00000e+00
1.65850e+03,2.27942e+00,-2.39294e+00,0.00000e+00,0.00000e+00,0.00000e+00
1.71930e+03,2.94249e+01,0.00000e+00,0.00000e+00,0.00000e+00,0.00000e+00
1.71930e+03,2.92767e+01,-2.23598e+00,0.00000e+00,0.00000e+00,0.00000e+00
1.71930e+03,2.90795e+01,-4.47196e+00,0.00000e+00,0.00000e+00,0.00000e+00
1.71930e+03,2.88804e+01,-6.70794e+00,0.00000e+00,0.00000e+00,0.00000e+00
1.71930e+03,2.86381e+01,-8.94392e+00,0.00000e+00,0.00000e+00,0.00000e+00
1.71930e+03,2.83857e+01,-1.11799e+01,0.00000e+00,0.00000e+00,0.00000e+00
1.71930e+03,2.81002e+01,-1.34159e+01,0.00000e+00,0.00000e+00,0.00000e+00
1.71930e+03,2.77986e+01,-1.56519e+01,0.00000e+00,0.00000e+00,0.00000e+00
1.71930e+03,2.74703e+01,-1.78878e+01,0.00000e+00,0.00000e+00,0.00000e+00
1.71930e+03,2.71201e+01,-2.01238e+01,0.00000e+00,0.00000e+00,0.00000e+00
1.71930e+03,2.67458e+01,-2.23598e+01,0.00000e+00,0.00000e+00,0.00000e+00
1.71930e+03,2.63424e+01,-2.45958e+01,0.00000e+00,0.00000e+00,0.00000e+00
1.71930e+03,2.59091e+01,-2.68317e+01,0.00000e+00,0.00000e+00,0.00000e+00
1.71930e+03,2.54336e+01,-2.90677e+01,0.00000e+00,0.00000e+00,0.00000e+00
1.71930e+03,2.49169e+01,-3.13037e+01,0.00000e+00,0.00000e+00,0.00000e+00
1.71930e+03,2.43509e+01,-3.35397e+01,0.00000e+00,0.00000e+00,0.00000e+00
1.71930e+03,2.37183e+01,-3.57757e+01,0.00000e+00,0.00000e+00,0.00000e+00
1.71930e+03,2.30393e+01,-3.80116e+01,0.00000e+00,0.00000e+00,0.00000e+00
1.71930e+03,2.22560e+01,-4.02476e+01,0.00000e+00,0.00000e+00,0.00000e+00
1.71930e+03,2.14293e+01,-4.24836e+01,0.00000e+00,0.00000e+00,0.00000e+00
1.71930e+03,2.04822e+01,-4.47196e+01,0.00000e+00,0.00000e+00,0.00000e+00
1.71930e+03,1.94385e+01,-4.69556e+01,0.00000e+00,0.00000e+00,0.00000e+00
1.71930e+03,1.82964e+01,-4.91915e+01,0.00000e+00,0.00000e+00,0.00000e+00
1.71930e+03,1.69894e+01,-5.14275e+01,0.00000e+00,0.00000e+00,0.00000e+00
1.71930e+03,1.54913e+01,-5.36635e+01,0.00000e+00,0.00000e+00,0.00000e+00
1.71930e+03,1.37772e+01,-5.58995e+01,0.00000e+00,0.00000e+00,0.00000e+00
1.71930e+03,1.17498e+01,-5.81355e+01,0.00000e+00,0.00000e+00,0.00000e+00
1.71930e+03,9.14742e+00,-6.03714e+01,0.00000e+00,0.00000e+00,0.00000e+00
1.71930e+03,5.62782e+00,-6.26074e+01,0.00000e+00,0.00000e+00,0.00000e+00
1.71930e+03,-2.28035e+00,-6.48434e+01,0.00000e+00,0.00000e+00,0.00000e+00
1.71930e+03,-2.85109e+00,-6.48486e+01,0.00000e+00,0.00000e+00,0.00000e+00
1.71930e+03,-8.05090e+00,-6.25326e+01,0.00000e+00,0.00000e+00,0.00000e+00
1.71930e+03,-8.68047e+00,-6.02165e+01,0.00000e+00,0.00000e+00,0.00000e+00
1.71930e+03,-8.89772e+00,-5.79005e+01,0.00000e+00,0.00000e+00,0.00000e+00
1.71930e+03,-8.93068e+00,-5.55845e+01,0.00000e+00,0.00000e+00,0.00000e+00
1.71930e+03,-8.82481e+00,-5.32685e+01,0.00000e+00,0.00000e+00,0.00000e+00
1.71930e+03,-8.63181e+00,-5.09525e+01,0.00000e+00,0.00000e+00,0.00000e+00
1.71930e+03,-8.35132e+00,-4.86364e+01,0.00000e+00,0.00000e+00,0.00000e+00
1.71930e+03,-8.01747e+00,-4.63204e+01,0.00000e+00,0.00000e+00,0.00000e+00
1.71930e+03,-7.65266e+00,-4.40044e+01,0.00000e+00,0.00000e+00,0.00000e+00
1.71930e+03,-7.24122e+00,-4.16884e+01,0.00000e+00,0.00000e+00,0.00000e+00
1.71930e+03,-6.80064e+00,-3.93724e+01,0.00000e+00,0.00000e+00,0.00000e+00
1.71930e+03,-6.33168e+00,-3.70563e+01,0.00000e+00,0.00000e+00,0.00000e+00
1.71930e+03,-5.83445e+00,-3.47403e+01,0.00000e+00,0.00000e+00,0.00000e+00
1.71930e+03,-5.31949e+00,-3.24243e+01,0.00000e+00,0.00000e+00,0.00000e+00
1.71930e+03,-4.78182e+00,-3.01083e+01,0.00000e+00,0.00000e+00,0.00000e+00
1.71930e+03,-4.22962e+00,-2.77922e+01,0.00000e+00,0.00000e+00,0.00000e+00
1.71930e+03,-3.66437e+00,-2.54762e+01,0.00000e+00,0.00000e+00,0.00000e+00
1.71930e+03,-3.08749e+00,-2.31602e+01,0.00000e+00,0.00000e+00,0.00000e+00
1.71930e+03,-2.50568e+00,-2.08442e+01,0.00000e+00,0.00000e+00,0.00000e+00
1.71930e+03,-1.91624e+00,-1.85282e+01,0.00000e+00,0.00000e+00,0.00000e+00
1.71930e+03,-1.32552e+00,-1.62121e+01,0.00000e+00,0.00000e+00,0.00000e+00
1.71930e+03,-7.30242e-01,-1.38961e+01,0.00000e+00,0.00000e+00,0.00000e+00
1.71930e+03,-1.35024e-01,-1.15801e+01,0.00000e+00,0.00000e+00,0.00000e+00
1.71930e+03,4.57944e-01,-9.26408e+00,0.00000e+00,0.00000e+00,0.00000e+00
1.71930e+03,1.05091e+00,-6.94806e+00,0.00000e+00,0.00000e+00,0.00000e+00
1.71930e+03,1.62984e+00,-4.63204e+00,0.00000e+00,0.00000e+00,0.00000e+00
1.71930e+03,2.20615e+00,-2.31602e+00,0.00000e+00,0.00000e+00,0.00000e+00
1.77540e+03,2.77303e+01,0.00000e+00,0.00000e+00,0.00000e+00,0.00000e+00
1.77540e+03,2.75906e+01,-2.10721e+00,0.00000e+00,0.00000e+00,0.00000e+00
1.77540e+03,2.74048e+01,-4.21442e+00,0.00000e+00,0.00000e+00,0.00000e+00
1.77540e+03,2.72172e+01,-6.32163e+00,0.00000e+00,0.00000e+00,0.00000e+00
1.77540e+03,2.69888e+01,-8.42884e+00,0.00000e+00,0.00000e+00,0.00000e+00
1.77540e+03,2.67510e+01,-1.05361e+01,0.00000e+00,0.00000e+00,0.00000e+00
1.77540e+03,2.64819e+01,-1.26433e+01,0.00000e+00,0.00000e+00,0.00000e+00
1.77540e+03,2.61977e+01,-1.47505e+01,0.00000e+00,0.00000e+00,0.00000e+00
1.77540e+03,2.58883e+01,-1.68577e+01,0.00000e+00,0.00000e+00,0.00000e+00
1.77540e+03,2.55583e+01,-1.89649e+01,0.00000e+00,0.00000e+00,0.00000e+00
1.77540e+03,2.52056e+01,-2.10721e+01,0.00000e+00,0.00000e+00,0.00000e+00
1.77540e+03,2.48254e+01,-2.31793e+01,0.00000e+00,0.00000e+00,0.00000e+00
1.77540e+03,2.44171e+01,-2.52865e+01,0.00000e+00,0.00000e+00,0.00000e+00
1.77540e+03,2.39689e+01,-2.73937e+01,0.00000e+00,0.00000e+00,0.00000e+00
1.77540e+03,2.34819e+01,-2.95009e+01,0.00000e+00,0.00000e+00,0.00000e+00
1.77540e+03,2.29486e+01,-3.16082e+01,0.00000e+00,0.00000e+00,0.00000e+00
1.77540e+03,2.23524e+01,-3.37154e+01,0.00000e+00,0.00000e+00,0.00000e+00
1.77540e+03,2.17125e+01,-3.58226e+01,0.00000e+00,0.00000e+00,0.00000e+00
1.77540e+03,2.09743e+01,-3.79298e+01,0.00000e+00,0.00000e+00,0.00000e+00
1.77540e+03,2.01952e+01,-4.00370e+01,0.00000e+00,0.00000e+00,0.00000e+00
1.77540e+03,1.93026e+01,-4.21442e+01,0.00000e+00,0.00000e+00,0.00000e+00
1.77540e+03,1.83190e+01,-4.42514e+01,0.00000e+00,0.00000e+00,0.00000e+00
1.77540e+03,1.72428e+01,-4.63586e+01,0.00000e+00,0.00000e+00,0.00000e+00
1.77540e+03,1.60110e+01,-4.84658e+01,0.00000e+00,0.00000e+00,0.00000e+00
1.77540e+03,1.45992e+01,-5.05731e+01,0.00000e+00,0.00000e+00,0.00000e+00
1.77540e+03,1.29838e+01,-5.26803e+01,0.00000e+00,0.00000e+00,0.00000e+00
1.77540e+03,1.10731e+01,-5.47875e+01,0.00000e+00,0.00000e+00,0.00000e+00
1.77540e+03,8.62063e+00,-5.68947e+01,0.00000e+00,0.00000e+00,0.00000e+00
1.77540e+03,5.30372e+00,-5.90019e+01,0.00000e+00,0.00000e+00,0.00000e+00
1.77540e+03,-2.14903e+00,-6.11091e+01,0.00000e+00,0.00000e+00,0.00000e+00
1.77540e+03,-2.68689e+00,-6.11140e+01,0.00000e+00,0.00000e+00,0.00000e+00
1.77540e+03,-7.58725e+00,-5.89314e+01,0.00000e+00,0.00000e+00,0.00000e+00
1.77540e+03,-8.18057e+00,-5.67487e+01,0.00000e+00,0.00000e+00,0.00000e+00
1.77540e+03,-8.38530e+00,-5.45661e+01,0.00000e+00,0.00000e+00,0.00000e+00
1.77540e+03,-8.41637e+00,-5.23834e+01,0.00000e+00,0.00000e+00,0.00000e+00
1.77540e+03,-8.31659e+00,-5.02008e+01,0.00000e+00,0.00000e+00,0.00000e+00
1.77540e+03,-8.13471e+00,-4.80181e+01,0.00000e+00,0.00000e+00,0.00000e+00
1.77540e+03,-7.87037e+00,-4.58355e+01,0.00000e+00,0.00000e+00,0.00000e+00
1.77540e+03,-7.55575e+00,-4.36529e+01,0.00000e+00,0.00000e+00,0.00000e+00
1.77540e+03,-7.21195e+00,-4.14702e+01,0.00000e+00,0.00000e+00,0.00000e+00
1.77540e+03,-6.82421e+00,-3.92876e+01,0.00000e+00,0.00000e+00,0.00000e+00
1.77540e+03,-6.40900e+00,-3.71049e+01,0.00000e+00,0.00000e+00,0.00000e+00
1.77540e+03,-5.96704e+00,-3.49223e+01,0.00000e+00,0.00000e+00,0.00000e+00
1.77540e+03,-5.49844e+00,-3.27396e+01,0.00000e+00,0.00000e+00,0.00000e+00
1.77540e+03,-5.01314e+00,-3.05570e+01,0.00000e+00,0.00000e+00,0.00000e+00
1.77540e+03,-4.50644e+00,-2.83744e+01,0.00000e+00,0.00000e+00,0.00000e+00
1.77540e+03,-3.98604e+00,-2.61917e+01,0.00000e+00,0.00000e+00,0.00000e+00
1.77540e+03,-3.45334e+00,-2.40091e+01,0.00000e+00,0.00000e+00,0.00000e+00
1.77540e+03,-2.90969e+00,-2.18264e+01,0.00000e+00,0.00000e+00,0.00000e+00
1.77540e+03,-2.36138e+00,-1.96438e+01,0.00000e+00,0.00000e+00,0.00000e+00
1.77540e+03,-1.80588e+00,-1.74611e+01,0.00000e+00,0.00000e+00,0.00000e+00
1.77540e+03,-1.24918e+00,-1.52785e+01,0.00000e+00,0.00000e+00,0.00000e+00
1.77540e+03,-6.88187e-01,-1.30959e+01,0.00000e+00,0.00000e+00,0.00000e+00
1.77540e+03,-1.27248e-01,-1.09132e+01,0.00000e+00,0.00000e+00,0.00000e+00
1.77540e+03,4.31571e-01,-8.73057e+00,0.00000e+00,0.00000e+00,0.00000e+00
1.77540e+03,9.90390e-01,-6.54793e+00,0.00000e+00,0.00000e+00,0.00000e+00
1.77540e+03,1.53598e+00,-4.36529e+00,0.00000e+00,0.00000e+00,0.00000e+00
1.77540e+03,2.07910e+00,-2.18264e+00,0.00000e+00,0.00000e+00,0.00000e+00
1.82660e+03,2.53092e+01,0.00000e+00,0.00000e+00,0.00000e+00,0.00000e+00
1.82660e+03,2.51817e+01,-1.92323e+00,0.00000e+00,0.00000e+00,0.00000e+00
1.82660e+03,2.50121e+01,-3.84646e+00,0.00000e+00,0.00000e+00,0.00000e+00
1.82660e+03,2.48409e+01,-5.76969e+00,0.00000e+00,0.00000e+00,0.00000e+00
1.82660e+03,2.46324e+01,-7.69292e+00,0.00000e+00,0.00000e+00,0.00000e+00
1.82660e+03,2.44154e+01,-9.61614e+00,0.00000e+00,0.00000e+00,0.00000e+00
1.82660e+03,2.41698e+01,-1.15394e+01,0.00000e+00,0.00000e+00,0.00000e+00
1.82660e+03,2.39103e+01,-1.34626e+01,0.00000e+00,0.00000e+00,0.00000e+00
1.82660e+03,2.36280e+01,-1.53858e+01,0.00000e+00,0.00000e+00,0.00000e+00
1.82660e+03,2.33268e+01,-1.73091e+01,0.00000e+00,0.00000e+00,0.00000e+00
1.82660e+03,2.30049e+01,-1.92323e+01,0.00000e+00,0.00000e+00,0.00000e+00
1.82660e+03,2.26579e+01,-2.11555e+01,0.00000e+00,0.00000e+00,0.00000e+00
1.82660e+03,2.22852e+01,-2.30787e+01,0.00000e+00,0.00000e+00,0.00000e+00
1.82660e+03,2.18762e+01,-2.50020e+01,0.00000e+00,0.00000e+00,0.00000e+00
1.82660e+03,2.14317e+01,-2.69252e+01,0.00000e+00,0.00000e+00,0.00000e+00
1.82660e+03,2.09449e+01,-2.88484e+01,0.00000e+00,0.00000e+00,0.00000e+00
1.82660e+03,2.04008e+01,-3.07717e+01,0.00000e+00,0.00000e+00,0.00000e+00
1.82660e+03,1.98168e+01,-3.26949e+01,0.00000e+00,0.00000e+00,0.00000e+00
1.82660e+03,1.91430e+01,-3.46181e+01,0.00000e+00,0.00000e+00,0.00000e+00
1.82660e+03,1.84320e+01,-3.65413e+01,0.00000e+00,0.00000e+00,0.00000e+00
1.82660e+03,1.76173e+01,-3.84646e+01,0.00000e+00,0.00000e+00,0.00000e+00
1.82660e+03,1.67196e+01,-4.03878e+01,0.00000e+00,0.00000e+00,0.00000e+00
1.82660e+03,1.57373e+01,-4.23110e+01,0.00000e+00,0.00000e+00,0.00000e+00
1.82660e+03,1.46131e+01,-4.42343e+01,0.00000e+00,0.00000e+00,0.00000e+00
1.82660e+03,1.33245e+01,-4.61575e+01,0.00000e+00,0.00000e+00,0.00000e+00
1.82660e+03,1.18502e+01,-4.80807e+01,0.00000e+00,0.00000e+00,0.00000e+00
1.82660e+03,1.01063e+01,-5.00040e+01,0.00000e+00,0.00000e+00,0.00000e+00
1.82660e+03,7.86795e+00,-5.19272e+01,0.00000e+00,0.00000e+00,0.00000e+00
1.82660e+03,4.84065e+00,-5.38504e+01,0.00000e+00,0.00000e+00,0.00000e+00
1.82660e+03,-1.96139e+00,-5.57736e+01,0.00000e+00,0.00000e+00,0.00000e+00
1.82660e+03,-2.45230e+00,-5.57781e+01,0.00000e+00,0.00000e+00,0.00000e+00
1.82660e+03,-6.92480e+00,-5.37860e+01,0.00000e+00,0.00000e+00,0.00000e+00
1.82660e+03,-7.46632e+00,-5.17940e+01,0.00000e+00,0.00000e+00,0.00000e+00
1.82660e+03,-7.65318e+00,-4.98019e+01,0.00000e+00,0.00000e+00,0.00000e+00
1.82660e+03,-7.68153e+00,-4.78098e+01,0.00000e+00,0.00000e+00,0.00000e+00
1.82660e+03,-7.59047e+00,-4.58177e+01,0.00000e+00,0.00000e+00,0.00000e+00
1.82660e+03,-7.42446e+00,-4.38257e+01,0.00000e+00,0.00000e+00,0.00000e+00
1.82660e+03,-7.18321e+00,-4.18336e+01,0.00000e+00,0.00000e+00,0.00000e+00
1.82660e+03,-6.89605e+00,-3.98415e+01,0.00000e+00,0.00000e+00,0.00000e+00
1.82660e+03,-6.58227e+00,-3.78494e+01,0.00000e+00,0.00000e+00,0.00000e+00
1.82660e+03,-6.22838e+00,-3.58574e+01,0.00000e+00,0.00000e+00,0.00000e+00
1.82660e+03,-5.84943e+00,-3.38653e+01,0.00000e+00,0.00000e+00,0.00000e+00
1.82660e+03,-5.44606e+00,-3.18732e+01,0.00000e+00,0.00000e+00,0.00000e+00
1.82660e+03,-5.01837e+00,-2.98811e+01,0.00000e+00,0.00000e+00,0.00000e+00
1.82660e+03,-4.57544e+00,-2.78891e+01,0.00000e+00,0.00000e+00,0.00000e+00
1.82660e+03,-4.11298e+00,-2.58970e+01,0.00000e+00,0.00000e+00,0.00000e+00
1.82660e+03,-3.63801e+00,-2.39049e+01,0.00000e+00,0.00000e+00,0.00000e+00
1.82660e+03,-3.15183e+00,-2.19128e+01,0.00000e+00,0.00000e+00,0.00000e+00
1.82660e+03,-2.65564e+00,-1.99208e+01,0.00000e+00,0.00000e+00,0.00000e+00
1.82660e+03,-2.15521e+00,-1.79287e+01,0.00000e+00,0.00000e+00,0.00000e+00
1.82660e+03,-1.64821e+00,-1.59366e+01,0.00000e+00,0.00000e+00,0.00000e+00
1.82660e+03,-1.14012e+00,-1.39445e+01,0.00000e+00,0.00000e+00,0.00000e+00
1.82660e+03,-6.28101e-01,-1.19525e+01,0.00000e+00,0.00000e+00,0.00000e+00
1.82660e+03,-1.16138e-01,-9.96038e+00,0.00000e+00,0.00000e+00,0.00000e+00
1.82660e+03,3.93890e-01,-7.96830e+00,0.00000e+00,0.00000e+00,0.00000e+00
1.82660e+03,9.03919e-01,-5.97623e+00,0.00000e+00,0.00000e+00,0.00000e+00
1.82660e+03,1.40187e+00,-3.98415e+00,0.00000e+00,0.00000e+00,0.00000e+00
1.82660e+03,1.89757e+00,-1.99208e+00,0.00000e+00,0.00000e+00,0.00000e+00
1.87280e+03,2.31244e+01,0.00000e+00,0.00000e+00,0.00000e+00,0.00000e+00
1.87280e+03,2.30080e+01,-1.75721e+00,0.00000e+00,0.00000e+00,0.00000e+00
1.87280e+03,2.28531e+01,-3.51443e+00,0.00000e+00,0.00000e+00,0.00000e+00
1.87280e+03,2.26966e+01,-5.27164e+00,0.00000e+00,0.00000e+00,0.00000e+00
1.87280e+03,2.25061e+01,-7.02886e+00,0.00000e+00,0.00000e+00,0.00000e+00
1.87280e+03,2.23078e+01,-8.78607e+00,0.00000e+00,0.00000e+00,0.00000e+00
1.87280e+03,2.20834e+01,-1.05433e+01,0.00000e+00,0.00000e+00,0.00000e+00
1.87280e+03,2.18464e+01,-1.23005e+01,0.00000e+00,0.00000e+00,0.00000e+00
1.87280e+03,2.15884e+01,-1.40577e+01,0.00000e+00,0.00000e+00,0.00000e+00
1.87280e+03,2.13132e+01,-1.58149e+01,0.00000e+00,0.00000e+00,0.00000e+00
1.87280e+03,2.10191e+01,-1.75721e+01,0.00000e+00,0.00000e+00,0.00000e+00
1.87280e+03,2.07020e+01,-1.93294e+01,0.00000e+00,0.00000e+00,0.00000e+00
1.87280e+03,2.03615e+01,-2.10866e+01,0.00000e+00,0.00000e+00,0.00000e+00
1.87280e+03,1.99878e+01,-2.28438e+01,0.00000e+00,0.00000e+00,0.00000e+00
1.87280e+03,1.95817e+01,-2.46010e+01,0.00000e+00,0.00000e+00,0.00000e+00
1.87280e+03,1.91369e+01,-2.63582e+01,0.00000e+00,0.00000e+00,0.00000e+00
1.87280e+03,1.86398e+01,-2.81154e+01,0.00000e+00,0.00000e+00,0.00000e+00
1.87280e+03,1.81062e+01,-2.98726e+01,0.00000e+00,0.00000e+00,0.00000e+00
1.87280e+03,1.74905e+01,-3.16299e+01,0.00000e+00,0.00000e+00,0.00000e+00
1.87280e+03,1.68409e+01,-3.33871e+01,0.00000e+00,0.00000e+00,0.00000e+00
1.87280e+03,1.60966e+01,-3.51443e+01,0.00000e+00,0.00000e+00,0.00000e+00
1.87280e+03,1.52763e+01,-3.69015e+01,0.00000e+00,0.00000e+00,0.00000e+00
1.87280e+03,1.43788e+01,-3.86587e+01,0.00000e+00,0.00000e+00,0.00000e+00
1.87280e+03,1.33517e+01,-4.04159e+01,0.00000e+00,0.00000e+00,0.00000e+00
1.87280e+03,1.21743e+01,-4.21731e+01,0.00000e+00,0.00000e+00,0.00000e+00
1.87280e+03,1.08272e+01,-4.39304e+01,0.00000e+00,0.00000e+00,0.00000e+00
1.87280e+03,9.23393e+00,-4.56876e+01,0.00000e+00,0.00000e+00,0.00000e+00
1.87280e+03,7.18879e+00,-4.74448e+01,0.00000e+00,0.00000e+00,0.00000e+00
1.87280e+03,4.42280e+00,-4.92020e+01,0.00000e+00,0.00000e+00,0.00000e+00
1.87280e+03,-1.79208e+00,-5.09592e+01,0.00000e+00,0.00000e+00,0.00000e+00
1.87280e+03,-2.24062e+00,-5.09633e+01,0.00000e+00,0.00000e+00,0.00000e+00
1.87280e+03,-6.32705e+00,-4.91432e+01,0.00000e+00,0.00000e+00,0.00000e+00
1.87280e+03,-6.82182e+00,-4.73231e+01,0.00000e+00,0.00000e+00,0.00000e+00
1.87280e+03,-6.99255e+00,-4.55029e+01,0.00000e+00,0.00000e+00,0.00000e+00
1.87280e+03,-7.01846e+00,-4.36828e+01,0.00000e+00,0.00000e+00,0.00000e+00
1.87280e+03,-6.93525e+00,-4.18627e+01,0.00000e+00,0.00000e+00,0.00000e+00
1.87280e+03,-6.78358e+00,-4.00426e+01,0.00000e+00,0.00000e+00,0.00000e+00
1.87280e+03,-6.56315e+00,-3.82225e+01,0.00000e+00,0.00000e+00,0.00000e+00
1.87280e+03,-6.30078e+00,-3.64024e+01,0.00000e+00,0.00000e+00,0.00000e+00
1.87280e+03,-6.01408e+00,-3.45822e+01,0.00000e+00,0.00000e+00,0.00000e+00
1.87280e+03,-5.69074e+00,-3.27621e+01,0.00000e+00,0.00000e+00,0.00000e+00
1.87280e+03,-5.34450e+00,-3.09420e+01,0.00000e+00,0.00000e+00,0.00000e+00
1.87280e+03,-4.97595e+00,-2.91219e+01,0.00000e+00,0.00000e+00,0.00000e+00
1.87280e+03,-4.58518e+00,-2.73018e+01,0.00000e+00,0.00000e+00,0.00000e+00
1.87280e+03,-4.18049e+00,-2.54816e+01,0.00000e+00,0.00000e+00,0.00000e+00
1.87280e+03,-3.75794e+00,-2.36615e+01,0.00000e+00,0.00000e+00,0.00000e+00
1.87280e+03,-3.32398e+00,-2.18414e+01,0.00000e+00,0.00000e+00,0.00000e+00
1.87280e+03,-2.87976e+00,-2.00213e+01,0.00000e+00,0.00000e+00,0.00000e+00
1.87280e+03,-2.42640e+00,-1.82012e+01,0.00000e+00,0.00000e+00,0.00000e+00
1.87280e+03,-1.96917e+00,-1.63811e+01,0.00000e+00,0.00000e+00,0.00000e+00
1.87280e+03,-1.50594e+00,-1.45609e+01,0.00000e+00,0.00000e+00,0.00000e+00
1.87280e+03,-1.04170e+00,-1.27408e+01,0.00000e+00,0.00000e+00,0.00000e+00
1.87280e+03,-5.73883e-01,-1.09207e+01,0.00000e+00,0.00000e+00,0.00000e+00
1.87280e+03,-1.06113e-01,-9.10059e+00,0.00000e+00,0.00000e+00,0.00000e+00
1.87280e+03,3.59890e-01,-7.28047e+00,0.00000e+00,0.00000e+00,0.00000e+00
1.87280e+03,8.25892e-01,-5.46035e+00,0.00000e+00,0.00000e+00,0.00000e+00
1.87280e+03,1.28086e+00,-3.64024e+00,0.00000e+00,0.00000e+00,0.00000e+00
1.87280e+03,1.73377e+00,-1.82012e+00,0.00000e+00,0.00000e+00,0.00000e+00
1.91380e+03,2.11856e+01,0.00000e+00,0.00000e+00,0.00000e+00,0.00000e+00
1.91380e+03,2.10789e+01,-1.60989e+00,0.00000e+00,0.00000e+00,0.00000e+00
1.91380e+03,2.09370e+01,-3.21977e+00,0.00000e+00,0.00000e+00,0.00000e+00
1.91380e+03,2.07936e+01,-4.82966e+00,0.00000e+00,0.00000e+00,0.00000e+00
1.91380e+03,2.06192e+01,-6.43954e+00,0.00000e+00,0.00000e+00,0.00000e+00
1.91380e+03,2.04375e+01,-8.04943e+00,0.00000e+00,0.00000e+00,0.00000e+00
1.91380e+03,2.02319e+01,-9.65931e+00,0.00000e+00,0.00000e+00,0.00000e+00
1.91380e+03,2.00147e+01,-1.12692e+01,0.00000e+00,0.00000e+00,0.00000e+00
1.91380e+03,1.97784e+01,-1.28791e+01,0.00000e+00,0.00000e+00,0.00000e+00
1.91380e+03,1.95262e+01,-1.44890e+01,0.00000e+00,0.00000e+00,0.00000e+00
1.91380e+03,1.92568e+01,-1.60989e+01,0.00000e+00,0.00000e+00,0.00000e+00
1.91380e+03,1.89663e+01,-1.77087e+01,0.00000e+00,0.00000e+00,0.00000e+00
1.91380e+03,1.86544e+01,-1.93186e+01,0.00000e+00,0.00000e+00,0.00000e+00
1.91380e+03,1.83120e+01,-2.09285e+01,0.00000e+00,0.00000e+00,0.00000e+00
1.91380e+03,1.79399e+01,-2.25384e+01,0.00000e+00,0.00000e+00,0.00000e+00
1.91380e+03,1.75325e+01,-2.41483e+01,0.00000e+00,0.00000e+00,0.00000e+00
1.91380e+03,1.70770e+01,-2.57582e+01,0.00000e+00,0.00000e+00,0.00000e+00
1.91380e+03,1.65881e+01,-2.73680e+01,0.00000e+00,0.00000e+00,0.00000e+00
1.91380e+03,1.60241e+01,-2.89779e+01,0.00000e+00,0.00000e+00,0.00000e+00
1.91380e+03,1.54289e+01,-3.05878e+01,0.00000e+00,0.00000e+00,0.00000e+00
1.91380e+03,1.47470e+01,-3.21977e+01,0.00000e+00,0.00000e+00,0.00000e+00
1.91380e+03,1.39955e+01,-3.38076e+01,0.00000e+00,0.00000e+00,0.00000e+00
1.91380e+03,1.31733e+01,-3.54175e+01,0.00000e+00,0.00000e+00,0.00000e+00
1.91380e+03,1.22322e+01,-3.70274e+01,0.00000e+00,0.00000e+00,0.00000e+00
1.91380e+03,1.11536e+01,-3.86372e+01,0.00000e+00,0.00000e+00,0.00000e+00
1.91380e+03,9.91946e+00,-4.02471e+01,0.00000e+00,0.00000e+00,0.00000e+00
1.91380e+03,8.45973e+00,-4.18570e+01,0.00000e+00,0.00000e+00,0.00000e+00
1.91380e+03,6.58606e+00,-4.34669e+01,0.00000e+00,0.00000e+00,0.00000e+00
1.91380e+03,4.05198e+00,-4.50768e+01,0.00000e+00,0.00000e+00,0.00000e+00
1.91380e+03,-1.64183e+00,-4.66867e+01,0.00000e+00,0.00000e+00,0.00000e+00
1.91380e+03,-2.05276e+00,-4.66904e+01,0.00000e+00,0.00000e+00,0.00000e+00
1.91380e+03,-5.79657e+00,-4.50229e+01,0.00000e+00,0.00000e+00,0.00000e+00
1.91380e+03,-6.24986e+00,-4.33554e+01,0.00000e+00,0.00000e+00,0.00000e+00
1.91380e+03,-6.40628e+00,-4.16879e+01,0.00000e+00,0.00000e+00,0.00000e+00
1.91380e+03,-6.43001e+00,-4.00204e+01,0.00000e+00,0.00000e+00,0.00000e+00
1.91380e+03,-6.35378e+00,-3.83528e+01,0.00000e+00,0.00000e+00,0.00000e+00
1.91380e+03,-6.21483e+00,-3.66853e+01,0.00000e+00,0.00000e+00,0.00000e+00
1.91380e+03,-6.01288e+00,-3.50178e+01,0.00000e+00,0.00000e+00,0.00000e+00
1.91380e+03,-5.77251e+00,-3.33503e+01,0.00000e+00,0.00000e+00,0.00000e+00
1.91380e+03,-5.50985e+00,-3.16828e+01,0.00000e+00,0.00000e+00,0.00000e+00
1.91380e+03,-5.21362e+00,-3.00153e+01,0.00000e+00,0.00000e+00,0.00000e+00
1.91380e+03,-4.89640e+00,-2.83477e+01,0.00000e+00,0.00000e+00,0.00000e+00
1.91380e+03,-4.55876e+00,-2.66802e+01,0.00000e+00,0.00000e+00,0.00000e+00
1.91380e+03,-4.20075e+00,-2.50127e+01,0.00000e+00,0.00000e+00,0.00000e+00
1.91380e+03,-3.82998e+00,-2.33452e+01,0.00000e+00,0.00000e+00,0.00000e+00
1.91380e+03,-3.44287e+00,-2.16777e+01,0.00000e+00,0.00000e+00,0.00000e+00
1.91380e+03,-3.04529e+00,-2.00102e+01,0.00000e+00,0.00000e+00,0.00000e+00
1.91380e+03,-2.63832e+00,-1.83427e+01,0.00000e+00,0.00000e+00,0.00000e+00
1.91380e+03,-2.22297e+00,-1.66751e+01,0.00000e+00,0.00000e+00,0.00000e+00
1.91380e+03,-1.80407e+00,-1.50076e+01,0.00000e+00,0.00000e+00,0.00000e+00
1.91380e+03,-1.37967e+00,-1.33401e+01,0.00000e+00,0.00000e+00,0.00000e+00
1.91380e+03,-9.54362e-01,-1.16726e+01,0.00000e+00,0.00000e+00,0.00000e+00
1.91380e+03,-5.25768e-01,-1.00051e+01,0.00000e+00,0.00000e+00,0.00000e+00
1.91380e+03,-9.72161e-02,-8.33757e+00,0.00000e+00,0.00000e+00,0.00000e+00
1.91380e+03,3.29716e-01,-6.67006e+00,0.00000e+00,0.00000e+00,0.00000e+00
1.91380e+03,7.56647e-01,-5.00254e+00,0.00000e+00,0.00000e+00,0.00000e+00
1.91380e+03,1.17347e+00,-3.33503e+00,0.00000e+00,0.00000e+00,0.00000e+00
1.91380e+03,1.58841e+00,-1.66751e+00,0.00000e+00,0.00000e+00,0.00000e+00
1.94970e+03,1.94880e+01,0.00000e+00,0.00000e+00,0.00000e+00,0.00000e+00
1.94970e+03,1.93899e+01,-1.48088e+00,0.00000e+00,0.00000e+00,0.00000e+00
1.94970e+03,1.92593e+01,-2.96177e+00,0.00000e+00,0.00000e+00,0.00000e+00
1.94970e+03,1.91274e+01,-4.44265e+00,0.00000e+00,0.00000e+00,0.00000e+00
1.94970e+03,1.89669e+01,-5.92353e+00,0.00000e+00,0.00000e+00,0.00000e+00
1.94970e+03,1.87998e+01,-7.40441e+00,0.00000e+00,0.00000e+00,0.00000e+00
1.94970e+03,1.86107e+01,-8.88530e+00,0.00000e+00,0.00000e+00,0.00000e+00
1.94970e+03,1.84109e+01,-1.03662e+01,0.00000e+00,0.00000e+00,0.00000e+00
1.94970e+03,1.81935e+01,-1.18471e+01,0.00000e+00,0.00000e+00,0.00000e+00
1.94970e+03,1.79616e+01,-1.33279e+01,0.00000e+00,0.00000e+00,0.00000e+00
1.94970e+03,1.77137e+01,-1.48088e+01,0.00000e+00,0.00000e+00,0.00000e+00
1.94970e+03,1.74465e+01,-1.62897e+01,0.00000e+00,0.00000e+00,0.00000e+00
1.94970e+03,1.71596e+01,-1.77706e+01,0.00000e+00,0.00000e+00,0.00000e+00
1.94970e+03,1.68446e+01,-1.92515e+01,0.00000e+00,0.00000e+00,0.00000e+00
1.94970e+03,1.65024e+01,-2.07324e+01,0.00000e+00,0.00000e+00,0.00000e+00
1.94970e+03,1.61276e+01,-2.22132e+01,0.00000e+00,0.00000e+00,0.00000e+00
1.94970e+03,1.57086e+01,-2.36941e+01,0.00000e+00,0.00000e+00,0.00000e+00
1.94970e+03,1.52589e+01,-2.51750e+01,0.00000e+00,0.00000e+00,0.00000e+00
1.94970e+03,1.47401e+01,-2.66559e+01,0.00000e+00,0.00000e+00,0.00000e+00
1.94970e+03,1.41926e+01,-2.81368e+01,0.00000e+00,0.00000e+00,0.00000e+00
1.94970e+03,1.35653e+01,-2.96177e+01,0.00000e+00,0.00000e+00,0.00000e+00
1.94970e+03,1.28740e+01,-3.10985e+01,0.00000e+00,0.00000e+00,0.00000e+00
1.94970e+03,1.21177e+01,-3.25794e+01,0.00000e+00,0.00000e+00,0.00000e+00
1.94970e+03,1.12521e+01,-3.40603e+01,0.00000e+00,0.00000e+00,0.00000e+00
1.94970e+03,1.02599e+01,-3.55412e+01,0.00000e+00,0.00000e+00,0.00000e+00
1.94970e+03,9.12460e+00,-3.70221e+01,0.00000e+00,0.00000e+00,0.00000e+00
1.94970e+03,7.78184e+00,-3.85029e+01,0.00000e+00,0.00000e+00,0.00000e+00
1.94970e+03,6.05831e+00,-3.99838e+01,0.00000e+00,0.00000e+00,0.00000e+00
1.94970e+03,3.72729e+00,-4.14647e+01,0.00000e+00,0.00000e+00,0.00000e+00
1.94970e+03,-1.51027e+00,-4.29456e+01,0.00000e+00,0.00000e+00,0.00000e+00
1.94970e+03,-1.88827e+00,-4.29490e+01,0.00000e+00,0.00000e+00,0.00000e+00
1.94970e+03,-5.33209e+00,-4.14151e+01,0.00000e+00,0.00000e+00,0.00000e+00
1.94970e+03,-5.74905e+00,-3.98812e+01,0.00000e+00,0.00000e+00,0.00000e+00
1.94970e+03,-5.89293e+00,-3.83473e+01,0.00000e+00,0.00000e+00,0.00000e+00
1.94970e+03,-5.91477e+00,-3.68135e+01,0.00000e+00,0.00000e+00,0.00000e+00
1.94970e+03,-5.84465e+00,-3.52796e+01,0.00000e+00,0.00000e+00,0.00000e+00
1.94970e+03,-5.71682e+00,-3.37457e+01,0.00000e+00,0.00000e+00,0.00000e+00
1.94970e+03,-5.53106e+00,-3.22118e+01,0.00000e+00,0.00000e+00,0.00000e+00
1.94970e+03,-5.30995e+00,-3.06779e+01,0.00000e+00,0.00000e+00,0.00000e+00
1.94970e+03,-5.06834e+00,-2.91440e+01,0.00000e+00,0.00000e+00,0.00000e+00
1.94970e+03,-4.79584e+00,-2.76101e+01,0.00000e+00,0.00000e+00,0.00000e+00
1.94970e+03,-4.50405e+00,-2.60762e+01,0.00000e+00,0.00000e+00,0.00000e+00
1.94970e+03,-4.19345e+00,-2.45423e+01,0.00000e+00,0.00000e+00,0.00000e+00
1.94970e+03,-3.86414e+00,-2.30084e+01,0.00000e+00,0.00000e+00,0.00000e+00
1.94970e+03,-3.52308e+00,-2.14745e+01,0.00000e+00,0.00000e+00,0.00000e+00
1.94970e+03,-3.16699e+00,-1.99406e+01,0.00000e+00,0.00000e+00,0.00000e+00
1.94970e+03,-2.80126e+00,-1.84067e+01,0.00000e+00,0.00000e+00,0.00000e+00
1.94970e+03,-2.42690e+00,-1.68728e+01,0.00000e+00,0.00000e+00,0.00000e+00
1.94970e+03,-2.04484e+00,-1.53389e+01,0.00000e+00,0.00000e+00,0.00000e+00
1.94970e+03,-1.65951e+00,-1.38050e+01,0.00000e+00,0.00000e+00,0.00000e+00
1.94970e+03,-1.26912e+00,-1.22712e+01,0.00000e+00,0.00000e+00,0.00000e+00
1.94970e+03,-8.77888e-01,-1.07373e+01,0.00000e+00,0.00000e+00,0.00000e+00
1.94970e+03,-4.83637e-01,-9.20336e+00,0.00000e+00,0.00000e+00,0.00000e+00
1.94970e+03,-8.94260e-02,-7.66947e+00,0.00000e+00,0.00000e+00,0.00000e+00
1.94970e+03,3.03295e-01,-6.13558e+00,0.00000e+00,0.00000e+00,0.00000e+00
1.94970e+03,6.96016e-01,-4.60168e+00,0.00000e+00,0.00000e+00,0.00000e+00
1.94970e+03,1.07944e+00,-3.06779e+00,0.00000e+00,0.00000e+00,0.00000e+00
1.94970e+03,1.46113e+00,-1.53389e+00,0.00000e+00,0.00000e+00,0.00000e+00
1.98010e+03,1.80504e+01,0.00000e+00,0.00000e+00,0.00000e+00,0.00000e+00
1.98010e+03,1.79595e+01,-1.37164e+00,0.00000e+00,0.00000e+00,0.00000e+00
1.98010e+03,1.78386e+01,-2.74329e+00,0.00000e+00,0.00000e+00,0.00000e+00
1.98010e+03,1.77165e+01,-4.11493e+00,0.00000e+00,0.00000e+00,0.00000e+00
1.98010e+03,1.75678e+01,-5.48657e+00,0.00000e+00,0.00000e+00,0.00000e+00
1.98010e+03,1.74130e+01,-6.85822e+00,0.00000e+00,0.00000e+00,0.00000e+00
1.98010e+03,1.72378e+01,-8.22986e+00,0.00000e+00,0.00000e+00,0.00000e+00
1.98010e+03,1.70528e+01,-9.60150e+00,0.00000e+00,0.00000e+00,0.00000e+00
1.98010e+03,1.68514e+01,-1.09731e+01,0.00000e+00,0.00000e+00,0.00000e+00
1.98010e+03,1.66366e+01,-1.23448e+01,0.00000e+00,0.00000e+00,0.00000e+00
1.98010e+03,1.64070e+01,-1.37164e+01,0.00000e+00,0.00000e+00,0.00000e+00
1.98010e+03,1.61595e+01,-1.50881e+01,0.00000e+00,0.00000e+00,0.00000e+00
1.98010e+03,1.58938e+01,-1.64597e+01,0.00000e+00,0.00000e+00,0.00000e+00
1.98010e+03,1.56020e+01,-1.78314e+01,0.00000e+00,0.00000e+00,0.00000e+00
1.98010e+03,1.52851e+01,-1.92030e+01,0.00000e+00,0.00000e+00,0.00000e+00
1.98010e+03,1.49379e+01,-2.05747e+01,0.00000e+00,0.00000e+00,0.00000e+00
1.98010e+03,1.45498e+01,-2.19463e+01,0.00000e+00,0.00000e+00,0.00000e+00
1.98010e+03,1.41333e+01,-2.33179e+01,0.00000e+00,0.00000e+00,0.00000e+00
1.98010e+03,1.36527e+01,-2.46896e+01,0.00000e+00,0.00000e+00,0.00000e+00
1.98010e+03,1.31457e+01,-2.60612e+01,0.00000e+00,0.00000e+00,0.00000e+00
1.98010e+03,1.25646e+01,-2.74329e+01,0.00000e+00,0.00000e+00,0.00000e+00
1.98010e+03,1.19244e+01,-2.88045e+01,0.00000e+00,0.00000e+00,0.00000e+00
1.98010e+03,1.12238e+01,-3.01762e+01,0.00000e+00,0.00000e+00,0.00000e+00
1.98010e+03,1.04220e+01,-3.15478e+01,0.00000e+00,0.00000e+00,0.00000e+00
1.98010e+03,9.50303e+00,-3.29194e+01,0.00000e+00,0.00000e+00,0.00000e+00
1.98010e+03,8.45151e+00,-3.42911e+01,0.00000e+00,0.00000e+00,0.00000e+00
1.98010e+03,7.20780e+00,-3.56627e+01,0.00000e+00,0.00000e+00,0.00000e+00
1.98010e+03,5.61141e+00,-3.70344e+01,0.00000e+00,0.00000e+00,0.00000e+00
1.98010e+03,3.45234e+00,-3.84060e+01,0.00000e+00,0.00000e+00,0.00000e+00
1.98010e+03,-1.39886e+00,-3.97777e+01,0.00000e+00,0.00000e+00,0.00000e+00
1.98010e+03,-1.74898e+00,-3.97808e+01,0.00000e+00,0.00000e+00,0.00000e+00
1.98010e+03,-4.93876e+00,-3.83601e+01,0.00000e+00,0.00000e+00,0.00000e+00
1.98010e+03,-5.32496e+00,-3.69394e+01,0.00000e+00,0.00000e+00,0.00000e+00
1.98010e+03,-5.45823e+00,-3.55186e+01,0.00000e+00,0.00000e+00,0.00000e+00
1.98010e+03,-5.47846e+00,-3.40979e+01,0.00000e+00,0.00000e+00,0.00000e+00
1.98010e+03,-5.41351e+00,-3.26771e+01,0.00000e+00,0.00000e+00,0.00000e+00
1.98010e+03,-5.29511e+00,-3.12564e+01,0.00000e+00,0.00000e+00,0.00000e+00
1.98010e+03,-5.12305e+00,-2.98356e+01,0.00000e+00,0.00000e+00,0.00000e+00
1.98010e+03,-4.91825e+00,-2.84149e+01,0.00000e+00,0.00000e+00,0.00000e+00
1.98010e+03,-4.69446e+00,-2.69941e+01,0.00000e+00,0.00000e+00,0.00000e+00
1.98010e+03,-4.44207e+00,-2.55734e+01,0.00000e+00,0.00000e+00,0.00000e+00
1.98010e+03,-4.17180e+00,-2.41527e+01,0.00000e+00,0.00000e+00,0.00000e+00
1.98010e+03,-3.88412e+00,-2.27319e+01,0.00000e+00,0.00000e+00,0.00000e+00
1.98010e+03,-3.57909e+00,-2.13112e+01,0.00000e+00,0.00000e+00,0.00000e+00
1.98010e+03,-3.26320e+00,-1.98904e+01,0.00000e+00,0.00000e+00,0.00000e+00
1.98010e+03,-2.93337e+00,-1.84697e+01,0.00000e+00,0.00000e+00,0.00000e+00
1.98010e+03,-2.59462e+00,-1.70489e+01,0.00000e+00,0.00000e+00,0.00000e+00
1.98010e+03,-2.24788e+00,-1.56282e+01,0.00000e+00,0.00000e+00,0.00000e+00
1.98010e+03,-1.89400e+00,-1.42074e+01,0.00000e+00,0.00000e+00,0.00000e+00
1.98010e+03,-1.53709e+00,-1.27867e+01,0.00000e+00,0.00000e+00,0.00000e+00
1.98010e+03,-1.17550e+00,-1.13660e+01,0.00000e+00,0.00000e+00,0.00000e+00
1.98010e+03,-8.13129e-01,-9.94521e+00,0.00000e+00,0.00000e+00,0.00000e+00
1.98010e+03,-4.47961e-01,-8.52447e+00,0.00000e+00,0.00000e+00,0.00000e+00
1.98010e+03,-8.28294e-02,-7.10372e+00,0.00000e+00,0.00000e+00,0.00000e+00
1.98010e+03,2.80922e-01,-5.68298e+00,0.00000e+00,0.00000e+00,0.00000e+00
1.98010e+03,6.44673e-01,-4.26223e+00,0.00000e+00,0.00000e+00,0.00000e+00
1.98010e+03,9.99811e-01,-2.84149e+00,0.00000e+00,0.00000e+00,0.00000e+00
1.98010e+03,1.35334e+00,-1.42074e+00,0.00000e+00,0.00000e+00,0.00000e+00
2.00520e+03,1.68635e+01,0.00000e+00,0.00000e+00,0.00000e+00,0.00000e+00
2.00520e+03,1.67786e+01,-1.28145e+00,0.00000e+00,0.00000e+00,0.00000e+00
2.00520e+03,1.66656e+01,-2.56290e+00,0.00000e+00,0.00000e+00,0.00000e+00
2.00520e+03,1.65515e+01,-3.84435e+00,0.00000e+00,0.00000e+00,0.00000e+00
2.00520e+03,1.64126e+01,-5.12580e+00,0.00000e+00,0.00000e+00,0.00000e+00
2.00520e+03,1.62680e+01,-6.40725e+00,0.00000e+00,0.00000e+00,0.00000e+00
2.00520e+03,1.61044e+01,-7.68870e+00,0.00000e+00,0.00000e+00,0.00000e+00
2.00520e+03,1.59315e+01,-8.97015e+00,0.00000e+00,0.00000e+00,0.00000e+00
2.00520e+03,1.57433e+01,-1.02516e+01,0.00000e+00,0.00000e+00,0.00000e+00
2.00520e+03,1.55427e+01,-1.15330e+01,0.00000e+00,0.00000e+00,0.00000e+00
2.00520e+03,1.53282e+01,-1.28145e+01,0.00000e+00,0.00000e+00,0.00000e+00
2.00520e+03,1.50970e+01,-1.40959e+01,0.00000e+00,0.00000e+00,0.00000e+00
2.00520e+03,1.48486e+01,-1.53774e+01,0.00000e+00,0.00000e+00,0.00000e+00
2.00520e+03,1.45761e+01,-1.66588e+01,0.00000e+00,0.00000e+00,0.00000e+00
2.00520e+03,1.42800e+01,-1.79403e+01,0.00000e+00,0.00000e+00,0.00000e+00
2.00520e+03,1.39556e+01,-1.92217e+01,0.00000e+00,0.00000e+00,0.00000e+00
2.00520e+03,1.35931e+01,-2.05032e+01,0.00000e+00,0.00000e+00,0.00000e+00
2.00520e+03,1.32039e+01,-2.17846e+01,0.00000e+00,0.00000e+00,0.00000e+00
2.00520e+03,1.27550e+01,-2.30661e+01,0.00000e+00,0.00000e+00,0.00000e+00
2.00520e+03,1.22812e+01,-2.43475e+01,0.00000e+00,0.00000e+00,0.00000e+00
2.00520e+03,1.17384e+01,-2.56290e+01,0.00000e+00,0.00000e+00,0.00000e+00
2.00520e+03,1.11403e+01,-2.69104e+01,0.00000e+00,0.00000e+00,0.00000e+00
2.00520e+03,1.04858e+01,-2.81919e+01,0.00000e+00,0.00000e+00,0.00000e+00
2.00520e+03,9.73672e+00,-2.94733e+01,0.00000e+00,0.00000e+00,0.00000e+00
2.00520e+03,8.87814e+00,-3.07548e+01,0.00000e+00,0.00000e+00,0.00000e+00
2.00520e+03,7.89577e+00,-3.20362e+01,0.00000e+00,0.00000e+00,0.00000e+00
2.00520e+03,6.73385e+00,-3.33177e+01,0.00000e+00,0.00000e+00,0.00000e+00
2.00520e+03,5.24243e+00,-3.45991e+01,0.00000e+00,0.00000e+00,0.00000e+00
2.00520e+03,3.22533e+00,-3.58806e+01,0.00000e+00,0.00000e+00,0.00000e+00
2.00520e+03,-1.30688e+00,-3.71620e+01,0.00000e+00,0.00000e+00,0.00000e+00
2.00520e+03,-1.63397e+00,-3.71650e+01,0.00000e+00,0.00000e+00,0.00000e+00
2.00520e+03,-4.61400e+00,-3.58377e+01,0.00000e+00,0.00000e+00,0.00000e+00
2.00520e+03,-4.97481e+00,-3.45104e+01,0.00000e+00,0.00000e+00,0.00000e+00
2.00520e+03,-5.09932e+00,-3.31830e+01,0.00000e+00,0.00000e+00,0.00000e+00
2.00520e+03,-5.11821e+00,-3.18557e+01,0.00000e+00,0.00000e+00,0.00000e+00
2.00520e+03,-5.05754e+00,-3.05284e+01,0.00000e+00,0.00000e+00,0.00000e+00
2.00520e+03,-4.94693e+00,-2.92011e+01,0.00000e+00,0.00000e+00,0.00000e+00
2.00520e+03,-4.78618e+00,-2.78738e+01,0.00000e+00,0.00000e+00,0.00000e+00
2.00520e+03,-4.59485e+00,-2.65464e+01,0.00000e+00,0.00000e+00,0.00000e+00
2.00520e+03,-4.38577e+00,-2.52191e+01,0.00000e+00,0.00000e+00,0.00000e+00
2.00520e+03,-4.14998e+00,-2.38918e+01,0.00000e+00,0.00000e+00,0.00000e+00
2.00520e+03,-3.89748e+00,-2.25645e+01,0.00000e+00,0.00000e+00,0.00000e+00
2.00520e+03,-3.62871e+00,-2.12371e+01,0.00000e+00,0.00000e+00,0.00000e+00
2.00520e+03,-3.34375e+00,-1.99098e+01,0.00000e+00,0.00000e+00,0.00000e+00
2.00520e+03,-3.04862e+00,-1.85825e+01,0.00000e+00,0.00000e+00,0.00000e+00
2.00520e+03,-2.74048e+00,-1.72552e+01,0.00000e+00,0.00000e+00,0.00000e+00
2.00520e+03,-2.42401e+00,-1.59279e+01,0.00000e+00,0.00000e+00,0.00000e+00
2.00520e+03,-2.10007e+00,-1.46005e+01,0.00000e+00,0.00000e+00,0.00000e+00
2.00520e+03,-1.76946e+00,-1.32732e+01,0.00000e+00,0.00000e+00,0.00000e+00
2.00520e+03,-1.43602e+00,-1.19459e+01,0.00000e+00,0.00000e+00,0.00000e+00
2.00520e+03,-1.09820e+00,-1.06186e+01,0.00000e+00,0.00000e+00,0.00000e+00
2.00520e+03,-7.59661e-01,-9.29125e+00,0.00000e+00,0.00000e+00,0.00000e+00
2.00520e+03,-4.18505e-01,-7.96393e+00,0.00000e+00,0.00000e+00,0.00000e+00
2.00520e+03,-7.73829e-02,-6.63661e+00,0.00000e+00,0.00000e+00,0.00000e+00
2.00520e+03,2.62450e-01,-5.30929e+00,0.00000e+00,0.00000e+00,0.00000e+00
2.00520e+03,6.02282e-01,-3.98196e+00,0.00000e+00,0.00000e+00,0.00000e+00
2.00520e+03,9.34067e-01,-2.65464e+00,0.00000e+00,0.00000e+00,0.00000e+00
2.00520e+03,1.26435e+00,-1.32732e+00,0.00000e+00,0.00000e+00,0.00000e+00
2.02480e+03,1.59367e+01,0.00000e+00,0.00000e+00,0.00000e+00,0.00000e+00
2.02480e+03,1.58564e+01,-1.21102e+00,0.00000e+00,0.00000e+00,0.00000e+00
2.02480e+03,1.57496e+01,-2.42204e+00,0.00000e+00,0.00000e+00,0.00000e+00
2.02480e+03,1.56418e+01,-3.63306e+00,0.00000e+00,0.00000e+00,0.00000e+00
2.02480e+03,1.55106e+01,-4.84408e+00,0.00000e+00,0.00000e+00,0.00000e+00
2.02480e+03,1.53739e+01,-6.05509e+00,0.00000e+00,0.00000e+00,0.00000e+00
2.02480e+03,1.52192e+01,-7.26611e+00,0.00000e+00,0.00000e+00,0.00000e+00
2.02480e+03,1.50559e+01,-8.47713e+00,0.00000e+00,0.00000e+00,0.00000e+00
2.02480e+03,1.48781e+01,-9.68815e+00,0.00000e+00,0.00000e+00,0.00000e+00
2.02480e+03,1.46884e+01,-1.08992e+01,0.00000e+00,0.00000e+00,0.00000e+00
2.02480e+03,1.44857e+01,-1.21102e+01,0.00000e+00,0.00000e+00,0.00000e+00
2.02480e+03,1.42672e+01,-1.33212e+01,0.00000e+00,0.00000e+00,0.00000e+00
2.02480e+03,1.40325e+01,-1.45322e+01,0.00000e+00,0.00000e+00,0.00000e+00
2.02480e+03,1.37750e+01,-1.57432e+01,0.00000e+00,0.00000e+00,0.00000e+00
2.02480e+03,1.34951e+01,-1.69543e+01,0.00000e+00,0.00000e+00,0.00000e+00
2.02480e+03,1.31886e+01,-1.81653e+01,0.00000e+00,0.00000e+00,0.00000e+00
2.02480e+03,1.28460e+01,-1.93763e+01,0.00000e+00,0.00000e+00,0.00000e+00
2.02480e+03,1.24782e+01,-2.05873e+01,0.00000e+00,0.00000e+00,0.00000e+00
2.02480e+03,1.20540e+01,-2.17983e+01,0.00000e+00,0.00000e+00,0.00000e+00
2.02480e+03,1.16063e+01,-2.30094e+01,0.00000e+00,0.00000e+00,0.00000e+00
2.02480e+03,1.10933e+01,-2.42204e+01,0.00000e+00,0.00000e+00,0.00000e+00
2.02480e+03,1.05280e+01,-2.54314e+01,0.00000e+00,0.00000e+00,0.00000e+00
2.02480e+03,9.90946e+00,-2.66424e+01,0.00000e+00,0.00000e+00,0.00000e+00
2.02480e+03,9.20158e+00,-2.78534e+01,0.00000e+00,0.00000e+00,0.00000e+00
2.02480e+03,8.39019e+00,-2.90645e+01,0.00000e+00,0.00000e+00,0.00000e+00
2.02480e+03,7.46181e+00,-3.02755e+01,0.00000e+00,0.00000e+00,0.00000e+00
2.02480e+03,6.36374e+00,-3.14865e+01,0.00000e+00,0.00000e+00,0.00000e+00
2.02480e+03,4.95429e+00,-3.26975e+01,0.00000e+00,0.00000e+00,0.00000e+00
2.02480e+03,3.04806e+00,-3.39085e+01,0.00000e+00,0.00000e+00,0.00000e+00
2.02480e+03,-1.23505e+00,-3.51195e+01,0.00000e+00,0.00000e+00,0.00000e+00
2.02480e+03,-1.54416e+00,-3.51224e+01,0.00000e+00,0.00000e+00,0.00000e+00
2.02480e+03,-4.36041e+00,-3.38680e+01,0.00000e+00,0.00000e+00,0.00000e+00
2.02480e+03,-4.70139e+00,-3.26136e+01,0.00000e+00,0.00000e+00,0.00000e+00
2.02480e+03,-4.81905e+00,-3.13592e+01,0.00000e+00,0.00000e+00,0.00000e+00
2.02480e+03,-4.83691e+00,-3.01049e+01,0.00000e+00,0.00000e+00,0.00000e+00
2.02480e+03,-4.77957e+00,-2.88505e+01,0.00000e+00,0.00000e+00,0.00000e+00
2.02480e+03,-4.67504e+00,-2.75961e+01,0.00000e+00,0.00000e+00,0.00000e+00
2.02480e+03,-4.52312e+00,-2.63418e+01,0.00000e+00,0.00000e+00,0.00000e+00
2.02480e+03,-4.34231e+00,-2.50874e+01,0.00000e+00,0.00000e+00,0.00000e+00
2.02480e+03,-4.14473e+00,-2.38330e+01,0.00000e+00,0.00000e+00,0.00000e+00
2.02480e+03,-3.92189e+00,-2.25787e+01,0.00000e+00,0.00000e+00,0.00000e+00
2.02480e+03,-3.68327e+00,-2.13243e+01,0.00000e+00,0.00000e+00,0.00000e+00
2.02480e+03,-3.42927e+00,-2.00699e+01,0.00000e+00,0.00000e+00,0.00000e+00
2.02480e+03,-3.15997e+00,-1.88155e+01,0.00000e+00,0.00000e+00,0.00000e+00
2.02480e+03,-2.88106e+00,-1.75612e+01,0.00000e+00,0.00000e+00,0.00000e+00
2.02480e+03,-2.58986e+00,-1.63068e+01,0.00000e+00,0.00000e+00,0.00000e+00
2.02480e+03,-2.29078e+00,-1.50524e+01,0.00000e+00,0.00000e+00,0.00000e+00
2.02480e+03,-1.98465e+00,-1.37981e+01,0.00000e+00,0.00000e+00,0.00000e+00
2.02480e+03,-1.67220e+00,-1.25437e+01,0.00000e+00,0.00000e+00,0.00000e+00
2.02480e+03,-1.35709e+00,-1.12893e+01,0.00000e+00,0.00000e+00,0.00000e+00
2.02480e+03,-1.03784e+00,-1.00350e+01,0.00000e+00,0.00000e+00,0.00000e+00
2.02480e+03,-7.17909e-01,-8.78059e+00,0.00000e+00,0.00000e+00,0.00000e+00
2.02480e+03,-3.95503e-01,-7.52622e+00,0.00000e+00,0.00000e+00,0.00000e+00
2.02480e+03,-7.31298e-02,-6.27185e+00,0.00000e+00,0.00000e+00,0.00000e+00
2.02480e+03,2.48025e-01,-5.01748e+00,0.00000e+00,0.00000e+00,0.00000e+00
2.02480e+03,5.69180e-01,-3.76311e+00,0.00000e+00,0.00000e+00,0.00000e+00
2.02480e+03,8.82730e-01,-2.50874e+00,0.00000e+00,0.00000e+00,0.00000e+00
2.02480e+03,1.19486e+00,-1.25437e+00,0.00000e+00,0.00000e+00,0.00000e+00
2.03880e+03,1.52746e+01,0.00000e+00,0.00000e+00,0.00000e+00,0.00000e+00
2.03880e+03,1.51977e+01,-1.16071e+00,0.00000e+00,0.00000e+00,0.00000e+00
2.03880e+03,1.50954e+01,-2.32142e+00,0.00000e+00,0.00000e+00,0.00000e+00
2.03880e+03,1.49920e+01,-3.48213e+00,0.00000e+00,0.00000e+00,0.00000e+00
2.03880e+03,1.48662e+01,-4.64285e+00,0.00000e+00,0.00000e+00,0.00000e+00
2.03880e+03,1.47352e+01,-5.80356e+00,0.00000e+00,0.00000e+00,0.00000e+00
2.03880e+03,1.45870e+01,-6.96427e+00,0.00000e+00,0.00000e+00,0.00000e+00
2.03880e+03,1.44304e+01,-8.12498e+00,0.00000e+00,0.00000e+00,0.00000e+00
2.03880e+03,1.42600e+01,-9.28569e+00,0.00000e+00,0.00000e+00,0.00000e+00
2.03880e+03,1.40782e+01,-1.04464e+01,0.00000e+00,0.00000e+00,0.00000e+00
2.03880e+03,1.38839e+01,-1.16071e+01,0.00000e+00,0.00000e+00,0.00000e+00
2.03880e+03,1.36745e+01,-1.27678e+01,0.00000e+00,0.00000e+00,0.00000e+00
2.03880e+03,1.34496e+01,-1.39285e+01,0.00000e+00,0.00000e+00,0.00000e+00
2.03880e+03,1.32028e+01,-1.50892e+01,0.00000e+00,0.00000e+00,0.00000e+00
2.03880e+03,1.29345e+01,-1.62500e+01,0.00000e+00,0.00000e+00,0.00000e+00
2.03880e+03,1.26407e+01,-1.74107e+01,0.00000e+00,0.00000e+00,0.00000e+00
2.03880e+03,1.23123e+01,-1.85714e+01,0.00000e+00,0.00000e+00,0.00000e+00
2.03880e+03,1.19599e+01,-1.97321e+01,0.00000e+00,0.00000e+00,0.00000e+00
2.03880e+03,1.15532e+01,-2.08928e+01,0.00000e+00,0.00000e+00,0.00000e+00
2.03880e+03,1.11241e+01,-2.20535e+01,0.00000e+00,0.00000e+00,0.00000e+00
2.03880e+03,1.06324e+01,-2.32142e+01,0.00000e+00,0.00000e+00,0.00000e+00
2.03880e+03,1.00906e+01,-2.43749e+01,0.00000e+00,0.00000e+00,0.00000e+00
2.03880e+03,9.49781e+00,-2.55357e+01,0.00000e+00,0.00000e+00,0.00000e+00
2.03880e+03,8.81933e+00,-2.66964e+01,0.00000e+00,0.00000e+00,0.00000e+00
2.03880e+03,8.04165e+00,-2.78571e+01,0.00000e+00,0.00000e+00,0.00000e+00
2.03880e+03,7.15183e+00,-2.90178e+01,0.00000e+00,0.00000e+00,0.00000e+00
2.03880e+03,6.09938e+00,-3.01785e+01,0.00000e+00,0.00000e+00,0.00000e+00
2.03880e+03,4.74849e+00,-3.13392e+01,0.00000e+00,0.00000e+00,0.00000e+00
2.03880e+03,2.92144e+00,-3.24999e+01,0.00000e+00,0.00000e+00,0.00000e+00
2.03880e+03,-1.18374e+00,-3.36606e+01,0.00000e+00,0.00000e+00,0.00000e+00
2.03880e+03,-1.48002e+00,-3.36633e+01,0.00000e+00,0.00000e+00,0.00000e+00
2.03880e+03,-4.17927e+00,-3.24611e+01,0.00000e+00,0.00000e+00,0.00000e+00
2.03880e+03,-4.50609e+00,-3.12588e+01,0.00000e+00,0.00000e+00,0.00000e+00
2.03880e+03,-4.61886e+00,-3.00565e+01,0.00000e+00,0.00000e+00,0.00000e+00
2.03880e+03,-4.63598e+00,-2.88543e+01,0.00000e+00,0.00000e+00,0.00000e+00
2.03880e+03,-4.58102e+00,-2.76520e+01,0.00000e+00,0.00000e+00,0.00000e+00
2.03880e+03,-4.48083e+00,-2.64498e+01,0.00000e+00,0.00000e+00,0.00000e+00
2.03880e+03,-4.33523e+00,-2.52475e+01,0.00000e+00,0.00000e+00,0.00000e+00
2.03880e+03,-4.16192e+00,-2.40452e+01,0.00000e+00,0.00000e+00,0.00000e+00
2.03880e+03,-3.97255e+00,-2.28430e+01,0.00000e+00,0.00000e+00,0.00000e+00
2.03880e+03,-3.75897e+00,-2.16407e+01,0.00000e+00,0.00000e+00,0.00000e+00
2.03880e+03,-3.53026e+00,-2.04384e+01,0.00000e+00,0.00000e+00,0.00000e+00
2.03880e+03,-3.28682e+00,-1.92362e+01,0.00000e+00,0.00000e+00,0.00000e+00
2.03880e+03,-3.02870e+00,-1.80339e+01,0.00000e+00,0.00000e+00,0.00000e+00
2.03880e+03,-2.76138e+00,-1.68317e+01,0.00000e+00,0.00000e+00,0.00000e+00
2.03880e+03,-2.48228e+00,-1.56294e+01,0.00000e+00,0.00000e+00,0.00000e+00
2.03880e+03,-2.19562e+00,-1.44271e+01,0.00000e+00,0.00000e+00,0.00000e+00
2.03880e+03,-1.90220e+00,-1.32249e+01,0.00000e+00,0.00000e+00,0.00000e+00
2.03880e+03,-1.60274e+00,-1.20226e+01,0.00000e+00,0.00000e+00,0.00000e+00
2.03880e+03,-1.30072e+00,-1.08204e+01,0.00000e+00,0.00000e+00,0.00000e+00
2.03880e+03,-9.94731e-01,-9.61809e+00,0.00000e+00,0.00000e+00,0.00000e+00
2.03880e+03,-6.88086e-01,-8.41583e+00,0.00000e+00,0.00000e+00,0.00000e+00
2.03880e+03,-3.79073e-01,-7.21357e+00,0.00000e+00,0.00000e+00,0.00000e+00
2.03880e+03,-7.00919e-02,-6.01131e+00,0.00000e+00,0.00000e+00,0.00000e+00
2.03880e+03,2.37722e-01,-4.80905e+00,0.00000e+00,0.00000e+00,0.00000e+00
2.03880e+03,5.45535e-01,-3.60678e+00,0.00000e+00,0.00000e+00,0.00000e+00
2.03880e+03,8.46060e-01,-2.40452e+00,0.00000e+00,0.00000e+00,0.00000e+00
2.03880e+03,1.14523e+00,-1.20226e+00,0.00000e+00,0.00000e+00,0.00000e+00
2.04720e+03,1.48774e+01,0.00000e+00,0.00000e+00,0.00000e+00,0.00000e+00
2.04720e+03,1.48025e+01,-1.13053e+00,0.00000e+00,0.00000e+00,0.00000e+00
2.04720e+03,1.47028e+01,-2.26105e+00,0.00000e+00,0.00000e+00,0.00000e+00
2.04720e+03,1.46021e+01,-3.39158e+00,0.00000e+00,0.00000e+00,0.00000e+00
2.04720e+03,1.44796e+01,-4.52211e+00,0.00000e+00,0.00000e+00,0.00000e+00
2.04720e+03,1.43520e+01,-5.65264e+00,0.00000e+00,0.00000e+00,0.00000e+00
2.04720e+03,1.42077e+01,-6.78316e+00,0.00000e+00,0.00000e+00,0.00000e+00
2.04720e+03,1.40552e+01,-7.91369e+00,0.00000e+00,0.00000e+00,0.00000e+00
2.04720e+03,1.38892e+01,-9.04422e+00,0.00000e+00,0.00000e+00,0.00000e+00
2.04720e+03,1.37121e+01,-1.01747e+01,0.00000e+00,0.00000e+00,0.00000e+00
2.04720e+03,1.35229e+01,-1.13053e+01,0.00000e+00,0.00000e+00,0.00000e+00
2.04720e+03,1.33189e+01,-1.24358e+01,0.00000e+00,0.00000e+00,0.00000e+00
2.04720e+03,1.30998e+01,-1.35663e+01,0.00000e+00,0.00000e+00,0.00000e+00
2.04720e+03,1.28594e+01,-1.46969e+01,0.00000e+00,0.00000e+00,0.00000e+00
2.04720e+03,1.25982e+01,-1.58274e+01,0.00000e+00,0.00000e+00,0.00000e+00
2.04720e+03,1.23120e+01,-1.69579e+01,0.00000e+00,0.00000e+00,0.00000e+00
2.04720e+03,1.19922e+01,-1.80884e+01,0.00000e+00,0.00000e+00,0.00000e+00
2.04720e+03,1.16489e+01,-1.92190e+01,0.00000e+00,0.00000e+00,0.00000e+00
2.04720e+03,1.12528e+01,-2.03495e+01,0.00000e+00,0.00000e+00,0.00000e+00
2.04720e+03,1.08348e+01,-2.14800e+01,0.00000e+00,0.00000e+00,0.00000e+00
2.04720e+03,1.03559e+01,-2.26105e+01,0.00000e+00,0.00000e+00,0.00000e+00
2.04720e+03,9.82823e+00,-2.37411e+01,0.00000e+00,0.00000e+00,0.00000e+00
2.04720e+03,9.25081e+00,-2.48716e+01,0.00000e+00,0.00000e+00,0.00000e+00
2.04720e+03,8.58998e+00,-2.60021e+01,0.00000e+00,0.00000e+00,0.00000e+00
2.04720e+03,7.83252e+00,-2.71326e+01,0.00000e+00,0.00000e+00,0.00000e+00
2.04720e+03,6.96585e+00,-2.82632e+01,0.00000e+00,0.00000e+00,0.00000e+00
2.04720e+03,5.94077e+00,-2.93937e+01,0.00000e+00,0.00000e+00,0.00000e+00
2.04720e+03,4.62500e+00,-3.05242e+01,0.00000e+00,0.00000e+00,0.00000e+00
2.04720e+03,2.84547e+00,-3.16548e+01,0.00000e+00,0.00000e+00,0.00000e+00
2.04720e+03,-1.15296e+00,-3.27853e+01,0.00000e+00,0.00000e+00,0.00000e+00
2.04720e+03,-1.44153e+00,-3.27879e+01,0.00000e+00,0.00000e+00,0.00000e+00
2.04720e+03,-4.07059e+00,-3.16169e+01,0.00000e+00,0.00000e+00,0.00000e+00
2.04720e+03,-4.38891e+00,-3.04459e+01,0.00000e+00,0.00000e+00,0.00000e+00
2.04720e+03,-4.49875e+00,-2.92749e+01,0.00000e+00,0.00000e+00,0.00000e+00
2.04720e+03,-4.51542e+00,-2.81039e+01,0.00000e+00,0.00000e+00,0.00000e+00
2.04720e+03,-4.46189e+00,-2.69329e+01,0.00000e+00,0.00000e+00,0.00000e+00
2.04720e+03,-4.36430e+00,-2.57619e+01,0.00000e+00,0.00000e+00,0.00000e+00
2.04720e+03,-4.22249e+00,-2.45909e+01,0.00000e+00,0.00000e+00,0.00000e+00
2.04720e+03,-4.05369e+00,-2.34199e+01,0.00000e+00,0.00000e+00,0.00000e+00
2.04720e+03,-3.86924e+00,-2.22489e+01,0.00000e+00,0.00000e+00,0.00000e+00
2.04720e+03,-3.66121e+00,-2.10779e+01,0.00000e+00,0.00000e+00,0.00000e+00
2.04720e+03,-3.43845e+00,-1.99069e+01,0.00000e+00,0.00000e+00,0.00000e+00
2.04720e+03,-3.20134e+00,-1.87359e+01,0.00000e+00,0.00000e+00,0.00000e+00
2.04720e+03,-2.94994e+00,-1.75649e+01,0.00000e+00,0.00000e+00,0.00000e+00
2.04720e+03,-2.68957e+00,-1.63940e+01,0.00000e+00,0.00000e+00,0.00000e+00
2.04720e+03,-2.41772e+00,-1.52230e+01,0.00000e+00,0.00000e+00,0.00000e+00
2.04720e+03,-2.13852e+00,-1.40520e+01,0.00000e+00,0.00000e+00,0.00000e+00
2.04720e+03,-1.85273e+00,-1.28810e+01,0.00000e+00,0.00000e+00,0.00000e+00
2.04720e+03,-1.56106e+00,-1.17100e+01,0.00000e+00,0.00000e+00,0.00000e+00
2.04720e+03,-1.26689e+00,-1.05390e+01,0.00000e+00,0.00000e+00,0.00000e+00
2.04720e+03,-9.68863e-01,-9.36797e+00,0.00000e+00,0.00000e+00,0.00000e+00
2.04720e+03,-6.70192e-01,-8.19698e+00,0.00000e+00,0.00000e+00,0.00000e+00
2.04720e+03,-3.69215e-01,-7.02598e+00,0.00000e+00,0.00000e+00,0.00000e+00
2.04720e+03,-6.82691e-02,-5.85498e+00,0.00000e+00,0.00000e+00,0.00000e+00
2.04720e+03,2.31540e-01,-4.68399e+00,0.00000e+00,0.00000e+00,0.00000e+00
2.04720e+03,5.31348e-01,-3.51299e+00,0.00000e+00,0.00000e+00,0.00000e+00
2.04720e+03,8.24058e-01,-2.34199e+00,0.00000e+00,0.00000e+00,0.00000e+00
2.04720e+03,1.11544e+00,-1.17100e+00,0.00000e+00,0.00000e+00,0.00000e+00
2.05000e+03,1.47450e+01,0.00000e+00,0.00000e+00,0.00000e+00,0.00000e+00
2.05000e+03,1.46708e+01,-1.12047e+00,0.00000e+00,0.00000e+00,0.00000e+00
2.05000e+03,1.45720e+01,-2.24093e+00,0.00000e+00,0.00000e+00,0.00000e+00
2.05000e+03,1.44722e+01,-3.36140e+00,0.00000e+00,0.00000e+00,0.00000e+00
2.05000e+03,1.43508e+01,-4.48186e+00,0.00000e+00,0.00000e+00,0.00000e+00
2.05000e+03,1.42243e+01,-5.60233e+00,0.00000e+00,0.00000e+00,0.00000e+00
2.05000e+03,1.40812e+01,-6.72279e+00,0.00000e+00,0.00000e+00,0.00000e+00
2.05000e+03,1.39301e+01,-7.84326e+00,0.00000e+00,0.00000e+00,0.00000e+00
2.05000e+03,1.37656e+01,-8.96372e+00,0.00000e+00,0.00000e+00,0.00000e+00
2.05000e+03,1.35901e+01,-1.00842e+01,0.00000e+00,0.00000e+00,0.00000e+00
2.05000e+03,1.34025e+01,-1.12047e+01,0.00000e+00,0.00000e+00,0.00000e+00
2.05000e+03,1.32004e+01,-1.23251e+01,0.00000e+00,0.00000e+00,0.00000e+00
2.05000e+03,1.29833e+01,-1.34456e+01,0.00000e+00,0.00000e+00,0.00000e+00
2.05000e+03,1.27450e+01,-1.45661e+01,0.00000e+00,0.00000e+00,0.00000e+00
2.05000e+03,1.24860e+01,-1.56865e+01,0.00000e+00,0.00000e+00,0.00000e+00
2.05000e+03,1.22024e+01,-1.68070e+01,0.00000e+00,0.00000e+00,0.00000e+00
2.05000e+03,1.18854e+01,-1.79274e+01,0.00000e+00,0.00000e+00,0.00000e+00
2.05000e+03,1.15452e+01,-1.90479e+01,0.00000e+00,0.00000e+00,0.00000e+00
2.05000e+03,1.11526e+01,-2.01684e+01,0.00000e+00,0.00000e+00,0.00000e+00
2.05000e+03,1.07384e+01,-2.12888e+01,0.00000e+00,0.00000e+00,0.00000e+00
2.05000e+03,1.02638e+01,-2.24093e+01,0.00000e+00,0.00000e+00,0.00000e+00
2.05000e+03,9.74076e+00,-2.35298e+01,0.00000e+00,0.00000e+00,0.00000e+00
2.05000e+03,9.16848e+00,-2.46502e+01,0.00000e+00,0.00000e+00,0.00000e+00
2.05000e+03,8.51353e+00,-2.57707e+01,0.00000e+00,0.00000e+00,0.00000e+00
2.05000e+03,7.76281e+00,-2.68912e+01,0.00000e+00,0.00000e+00,0.00000e+00
2.05000e+03,6.90385e+00,-2.80116e+01,0.00000e+00,0.00000e+00,0.00000e+00
2.05000e+03,5.88790e+00,-2.91321e+01,0.00000e+00,0.00000e+00,0.00000e+00
2.05000e+03,4.58384e+00,-3.02526e+01,0.00000e+00,0.00000e+00,0.00000e+00
2.05000e+03,2.82014e+00,-3.13730e+01,0.00000e+00,0.00000e+00,0.00000e+00
2.05000e+03,-1.14270e+00,-3.24935e+01,0.00000e+00,0.00000e+00,0.00000e+00
2.05000e+03,-1.42870e+00,-3.24961e+01,0.00000e+00,0.00000e+00,0.00000e+00
2.05000e+03,-4.03436e+00,-3.13355e+01,0.00000e+00,0.00000e+00,0.00000e+00
2.05000e+03,-4.34985e+00,-3.01749e+01,0.00000e+00,0.00000e+00,0.00000e+00
2.05000e+03,-4.45871e+00,-2.90144e+01,0.00000e+00,0.00000e+00,0.00000e+00
2.05000e+03,-4.47523e+00,-2.78538e+01,0.00000e+00,0.00000e+00,0.00000e+00
2.05000e+03,-4.42218e+00,-2.66932e+01,0.00000e+00,0.00000e+00,0.00000e+00
2.05000e+03,-4.32546e+00,-2.55327e+01,0.00000e+00,0.00000e+00,0.00000e+00
2.05000e+03,-4.18491e+00,-2.43721e+01,0.00000e+00,0.00000e+00,0.00000e+00
2.05000e+03,-4.01761e+00,-2.32115e+01,0.00000e+00,0.00000e+00,0.00000e+00
2.05000e+03,-3.83480e+00,-2.20509e+01,0.00000e+00,0.00000e+00,0.00000e+00
2.05000e+03,-3.62863e+00,-2.08903e+01,0.00000e+00,0.00000e+00,0.00000e+00
2.05000e+03,-3.40785e+00,-1.97298e+01,0.00000e+00,0.00000e+00,0.00000e+00
2.05000e+03,-3.17285e+00,-1.85692e+01,0.00000e+00,0.00000e+00,0.00000e+00
2.05000e+03,-2.92368e+00,-1.74086e+01,0.00000e+00,0.00000e+00,0.00000e+00
2.05000e+03,-2.66563e+00,-1.62480e+01,0.00000e+00,0.00000e+00,0.00000e+00
2.05000e+03,-2.39621e+00,-1.50875e+01,0.00000e+00,0.00000e+00,0.00000e+00
2.05000e+03,-2.11949e+00,-1.39269e+01,0.00000e+00,0.00000e+00,0.00000e+00
2.05000e+03,-1.83624e+00,-1.27663e+01,0.00000e+00,0.00000e+00,0.00000e+00
2.05000e+03,-1.54717e+00,-1.16057e+01,0.00000e+00,0.00000e+00,0.00000e+00
2.05000e+03,-1.25562e+00,-1.04452e+01,0.00000e+00,0.00000e+00,0.00000e+00
2.05000e+03,-9.60241e-01,-9.28460e+00,0.00000e+00,0.00000e+00,0.00000e+00
2.05000e+03,-6.64227e-01,-8.12402e+00,0.00000e+00,0.00000e+00,0.00000e+00
2.05000e+03,-3.65929e-01,-6.96345e+00,0.00000e+00,0.00000e+00,0.00000e+00
2.05000e+03,-6.76615e-02,-5.80287e+00,0.00000e+00,0.00000e+00,0.00000e+00
2.05000e+03,2.29479e-01,-4.64230e+00,0.00000e+00,0.00000e+00,0.00000e+00
2.05000e+03,5.26620e-01,-3.48173e+00,0.00000e+00,0.00000e+00,0.00000e+00
2.05000e+03,8.16724e-01,-2.32115e+00,0.00000e+00,0.00000e+00,0.00000e+00
2.05000e+03,1.10552e+00,-1.16058e+00,0.00000e+00,0.00000e+00,0.00000e+00
--------------------------------------------------------------------------------------------------------------------------------------------------------------------------------------------------------------------------------------------------------------------------------------------------------------------------------------------------------------------------------

ALMA 
--------------------------------------------------------------------------------------------------------------------------------------------------------------------------------------------------------------------------------------------------------------------------------------------------------------------------------------------------------------------------------
X,Y,Z,Sigma,Tau,Von Mises
0.00000e+00,4.05613e+00,0.00000e+00,2.14980e-01,8.73360e-01,1.52790e+00
0.00000e+00,1.70710e+01,0.00000e+00,6.51925e-02,8.74519e-01,1.51611e+00
0.00000e+00,3.00859e+01,0.00000e+00,-8.45952e-02,8.74519e-01,1.51707e+00
0.00000e+00,4.31008e+01,0.00000e+00,-2.34383e-01,8.73384e-01,1.53080e+00
1.07300e+02,4.01639e+00,0.00000e+00,1.91984e-01,8.25584e-01,1.44278e+00
1.07300e+02,1.69038e+01,0.00000e+00,5.83238e-02,8.26669e-01,1.43302e+00
1.07300e+02,2.97912e+01,0.00000e+00,-7.53369e-02,8.26669e-01,1.43381e+00
1.07300e+02,4.26785e+01,0.00000e+00,-2.08998e-01,8.25607e-01,1.44519e+00
2.14300e+02,3.97676e+00,0.00000e+00,1.70207e-01,7.77749e-01,1.35781e+00
2.14300e+02,1.67370e+01,0.00000e+00,5.18124e-02,7.78762e-01,1.34985e+00
2.14300e+02,2.94972e+01,0.00000e+00,-6.65820e-02,7.78762e-01,1.35050e+00
2.14300e+02,4.22575e+01,0.00000e+00,-1.84976e-01,7.77770e-01,1.35978e+00
3.20700e+02,3.93736e+00,0.00000e+00,1.49725e-01,7.28927e-01,1.27138e+00
3.20700e+02,1.65712e+01,0.00000e+00,4.56804e-02,7.29866e-01,1.26499e+00
3.20700e+02,2.92050e+01,0.00000e+00,-5.83644e-02,7.29866e-01,1.26551e+00
3.20700e+02,4.18388e+01,0.00000e+00,-1.62409e-01,7.28946e-01,1.27297e+00
4.26200e+02,3.89829e+00,0.00000e+00,1.30612e-01,6.79903e-01,1.18485e+00
4.26200e+02,1.64067e+01,0.00000e+00,3.99485e-02,6.80771e-01,1.17981e+00
4.26200e+02,2.89151e+01,0.00000e+00,-5.07151e-02,6.80771e-01,1.18022e+00
4.26200e+02,4.14236e+01,0.00000e+00,-1.41379e-01,6.79920e-01,1.18611e+00
5.30600e+02,3.85963e+00,0.00000e+00,1.12898e-01,6.30821e-01,1.09843e+00
5.30600e+02,1.62440e+01,0.00000e+00,3.46258e-02,6.31619e-01,1.09454e+00
5.30600e+02,2.86284e+01,0.00000e+00,-4.36466e-02,6.31619e-01,1.09487e+00
5.30600e+02,4.10127e+01,0.00000e+00,-1.21919e-01,6.30837e-01,1.09942e+00
6.33500e+02,3.82152e+00,0.00000e+00,9.66327e-02,5.82020e-01,1.01271e+00
6.33500e+02,1.60836e+01,0.00000e+00,2.97271e-02,5.82749e-01,1.00979e+00
6.33500e+02,2.83457e+01,0.00000e+00,-3.71785e-02,5.82749e-01,1.01004e+00
6.33500e+02,4.06078e+01,0.00000e+00,-1.04084e-01,5.82035e-01,1.01347e+00
7.34700e+02,3.78404e+00,0.00000e+00,8.18158e-02,5.33613e-01,9.27859e-01
7.34700e+02,1.59259e+01,0.00000e+00,2.52527e-02,5.34275e-01,9.25735e-01
7.34700e+02,2.80677e+01,0.00000e+00,-3.13105e-02,5.34275e-01,9.25920e-01
7.34700e+02,4.02095e+01,0.00000e+00,-8.78736e-02,5.33626e-01,9.28436e-01
8.33800e+02,3.74734e+00,0.00000e+00,6.84633e-02,4.85802e-01,8.44215e-01
8.33800e+02,1.57714e+01,0.00000e+00,2.12080e-02,4.86399e-01,8.42734e-01
8.33800e+02,2.77955e+01,0.00000e+00,-2.60473e-02,4.86399e-01,8.42870e-01
8.33800e+02,3.98196e+01,0.00000e+00,-7.33026e-02,4.85814e-01,8.44641e-01
9.30700e+02,3.71145e+00,0.00000e+00,5.65382e-02,4.38539e-01,7.61673e-01
9.30700e+02,1.56204e+01,0.00000e+00,1.75832e-02,4.39072e-01,7.60698e-01
9.30700e+02,2.75293e+01,0.00000e+00,-2.13717e-02,4.39072e-01,7.60795e-01
9.30700e+02,3.94382e+01,0.00000e+00,-6.03267e-02,4.38549e-01,7.61981e-01
1.02500e+03,3.67653e+00,0.00000e+00,4.60253e-02,3.92399e-01,6.81211e-01
1.02500e+03,1.54734e+01,0.00000e+00,1.43759e-02,3.92871e-01,6.80625e-01
1.02500e+03,2.72703e+01,0.00000e+00,-1.72735e-02,3.92871e-01,6.80692e-01
1.02500e+03,3.90671e+01,0.00000e+00,-4.89230e-02,3.92408e-01,6.81428e-01
1.11650e+03,3.64264e+00,0.00000e+00,3.68792e-02,3.46658e-01,6.01561e-01
1.11650e+03,1.53308e+01,0.00000e+00,1.15749e-02,3.47072e-01,6.01258e-01
1.11650e+03,2.70189e+01,0.00000e+00,-1.37295e-02,3.47072e-01,6.01303e-01
1.11650e+03,3.87070e+01,0.00000e+00,-3.90338e-02,3.46666e-01,6.01710e-01
1.20500e+03,3.54704e+00,0.00000e+00,4.15160e-02,3.04660e-01,5.29318e-01
1.20500e+03,1.49284e+01,0.00000e+00,1.31045e-02,3.05166e-01,5.28726e-01
1.20500e+03,2.63098e+01,0.00000e+00,-1.53070e-02,3.05166e-01,5.28785e-01
1.20500e+03,3.76912e+01,0.00000e+00,-4.37185e-02,3.04674e-01,5.29519e-01
1.29010e+03,3.41832e+00,0.00000e+00,3.32000e-02,2.72114e-01,4.72483e-01
1.29010e+03,1.43867e+01,0.00000e+00,1.05492e-02,2.72550e-01,4.72188e-01
1.29010e+03,2.53550e+01,0.00000e+00,-1.21017e-02,2.72550e-01,4.72225e-01
1.29010e+03,3.63234e+01,0.00000e+00,-3.47526e-02,2.72125e-01,4.72615e-01
1.37170e+03,3.29489e+00,0.00000e+00,2.59717e-02,2.39962e-01,4.16437e-01
1.37170e+03,1.38672e+01,0.00000e+00,8.31450e-03,2.40332e-01,4.16350e-01
1.37170e+03,2.44395e+01,0.00000e+00,-9.34276e-03,2.40332e-01,4.16372e-01
1.37170e+03,3.50118e+01,0.00000e+00,-2.70000e-02,2.39972e-01,4.16519e-01
1.44960e+03,3.17706e+00,0.00000e+00,1.97996e-02,2.08616e-01,3.61875e-01
1.44960e+03,1.33713e+01,0.00000e+00,6.39149e-03,2.08925e-01,3.61925e-01
1.44960e+03,2.35655e+01,0.00000e+00,-7.01665e-03,2.08925e-01,3.61937e-01
1.44960e+03,3.37597e+01,0.00000e+00,-2.04248e-02,2.08623e-01,3.61923e-01
1.52340e+03,3.06543e+00,0.00000e+00,1.46599e-02,1.77642e-01,3.08035e-01
1.52340e+03,1.29015e+01,0.00000e+00,4.77504e-03,1.77896e-01,3.08161e-01
1.52340e+03,2.27375e+01,0.00000e+00,-5.10979e-03,1.77896e-01,3.08167e-01
1.52340e+03,3.25736e+01,0.00000e+00,-1.49946e-02,1.77648e-01,3.08061e-01
1.59310e+03,2.96000e+00,0.00000e+00,1.04935e-02,1.47363e-01,2.55455e-01
1.59310e+03,1.24578e+01,0.00000e+00,3.45004e-03,1.47565e-01,2.55613e-01
1.59310e+03,2.19555e+01,0.00000e+00,-3.59343e-03,1.47565e-01,2.55615e-01
1.59310e+03,3.14533e+01,0.00000e+00,-1.06369e-02,1.47367e-01,2.55469e-01
1.65850e+03,2.86108e+00,0.00000e+00,7.23886e-03,1.18090e-01,2.04666e-01
1.65850e+03,1.20414e+01,0.00000e+00,2.40164e-03,1.18245e-01,2.04821e-01
1.65850e+03,2.12218e+01,0.00000e+00,-2.43558e-03,1.18245e-01,2.04822e-01
1.65850e+03,3.04021e+01,0.00000e+00,-7.27280e-03,1.18093e-01,2.04673e-01
1.71930e+03,2.76911e+00,0.00000e+00,4.82132e-03,9.01553e-02,1.56228e-01
1.71930e+03,1.16544e+01,0.00000e+00,1.61183e-03,9.02696e-02,1.56360e-01
1.71930e+03,2.05396e+01,0.00000e+00,-1.59767e-03,9.02696e-02,1.56360e-01
1.71930e+03,2.94249e+01,0.00000e+00,-4.80717e-03,9.01578e-02,1.56232e-01
1.77540e+03,2.60964e+00,0.00000e+00,5.63489e-03,1.08894e-01,1.88694e-01
1.77540e+03,1.09832e+01,0.00000e+00,1.90436e-03,1.09034e-01,1.88862e-01
1.77540e+03,1.93567e+01,0.00000e+00,-1.82616e-03,1.09034e-01,1.88862e-01
1.77540e+03,2.77303e+01,0.00000e+00,-5.55669e-03,1.08899e-01,1.88701e-01
1.82660e+03,2.38179e+00,0.00000e+00,3.96799e-03,7.91418e-02,1.37135e-01
1.82660e+03,1.00242e+01,0.00000e+00,1.34097e-03,7.92353e-02,1.37246e-01
1.82660e+03,1.76667e+01,0.00000e+00,-1.28606e-03,7.92353e-02,1.37246e-01
1.82660e+03,2.53092e+01,0.00000e+00,-3.91308e-03,7.91452e-02,1.37139e-01
1.87280e+03,2.17619e+00,0.00000e+00,2.86570e-03,5.77060e-02,9.99908e-02
1.87280e+03,9.15894e+00,0.00000e+00,9.65963e-04,5.77699e-02,1.00065e-01
1.87280e+03,1.61417e+01,0.00000e+00,-9.33770e-04,5.77699e-02,1.00065e-01
1.87280e+03,2.31244e+01,0.00000e+00,-2.83350e-03,5.77081e-02,9.99935e-02
1.91380e+03,1.99374e+00,0.00000e+00,1.94742e-03,6.46612e-02,1.12013e-01
1.91380e+03,8.39104e+00,0.00000e+00,6.54964e-04,6.47263e-02,1.12111e-01
1.91380e+03,1.47883e+01,0.00000e+00,-6.37492e-04,6.47263e-02,1.12111e-01
1.91380e+03,2.11856e+01,0.00000e+00,-1.92995e-03,6.46631e-02,1.12016e-01
1.94970e+03,1.83398e+00,0.00000e+00,1.10903e-03,5.23911e-02,9.07508e-02
1.94970e+03,7.71865e+00,0.00000e+00,3.72831e-04,5.24403e-02,9.08300e-02
1.94970e+03,1.36033e+01,0.00000e+00,-3.63369e-04,5.24403e-02,9.08300e-02
1.94970e+03,1.94880e+01,0.00000e+00,-1.09957e-03,5.23925e-02,9.07530e-02
1.98010e+03,1.69869e+00,0.00000e+00,5.39410e-04,3.67087e-02,6.35835e-02
1.98010e+03,7.14927e+00,0.00000e+00,1.82340e-04,3.67406e-02,6.36369e-02
1.98010e+03,1.25999e+01,0.00000e+00,-1.74731e-04,3.67406e-02,6.36369e-02
1.98010e+03,1.80504e+01,0.00000e+00,-5.31802e-04,3.67095e-02,6.35849e-02
2.00520e+03,1.58699e+00,0.00000e+00,2.13157e-04,2.27658e-02,3.94321e-02
2.00520e+03,6.67917e+00,0.00000e+00,7.28241e-05,2.27842e-02,3.94634e-02
2.00520e+03,1.17713e+01,0.00000e+00,-6.75087e-05,2.27842e-02,3.94634e-02
2.00520e+03,1.68635e+01,0.00000e+00,-2.07841e-04,2.27663e-02,3.94329e-02
2.02480e+03,1.49977e+00,0.00000e+00,6.16749e-05,1.16447e-02,2.01693e-02
2.02480e+03,6.31207e+00,0.00000e+00,2.14157e-05,1.16533e-02,2.01842e-02
2.02480e+03,1.11244e+01,0.00000e+00,-1.88435e-05,1.16533e-02,2.01842e-02
2.02480e+03,1.59367e+01,0.00000e+00,-5.91027e-05,1.16449e-02,2.01696e-02
2.03880e+03,1.43746e+00,0.00000e+00,1.08780e-05,4.23674e-03,7.33825e-03
2.03880e+03,6.04986e+00,0.00000e+00,3.86926e-06,4.23967e-03,7.34333e-03
2.03880e+03,1.06622e+01,0.00000e+00,-3.13945e-06,4.23967e-03,7.34333e-03
2.03880e+03,1.52746e+01,0.00000e+00,-1.01482e-05,4.23680e-03,7.33836e-03
2.04720e+03,1.40008e+00,0.00000e+00,1.33361e-06,7.04898e-04,1.22092e-03
2.04720e+03,5.89253e+00,0.00000e+00,4.91981e-07,7.05336e-04,1.22168e-03
2.04720e+03,1.03850e+01,0.00000e+00,-3.49649e-07,7.05336e-04,1.22168e-03
2.04720e+03,1.48774e+01,0.00000e+00,-1.19128e-06,7.04907e-04,1.22094e-03
2.05000e+03,1.38762e+00,0.00000e+00,0.00000e+00,0.00000e+00,0.00000e+00
2.05000e+03,5.84009e+00,0.00000e+00,0.00000e+00,0.00000e+00,0.00000e+00
2.05000e+03,1.02925e+01,0.00000e+00,0.00000e+00,0.00000e+00,0.00000e+00
2.05000e+03,1.47450e+01,0.00000e+00,0.00000e+00,0.00000e+00,0.00000e+00
MESA INFERIOR 
--------------------------------------------------------------------------------------------------------------------------------------------------------------------------------------------------------------------------------------------------------------------------------------------------------------------------------------------------------------------------------
X,Y,Z,Sigma,Von Mises
0.00000e+00,4.05613e+00,0.00000e+00,0.00000e+00,0.00000e+00
1.07300e+02,4.01639e+00,0.00000e+00,0.00000e+00,0.00000e+00
2.14300e+02,3.97676e+00,0.00000e+00,0.00000e+00,0.00000e+00
3.20700e+02,3.93736e+00,0.00000e+00,0.00000e+00,0.00000e+00
4.26200e+02,3.89829e+00,0.00000e+00,0.00000e+00,0.00000e+00
5.30600e+02,3.85963e+00,0.00000e+00,0.00000e+00,0.00000e+00
6.33500e+02,3.82152e+00,0.00000e+00,0.00000e+00,0.00000e+00
7.34700e+02,3.78404e+00,0.00000e+00,0.00000e+00,0.00000e+00
8.33800e+02,3.74734e+00,0.00000e+00,0.00000e+00,0.00000e+00
9.30700e+02,3.71145e+00,0.00000e+00,0.00000e+00,0.00000e+00
1.02500e+03,3.67653e+00,0.00000e+00,0.00000e+00,0.00000e+00
1.11650e+03,3.64264e+00,0.00000e+00,0.00000e+00,0.00000e+00
1.20500e+03,3.54704e+00,0.00000e+00,0.00000e+00,0.00000e+00
1.29010e+03,3.41832e+00,0.00000e+00,0.00000e+00,0.00000e+00
1.37170e+03,3.29489e+00,0.00000e+00,0.00000e+00,0.00000e+00
1.44960e+03,3.17706e+00,0.00000e+00,0.00000e+00,0.00000e+00
1.52340e+03,3.06543e+00,0.00000e+00,0.00000e+00,0.00000e+00
1.59310e+03,2.96000e+00,0.00000e+00,0.00000e+00,0.00000e+00
1.65850e+03,2.86108e+00,0.00000e+00,0.00000e+00,0.00000e+00
1.71930e+03,2.76911e+00,0.00000e+00,0.00000e+00,0.00000e+00
1.77540e+03,2.60964e+00,0.00000e+00,0.00000e+00,0.00000e+00
1.82660e+03,2.38179e+00,0.00000e+00,0.00000e+00,0.00000e+00
1.87280e+03,2.17619e+00,0.00000e+00,0.00000e+00,0.00000e+00
1.91380e+03,1.99374e+00,0.00000e+00,0.00000e+00,0.00000e+00
1.94970e+03,1.83398e+00,0.00000e+00,0.00000e+00,0.00000e+00
1.98010e+03,1.69869e+00,0.00000e+00,0.00000e+00,0.00000e+00
2.00520e+03,1.58699e+00,0.00000e+00,0.00000e+00,0.00000e+00
2.02480e+03,1.49977e+00,0.00000e+00,0.00000e+00,0.00000e+00
2.03880e+03,1.43746e+00,0.00000e+00,0.00000e+00,0.00000e+00
2.04720e+03,1.40008e+00,0.00000e+00,0.00000e+00,0.00000e+00
2.05000e+03,1.38762e+00,0.00000e+00,0.00000e+00,0.00000e+00
--------------------------------------------------------------------------------------------------------------------------------------------------------------------------------------------------------------------------------------------------------------------------------------------------------------------------------------------------------------------------------

MESA SUPERIOR 
--------------------------------------------------------------------------------------------------------------------------------------------------------------------------------------------------------------------------------------------------------------------------------------------------------------------------------------------------------------------------------
X,Y,Z,Sigma,Von Mises
0.00000e+00,4.31008e+01,0.00000e+00,0.00000e+00,0.00000e+00
1.07300e+02,4.26785e+01,0.00000e+00,0.00000e+00,0.00000e+00
2.14300e+02,4.22575e+01,0.00000e+00,0.00000e+00,0.00000e+00
3.20700e+02,4.18388e+01,0.00000e+00,0.00000e+00,0.00000e+00
4.26200e+02,4.14236e+01,0.00000e+00,0.00000e+00,0.00000e+00
5.30600e+02,4.10127e+01,0.00000e+00,0.00000e+00,0.00000e+00
6.33500e+02,4.06078e+01,0.00000e+00,0.00000e+00,0.00000e+00
7.34700e+02,4.02095e+01,0.00000e+00,0.00000e+00,0.00000e+00
8.33800e+02,3.98196e+01,0.00000e+00,0.00000e+00,0.00000e+00
9.30700e+02,3.94382e+01,0.00000e+00,0.00000e+00,0.00000e+00
1.02500e+03,3.90671e+01,0.00000e+00,0.00000e+00,0.00000e+00
1.11650e+03,3.87070e+01,0.00000e+00,0.00000e+00,0.00000e+00
1.20500e+03,3.76912e+01,0.00000e+00,0.00000e+00,0.00000e+00
1.29010e+03,3.63234e+01,0.00000e+00,0.00000e+00,0.00000e+00
1.37170e+03,3.50118e+01,0.00000e+00,0.00000e+00,0.00000e+00
1.44960e+03,3.37597e+01,0.00000e+00,0.00000e+00,0.00000e+00
1.52340e+03,3.25736e+01,0.00000e+00,0.00000e+00,0.00000e+00
1.59310e+03,3.14533e+01,0.00000e+00,0.00000e+00,0.00000e+00
1.65850e+03,3.04021e+01,0.00000e+00,0.00000e+00,0.00000e+00
1.71930e+03,2.94249e+01,0.00000e+00,0.00000e+00,0.00000e+00
1.77540e+03,2.77303e+01,0.00000e+00,0.00000e+00,0.00000e+00
1.82660e+03,2.53092e+01,0.00000e+00,0.00000e+00,0.00000e+00
1.87280e+03,2.31244e+01,0.00000e+00,0.00000e+00,0.00000e+00
1.91380e+03,2.11856e+01,0.00000e+00,0.00000e+00,0.00000e+00
1.94970e+03,1.94880e+01,0.00000e+00,0.00000e+00,0.00000e+00
1.98010e+03,1.80504e+01,0.00000e+00,0.00000e+00,0.00000e+00
2.00520e+03,1.68635e+01,0.00000e+00,0.00000e+00,0.00000e+00
2.02480e+03,1.59367e+01,0.00000e+00,0.00000e+00,0.00000e+00
2.03880e+03,1.52746e+01,0.00000e+00,0.00000e+00,0.00000e+00
2.04720e+03,1.48774e+01,0.00000e+00,0.00000e+00,0.00000e+00
2.05000e+03,1.47450e+01,0.00000e+00,0.00000e+00,0.00000e+00
--------------------------------------------------------------------------------------------------------------------------------------------------------------------------------------------------------------------------------------------------------------------------------------------------------------------------------------------------------------------------------

