----------------------------------------------
LOG MATLAB Estruturas Copyright Charles 2020
----------------------------------------------

VISÃO GERAL POR SEÇÃO
--------------------------------------------------------------------------------------------------------------------------------------------------------------------------------------------------------------------------------------------------------------------------------------------------------------------------------------------------------------------------------
SEÇÃO,POSIÇÃO .25c,, ESFORÇOS,,,,,INÉRCIAS,,,,CENTROS GEOMÉTRICOS,,,DEFLEXÇOES,,,,,TENSÕES NORMAIS,,,,,,,,TENSÕES CISALHAMENTO,,,TENSÕES DE VON MISES
NUMERO,X,Y,MFz,MFy,MTx,Vz,Vy,EIzz,EIyy,EIzy,GJ,Zcg,Ycg,Zcc,Z,Y,Z´,Y´,Theta,Sigma_Chap+,Sigma_Chap-,Sigma_Lam+,Sigma_Lam-,Sigma_Mesa+,Sigma_Mesa-,Sigma_Alma+,Sigma_Alma-,  Tau_Alma,  Tau_Chap,  Tau_Lam, Von Mises_Alma,  Von Mises_Chap,  Von Mises_Lam
--------------------------------------------------------------------------------------------------------------------------------------------------------------------------------------------------------------------------------------------------------------------------------------------------------------------------------------------------------------------------------
01,0.00000e+00,0.00000e+00,1.93242e+05,-2.69572e+04,-8.68201e+03,-3.42973e+01,2.19998e+02,2.43720e+09,3.02407e+09,6.88619e+08,3.62878e+07,8.66395e+01,2.17434e+01,7.43235e+01,0.00000e+00,0.00000e+00,0.00000e+00,0.00000e+00,0.00000e+00,3.26095e+00,-2.55866e+00,0.00000e+00,0.00000e+00,1.28662e+02,-1.40226e+02,1.60954e-01,-1.75421e-01,6.54953e-01,5.97120e-01,0.00000e+00,1.14644e+00,3.32643e+00,0.00000e+00
02,1.07300e+02,0.00000e+00,1.70402e+05,-2.34065e+04,-8.06831e+03,-3.18840e+01,2.05728e+02,2.38487e+09,2.93941e+09,6.69313e+08,3.52914e+07,8.58583e+01,2.15452e+01,7.36225e+01,-1.57475e-01,4.78230e-01,-2.93523e-03,8.91389e-03,-2.51014e-02,2.90384e+00,-2.28333e+00,0.00000e+00,0.00000e+00,1.14903e+02,-1.25042e+02,1.43742e-01,-1.56426e-01,6.19127e-01,5.63632e-01,0.00000e+00,1.08235e+00,2.97028e+00,0.00000e+00
03,2.14300e+02,0.00000e+00,1.49136e+05,-2.01233e+04,-7.47021e+03,-2.94858e+01,1.91768e+02,2.33333e+09,2.85653e+09,6.50412e+08,3.43098e+07,8.50782e+01,2.13473e+01,7.29231e+01,-6.11647e-01,1.85866e+00,-5.55396e-03,1.68886e-02,-4.89811e-02,2.56523e+00,-2.02286e+00,0.00000e+00,0.00000e+00,1.01871e+02,-1.10672e+02,1.27439e-01,-1.38449e-01,5.83386e-01,5.30208e-01,0.00000e+00,1.01862e+00,2.63265e+00,0.00000e+00
04,3.20700e+02,0.00000e+00,1.29478e+05,-1.71169e+04,-6.88815e+03,-2.70254e+01,1.77732e+02,2.28273e+09,2.77562e+09,6.31961e+08,3.33702e+07,8.43013e+01,2.11503e+01,7.22271e+01,-1.32550e+00,4.03119e+00,-7.86424e-03,2.39484e-02,-7.15456e-02,2.24706e+00,-1.77814e+00,0.00000e+00,0.00000e+00,8.96134e+01,-9.71701e+01,1.12105e-01,-1.21558e-01,5.46750e-01,4.96492e-01,0.00000e+00,9.53584e-01,2.31506e+00,0.00000e+00
05,4.26200e+02,0.00000e+00,1.11456e+05,-1.43940e+04,-6.32225e+03,-2.45919e+01,1.63925e+02,2.23318e+09,2.69686e+09,6.14002e+08,3.24574e+07,8.35299e+01,2.09548e+01,7.15366e+01,-2.26141e+00,6.88376e+00,-9.87826e-03,3.01289e-02,-9.27090e-02,1.95039e+00,-1.55004e+00,0.00000e+00,0.00000e+00,7.81745e+01,-8.45875e+01,9.77950e-02,-1.05818e-01,5.09964e-01,4.62770e-01,0.00000e+00,8.88505e-01,2.01895e+00,0.00000e+00
06,5.30600e+02,0.00000e+00,9.50488e+04,-1.19514e+04,-5.77298e+03,-2.22017e+01,1.50387e+02,2.18477e+09,2.62035e+09,5.96558e+08,3.15716e+07,8.27655e+01,2.07610e+01,7.08528e+01,-3.38328e+00,1.03086e+01,-1.16134e-02,3.54806e-02,-1.12422e-01,1.67589e+00,-1.33890e+00,0.00000e+00,0.00000e+00,6.75733e+01,-7.29451e+01,8.45330e-02,-9.12531e-02,4.73136e-01,4.29107e-01,0.00000e+00,8.23554e-01,1.74497e+00,0.00000e+00
07,6.33500e+02,0.00000e+00,8.02530e+04,-9.78721e+03,-5.24472e+03,-1.98627e+01,1.37190e+02,2.13765e+09,2.54632e+09,5.79679e+08,3.07190e+07,8.20110e+01,2.05698e+01,7.01785e+01,-4.65408e+00,1.41947e+01,-1.30864e-02,4.00515e-02,-1.30614e-01,1.42452e+00,-1.14546e+00,0.00000e+00,0.00000e+00,5.78390e+01,-6.22750e+01,7.23556e-02,-7.79050e-02,4.36519e-01,3.95793e-01,0.00000e+00,7.59155e-01,1.49466e+00,0.00000e+00
08,7.34700e+02,0.00000e+00,6.70186e+04,-7.89231e+03,-4.73727e+03,-1.75859e+01,1.24359e+02,2.09189e+09,2.47483e+09,5.63383e+08,2.98998e+07,8.12680e+01,2.03815e+01,6.95148e+01,-6.04082e+00,1.84429e+01,-1.43196e-02,4.39056e-02,-1.47270e-01,1.19642e+00,-9.69663e-01,0.00000e+00,0.00000e+00,4.89720e+01,-5.25772e+01,6.12631e-02,-6.57732e-02,4.00195e-01,3.62871e-01,0.00000e+00,6.95435e-01,1.26782e+00,0.00000e+00
09,8.33800e+02,0.00000e+00,5.53095e+04,-6.25791e+03,-4.25000e+03,-1.53990e+01,1.11950e+02,2.04762e+09,2.40610e+09,5.47713e+08,2.91117e+07,8.05393e+01,2.01969e+01,6.88645e+01,-7.51019e+00,2.29525e+01,-1.53346e-02,4.71040e-02,-1.62354e-01,9.91954e-01,-8.11378e-01,0.00000e+00,0.00000e+00,4.09816e+01,-4.38607e+01,5.12673e-02,-5.48689e-02,3.64324e-01,3.30387e-01,0.00000e+00,6.32653e-01,1.06482e+00,0.00000e+00
10,9.30700e+02,0.00000e+00,4.50430e+04,-4.86678e+03,-3.77994e+03,-1.33137e+01,9.99482e+01,2.00486e+09,2.34009e+09,5.32666e+08,2.83496e+07,7.98259e+01,2.00162e+01,6.82283e+01,-9.03596e+00,2.76436e+01,-1.61570e-02,4.97205e-02,-1.75887e-01,8.10543e-01,-6.70492e-01,0.00000e+00,0.00000e+00,3.38456e+01,-3.60987e+01,4.23403e-02,-4.51589e-02,3.28861e-01,2.98212e-01,0.00000e+00,5.70716e-01,8.84652e-01,0.00000e+00
11,1.02500e+03,0.00000e+00,3.61555e+04,-3.70169e+03,-3.32576e+03,-1.13967e+01,8.85469e+01,1.96375e+09,2.27699e+09,5.18282e+08,2.75913e+07,7.91308e+01,1.98401e+01,6.76088e+01,-1.05903e+01,3.24313e+01,-1.68098e-02,5.18209e-02,-1.87857e-01,6.51791e-01,-5.46305e-01,0.00000e+00,0.00000e+00,2.75539e+01,-2.92763e+01,3.44695e-02,-3.66242e-02,2.94339e-01,2.66487e-01,0.00000e+00,5.10525e-01,7.26692e-01,0.00000e+00
12,1.11650e+03,0.00000e+00,2.85604e+04,-2.74125e+03,-2.88535e+03,-9.59651e+00,7.74656e+01,1.92432e+09,2.21681e+09,5.04566e+08,2.68538e+07,7.84554e+01,1.96691e+01,6.70073e+01,-1.21517e+01,3.72486e+01,-1.73174e-02,5.34758e-02,-1.98288e-01,5.15027e-01,-4.38296e-01,0.00000e+00,0.00000e+00,2.20793e+01,-2.33591e+01,2.76208e-02,-2.92218e-02,2.60016e-01,2.34864e-01,0.00000e+00,4.50782e-01,5.90077e-01,0.00000e+00
13,1.20500e+03,0.00000e+00,2.21666e+04,-1.96316e+03,-2.46443e+03,-7.98749e+00,6.70275e+01,1.32148e+09,1.95268e+09,4.45208e+08,2.44660e+07,7.39632e+01,1.86188e+01,6.42675e+01,-1.37041e+01,4.20491e+01,-1.77661e-02,5.50097e-02,-2.07499e-01,5.42529e-01,-5.07123e-01,0.00000e+00,0.00000e+00,2.48570e+01,-2.61634e+01,3.10957e-02,-3.27300e-02,2.28623e-01,2.34906e-01,0.00000e+00,3.96700e-01,6.21756e-01,0.00000e+00
14,1.29010e+03,0.00000e+00,1.68756e+04,-1.34737e+03,-2.08468e+03,-6.48475e+00,5.73204e+01,1.21619e+09,1.75686e+09,4.00479e+08,2.21320e+07,7.15330e+01,1.79989e+01,6.20379e+01,-1.52332e+01,4.67916e+01,-1.81695e-02,5.64484e-02,-2.15793e-01,4.28424e-01,-4.05899e-01,0.00000e+00,0.00000e+00,1.98796e+01,-2.07993e+01,2.48691e-02,-2.60195e-02,2.04184e-01,2.09509e-01,0.00000e+00,3.54065e-01,5.20026e-01,0.00000e+00
15,1.37170e+03,0.00000e+00,1.25642e+04,-8.75794e+02,-1.74937e+03,-5.07339e+00,4.83502e+01,1.12002e+09,1.58132e+09,3.60391e+08,2.00626e+07,6.91884e+01,1.74013e+01,5.98941e+01,-1.67285e+01,5.14437e+01,-1.84798e-02,5.75734e-02,-2.23194e-01,3.29998e-01,-3.18158e-01,0.00000e+00,0.00000e+00,1.55535e+01,-1.61613e+01,1.94572e-02,-2.02176e-02,1.80042e-01,1.85062e-01,0.00000e+00,3.12031e-01,4.31465e-01,0.00000e+00
16,1.44960e+03,0.00000e+00,9.11480e+03,-5.29982e+02,-1.45244e+03,-3.80496e+00,4.02102e+01,1.03251e+09,1.42458e+09,3.24609e+08,1.82180e+07,6.69366e+01,1.68278e+01,5.78421e+01,-1.81770e+01,5.59620e+01,-1.87105e-02,5.84277e-02,-2.29696e-01,2.46873e-01,-2.43488e-01,0.00000e+00,0.00000e+00,1.18587e+01,-1.22269e+01,1.48350e-02,-1.52957e-02,1.56582e-01,1.61589e-01,0.00000e+00,2.71258e-01,3.55077e-01,0.00000e+00
17,1.52340e+03,0.00000e+00,6.42348e+03,-2.90756e+02,-1.18699e+03,-2.67814e+00,3.27251e+01,9.53418e+08,1.28561e+09,2.92889e+08,1.65947e+07,6.47909e+01,1.62818e+01,5.58929e+01,-1.95639e+01,6.02970e+01,-1.88751e-02,5.90533e-02,-2.35277e-01,1.78851e-01,-1.81263e-01,0.00000e+00,0.00000e+00,8.78074e+00,-8.97650e+00,1.09846e-02,-1.12295e-02,1.33339e-01,1.38610e-01,0.00000e+00,2.30981e-01,2.88744e-01,0.00000e+00
18,1.59310e+03,0.00000e+00,4.37917e+03,-1.37742e+02,-9.49433e+02,-1.71250e+00,2.59353e+01,8.82075e+08,1.16263e+09,2.64824e+08,1.51627e+07,6.27531e+01,1.57637e+01,5.40474e+01,-2.08835e+01,6.44284e+01,-1.89879e-02,5.94954e-02,-2.39952e-01,1.24969e-01,-1.30728e-01,0.00000e+00,0.00000e+00,6.28553e+00,-6.36789e+00,7.86309e-03,-7.96612e-03,1.10609e-01,1.16177e-01,0.00000e+00,1.91599e-01,2.31175e-01,0.00000e+00
19,1.65850e+03,0.00000e+00,2.88131e+03,-5.07820e+01,-7.35071e+02,-9.46822e-01,1.98708e+01,8.18049e+08,1.05434e+09,2.40117e+08,1.38892e+07,6.08309e+01,1.52752e+01,5.23116e+01,-2.21277e+01,6.83292e+01,-1.90615e-02,5.97948e-02,-2.43730e-01,8.41164e-02,-9.09567e-02,0.00000e+00,0.00000e+00,4.33620e+00,-4.35399e+00,5.42451e-03,-5.44677e-03,8.86401e-02,9.41821e-02,0.00000e+00,1.53540e-01,1.80736e-01,0.00000e+00
20,1.71930e+03,0.00000e+00,1.83539e+03,-1.02703e+01,-5.41582e+02,-3.85802e-01,1.45346e+01,7.61023e+08,9.59670e+08,2.18523e+08,1.27501e+07,5.90349e+01,1.48192e+01,5.06943e+01,-2.32880e+01,7.19706e+01,-1.91074e-02,5.99886e-02,-2.46630e-01,5.48611e-02,-6.11222e-02,0.00000e+00,0.00000e+00,2.88810e+00,-2.87787e+00,3.61296e-03,-3.60017e-03,6.76731e-02,7.26582e-02,0.00000e+00,1.17219e-01,1.35951e-01,0.00000e+00
21,1.77540e+03,0.00000e+00,1.14501e+03,2.59203e+00,-3.69223e+02,-7.27471e-02,1.00778e+01,3.98519e+08,7.29057e+08,1.66652e+08,8.91916e+06,5.21005e+01,1.31900e+01,4.07358e+01,-2.43610e+01,7.53405e+01,-1.91445e-02,6.01501e-02,-2.48983e-01,6.32016e-02,-7.15125e-02,0.00000e+00,0.00000e+00,3.37545e+00,-3.32630e+00,4.22263e-03,-4.16115e-03,8.17497e-02,6.48850e-02,0.00000e+00,1.41602e-01,1.27137e-01,0.00000e+00
22,1.82660e+03,0.00000e+00,7.18583e+02,2.69780e+00,-2.30479e+02,6.86157e-02,6.57948e+00,3.22692e+08,5.63581e+08,1.28741e+08,6.91497e+06,4.80842e+01,1.21552e+01,3.73499e+01,-2.53420e+01,7.84239e+01,-1.91772e-02,6.02941e-02,-2.50896e-01,4.44329e-02,-5.04189e-02,0.00000e+00,0.00000e+00,2.37679e+00,-2.34226e+00,2.97332e-03,-2.93013e-03,5.94029e-02,4.66182e-02,0.00000e+00,1.02894e-01,9.09503e-02,0.00000e+00
23,1.87280e+03,0.00000e+00,4.64880e+02,6.30112e-01,-1.36113e+02,2.08945e-02,4.40332e+00,2.62353e+08,4.36581e+08,9.96683e+07,5.22688e+06,4.43938e+01,1.12070e+01,3.42731e+01,-2.62285e+01,8.12118e+01,-1.92002e-02,6.03954e-02,-2.52267e-01,3.21908e-02,-3.64105e-02,0.00000e+00,0.00000e+00,1.71649e+00,-1.69604e+00,2.14729e-03,-2.12172e-03,4.33027e-02,3.25907e-02,0.00000e+00,7.50060e-02,6.40717e-02,0.00000e+00
24,1.91380e+03,0.00000e+00,2.84266e+02,-2.07220e-01,-1.36113e+02,1.99510e-02,4.40711e+00,2.14932e+08,3.40501e+08,7.76906e+07,4.15113e+06,4.10625e+01,1.03532e+01,3.15244e+01,-2.70161e+01,8.36894e+01,-1.92160e-02,6.04647e-02,-2.53473e-01,2.19415e-02,-2.47361e-02,0.00000e+00,0.00000e+00,1.16643e+00,-1.15518e+00,1.45918e-03,-1.44511e-03,4.85277e-02,3.68963e-02,0.00000e+00,8.40539e-02,6.71580e-02,0.00000e+00
25,1.94970e+03,0.00000e+00,1.46332e+02,-3.38744e-02,-9.27465e+01,-2.96081e-02,3.27725e+00,1.77937e+08,2.68420e+08,6.12136e+07,3.23490e+06,3.80992e+01,9.59536e+00,2.91026e+01,-2.77061e+01,8.58609e+01,-1.92255e-02,6.05066e-02,-2.54576e-01,1.24893e-02,-1.40951e-02,0.00000e+00,0.00000e+00,6.64187e-01,-6.58066e-01,8.30887e-04,-8.23229e-04,3.93151e-02,2.91515e-02,0.00000e+00,6.80963e-02,5.18434e-02,0.00000e+00
26,1.98010e+03,0.00000e+00,6.46015e+01,6.03243e-01,-5.71588e+01,-1.23076e-02,2.09976e+00,1.49784e+08,2.15653e+08,4.91590e+07,2.60773e+06,3.55543e+01,8.94582e+00,2.70403e+01,-2.82906e+01,8.77006e+01,-1.92302e-02,6.05273e-02,-2.55345e-01,5.99018e-03,-6.89660e-03,0.00000e+00,0.00000e+00,3.22983e-01,-3.18188e-01,4.04046e-04,-3.98048e-04,2.75426e-02,2.03473e-02,0.00000e+00,4.77053e-02,3.56984e-02,0.00000e+00
27,2.00520e+03,0.00000e+00,2.33181e+01,6.37296e-01,-3.25327e+01,9.59424e-03,1.18976e+00,1.28656e+08,1.77484e+08,4.04436e+07,2.17862e+06,3.34272e+01,8.40385e+00,2.53292e+01,-2.87733e+01,8.92199e+01,-1.92320e-02,6.05355e-02,-2.55808e-01,2.30759e-03,-2.76132e-03,0.00000e+00,0.00000e+00,1.27588e-01,-1.24298e-01,1.59610e-04,-1.55495e-04,1.70775e-02,1.28231e-02,0.00000e+00,2.95791e-02,2.23210e-02,0.00000e+00
28,2.02480e+03,0.00000e+00,6.21465e+00,3.45244e-01,-1.60532e+01,2.02070e-02,5.55493e-01,1.13447e+08,1.50904e+08,3.43767e+07,1.90191e+06,3.17493e+01,7.97693e+00,2.39876e+01,-2.91503e+01,9.04065e+01,-1.92325e-02,6.05380e-02,-2.56037e-01,6.56690e-04,-8.17669e-04,0.00000e+00,0.00000e+00,3.68908e-02,-3.53130e-02,4.61498e-05,-4.41759e-05,8.73177e-03,6.82057e-03,0.00000e+00,1.51239e-02,1.18304e-02,0.00000e+00
29,2.03880e+03,0.00000e+00,1.01733e+00,1.01672e-01,-5.75699e+00,1.45889e-02,1.86981e-01,1.03260e+08,1.33576e+08,3.04229e+07,1.72417e+06,3.05414e+01,7.66993e+00,2.30264e+01,-2.94195e+01,9.12540e+01,-1.92326e-02,6.05385e-02,-2.56119e-01,1.15006e-04,-1.49844e-04,0.00000e+00,0.00000e+00,6.49541e-03,-6.04915e-03,8.12564e-06,-7.56739e-06,3.17391e-03,2.58353e-03,0.00000e+00,5.49737e-03,4.47611e-03,0.00000e+00
30,2.04720e+03,0.00000e+00,1.16004e-01,2.01993e-02,-1.06282e+00,4.80936e-03,2.76201e-02,9.74134e+07,1.23821e+08,2.81976e+07,1.68957e+06,2.98129e+01,7.48488e+00,2.24484e+01,-2.95811e+01,9.17625e+01,-1.92326e-02,6.05385e-02,-2.56136e-01,1.39245e-05,-1.96064e-05,0.00000e+00,0.00000e+00,7.93192e-04,-7.06154e-04,9.92269e-07,-8.83387e-07,5.25973e-04,4.78613e-04,0.00000e+00,9.11012e-04,8.29079e-04,0.00000e+00
31,2.05000e+03,0.00000e+00,0.00000e+00,0.00000e+00,0.00000e+00,0.00000e+00,0.00000e+00,5.74754e+07,1.08343e+08,2.47732e+07,NaN,2.74871e+01,6.96602e+00,2.15905e+01,-2.96349e+01,9.19320e+01,-1.92326e-02,6.05385e-02,-2.56137e-01,0.00000e+00,0.00000e+00,0.00000e+00,0.00000e+00,0.00000e+00,0.00000e+00,0.00000e+00,0.00000e+00,0.00000e+00,0.00000e+00,0.00000e+00,0.00000e+00,0.00000e+00,0.00000e+00
--------------------------------------------------------------------------------------------------------------------------------------------------------------------------------------------------------------------------------------------------------------------------------------------------------------------------------------------------------------------------------

CHAPEADO 
--------------------------------------------------------------------------------------------------------------------------------------------------------------------------------------------------------------------------------------------------------------------------------------------------------------------------------------------------------------------------------
X,Y,Z,Sigma,Tau,Von Mises
0.00000e+00,4.31008e+01,0.00000e+00,-2.50601e+00,5.97120e-01,2.71104e+00
0.00000e+00,4.28837e+01,-3.27521e+00,-2.52729e+00,5.87626e-01,2.72454e+00
0.00000e+00,4.25950e+01,-6.55041e+00,-2.53974e+00,5.77901e-01,2.72987e+00
0.00000e+00,4.23033e+01,-9.82562e+00,-2.55184e+00,5.67955e-01,2.73489e+00
0.00000e+00,4.19484e+01,-1.31008e+01,-2.55615e+00,5.57806e-01,2.73265e+00
0.00000e+00,4.15787e+01,-1.63760e+01,-2.55866e+00,5.47470e-01,2.72872e+00
0.00000e+00,4.11605e+01,-1.96512e+01,-2.55518e+00,5.36961e-01,2.71917e+00
0.00000e+00,4.07187e+01,-2.29264e+01,-2.54880e+00,5.26294e-01,2.70690e+00
0.00000e+00,4.02378e+01,-2.62017e+01,-2.53761e+00,5.15483e-01,2.69010e+00
0.00000e+00,3.97249e+01,-2.94769e+01,-2.52247e+00,5.04543e-01,2.66956e+00
0.00000e+00,3.91766e+01,-3.27521e+01,-2.50300e+00,4.93488e-01,2.64492e+00
0.00000e+00,3.85857e+01,-3.60273e+01,-2.47827e+00,4.82332e-01,2.61529e+00
0.00000e+00,3.79511e+01,-3.93025e+01,-2.44815e+00,4.71090e-01,2.58055e+00
0.00000e+00,3.72545e+01,-4.25777e+01,-2.41042e+00,4.59781e-01,2.53857e+00
0.00000e+00,3.64976e+01,-4.58529e+01,-2.36526e+00,4.48428e-01,2.48953e+00
0.00000e+00,3.56687e+01,-4.91281e+01,-2.31123e+00,4.37047e-01,2.43204e+00
0.00000e+00,3.47420e+01,-5.24033e+01,-2.24518e+00,4.25679e-01,2.36315e+00
0.00000e+00,3.37474e+01,-5.56785e+01,-2.17077e+00,4.14330e-01,2.28632e+00
0.00000e+00,3.26000e+01,-5.89537e+01,-2.07755e+00,4.03063e-01,2.19171e+00
0.00000e+00,3.13892e+01,-6.22289e+01,-1.97652e+00,3.91903e-01,2.08984e+00
0.00000e+00,3.00018e+01,-6.55041e+01,-1.85377e+00,3.80879e-01,1.96766e+00
0.00000e+00,2.84730e+01,-6.87793e+01,-1.71361e+00,3.70084e-01,1.82958e+00
0.00000e+00,2.68002e+01,-7.20546e+01,-1.55573e+00,3.59534e-01,1.67573e+00
0.00000e+00,2.48857e+01,-7.53298e+01,-1.36810e+00,3.49270e-01,1.49589e+00
0.00000e+00,2.26913e+01,-7.86050e+01,-1.14603e+00,3.39415e-01,1.28801e+00
0.00000e+00,2.01805e+01,-8.18802e+01,-8.85007e-01,3.30089e-01,1.05362e+00
0.00000e+00,1.72108e+01,-8.51554e+01,-5.67509e-01,3.21369e-01,7.94921e-01
0.00000e+00,1.33989e+01,-8.84306e+01,-1.46366e-01,3.13681e-01,5.62681e-01
0.00000e+00,8.24350e+00,-9.17058e+01,4.40132e-01,3.08984e-01,6.92914e-01
0.00000e+00,-3.34020e+00,-9.49810e+01,1.81778e+00,3.10846e-01,1.89584e+00
0.00000e+00,-4.17620e+00,-9.49886e+01,1.92056e+00,3.16628e-01,1.99732e+00
0.00000e+00,-1.17928e+01,-9.15961e+01,2.90766e+00,3.27591e-01,2.96251e+00
0.00000e+00,-1.27149e+01,-8.82037e+01,3.07087e+00,3.35690e-01,3.12543e+00
0.00000e+00,-1.30332e+01,-8.48113e+01,3.15975e+00,3.44213e-01,3.21550e+00
0.00000e+00,-1.30814e+01,-8.14188e+01,3.21540e+00,3.53131e-01,3.27306e+00
0.00000e+00,-1.29264e+01,-7.80264e+01,3.24603e+00,3.62374e-01,3.30616e+00
0.00000e+00,-1.26437e+01,-7.46339e+01,3.26095e+00,3.71887e-01,3.32396e+00
0.00000e+00,-1.22328e+01,-7.12415e+01,3.26010e+00,3.81616e-01,3.32643e+00
0.00000e+00,-1.17438e+01,-6.78490e+01,3.24963e+00,3.91513e-01,3.31963e+00
0.00000e+00,-1.12094e+01,-6.44565e+01,3.23357e+00,4.01552e-01,3.30753e+00
0.00000e+00,-1.06068e+01,-6.10641e+01,3.20912e+00,4.11706e-01,3.28739e+00
0.00000e+00,-9.96142e+00,-5.76716e+01,3.17940e+00,4.21947e-01,3.26232e+00
0.00000e+00,-9.27449e+00,-5.42792e+01,3.14457e+00,4.32255e-01,3.23247e+00
0.00000e+00,-8.54615e+00,-5.08867e+01,3.10465e+00,4.42607e-01,3.19790e+00
0.00000e+00,-7.79185e+00,-4.74943e+01,3.06153e+00,4.52988e-01,3.16047e+00
0.00000e+00,-7.00429e+00,-4.41018e+01,3.01431e+00,4.63380e-01,3.11933e+00
0.00000e+00,-6.19544e+00,-4.07094e+01,2.96448e+00,4.73767e-01,3.07595e+00
0.00000e+00,-5.36748e+00,-3.73169e+01,2.91229e+00,4.84140e-01,3.03061e+00
0.00000e+00,-4.52248e+00,-3.39245e+01,2.85801e+00,4.94485e-01,2.98358e+00
0.00000e+00,-3.67026e+00,-3.05320e+01,2.80284e+00,5.04797e-01,2.93604e+00
0.00000e+00,-2.80686e+00,-2.71396e+01,2.74629e+00,5.15067e-01,2.88756e+00
0.00000e+00,-1.94159e+00,-2.37472e+01,2.68951e+00,5.25294e-01,2.83924e+00
0.00000e+00,-1.06964e+00,-2.03547e+01,2.63191e+00,5.35473e-01,2.79054e+00
0.00000e+00,-1.97780e-01,-1.69622e+01,2.57432e+00,5.45601e-01,2.74229e+00
0.00000e+00,6.70785e-01,-1.35698e+01,2.51713e+00,5.55678e-01,2.69487e+00
0.00000e+00,1.53935e+00,-1.01774e+01,2.45995e+00,5.65702e-01,2.64791e+00
0.00000e+00,2.38735e+00,-6.78490e+00,2.40530e+00,5.75677e-01,2.60378e+00
0.00000e+00,3.23151e+00,-3.39245e+00,2.35112e+00,5.85609e-01,2.56058e+00
1.07300e+02,4.26785e+01,0.00000e+00,-2.23466e+00,5.63632e-01,2.43859e+00
1.07300e+02,4.24636e+01,-3.24312e+00,-2.25399e+00,5.54740e-01,2.45024e+00
1.07300e+02,4.21777e+01,-6.48624e+00,-2.26544e+00,5.45631e-01,2.45466e+00
1.07300e+02,4.18889e+01,-9.72936e+00,-2.27658e+00,5.36315e-01,2.45880e+00
1.07300e+02,4.15374e+01,-1.29725e+01,-2.28076e+00,5.26810e-01,2.45651e+00
1.07300e+02,4.11714e+01,-1.62156e+01,-2.28333e+00,5.17129e-01,2.45273e+00
1.07300e+02,4.07572e+01,-1.94587e+01,-2.28057e+00,5.07286e-01,2.44397e+00
1.07300e+02,4.03197e+01,-2.27018e+01,-2.27521e+00,4.97295e-01,2.43280e+00
1.07300e+02,3.98436e+01,-2.59450e+01,-2.26557e+00,4.87170e-01,2.41760e+00
1.07300e+02,3.93357e+01,-2.91881e+01,-2.25240e+00,4.76924e-01,2.39910e+00
1.07300e+02,3.87928e+01,-3.24312e+01,-2.23536e+00,4.66569e-01,2.37695e+00
1.07300e+02,3.82077e+01,-3.56743e+01,-2.21363e+00,4.56121e-01,2.35038e+00
1.07300e+02,3.75793e+01,-3.89174e+01,-2.18710e+00,4.45591e-01,2.31928e+00
1.07300e+02,3.68895e+01,-4.21606e+01,-2.15377e+00,4.35000e-01,2.28175e+00
1.07300e+02,3.61401e+01,-4.54037e+01,-2.11381e+00,4.24367e-01,2.23796e+00
1.07300e+02,3.53192e+01,-4.86468e+01,-2.06593e+00,4.13707e-01,2.18667e+00
1.07300e+02,3.44016e+01,-5.18899e+01,-2.00733e+00,4.03059e-01,2.12526e+00
1.07300e+02,3.34168e+01,-5.51330e+01,-1.94127e+00,3.92431e-01,2.05683e+00
1.07300e+02,3.22806e+01,-5.83762e+01,-1.85842e+00,3.81878e-01,1.97262e+00
1.07300e+02,3.10816e+01,-6.16193e+01,-1.76861e+00,3.71426e-01,1.88198e+00
1.07300e+02,2.97079e+01,-6.48624e+01,-1.65941e+00,3.61101e-01,1.77336e+00
1.07300e+02,2.81940e+01,-6.81055e+01,-1.53467e+00,3.50990e-01,1.65070e+00
1.07300e+02,2.65376e+01,-7.13486e+01,-1.39412e+00,3.41109e-01,1.51415e+00
1.07300e+02,2.46419e+01,-7.45918e+01,-1.22703e+00,3.31496e-01,1.35472e+00
1.07300e+02,2.24690e+01,-7.78349e+01,-1.02920e+00,3.22266e-01,1.17082e+00
1.07300e+02,1.99828e+01,-8.10780e+01,-7.96611e-01,3.13532e-01,9.64104e-01
1.07300e+02,1.70422e+01,-8.43211e+01,-5.13627e-01,3.05364e-01,7.37262e-01
1.07300e+02,1.32676e+01,-8.75642e+01,-1.38154e-01,2.98164e-01,5.34595e-01
1.07300e+02,8.16273e+00,-9.08074e+01,3.84876e-01,2.93766e-01,6.37985e-01
1.07300e+02,-3.30748e+00,-9.40505e+01,1.61390e+00,2.95510e-01,1.69312e+00
1.07300e+02,-4.13529e+00,-9.40580e+01,1.70561e+00,3.00925e-01,1.78347e+00
1.07300e+02,-1.16772e+01,-9.06988e+01,2.58682e+00,3.11193e-01,2.64238e+00
1.07300e+02,-1.25904e+01,-8.73396e+01,2.73281e+00,3.18779e-01,2.78803e+00
1.07300e+02,-1.29055e+01,-8.39804e+01,2.81248e+00,3.26762e-01,2.86886e+00
1.07300e+02,-1.29533e+01,-8.06211e+01,2.86249e+00,3.35114e-01,2.92075e+00
1.07300e+02,-1.27997e+01,-7.72619e+01,2.89017e+00,3.43771e-01,2.95087e+00
1.07300e+02,-1.25198e+01,-7.39027e+01,2.90384e+00,3.52681e-01,2.96739e+00
1.07300e+02,-1.21130e+01,-7.05435e+01,2.90343e+00,3.61793e-01,2.97028e+00
1.07300e+02,-1.16287e+01,-6.71843e+01,2.89443e+00,3.71062e-01,2.96493e+00
1.07300e+02,-1.10996e+01,-6.38251e+01,2.88046e+00,3.80465e-01,2.95488e+00
1.07300e+02,-1.05029e+01,-6.04659e+01,2.85899e+00,3.89975e-01,2.93769e+00
1.07300e+02,-9.86382e+00,-5.71066e+01,2.83282e+00,3.99566e-01,2.91614e+00
1.07300e+02,-9.18363e+00,-5.37474e+01,2.80209e+00,4.09221e-01,2.89035e+00
1.07300e+02,-8.46243e+00,-5.03882e+01,2.76682e+00,4.18916e-01,2.86038e+00
1.07300e+02,-7.71552e+00,-4.70290e+01,2.72869e+00,4.28638e-01,2.82789e+00
1.07300e+02,-6.93567e+00,-4.36698e+01,2.68691e+00,4.38371e-01,2.79213e+00
1.07300e+02,-6.13474e+00,-4.03106e+01,2.64279e+00,4.48100e-01,2.75440e+00
1.07300e+02,-5.31490e+00,-3.69514e+01,2.59657e+00,4.57815e-01,2.71495e+00
1.07300e+02,-4.47818e+00,-3.35921e+01,2.54848e+00,4.67504e-01,2.67403e+00
1.07300e+02,-3.63431e+00,-3.02329e+01,2.49960e+00,4.77161e-01,2.63269e+00
1.07300e+02,-2.77936e+00,-2.68737e+01,2.44949e+00,4.86781e-01,2.59053e+00
1.07300e+02,-1.92257e+00,-2.35145e+01,2.39917e+00,4.96358e-01,2.54856e+00
1.07300e+02,-1.05916e+00,-2.01553e+01,2.34812e+00,5.05892e-01,2.50628e+00
1.07300e+02,-1.95842e-01,-1.67961e+01,2.29708e+00,5.15377e-01,2.46443e+00
1.07300e+02,6.64213e-01,-1.34369e+01,2.24640e+00,5.24815e-01,2.42335e+00
1.07300e+02,1.52427e+00,-1.00776e+01,2.19573e+00,5.34203e-01,2.38272e+00
1.07300e+02,2.36396e+00,-6.71843e+00,2.14731e+00,5.43545e-01,2.34462e+00
1.07300e+02,3.19985e+00,-3.35921e+00,2.09931e+00,5.52847e-01,2.30738e+00
2.14300e+02,4.22575e+01,0.00000e+00,-1.97785e+00,5.30208e-01,2.18065e+00
2.14300e+02,4.20447e+01,-3.21112e+00,-1.99535e+00,5.21907e-01,2.19056e+00
2.14300e+02,4.17615e+01,-6.42224e+00,-2.00587e+00,5.13403e-01,2.19414e+00
2.14300e+02,4.14756e+01,-9.63337e+00,-2.01611e+00,5.04705e-01,2.19748e+00
2.14300e+02,4.11276e+01,-1.28445e+01,-2.02020e+00,4.95831e-01,2.19517e+00
2.14300e+02,4.07652e+01,-1.60556e+01,-2.02286e+00,4.86793e-01,2.19154e+00
2.14300e+02,4.03551e+01,-1.92667e+01,-2.02079e+00,4.77603e-01,2.18355e+00
2.14300e+02,3.99219e+01,-2.24779e+01,-2.01642e+00,4.68276e-01,2.17343e+00
2.14300e+02,3.94505e+01,-2.56890e+01,-2.00826e+00,4.58822e-01,2.15978e+00
2.14300e+02,3.89476e+01,-2.89001e+01,-1.99697e+00,4.49257e-01,2.14322e+00
2.14300e+02,3.84101e+01,-3.21112e+01,-1.98226e+00,4.39590e-01,2.12345e+00
2.14300e+02,3.78307e+01,-3.53223e+01,-1.96339e+00,4.29835e-01,2.09980e+00
2.14300e+02,3.72085e+01,-3.85335e+01,-1.94026e+00,4.20005e-01,2.07216e+00
2.14300e+02,3.65256e+01,-4.17446e+01,-1.91111e+00,4.10117e-01,2.03886e+00
2.14300e+02,3.57835e+01,-4.49557e+01,-1.87610e+00,4.00190e-01,2.00005e+00
2.14300e+02,3.49707e+01,-4.81668e+01,-1.83407e+00,3.90238e-01,1.95465e+00
2.14300e+02,3.40622e+01,-5.13780e+01,-1.78254e+00,3.80297e-01,1.90035e+00
2.14300e+02,3.30871e+01,-5.45891e+01,-1.72440e+00,3.70374e-01,1.83986e+00
2.14300e+02,3.19621e+01,-5.78002e+01,-1.65139e+00,3.60522e-01,1.76551e+00
2.14300e+02,3.07750e+01,-6.10113e+01,-1.57221e+00,3.50764e-01,1.68551e+00
2.14300e+02,2.94148e+01,-6.42224e+01,-1.47586e+00,3.41125e-01,1.58974e+00
2.14300e+02,2.79159e+01,-6.74336e+01,-1.36575e+00,3.31685e-01,1.48166e+00
2.14300e+02,2.62758e+01,-7.06447e+01,-1.24163e+00,3.22461e-01,1.36146e+00
2.14300e+02,2.43988e+01,-7.38558e+01,-1.09400e+00,3.13486e-01,1.22133e+00
2.14300e+02,2.22473e+01,-7.70669e+01,-9.19135e-01,3.04870e-01,1.06002e+00
2.14300e+02,1.97856e+01,-8.02781e+01,-7.13491e-01,2.96715e-01,8.79312e-01
2.14300e+02,1.68740e+01,-8.34892e+01,-4.63202e-01,2.89090e-01,6.82112e-01
2.14300e+02,1.31367e+01,-8.67003e+01,-1.30987e-01,2.82368e-01,5.06314e-01
2.14300e+02,8.08220e+00,-8.99114e+01,3.31934e-01,2.78263e-01,5.85210e-01
2.14300e+02,-3.27484e+00,-9.31226e+01,1.42022e+00,2.79891e-01,1.50068e+00
2.14300e+02,-4.09449e+00,-9.31300e+01,1.50146e+00,2.84947e-01,1.58050e+00
2.14300e+02,-1.15620e+01,-8.98039e+01,2.28243e+00,2.94533e-01,2.33874e+00
2.14300e+02,-1.24661e+01,-8.64779e+01,2.41214e+00,3.01615e-01,2.46806e+00
2.14300e+02,-1.27781e+01,-8.31518e+01,2.48310e+00,3.09068e-01,2.54015e+00
2.14300e+02,-1.28255e+01,-7.98257e+01,2.52779e+00,3.16865e-01,2.58669e+00
2.14300e+02,-1.26734e+01,-7.64996e+01,2.55271e+00,3.24947e-01,2.61402e+00
2.14300e+02,-1.23963e+01,-7.31736e+01,2.56520e+00,3.33266e-01,2.62935e+00
2.14300e+02,-1.19935e+01,-6.98475e+01,2.56523e+00,3.41773e-01,2.63265e+00
2.14300e+02,-1.15140e+01,-6.65214e+01,2.55766e+00,3.50426e-01,2.62869e+00
2.14300e+02,-1.09901e+01,-6.31954e+01,2.54567e+00,3.59205e-01,2.62060e+00
2.14300e+02,-1.03992e+01,-5.98693e+01,2.52704e+00,3.68083e-01,2.60622e+00
2.14300e+02,-9.76651e+00,-5.65432e+01,2.50426e+00,3.77038e-01,2.58801e+00
2.14300e+02,-9.09302e+00,-5.32171e+01,2.47743e+00,3.86051e-01,2.56608e+00
2.14300e+02,-8.37893e+00,-4.98911e+01,2.44658e+00,3.95103e-01,2.54048e+00
2.14300e+02,-7.63939e+00,-4.65650e+01,2.41319e+00,4.04179e-01,2.51268e+00
2.14300e+02,-6.86724e+00,-4.32389e+01,2.37658e+00,4.13265e-01,2.48203e+00
2.14300e+02,-6.07421e+00,-3.99129e+01,2.33789e+00,4.22348e-01,2.44966e+00
2.14300e+02,-5.26246e+00,-3.65868e+01,2.29734e+00,4.31417e-01,2.41581e+00
2.14300e+02,-4.43399e+00,-3.32607e+01,2.25513e+00,4.40463e-01,2.38068e+00
2.14300e+02,-3.59845e+00,-2.99346e+01,2.21222e+00,4.49479e-01,2.34521e+00
2.14300e+02,-2.75194e+00,-2.66086e+01,2.16823e+00,4.58459e-01,2.30906e+00
2.14300e+02,-1.90360e+00,-2.32825e+01,2.12405e+00,4.67401e-01,2.27310e+00
2.14300e+02,-1.04871e+00,-1.99564e+01,2.07922e+00,4.76301e-01,2.23691e+00
2.14300e+02,-1.93910e-01,-1.66304e+01,2.03440e+00,4.85156e-01,2.20112e+00
2.14300e+02,6.57660e-01,-1.33043e+01,1.98991e+00,4.93967e-01,2.16604e+00
2.14300e+02,1.50923e+00,-9.97821e+00,1.94541e+00,5.02731e-01,2.13139e+00
2.14300e+02,2.34063e+00,-6.65214e+00,1.90291e+00,5.11453e-01,2.09901e+00
2.14300e+02,3.16828e+00,-3.32607e+00,1.86079e+00,5.20137e-01,2.06740e+00
3.20700e+02,4.18388e+01,0.00000e+00,-1.73655e+00,4.96492e-01,1.93781e+00
3.20700e+02,4.16280e+01,-3.17930e+00,-1.75233e+00,4.88786e-01,1.94612e+00
3.20700e+02,4.13477e+01,-6.35861e+00,-1.76199e+00,4.80892e-01,1.94894e+00
3.20700e+02,4.10646e+01,-9.53791e+00,-1.77140e+00,4.72819e-01,1.95154e+00
3.20700e+02,4.07201e+01,-1.27172e+01,-1.77539e+00,4.64581e-01,1.94924e+00
3.20700e+02,4.03613e+01,-1.58965e+01,-1.77814e+00,4.56191e-01,1.94579e+00
3.20700e+02,3.99553e+01,-1.90758e+01,-1.77672e+00,4.47661e-01,1.93854e+00
3.20700e+02,3.95264e+01,-2.22551e+01,-1.77329e+00,4.39003e-01,1.92944e+00
3.20700e+02,3.90596e+01,-2.54344e+01,-1.76653e+00,4.30227e-01,1.91726e+00
3.20700e+02,3.85617e+01,-2.86137e+01,-1.75702e+00,4.21348e-01,1.90255e+00
3.20700e+02,3.80295e+01,-3.17930e+01,-1.74449e+00,4.12375e-01,1.88505e+00
3.20700e+02,3.74559e+01,-3.49724e+01,-1.72832e+00,4.03320e-01,1.86415e+00
3.20700e+02,3.68398e+01,-3.81517e+01,-1.70840e+00,3.94195e-01,1.83978e+00
3.20700e+02,3.61637e+01,-4.13310e+01,-1.68319e+00,3.85016e-01,1.81048e+00
3.20700e+02,3.54289e+01,-4.45103e+01,-1.65283e+00,3.75801e-01,1.77638e+00
3.20700e+02,3.46242e+01,-4.76896e+01,-1.61630e+00,3.66564e-01,1.73653e+00
3.20700e+02,3.37247e+01,-5.08689e+01,-1.57142e+00,3.57336e-01,1.68891e+00
3.20700e+02,3.27593e+01,-5.40482e+01,-1.52074e+00,3.48126e-01,1.63591e+00
3.20700e+02,3.16454e+01,-5.72275e+01,-1.45698e+00,3.38981e-01,1.57083e+00
3.20700e+02,3.04701e+01,-6.04068e+01,-1.38781e+00,3.29923e-01,1.50085e+00
3.20700e+02,2.91233e+01,-6.35861e+01,-1.30354e+00,3.20975e-01,1.41714e+00
3.20700e+02,2.76393e+01,-6.67654e+01,-1.20718e+00,3.12213e-01,1.32277e+00
3.20700e+02,2.60154e+01,-6.99447e+01,-1.09851e+00,3.03651e-01,1.21792e+00
3.20700e+02,2.41570e+01,-7.31240e+01,-9.69182e-01,2.95320e-01,1.09588e+00
3.20700e+02,2.20269e+01,-7.63033e+01,-8.15918e-01,2.87322e-01,9.55711e-01
3.20700e+02,1.95896e+01,-7.94826e+01,-6.35605e-01,2.79752e-01,7.99236e-01
3.20700e+02,1.67068e+01,-8.26619e+01,-4.16059e-01,2.72675e-01,6.29412e-01
3.20700e+02,1.30066e+01,-8.58412e+01,-1.24515e-01,2.66436e-01,4.77983e-01
3.20700e+02,8.00212e+00,-8.90205e+01,2.81894e-01,2.62625e-01,5.35144e-01
3.20700e+02,-3.24239e+00,-9.21998e+01,1.23787e+00,2.64137e-01,1.31971e+00
3.20700e+02,-4.05392e+00,-9.22072e+01,1.30927e+00,2.68829e-01,1.38960e+00
3.20700e+02,-1.14474e+01,-8.89141e+01,1.99600e+00,2.77728e-01,2.05315e+00
3.20700e+02,-1.23426e+01,-8.56210e+01,2.11041e+00,2.84302e-01,2.16710e+00
3.20700e+02,-1.26515e+01,-8.23279e+01,2.17319e+00,2.91220e-01,2.23096e+00
3.20700e+02,-1.26984e+01,-7.90348e+01,2.21289e+00,2.98458e-01,2.27247e+00
3.20700e+02,-1.25479e+01,-7.57416e+01,2.23521e+00,3.05960e-01,2.29717e+00
3.20700e+02,-1.22734e+01,-7.24485e+01,2.24661e+00,3.13682e-01,2.31137e+00
3.20700e+02,-1.18746e+01,-6.91554e+01,2.24706e+00,3.21578e-01,2.31506e+00
3.20700e+02,-1.13999e+01,-6.58623e+01,2.24082e+00,3.29611e-01,2.31241e+00
3.20700e+02,-1.08812e+01,-6.25692e+01,2.23071e+00,3.37759e-01,2.30615e+00
3.20700e+02,-1.02962e+01,-5.92761e+01,2.21476e+00,3.46001e-01,2.29441e+00
3.20700e+02,-9.66973e+00,-5.59829e+01,2.19516e+00,3.54312e-01,2.27933e+00
3.20700e+02,-9.00292e+00,-5.26898e+01,2.17201e+00,3.62679e-01,2.26102e+00
3.20700e+02,-8.29591e+00,-4.93967e+01,2.14531e+00,3.71081e-01,2.23952e+00
3.20700e+02,-7.56370e+00,-4.61036e+01,2.11640e+00,3.79506e-01,2.21613e+00
3.20700e+02,-6.79920e+00,-4.28105e+01,2.08464e+00,3.87940e-01,2.19025e+00
3.20700e+02,-6.01403e+00,-3.95174e+01,2.05106e+00,3.96371e-01,2.16291e+00
3.20700e+02,-5.21032e+00,-3.62243e+01,2.01585e+00,4.04789e-01,2.13429e+00
3.20700e+02,-4.39006e+00,-3.29311e+01,1.97918e+00,4.13186e-01,2.10460e+00
3.20700e+02,-3.56279e+00,-2.96380e+01,1.94189e+00,4.21555e-01,2.07463e+00
3.20700e+02,-2.72467e+00,-2.63449e+01,1.90365e+00,4.29890e-01,2.04409e+00
3.20700e+02,-1.88474e+00,-2.30518e+01,1.86525e+00,4.38190e-01,2.01375e+00
3.20700e+02,-1.03832e+00,-1.97587e+01,1.82628e+00,4.46451e-01,1.98324e+00
3.20700e+02,-1.91989e-01,-1.64656e+01,1.78731e+00,4.54671e-01,1.95312e+00
3.20700e+02,6.51143e-01,-1.31725e+01,1.74863e+00,4.62850e-01,1.92364e+00
3.20700e+02,1.49428e+00,-9.87934e+00,1.70995e+00,4.70984e-01,1.89457e+00
3.20700e+02,2.31744e+00,-6.58623e+00,1.67302e+00,4.79080e-01,1.86750e+00
3.20700e+02,3.13689e+00,-3.29311e+00,1.63642e+00,4.87141e-01,1.84114e+00
4.26200e+02,4.14236e+01,0.00000e+00,-1.51168e+00,4.62770e-01,1.71104e+00
4.26200e+02,4.12150e+01,-3.14776e+00,-1.52586e+00,4.55651e-01,1.71788e+00
4.26200e+02,4.09374e+01,-6.29551e+00,-1.53470e+00,4.48359e-01,1.71999e+00
4.26200e+02,4.06571e+01,-9.44327e+00,-1.54332e+00,4.40901e-01,1.72192e+00
4.26200e+02,4.03160e+01,-1.25910e+01,-1.54723e+00,4.33292e-01,1.71963e+00
4.26200e+02,3.99607e+01,-1.57388e+01,-1.55004e+00,4.25542e-01,1.71636e+00
4.26200e+02,3.95588e+01,-1.88865e+01,-1.54923e+00,4.17662e-01,1.70981e+00
4.26200e+02,3.91341e+01,-2.20343e+01,-1.54667e+00,4.09664e-01,1.70166e+00
4.26200e+02,3.86720e+01,-2.51820e+01,-1.54120e+00,4.01558e-01,1.69087e+00
4.26200e+02,3.81790e+01,-2.83298e+01,-1.53333e+00,3.93356e-01,1.67788e+00
4.26200e+02,3.76521e+01,-3.14776e+01,-1.52284e+00,3.85066e-01,1.66249e+00
4.26200e+02,3.70842e+01,-3.46253e+01,-1.50917e+00,3.76702e-01,1.64417e+00
4.26200e+02,3.64743e+01,-3.77731e+01,-1.49224e+00,3.68273e-01,1.62286e+00
4.26200e+02,3.58048e+01,-4.09208e+01,-1.47070e+00,3.59794e-01,1.59728e+00
4.26200e+02,3.50774e+01,-4.40686e+01,-1.44466e+00,3.51282e-01,1.56756e+00
4.26200e+02,3.42806e+01,-4.72163e+01,-1.41326e+00,3.42749e-01,1.53288e+00
4.26200e+02,3.33901e+01,-5.03641e+01,-1.37457e+00,3.34225e-01,1.49150e+00
4.26200e+02,3.24342e+01,-5.35118e+01,-1.33083e+00,3.25717e-01,1.44547e+00
4.26200e+02,3.13314e+01,-5.66596e+01,-1.27570e+00,3.17270e-01,1.38902e+00
4.26200e+02,3.01677e+01,-5.98074e+01,-1.21585e+00,3.08903e-01,1.32836e+00
4.26200e+02,2.88343e+01,-6.29551e+01,-1.14284e+00,3.00637e-01,1.25588e+00
4.26200e+02,2.73650e+01,-6.61029e+01,-1.05930e+00,2.92543e-01,1.17425e+00
4.26200e+02,2.57573e+01,-6.92506e+01,-9.65027e-01,2.84634e-01,1.08366e+00
4.26200e+02,2.39173e+01,-7.23984e+01,-8.52754e-01,2.76939e-01,9.78404e-01
4.26200e+02,2.18083e+01,-7.55461e+01,-7.19625e-01,2.69551e-01,8.57807e-01
4.26200e+02,1.93952e+01,-7.86939e+01,-5.62925e-01,2.62559e-01,7.23668e-01
4.26200e+02,1.65410e+01,-8.18417e+01,-3.72037e-01,2.56021e-01,5.78837e-01
4.26200e+02,1.28775e+01,-8.49894e+01,-1.18412e-01,2.50258e-01,4.49342e-01
4.26200e+02,7.92271e+00,-8.81372e+01,2.35306e-01,2.46738e-01,4.87860e-01
4.26200e+02,-3.21022e+00,-9.12849e+01,1.06792e+00,2.48135e-01,1.15116e+00
4.26200e+02,-4.01369e+00,-9.12922e+01,1.13013e+00,2.52470e-01,1.21178e+00
4.26200e+02,-1.13339e+01,-8.80318e+01,1.72898e+00,2.60690e-01,1.78697e+00
4.26200e+02,-1.22201e+01,-8.47713e+01,1.82912e+00,2.66763e-01,1.88658e+00
4.26200e+02,-1.25260e+01,-8.15109e+01,1.88427e+00,2.73153e-01,1.94275e+00
4.26200e+02,-1.25724e+01,-7.82505e+01,1.91930e+00,2.79839e-01,1.97956e+00
4.26200e+02,-1.24233e+01,-7.49900e+01,1.93918e+00,2.86769e-01,2.00178e+00
4.26200e+02,-1.21516e+01,-7.17296e+01,1.94956e+00,2.93902e-01,2.01492e+00
4.26200e+02,-1.17568e+01,-6.84692e+01,1.95039e+00,3.01196e-01,2.01895e+00
4.26200e+02,-1.12868e+01,-6.52087e+01,1.94539e+00,3.08616e-01,2.01750e+00
4.26200e+02,-1.07732e+01,-6.19483e+01,1.93702e+00,3.16143e-01,2.01293e+00
4.26200e+02,-1.01940e+01,-5.86879e+01,1.92356e+00,3.23756e-01,2.00363e+00
4.26200e+02,-9.57378e+00,-5.54274e+01,1.90692e+00,3.31433e-01,1.99146e+00
4.26200e+02,-8.91358e+00,-5.21670e+01,1.88718e+00,3.39162e-01,1.97650e+00
4.26200e+02,-8.21359e+00,-4.89065e+01,1.86436e+00,3.46923e-01,1.95880e+00
4.26200e+02,-7.48864e+00,-4.56461e+01,1.83961e+00,3.54705e-01,1.93948e+00
4.26200e+02,-6.73173e+00,-4.23857e+01,1.81237e+00,3.62496e-01,1.91805e+00
4.26200e+02,-5.95435e+00,-3.91252e+01,1.78355e+00,3.70284e-01,1.89536e+00
4.26200e+02,-5.15861e+00,-3.58648e+01,1.75331e+00,3.78060e-01,1.87160e+00
4.26200e+02,-4.34650e+00,-3.26044e+01,1.72179e+00,3.85816e-01,1.84692e+00
4.26200e+02,-3.52744e+00,-2.93439e+01,1.68974e+00,3.93547e-01,1.82205e+00
4.26200e+02,-2.69763e+00,-2.60835e+01,1.65685e+00,4.01246e-01,1.79671e+00
4.26200e+02,-1.86603e+00,-2.28231e+01,1.62383e+00,4.08913e-01,1.77157e+00
4.26200e+02,-1.02802e+00,-1.95626e+01,1.59031e+00,4.16544e-01,1.74631e+00
4.26200e+02,-1.90083e-01,-1.63022e+01,1.55679e+00,4.24136e-01,1.72142e+00
4.26200e+02,6.44682e-01,-1.30417e+01,1.52353e+00,4.31691e-01,1.69712e+00
4.26200e+02,1.47945e+00,-9.78131e+00,1.49026e+00,4.39205e-01,1.67319e+00
4.26200e+02,2.29445e+00,-6.52087e+00,1.45852e+00,4.46683e-01,1.65102e+00
4.26200e+02,3.10576e+00,-3.26044e+00,1.42707e+00,4.54129e-01,1.62948e+00
5.30600e+02,4.10127e+01,0.00000e+00,-1.30362e+00,4.29107e-01,1.50060e+00
5.30600e+02,4.08062e+01,-3.11654e+00,-1.31629e+00,4.22566e-01,1.50609e+00
5.30600e+02,4.05314e+01,-6.23307e+00,-1.32435e+00,4.15866e-01,1.50756e+00
5.30600e+02,4.02539e+01,-9.34961e+00,-1.33223e+00,4.09013e-01,1.50888e+00
5.30600e+02,3.99161e+01,-1.24661e+01,-1.33604e+00,4.02021e-01,1.50661e+00
5.30600e+02,3.95644e+01,-1.55827e+01,-1.33890e+00,3.94900e-01,1.50349e+00
5.30600e+02,3.91664e+01,-1.86992e+01,-1.33863e+00,3.87660e-01,1.49759e+00
5.30600e+02,3.87460e+01,-2.18158e+01,-1.33685e+00,3.80311e-01,1.49033e+00
5.30600e+02,3.82884e+01,-2.49323e+01,-1.33256e+00,3.72863e-01,1.48081e+00
5.30600e+02,3.78003e+01,-2.80488e+01,-1.32621e+00,3.65327e-01,1.46943e+00
5.30600e+02,3.72787e+01,-3.11654e+01,-1.31758e+00,3.57710e-01,1.45599e+00
5.30600e+02,3.67164e+01,-3.42819e+01,-1.30621e+00,3.50025e-01,1.44005e+00
5.30600e+02,3.61125e+01,-3.73984e+01,-1.29203e+00,3.42281e-01,1.42155e+00
5.30600e+02,3.54497e+01,-4.05150e+01,-1.27387e+00,3.34490e-01,1.39942e+00
5.30600e+02,3.47295e+01,-4.36315e+01,-1.25182e+00,3.26669e-01,1.37375e+00
5.30600e+02,3.39406e+01,-4.67480e+01,-1.22514e+00,3.18829e-01,1.34385e+00
5.30600e+02,3.30589e+01,-4.98646e+01,-1.19218e+00,3.10997e-01,1.30822e+00
5.30600e+02,3.21125e+01,-5.29811e+01,-1.15484e+00,3.03180e-01,1.26863e+00
5.30600e+02,3.10206e+01,-5.60976e+01,-1.10768e+00,2.95418e-01,1.22015e+00
5.30600e+02,2.98685e+01,-5.92142e+01,-1.05644e+00,2.87730e-01,1.16809e+00
5.30600e+02,2.85484e+01,-6.23307e+01,-9.93845e-01,2.80136e-01,1.10596e+00
5.30600e+02,2.70936e+01,-6.54473e+01,-9.22151e-01,2.72699e-01,1.03608e+00
5.30600e+02,2.55018e+01,-6.85638e+01,-8.41197e-01,2.65432e-01,9.58632e-01
5.30600e+02,2.36801e+01,-7.16803e+01,-7.44701e-01,2.58362e-01,8.68811e-01
5.30600e+02,2.15920e+01,-7.47969e+01,-6.30199e-01,2.51574e-01,7.66171e-01
5.30600e+02,1.92028e+01,-7.79134e+01,-4.95347e-01,2.45149e-01,6.52429e-01
5.30600e+02,1.63770e+01,-8.10299e+01,-3.30980e-01,2.39143e-01,5.30203e-01
5.30600e+02,1.27498e+01,-8.41465e+01,-1.12449e-01,2.33848e-01,4.20356e-01
5.30600e+02,7.84413e+00,-8.72630e+01,1.92495e-01,2.30614e-01,4.43399e-01
5.30600e+02,-3.17838e+00,-9.03795e+01,9.10886e-01,2.31897e-01,9.95511e-01
5.30600e+02,-3.97388e+00,-9.03868e+01,9.64593e-01,2.35880e-01,1.04755e+00
5.30600e+02,-1.12214e+01,-8.71587e+01,1.48205e+00,2.43433e-01,1.54087e+00
5.30600e+02,-1.20989e+01,-8.39306e+01,1.56896e+00,2.49013e-01,1.62716e+00
5.30600e+02,-1.24018e+01,-8.07025e+01,1.61701e+00,2.54885e-01,1.67619e+00
5.30600e+02,-1.24477e+01,-7.74744e+01,1.64771e+00,2.61028e-01,1.70861e+00
5.30600e+02,-1.23001e+01,-7.42463e+01,1.66532e+00,2.67395e-01,1.72852e+00
5.30600e+02,-1.20311e+01,-7.10182e+01,1.67473e+00,2.73949e-01,1.74065e+00
5.30600e+02,-1.16402e+01,-6.77901e+01,1.67589e+00,2.80651e-01,1.74497e+00
5.30600e+02,-1.11748e+01,-6.45620e+01,1.67203e+00,2.87468e-01,1.74459e+00
5.30600e+02,-1.06664e+01,-6.13339e+01,1.66525e+00,2.94384e-01,1.74156e+00
5.30600e+02,-1.00929e+01,-5.81058e+01,1.65408e+00,3.01379e-01,1.73449e+00
5.30600e+02,-9.47882e+00,-5.48777e+01,1.64016e+00,3.08433e-01,1.72497e+00
5.30600e+02,-8.82518e+00,-5.16496e+01,1.62357e+00,3.15534e-01,1.71309e+00
5.30600e+02,-8.13212e+00,-4.84215e+01,1.60431e+00,3.22665e-01,1.69887e+00
5.30600e+02,-7.41437e+00,-4.51934e+01,1.58339e+00,3.29815e-01,1.68329e+00
5.30600e+02,-6.66496e+00,-4.19653e+01,1.56033e+00,3.36974e-01,1.66591e+00
5.30600e+02,-5.89529e+00,-3.87372e+01,1.53589e+00,3.44129e-01,1.64749e+00
5.30600e+02,-5.10745e+00,-3.55091e+01,1.51023e+00,3.51274e-01,1.62818e+00
5.30600e+02,-4.30339e+00,-3.22810e+01,1.48347e+00,3.58400e-01,1.60812e+00
5.30600e+02,-3.49245e+00,-2.90529e+01,1.45625e+00,3.65503e-01,1.58790e+00
5.30600e+02,-2.67088e+00,-2.58248e+01,1.42831e+00,3.72577e-01,1.56732e+00
5.30600e+02,-1.84753e+00,-2.25967e+01,1.40024e+00,3.79621e-01,1.54694e+00
5.30600e+02,-1.01782e+00,-1.93686e+01,1.37175e+00,3.86632e-01,1.52649e+00
5.30600e+02,-1.88198e-01,-1.61405e+01,1.34327e+00,3.93608e-01,1.50637e+00
5.30600e+02,6.38288e-01,-1.29124e+01,1.31499e+00,4.00549e-01,1.48678e+00
5.30600e+02,1.46477e+00,-9.68430e+00,1.28672e+00,4.07453e-01,1.46755e+00
5.30600e+02,2.27169e+00,-6.45620e+00,1.25977e+00,4.14324e-01,1.44983e+00
5.30600e+02,3.07496e+00,-3.22810e+00,1.23306e+00,4.21165e-01,1.43268e+00
6.33500e+02,4.06078e+01,0.00000e+00,-1.11293e+00,3.95793e-01,1.30712e+00
6.33500e+02,4.04033e+01,-3.08576e+00,-1.12420e+00,3.89817e-01,1.31137e+00
6.33500e+02,4.01312e+01,-6.17153e+00,-1.13152e+00,3.83695e-01,1.31225e+00
6.33500e+02,3.98564e+01,-9.25729e+00,-1.13869e+00,3.77434e-01,1.31300e+00
6.33500e+02,3.95220e+01,-1.23431e+01,-1.14238e+00,3.71046e-01,1.31074e+00
6.33500e+02,3.91738e+01,-1.54288e+01,-1.14525e+00,3.64540e-01,1.30778e+00
6.33500e+02,3.87797e+01,-1.85146e+01,-1.14546e+00,3.57925e-01,1.30246e+00
6.33500e+02,3.83634e+01,-2.16004e+01,-1.14437e+00,3.51211e-01,1.29601e+00
6.33500e+02,3.79104e+01,-2.46861e+01,-1.14114e+00,3.44406e-01,1.28765e+00
6.33500e+02,3.74271e+01,-2.77719e+01,-1.13614e+00,3.37521e-01,1.27772e+00
6.33500e+02,3.69106e+01,-3.08576e+01,-1.12920e+00,3.30562e-01,1.26606e+00
6.33500e+02,3.63539e+01,-3.39434e+01,-1.11991e+00,3.23541e-01,1.25229e+00
6.33500e+02,3.57559e+01,-3.70292e+01,-1.10822e+00,3.16465e-01,1.23637e+00
6.33500e+02,3.50997e+01,-4.01149e+01,-1.09313e+00,3.09348e-01,1.21738e+00
6.33500e+02,3.43866e+01,-4.32007e+01,-1.07472e+00,3.02202e-01,1.19541e+00
6.33500e+02,3.36055e+01,-4.62865e+01,-1.05234e+00,2.95039e-01,1.16986e+00
6.33500e+02,3.27325e+01,-4.93722e+01,-1.02460e+00,2.87884e-01,1.13949e+00
6.33500e+02,3.17954e+01,-5.24580e+01,-9.93122e-01,2.80742e-01,1.10578e+00
6.33500e+02,3.07144e+01,-5.55438e+01,-9.53239e-01,2.73650e-01,1.06457e+00
6.33500e+02,2.95736e+01,-5.86295e+01,-9.09872e-01,2.66627e-01,1.02036e+00
6.33500e+02,2.82665e+01,-6.17153e+01,-8.56800e-01,2.59689e-01,9.67688e-01
6.33500e+02,2.68261e+01,-6.48011e+01,-7.95949e-01,2.52895e-01,9.08517e-01
6.33500e+02,2.52500e+01,-6.78868e+01,-7.27184e-01,2.46255e-01,8.43042e-01
6.33500e+02,2.34463e+01,-7.09726e+01,-6.45132e-01,2.39796e-01,7.67268e-01
6.33500e+02,2.13788e+01,-7.40584e+01,-5.47690e-01,2.33594e-01,6.80927e-01
6.33500e+02,1.90132e+01,-7.71441e+01,-4.32852e-01,2.27725e-01,5.85608e-01
6.33500e+02,1.62153e+01,-8.02299e+01,-2.92785e-01,2.22237e-01,4.83623e-01
6.33500e+02,1.26239e+01,-8.33156e+01,-1.06420e-01,2.17399e-01,3.91296e-01
6.33500e+02,7.76668e+00,-8.64014e+01,1.53812e-01,2.14445e-01,4.02017e-01
6.33500e+02,-3.14700e+00,-8.94872e+01,7.67454e-01,2.15618e-01,8.53498e-01
6.33500e+02,-3.93464e+00,-8.94943e+01,8.13361e-01,2.19257e-01,8.97651e-01
6.33500e+02,-1.11106e+01,-8.62981e+01,1.25613e+00,2.26158e-01,1.31579e+00
6.33500e+02,-1.19795e+01,-8.31019e+01,1.33086e+00,2.31255e-01,1.38983e+00
6.33500e+02,-1.22793e+01,-7.99057e+01,1.37239e+00,2.36620e-01,1.43228e+00
6.33500e+02,-1.23248e+01,-7.67094e+01,1.39908e+00,2.42232e-01,1.46063e+00
6.33500e+02,-1.21787e+01,-7.35132e+01,1.41458e+00,2.48050e-01,1.47839e+00
6.33500e+02,-1.19123e+01,-7.03170e+01,1.42307e+00,2.54037e-01,1.48954e+00
6.33500e+02,-1.15252e+01,-6.71208e+01,1.42452e+00,2.60160e-01,1.49409e+00
6.33500e+02,-1.10645e+01,-6.39245e+01,1.42166e+00,2.66389e-01,1.49466e+00
6.33500e+02,-1.05611e+01,-6.07283e+01,1.41632e+00,2.72707e-01,1.49300e+00
6.33500e+02,-9.99326e+00,-5.75321e+01,1.40721e+00,2.79098e-01,1.48793e+00
6.33500e+02,-9.38524e+00,-5.43358e+01,1.39577e+00,2.85543e-01,1.48080e+00
6.33500e+02,-8.73804e+00,-5.11396e+01,1.38203e+00,2.92030e-01,1.47169e+00
6.33500e+02,-8.05183e+00,-4.79434e+01,1.36602e+00,2.98545e-01,1.46062e+00
6.33500e+02,-7.34116e+00,-4.47472e+01,1.34858e+00,3.05078e-01,1.44841e+00
6.33500e+02,-6.59916e+00,-4.15509e+01,1.32932e+00,3.11618e-01,1.43471e+00
6.33500e+02,-5.83709e+00,-3.83547e+01,1.30888e+00,3.18155e-01,1.42015e+00
6.33500e+02,-5.05702e+00,-3.51585e+01,1.28739e+00,3.24682e-01,1.40486e+00
6.33500e+02,-4.26090e+00,-3.19623e+01,1.26497e+00,3.31193e-01,1.38896e+00
6.33500e+02,-3.45797e+00,-2.87660e+01,1.24215e+00,3.37682e-01,1.37296e+00
6.33500e+02,-2.64450e+00,-2.55698e+01,1.21871e+00,3.44145e-01,1.35667e+00
6.33500e+02,-1.82928e+00,-2.23736e+01,1.19517e+00,3.50580e-01,1.34058e+00
6.33500e+02,-1.00777e+00,-1.91774e+01,1.17126e+00,3.56986e-01,1.32445e+00
6.33500e+02,-1.86340e-01,-1.59811e+01,1.14736e+00,3.63359e-01,1.30864e+00
6.33500e+02,6.31986e-01,-1.27849e+01,1.12364e+00,3.69700e-01,1.29329e+00
6.33500e+02,1.45031e+00,-9.58868e+00,1.09992e+00,3.76008e-01,1.27827e+00
6.33500e+02,2.24926e+00,-6.39245e+00,1.07733e+00,3.82285e-01,1.26455e+00
6.33500e+02,3.04460e+00,-3.19623e+00,1.05496e+00,3.88535e-01,1.25132e+00
7.34700e+02,4.02095e+01,0.00000e+00,-9.39617e-01,3.62871e-01,1.13044e+00
7.34700e+02,4.00070e+01,-3.05550e+00,-9.49567e-01,3.57445e-01,1.13357e+00
7.34700e+02,3.97376e+01,-6.11100e+00,-9.56183e-01,3.51888e-01,1.13391e+00
7.34700e+02,3.94656e+01,-9.16651e+00,-9.62666e-01,3.46204e-01,1.13415e+00
7.34700e+02,3.91344e+01,-1.22220e+01,-9.66207e-01,3.40405e-01,1.13189e+00
7.34700e+02,3.87896e+01,-1.52775e+01,-9.69065e-01,3.34498e-01,1.12905e+00
7.34700e+02,3.83994e+01,-1.83330e+01,-9.69663e-01,3.28493e-01,1.12426e+00
7.34700e+02,3.79872e+01,-2.13885e+01,-9.69166e-01,3.22398e-01,1.11853e+00
7.34700e+02,3.75386e+01,-2.44440e+01,-9.66854e-01,3.16221e-01,1.11121e+00
7.34700e+02,3.70601e+01,-2.74995e+01,-9.63051e-01,3.09970e-01,1.10259e+00
7.34700e+02,3.65486e+01,-3.05550e+01,-9.57609e-01,3.03653e-01,1.09253e+00
7.34700e+02,3.59973e+01,-3.36105e+01,-9.50182e-01,2.97278e-01,1.08073e+00
7.34700e+02,3.54053e+01,-3.66660e+01,-9.40722e-01,2.90855e-01,1.06712e+00
7.34700e+02,3.47554e+01,-3.97215e+01,-9.28384e-01,2.84393e-01,1.05097e+00
7.34700e+02,3.40493e+01,-4.27770e+01,-9.13243e-01,2.77907e-01,1.03233e+00
7.34700e+02,3.32760e+01,-4.58325e+01,-8.94751e-01,2.71404e-01,1.01072e+00
7.34700e+02,3.24115e+01,-4.88880e+01,-8.71719e-01,2.64908e-01,9.85100e-01
7.34700e+02,3.14836e+01,-5.19435e+01,-8.45530e-01,2.58424e-01,9.56697e-01
7.34700e+02,3.04131e+01,-5.49990e+01,-8.12235e-01,2.51987e-01,9.22072e-01
7.34700e+02,2.92835e+01,-5.80545e+01,-7.75994e-01,2.45611e-01,8.84952e-01
7.34700e+02,2.79893e+01,-6.11100e+01,-7.31549e-01,2.39312e-01,8.40818e-01
7.34700e+02,2.65630e+01,-6.41655e+01,-6.80527e-01,2.33144e-01,7.91319e-01
7.34700e+02,2.50024e+01,-6.72210e+01,-6.22813e-01,2.27117e-01,7.36643e-01
7.34700e+02,2.32164e+01,-7.02765e+01,-5.53867e-01,2.21253e-01,6.73519e-01
7.34700e+02,2.11691e+01,-7.33320e+01,-4.71909e-01,2.15623e-01,6.01812e-01
7.34700e+02,1.88268e+01,-7.63875e+01,-3.75245e-01,2.10295e-01,5.22954e-01
7.34700e+02,1.60563e+01,-7.94430e+01,-2.57251e-01,2.05313e-01,4.38906e-01
7.34700e+02,1.25001e+01,-8.24985e+01,-1.00113e-01,2.00921e-01,3.62120e-01
7.34700e+02,7.69051e+00,-8.55540e+01,1.19473e-01,1.98240e-01,3.63553e-01
7.34700e+02,-3.11614e+00,-8.86096e+01,6.37846e-01,1.99305e-01,7.25269e-01
7.34700e+02,-3.89606e+00,-8.86166e+01,6.76657e-01,2.02608e-01,7.62244e-01
7.34700e+02,-1.10017e+01,-8.54518e+01,1.05143e+00,2.08873e-01,1.11193e+00
7.34700e+02,-1.18620e+01,-8.22869e+01,1.11505e+00,2.13501e-01,1.17477e+00
7.34700e+02,-1.21589e+01,-7.91220e+01,1.15060e+00,2.18371e-01,1.21117e+00
7.34700e+02,-1.22039e+01,-7.59571e+01,1.17360e+00,2.23466e-01,1.23578e+00
7.34700e+02,-1.20592e+01,-7.27922e+01,1.18715e+00,2.28747e-01,1.25152e+00
7.34700e+02,-1.17955e+01,-6.96274e+01,1.19476e+00,2.34183e-01,1.26174e+00
7.34700e+02,-1.14122e+01,-6.64625e+01,1.19642e+00,2.39741e-01,1.26643e+00
7.34700e+02,-1.09560e+01,-6.32976e+01,1.19445e+00,2.45396e-01,1.26782e+00
7.34700e+02,-1.04575e+01,-6.01327e+01,1.19037e+00,2.51132e-01,1.26735e+00
7.34700e+02,-9.89525e+00,-5.69678e+01,1.18311e+00,2.56933e-01,1.26404e+00
7.34700e+02,-9.29319e+00,-5.38030e+01,1.17387e+00,2.62784e-01,1.25902e+00
7.34700e+02,-8.65235e+00,-5.06381e+01,1.16270e+00,2.68673e-01,1.25237e+00
7.34700e+02,-7.97287e+00,-4.74732e+01,1.14960e+00,2.74588e-01,1.24410e+00
7.34700e+02,-7.26917e+00,-4.43083e+01,1.13530e+00,2.80518e-01,1.23490e+00
7.34700e+02,-6.53444e+00,-4.11434e+01,1.11945e+00,2.86455e-01,1.22447e+00
7.34700e+02,-5.77984e+00,-3.79786e+01,1.10261e+00,2.92389e-01,1.21335e+00
7.34700e+02,-5.00742e+00,-3.48137e+01,1.08488e+00,2.98315e-01,1.20164e+00
7.34700e+02,-4.21911e+00,-3.16488e+01,1.06636e+00,3.04225e-01,1.18945e+00
7.34700e+02,-3.42406e+00,-2.84839e+01,1.04751e+00,3.10116e-01,1.17719e+00
7.34700e+02,-2.61857e+00,-2.53190e+01,1.02813e+00,3.15983e-01,1.16473e+00
7.34700e+02,-1.81134e+00,-2.21542e+01,1.00867e+00,3.21825e-01,1.15245e+00
7.34700e+02,-9.97887e-01,-1.89893e+01,9.88898e-01,3.27640e-01,1.14016e+00
7.34700e+02,-1.84513e-01,-1.58244e+01,9.69130e-01,3.33426e-01,1.12815e+00
7.34700e+02,6.25788e-01,-1.26595e+01,9.49515e-01,3.39182e-01,1.11656e+00
7.34700e+02,1.43609e+00,-9.49464e+00,9.29900e-01,3.44908e-01,1.10526e+00
7.34700e+02,2.22720e+00,-6.32976e+00,9.11241e-01,3.50606e-01,1.09505e+00
7.34700e+02,3.01474e+00,-3.16488e+00,8.92760e-01,3.56280e-01,1.08528e+00
8.33800e+02,3.98196e+01,0.00000e+00,-7.83842e-01,3.30387e-01,9.70502e-01
8.33800e+02,3.96190e+01,-3.02587e+00,-7.92560e-01,3.25495e-01,9.72622e-01
8.33800e+02,3.93522e+01,-6.05173e+00,-7.98494e-01,3.20485e-01,9.72483e-01
8.33800e+02,3.90828e+01,-9.07760e+00,-8.04316e-01,3.15361e-01,9.72256e-01
8.33800e+02,3.87549e+01,-1.21035e+01,-8.07679e-01,3.10133e-01,9.69996e-01
8.33800e+02,3.84134e+01,-1.51293e+01,-8.10473e-01,3.04808e-01,9.67259e-01
8.33800e+02,3.80270e+01,-1.81552e+01,-8.11378e-01,2.99394e-01,9.62936e-01
8.33800e+02,3.76188e+01,-2.11811e+01,-8.11368e-01,2.93899e-01,9.57835e-01
8.33800e+02,3.71745e+01,-2.42069e+01,-8.09842e-01,2.88330e-01,9.51444e-01
8.33800e+02,3.67006e+01,-2.72328e+01,-8.07071e-01,2.82694e-01,9.43987e-01
8.33800e+02,3.61941e+01,-3.02587e+01,-8.02929e-01,2.76999e-01,9.35351e-01
8.33800e+02,3.56482e+01,-3.32845e+01,-7.97129e-01,2.71253e-01,9.25283e-01
8.33800e+02,3.50619e+01,-3.63104e+01,-7.89631e-01,2.65462e-01,9.13744e-01
8.33800e+02,3.44183e+01,-3.93363e+01,-7.79729e-01,2.59637e-01,9.00117e-01
8.33800e+02,3.37191e+01,-4.23621e+01,-7.67484e-01,2.53789e-01,8.84454e-01
8.33800e+02,3.29532e+01,-4.53880e+01,-7.52440e-01,2.47926e-01,8.66353e-01
8.33800e+02,3.20971e+01,-4.84139e+01,-7.33603e-01,2.42070e-01,8.44966e-01
8.33800e+02,3.11783e+01,-5.14397e+01,-7.12128e-01,2.36225e-01,8.21299e-01
8.33800e+02,3.01182e+01,-5.44656e+01,-6.84716e-01,2.30421e-01,7.92539e-01
8.33800e+02,2.89995e+01,-5.74915e+01,-6.54843e-01,2.24673e-01,7.61744e-01
8.33800e+02,2.77178e+01,-6.05173e+01,-6.18116e-01,2.18995e-01,7.25220e-01
8.33800e+02,2.63054e+01,-6.35432e+01,-5.75894e-01,2.13434e-01,6.84336e-01
8.33800e+02,2.47599e+01,-6.65691e+01,-5.28081e-01,2.08001e-01,6.39267e-01
8.33800e+02,2.29912e+01,-6.95949e+01,-4.70883e-01,2.02714e-01,5.87375e-01
8.33800e+02,2.09638e+01,-7.26208e+01,-4.02815e-01,1.97639e-01,5.28623e-01
8.33800e+02,1.86442e+01,-7.56467e+01,-3.22459e-01,1.92835e-01,4.64259e-01
8.33800e+02,1.59005e+01,-7.86725e+01,-2.24283e-01,1.88344e-01,3.95883e-01
8.33800e+02,1.23789e+01,-8.16984e+01,-9.34032e-02,1.84385e-01,3.32743e-01
8.33800e+02,7.61592e+00,-8.47243e+01,8.96509e-02,1.81968e-01,3.27679e-01
8.33800e+02,-3.08591e+00,-8.77501e+01,5.22336e-01,1.82928e-01,6.10920e-01
8.33800e+02,-3.85827e+00,-8.77572e+01,5.54761e-01,1.85906e-01,6.41438e-01
8.33800e+02,-1.08950e+01,-8.46230e+01,8.68298e-01,1.91554e-01,9.29527e-01
8.33800e+02,-1.17470e+01,-8.14888e+01,9.21870e-01,1.95726e-01,9.82228e-01
8.33800e+02,-1.20409e+01,-7.83546e+01,9.51989e-01,2.00117e-01,1.01313e+00
8.33800e+02,-1.20856e+01,-7.52204e+01,9.71626e-01,2.04710e-01,1.03430e+00
8.33800e+02,-1.19423e+01,-7.20862e+01,9.83365e-01,2.09471e-01,1.04816e+00
8.33800e+02,-1.16811e+01,-6.89521e+01,9.90148e-01,2.14372e-01,1.05748e+00
8.33800e+02,-1.13015e+01,-6.58179e+01,9.91954e-01,2.19383e-01,1.06224e+00
8.33800e+02,-1.08497e+01,-6.26837e+01,9.90726e-01,2.24480e-01,1.06429e+00
8.33800e+02,-1.03561e+01,-5.95495e+01,9.87736e-01,2.29651e-01,1.06482e+00
8.33800e+02,-9.79928e+00,-5.64153e+01,9.82094e-01,2.34881e-01,1.06302e+00
8.33800e+02,-9.20306e+00,-5.32811e+01,9.74794e-01,2.40156e-01,1.05983e+00
8.33800e+02,-8.56843e+00,-5.01469e+01,9.65880e-01,2.45465e-01,1.05531e+00
8.33800e+02,-7.89554e+00,-4.70128e+01,9.55358e-01,2.50797e-01,1.04948e+00
8.33800e+02,-7.19866e+00,-4.38786e+01,9.43827e-01,2.56144e-01,1.04290e+00
8.33800e+02,-6.47106e+00,-4.07444e+01,9.31005e-01,2.61496e-01,1.03533e+00
8.33800e+02,-5.72378e+00,-3.76102e+01,9.17356e-01,2.66846e-01,1.02721e+00
8.33800e+02,-4.95886e+00,-3.44760e+01,9.02965e-01,2.72188e-01,1.01863e+00
8.33800e+02,-4.17819e+00,-3.13418e+01,8.87912e-01,2.77516e-01,1.00967e+00
8.33800e+02,-3.39085e+00,-2.82077e+01,8.72579e-01,2.82826e-01,1.00068e+00
8.33800e+02,-2.59317e+00,-2.50735e+01,8.56811e-01,2.88116e-01,9.91543e-01
8.33800e+02,-1.79378e+00,-2.19393e+01,8.40971e-01,2.93382e-01,9.82575e-01
8.33800e+02,-9.88209e-01,-1.88051e+01,8.24872e-01,2.98625e-01,9.73624e-01
8.33800e+02,-1.82723e-01,-1.56709e+01,8.08776e-01,3.03840e-01,9.64923e-01
8.33800e+02,6.19718e-01,-1.25367e+01,7.92808e-01,3.09030e-01,9.56579e-01
8.33800e+02,1.42216e+00,-9.40255e+00,7.76841e-01,3.14192e-01,9.48488e-01
8.33800e+02,2.20560e+00,-6.26837e+00,7.61671e-01,3.19328e-01,9.41305e-01
8.33800e+02,2.98550e+00,-3.13418e+00,7.46651e-01,3.24443e-01,9.34493e-01
9.30700e+02,3.94382e+01,0.00000e+00,-6.45127e-01,2.98212e-01,8.26426e-01
9.30700e+02,3.92396e+01,-2.99689e+00,-6.52696e-01,2.93839e-01,8.27669e-01
9.30700e+02,3.89754e+01,-5.99378e+00,-6.57969e-01,2.89360e-01,8.27110e-01
9.30700e+02,3.87085e+01,-8.99067e+00,-6.63151e-01,2.84778e-01,8.26477e-01
9.30700e+02,3.83837e+01,-1.19876e+01,-6.66305e-01,2.80104e-01,8.24219e-01
9.30700e+02,3.80455e+01,-1.49844e+01,-6.68990e-01,2.75343e-01,8.21577e-01
9.30700e+02,3.76628e+01,-1.79813e+01,-6.70119e-01,2.70502e-01,8.17663e-01
9.30700e+02,3.72585e+01,-2.09782e+01,-6.70492e-01,2.65589e-01,8.13125e-01
9.30700e+02,3.68185e+01,-2.39751e+01,-6.69616e-01,2.60610e-01,8.07551e-01
9.30700e+02,3.63492e+01,-2.69720e+01,-6.67713e-01,2.55572e-01,8.01118e-01
9.30700e+02,3.58475e+01,-2.99689e+01,-6.64680e-01,2.50480e-01,7.93738e-01
9.30700e+02,3.53068e+01,-3.29658e+01,-6.60281e-01,2.45342e-01,7.85206e-01
9.30700e+02,3.47261e+01,-3.59627e+01,-6.54481e-01,2.40165e-01,7.75489e-01
9.30700e+02,3.40887e+01,-3.89596e+01,-6.46699e-01,2.34956e-01,7.64090e-01
9.30700e+02,3.33962e+01,-4.19565e+01,-6.36987e-01,2.29728e-01,7.51051e-01
9.30700e+02,3.26376e+01,-4.49533e+01,-6.24966e-01,2.24486e-01,7.36047e-01
9.30700e+02,3.17897e+01,-4.79502e+01,-6.09818e-01,2.19251e-01,7.18395e-01
9.30700e+02,3.08797e+01,-5.09471e+01,-5.92496e-01,2.14025e-01,6.98907e-01
9.30700e+02,2.98297e+01,-5.39440e+01,-5.70279e-01,2.08836e-01,6.75319e-01
9.30700e+02,2.87218e+01,-5.69409e+01,-5.46034e-01,2.03697e-01,6.50100e-01
9.30700e+02,2.74524e+01,-5.99378e+01,-5.16137e-01,1.98620e-01,6.20280e-01
9.30700e+02,2.60534e+01,-6.29347e+01,-4.81711e-01,1.93649e-01,5.86980e-01
9.30700e+02,2.45228e+01,-6.59316e+01,-4.42676e-01,1.88791e-01,5.50352e-01
9.30700e+02,2.27710e+01,-6.89285e+01,-3.95904e-01,1.84064e-01,5.08309e-01
9.30700e+02,2.07631e+01,-7.19254e+01,-3.40169e-01,1.79526e-01,4.60873e-01
9.30700e+02,1.84656e+01,-7.49222e+01,-2.74306e-01,1.75232e-01,4.09099e-01
9.30700e+02,1.57483e+01,-7.79191e+01,-1.93750e-01,1.71217e-01,3.54238e-01
9.30700e+02,1.22603e+01,-8.09160e+01,-8.62347e-02,1.67677e-01,3.02958e-01
9.30700e+02,7.54299e+00,-8.39129e+01,6.42942e-02,1.65516e-01,2.93803e-01
9.30700e+02,-3.05636e+00,-8.69098e+01,4.20620e-01,1.66374e-01,5.09865e-01
9.30700e+02,-3.82132e+00,-8.69168e+01,4.47350e-01,1.69037e-01,5.34643e-01
9.30700e+02,-1.07906e+01,-8.38126e+01,7.06227e-01,1.74087e-01,7.67903e-01
9.30700e+02,-1.16345e+01,-8.07084e+01,7.50788e-01,1.77817e-01,8.11504e-01
9.30700e+02,-1.19256e+01,-7.76042e+01,7.76014e-01,1.81743e-01,8.37430e-01
9.30700e+02,-1.19698e+01,-7.45001e+01,7.92597e-01,1.85850e-01,8.55471e-01
9.30700e+02,-1.18279e+01,-7.13959e+01,8.02671e-01,1.90106e-01,8.67584e-01
9.30700e+02,-1.15692e+01,-6.82917e+01,8.08658e-01,1.94487e-01,8.76016e-01
9.30700e+02,-1.11933e+01,-6.51876e+01,8.10543e-01,1.98968e-01,8.80764e-01
9.30700e+02,-1.07458e+01,-6.20834e+01,8.09925e-01,2.03525e-01,8.83316e-01
9.30700e+02,-1.02569e+01,-5.89792e+01,8.07856e-01,2.08149e-01,8.84652e-01
9.30700e+02,-9.70544e+00,-5.58751e+01,8.03600e-01,2.12825e-01,8.84113e-01
9.30700e+02,-9.11493e+00,-5.27709e+01,7.97978e-01,2.17540e-01,8.82463e-01
9.30700e+02,-8.48637e+00,-4.96667e+01,7.91024e-01,2.22287e-01,8.79747e-01
9.30700e+02,-7.81993e+00,-4.65625e+01,7.82745e-01,2.27054e-01,8.75986e-01
9.30700e+02,-7.12973e+00,-4.34584e+01,7.73635e-01,2.31834e-01,8.71638e-01
9.30700e+02,-6.40909e+00,-4.03542e+01,7.63460e-01,2.36619e-01,8.66508e-01
9.30700e+02,-5.66897e+00,-3.72500e+01,7.52603e-01,2.41403e-01,8.60951e-01
9.30700e+02,-4.91137e+00,-3.41459e+01,7.41134e-01,2.46179e-01,8.55039e-01
9.30700e+02,-4.13818e+00,-3.10417e+01,7.29120e-01,2.50942e-01,8.48842e-01
9.30700e+02,-3.35837e+00,-2.79375e+01,7.16875e-01,2.55690e-01,8.42640e-01
9.30700e+02,-2.56834e+00,-2.48334e+01,7.04271e-01,2.60419e-01,8.36333e-01
9.30700e+02,-1.77660e+00,-2.17292e+01,6.91608e-01,2.65128e-01,8.30181e-01
9.30700e+02,-9.78745e-01,-1.86250e+01,6.78732e-01,2.69814e-01,8.24060e-01
9.30700e+02,-1.80973e-01,-1.55208e+01,6.65858e-01,2.74477e-01,8.18156e-01
9.30700e+02,6.13784e-01,-1.24167e+01,6.53089e-01,2.79117e-01,8.12554e-01
9.30700e+02,1.40854e+00,-9.31251e+00,6.40321e-01,2.83732e-01,8.07169e-01
9.30700e+02,2.18448e+00,-6.20834e+00,6.28211e-01,2.88324e-01,8.02522e-01
9.30700e+02,2.95691e+00,-3.10417e+00,6.16223e-01,2.92897e-01,7.98183e-01
1.02500e+03,3.90671e+01,0.00000e+00,-5.23202e-01,2.66487e-01,6.97701e-01
1.02500e+03,3.88704e+01,-2.96869e+00,-5.29709e-01,2.62607e-01,6.98196e-01
1.02500e+03,3.86086e+01,-5.93738e+00,-5.34349e-01,2.58633e-01,6.97282e-01
1.02500e+03,3.83443e+01,-8.90607e+00,-5.38916e-01,2.54568e-01,6.96308e-01
1.02500e+03,3.80226e+01,-1.18748e+01,-5.41835e-01,2.50421e-01,6.94059e-01
1.02500e+03,3.76875e+01,-1.48435e+01,-5.44373e-01,2.46197e-01,6.91506e-01
1.02500e+03,3.73084e+01,-1.78121e+01,-5.45646e-01,2.41903e-01,6.87954e-01
1.02500e+03,3.69079e+01,-2.07808e+01,-5.46305e-01,2.37544e-01,6.83909e-01
1.02500e+03,3.64721e+01,-2.37495e+01,-5.45950e-01,2.33127e-01,6.79047e-01
1.02500e+03,3.60071e+01,-2.67182e+01,-5.44759e-01,2.28657e-01,6.73509e-01
1.02500e+03,3.55102e+01,-2.96869e+01,-5.42652e-01,2.24140e-01,6.67223e-01
1.02500e+03,3.49746e+01,-3.26556e+01,-5.39433e-01,2.19582e-01,6.60028e-01
1.02500e+03,3.43994e+01,-3.56243e+01,-5.35077e-01,2.14988e-01,6.51895e-01
1.02500e+03,3.37680e+01,-3.85930e+01,-5.29111e-01,2.10368e-01,6.42434e-01
1.02500e+03,3.30819e+01,-4.15617e+01,-5.21575e-01,2.05729e-01,6.31676e-01
1.02500e+03,3.23305e+01,-4.45304e+01,-5.12164e-01,2.01079e-01,6.19363e-01
1.02500e+03,3.14906e+01,-4.74990e+01,-5.00213e-01,1.96435e-01,6.04957e-01
1.02500e+03,3.05891e+01,-5.04677e+01,-4.86495e-01,1.91798e-01,5.89098e-01
1.02500e+03,2.95491e+01,-5.34364e+01,-4.68800e-01,1.87195e-01,5.69999e-01
1.02500e+03,2.84516e+01,-5.64051e+01,-4.49457e-01,1.82636e-01,5.49617e-01
1.02500e+03,2.71940e+01,-5.93738e+01,-4.25521e-01,1.78132e-01,5.25606e-01
1.02500e+03,2.58083e+01,-6.23425e+01,-3.97906e-01,1.73721e-01,4.98865e-01
1.02500e+03,2.42920e+01,-6.53112e+01,-3.66546e-01,1.69412e-01,4.69528e-01
1.02500e+03,2.25567e+01,-6.82799e+01,-3.28899e-01,1.65219e-01,4.35966e-01
1.02500e+03,2.05677e+01,-7.12486e+01,-2.83971e-01,1.61193e-01,3.98232e-01
1.02500e+03,1.82919e+01,-7.42173e+01,-2.30813e-01,1.57383e-01,3.57187e-01
1.02500e+03,1.56001e+01,-7.71859e+01,-1.65717e-01,1.53821e-01,3.13759e-01
1.02500e+03,1.21450e+01,-8.01546e+01,-7.87159e-02,1.50681e-01,2.72599e-01
1.02500e+03,7.47201e+00,-8.31233e+01,4.32337e-02,1.48764e-01,2.61268e-01
1.02500e+03,-3.02760e+00,-8.60920e+01,3.32395e-01,1.49525e-01,4.21378e-01
1.02500e+03,-3.78536e+00,-8.60989e+01,3.54112e-01,1.51888e-01,4.41141e-01
1.02500e+03,-1.06891e+01,-8.30239e+01,5.64820e-01,1.56368e-01,6.26398e-01
1.02500e+03,-1.15250e+01,-7.99490e+01,6.01395e-01,1.59677e-01,6.61942e-01
1.02500e+03,-1.18134e+01,-7.68740e+01,6.22260e-01,1.63160e-01,6.83426e-01
1.02500e+03,-1.18572e+01,-7.37991e+01,6.36104e-01,1.66803e-01,6.98640e-01
1.02500e+03,-1.17166e+01,-7.07241e+01,6.44657e-01,1.70580e-01,7.09137e-01
1.02500e+03,-1.14604e+01,-6.76491e+01,6.49891e-01,1.74466e-01,7.16710e-01
1.02500e+03,-1.10880e+01,-6.45742e+01,6.51791e-01,1.78441e-01,7.21357e-01
1.02500e+03,-1.06447e+01,-6.14992e+01,6.51659e-01,1.82484e-01,7.24266e-01
1.02500e+03,-1.01604e+01,-5.84243e+01,6.50346e-01,1.86586e-01,7.26218e-01
1.02500e+03,-9.61411e+00,-5.53493e+01,6.47257e-01,1.90734e-01,7.26692e-01
1.02500e+03,-9.02916e+00,-5.22743e+01,6.43058e-01,1.94918e-01,7.26294e-01
1.02500e+03,-8.40652e+00,-4.91994e+01,6.37777e-01,1.99129e-01,7.25063e-01
1.02500e+03,-7.74634e+00,-4.61244e+01,6.31419e-01,2.03358e-01,7.23017e-01
1.02500e+03,-7.06264e+00,-4.30495e+01,6.24386e-01,2.07599e-01,7.20520e-01
1.02500e+03,-6.34878e+00,-3.99745e+01,6.16487e-01,2.11844e-01,7.17419e-01
1.02500e+03,-5.61563e+00,-3.68995e+01,6.08035e-01,2.16087e-01,7.13994e-01
1.02500e+03,-4.86516e+00,-3.38246e+01,5.99086e-01,2.20324e-01,7.10304e-01
1.02500e+03,-4.09924e+00,-3.07496e+01,5.89693e-01,2.24550e-01,7.06404e-01
1.02500e+03,-3.32677e+00,-2.76746e+01,5.80113e-01,2.28762e-01,7.02515e-01
1.02500e+03,-2.54417e+00,-2.45997e+01,5.70241e-01,2.32957e-01,6.98558e-01
1.02500e+03,-1.75988e+00,-2.15247e+01,5.60321e-01,2.37135e-01,6.94736e-01
1.02500e+03,-9.69535e-01,-1.84498e+01,5.50228e-01,2.41292e-01,6.90953e-01
1.02500e+03,-1.79270e-01,-1.53748e+01,5.40137e-01,2.45429e-01,6.87353e-01
1.02500e+03,6.08008e-01,-1.22998e+01,5.30131e-01,2.49545e-01,6.84001e-01
1.02500e+03,1.39529e+00,-9.22488e+00,5.20125e-01,2.53639e-01,6.80829e-01
1.02500e+03,2.16392e+00,-6.14992e+00,5.10655e-01,2.57713e-01,6.78245e-01
1.02500e+03,2.92908e+00,-3.07496e+00,5.01284e-01,2.61770e-01,6.75911e-01
1.11650e+03,3.87070e+01,0.00000e+00,-4.17454e-01,2.34864e-01,5.82882e-01
1.11650e+03,3.85121e+01,-2.94133e+00,-4.22988e-01,2.31465e-01,5.82792e-01
1.11650e+03,3.82528e+01,-5.88266e+00,-4.27030e-01,2.27983e-01,5.81622e-01
1.11650e+03,3.79909e+01,-8.82398e+00,-4.31013e-01,2.24423e-01,5.80404e-01
1.11650e+03,3.76721e+01,-1.17653e+01,-4.33679e-01,2.20790e-01,5.78206e-01
1.11650e+03,3.73401e+01,-1.47066e+01,-4.36039e-01,2.17089e-01,5.75772e-01
1.11650e+03,3.69645e+01,-1.76480e+01,-4.37389e-01,2.13327e-01,5.72569e-01
1.11650e+03,3.65678e+01,-2.05893e+01,-4.38248e-01,2.09509e-01,5.68985e-01
1.11650e+03,3.61359e+01,-2.35306e+01,-4.38296e-01,2.05639e-01,5.64770e-01
1.11650e+03,3.56753e+01,-2.64720e+01,-4.37676e-01,2.01723e-01,5.60033e-01
1.11650e+03,3.51829e+01,-2.94133e+01,-4.36322e-01,1.97766e-01,5.54717e-01
1.11650e+03,3.46522e+01,-3.23546e+01,-4.34081e-01,1.93773e-01,5.48699e-01
1.11650e+03,3.40823e+01,-3.52959e+01,-4.30930e-01,1.89749e-01,5.41955e-01
1.11650e+03,3.34567e+01,-3.82373e+01,-4.26491e-01,1.85701e-01,5.34181e-01
1.11650e+03,3.27770e+01,-4.11786e+01,-4.20798e-01,1.81638e-01,5.25403e-01
1.11650e+03,3.20325e+01,-4.41199e+01,-4.13605e-01,1.77564e-01,5.15419e-01
1.11650e+03,3.12004e+01,-4.70612e+01,-4.04381e-01,1.73495e-01,5.03812e-01
1.11650e+03,3.03072e+01,-5.00026e+01,-3.93745e-01,1.69434e-01,4.91079e-01
1.11650e+03,2.92767e+01,-5.29439e+01,-3.79929e-01,1.65401e-01,4.75835e-01
1.11650e+03,2.81893e+01,-5.58852e+01,-3.64795e-01,1.61407e-01,4.59600e-01
1.11650e+03,2.69434e+01,-5.88266e+01,-3.45989e-01,1.57462e-01,4.40558e-01
1.11650e+03,2.55704e+01,-6.17679e+01,-3.24242e-01,1.53598e-01,4.19416e-01
1.11650e+03,2.40681e+01,-6.47092e+01,-2.99499e-01,1.49822e-01,3.96283e-01
1.11650e+03,2.23488e+01,-6.76505e+01,-2.69731e-01,1.46149e-01,3.69910e-01
1.11650e+03,2.03781e+01,-7.05919e+01,-2.34141e-01,1.42623e-01,3.40361e-01
1.11650e+03,1.81233e+01,-7.35332e+01,-1.91970e-01,1.39285e-01,3.08307e-01
1.11650e+03,1.54563e+01,-7.64745e+01,-1.40255e-01,1.36165e-01,2.74397e-01
1.11650e+03,1.20330e+01,-7.94159e+01,-7.10253e-02,1.33414e-01,2.41749e-01
1.11650e+03,7.40314e+00,-8.23572e+01,2.61470e-02,1.31735e-01,2.29664e-01
1.11650e+03,-2.99970e+00,-8.52985e+01,2.57012e-01,1.32402e-01,3.44451e-01
1.11650e+03,-3.75047e+00,-8.53053e+01,2.74376e-01,1.34472e-01,3.59903e-01
1.11650e+03,-1.05906e+01,-8.22587e+01,4.43190e-01,1.38396e-01,5.03863e-01
1.11650e+03,-1.14188e+01,-7.92121e+01,4.72777e-01,1.41295e-01,5.32364e-01
1.11650e+03,-1.17045e+01,-7.61655e+01,4.89803e-01,1.44346e-01,5.49923e-01
1.11650e+03,-1.17479e+01,-7.31189e+01,5.01215e-01,1.47538e-01,5.62601e-01
1.11650e+03,-1.16086e+01,-7.00722e+01,5.08398e-01,1.50846e-01,5.71605e-01
1.11650e+03,-1.13547e+01,-6.70256e+01,5.12926e-01,1.54251e-01,5.78337e-01
1.11650e+03,-1.09858e+01,-6.39790e+01,5.14789e-01,1.57733e-01,5.82793e-01
1.11650e+03,-1.05466e+01,-6.09324e+01,5.15027e-01,1.61275e-01,5.85903e-01
1.11650e+03,-1.00667e+01,-5.78858e+01,5.14321e-01,1.64868e-01,5.88278e-01
1.11650e+03,-9.52550e+00,-5.48391e+01,5.12195e-01,1.68502e-01,5.89511e-01
1.11650e+03,-8.94594e+00,-5.17925e+01,5.09181e-01,1.72167e-01,5.90077e-01
1.11650e+03,-8.32904e+00,-4.87459e+01,5.05303e-01,1.75856e-01,5.90006e-01
1.11650e+03,-7.67495e+00,-4.56993e+01,5.00563e-01,1.79561e-01,5.89313e-01
1.11650e+03,-6.99754e+00,-4.26527e+01,4.95283e-01,1.83276e-01,5.88282e-01
1.11650e+03,-6.29027e+00,-3.96060e+01,4.89312e-01,1.86995e-01,5.86794e-01
1.11650e+03,-5.56387e+00,-3.65594e+01,4.82897e-01,1.90712e-01,5.85067e-01
1.11650e+03,-4.82031e+00,-3.35128e+01,4.76085e-01,1.94424e-01,5.83146e-01
1.11650e+03,-4.06146e+00,-3.04662e+01,4.68919e-01,1.98126e-01,5.81074e-01
1.11650e+03,-3.29611e+00,-2.74196e+01,4.61603e-01,2.01816e-01,5.79022e-01
1.11650e+03,-2.52072e+00,-2.43730e+01,4.54054e-01,2.05491e-01,5.76927e-01
1.11650e+03,-1.74366e+00,-2.13263e+01,4.46466e-01,2.09150e-01,5.74946e-01
1.11650e+03,-9.60599e-01,-1.82797e+01,4.38740e-01,2.12792e-01,5.73005e-01
1.11650e+03,-1.77618e-01,-1.52331e+01,4.31015e-01,2.16416e-01,5.71211e-01
1.11650e+03,6.02404e-01,-1.21865e+01,4.23359e-01,2.20022e-01,5.69615e-01
1.11650e+03,1.38243e+00,-9.13986e+00,4.15703e-01,2.23608e-01,5.68164e-01
1.11650e+03,2.14398e+00,-6.09324e+00,4.08474e-01,2.27177e-01,5.67168e-01
1.11650e+03,2.90209e+00,-3.04662e+00,4.01325e-01,2.30731e-01,5.66367e-01
1.20500e+03,3.76912e+01,0.00000e+00,-4.67571e-01,2.34906e-01,6.19810e-01
1.20500e+03,3.75014e+01,-2.86413e+00,-4.75621e-01,2.30775e-01,6.21278e-01
1.20500e+03,3.72488e+01,-5.72827e+00,-4.81997e-01,2.26543e-01,6.21519e-01
1.20500e+03,3.69938e+01,-8.59240e+00,-4.88305e-01,2.22215e-01,6.21756e-01
1.20500e+03,3.66834e+01,-1.14565e+01,-4.93135e-01,2.17799e-01,6.20879e-01
1.20500e+03,3.63602e+01,-1.43207e+01,-4.97622e-01,2.13300e-01,6.19773e-01
1.20500e+03,3.59944e+01,-1.71848e+01,-5.00974e-01,2.08726e-01,6.17799e-01
1.20500e+03,3.56080e+01,-2.00489e+01,-5.03776e-01,2.04083e-01,6.15419e-01
1.20500e+03,3.51875e+01,-2.29131e+01,-5.05665e-01,1.99378e-01,6.12333e-01
1.20500e+03,3.47390e+01,-2.57772e+01,-5.06806e-01,1.94616e-01,6.08669e-01
1.20500e+03,3.42596e+01,-2.86413e+01,-5.07123e-01,1.89803e-01,6.04358e-01
1.20500e+03,3.37428e+01,-3.15055e+01,-5.06442e-01,1.84947e-01,5.99249e-01
1.20500e+03,3.31878e+01,-3.43696e+01,-5.04741e-01,1.80052e-01,5.93313e-01
1.20500e+03,3.25787e+01,-3.72337e+01,-5.01593e-01,1.75129e-01,5.86179e-01
1.20500e+03,3.19168e+01,-4.00979e+01,-4.97037e-01,1.70186e-01,5.77872e-01
1.20500e+03,3.11919e+01,-4.29620e+01,-4.90797e-01,1.65231e-01,5.68142e-01
1.20500e+03,3.03815e+01,-4.58261e+01,-4.82277e-01,1.60280e-01,5.56472e-01
1.20500e+03,2.95118e+01,-4.86903e+01,-4.72170e-01,1.55339e-01,5.43448e-01
1.20500e+03,2.85084e+01,-5.15544e+01,-4.58493e-01,1.50433e-01,5.27358e-01
1.20500e+03,2.74495e+01,-5.44186e+01,-4.43337e-01,1.45573e-01,5.10021e-01
1.20500e+03,2.62363e+01,-5.72827e+01,-4.24058e-01,1.40772e-01,4.89158e-01
1.20500e+03,2.48993e+01,-6.01468e+01,-4.01475e-01,1.36070e-01,4.65540e-01
1.20500e+03,2.34365e+01,-6.30110e+01,-3.75529e-01,1.31476e-01,4.39181e-01
1.20500e+03,2.17623e+01,-6.58751e+01,-3.43941e-01,1.27005e-01,4.08272e-01
1.20500e+03,1.98433e+01,-6.87392e+01,-3.05814e-01,1.22713e-01,3.72421e-01
1.20500e+03,1.76476e+01,-7.16034e+01,-2.60299e-01,1.18650e-01,3.31646e-01
1.20500e+03,1.50506e+01,-7.44675e+01,-2.04068e-01,1.14851e-01,2.84984e-01
1.20500e+03,1.17172e+01,-7.73316e+01,-1.28170e-01,1.11501e-01,2.31786e-01
1.20500e+03,7.20885e+00,-8.01958e+01,-2.08967e-02,1.09452e-01,1.90724e-01
1.20500e+03,-2.92097e+00,-8.30599e+01,2.36494e-01,1.10260e-01,3.03975e-01
1.20500e+03,-3.65204e+00,-8.30665e+01,2.55986e-01,1.12776e-01,3.22000e-01
1.20500e+03,-1.03126e+01,-8.00999e+01,4.47441e-01,1.17548e-01,4.91585e-01
1.20500e+03,-1.11191e+01,-7.71332e+01,4.82565e-01,1.21074e-01,5.26162e-01
1.20500e+03,-1.13974e+01,-7.41666e+01,5.03585e-01,1.24785e-01,5.48007e-01
1.20500e+03,-1.14396e+01,-7.11999e+01,5.18302e-01,1.28668e-01,5.64184e-01
1.20500e+03,-1.13040e+01,-6.82332e+01,5.28269e-01,1.32693e-01,5.76099e-01
1.20500e+03,-1.10567e+01,-6.52666e+01,5.35256e-01,1.36836e-01,5.85381e-01
1.20500e+03,-1.06975e+01,-6.22999e+01,5.39250e-01,1.41073e-01,5.92026e-01
1.20500e+03,-1.02698e+01,-5.93332e+01,5.41419e-01,1.45383e-01,5.97112e-01
1.20500e+03,-9.80253e+00,-5.63666e+01,5.42529e-01,1.49756e-01,6.01347e-01
1.20500e+03,-9.27551e+00,-5.33999e+01,5.42044e-01,1.54179e-01,6.04255e-01
1.20500e+03,-8.71115e+00,-5.04333e+01,5.40562e-01,1.58640e-01,6.06388e-01
1.20500e+03,-8.11045e+00,-4.74666e+01,5.38109e-01,1.63130e-01,6.07779e-01
1.20500e+03,-7.47352e+00,-4.44999e+01,5.34689e-01,1.67640e-01,6.08442e-01
1.20500e+03,-6.81389e+00,-4.15333e+01,5.30663e-01,1.72162e-01,6.08706e-01
1.20500e+03,-6.12518e+00,-3.85666e+01,5.25860e-01,1.76689e-01,6.08429e-01
1.20500e+03,-5.41785e+00,-3.55999e+01,5.20560e-01,1.81215e-01,6.07865e-01
1.20500e+03,-4.69381e+00,-3.26333e+01,5.14814e-01,1.85735e-01,6.07063e-01
1.20500e+03,-3.95486e+00,-2.96666e+01,5.08670e-01,1.90242e-01,6.06070e-01
1.20500e+03,-3.20961e+00,-2.67000e+01,5.02357e-01,1.94736e-01,6.05085e-01
1.20500e+03,-2.45457e+00,-2.37333e+01,4.95783e-01,1.99211e-01,6.04033e-01
1.20500e+03,-1.69790e+00,-2.07666e+01,4.89165e-01,2.03668e-01,6.03096e-01
1.20500e+03,-9.35389e-01,-1.78000e+01,4.82392e-01,2.08104e-01,6.02183e-01
1.20500e+03,-1.72956e-01,-1.48333e+01,4.75620e-01,2.12518e-01,6.01421e-01
1.20500e+03,5.86594e-01,-1.18666e+01,4.68926e-01,2.16911e-01,6.00868e-01
1.20500e+03,1.34615e+00,-8.89999e+00,4.62231e-01,2.21280e-01,6.00460e-01
1.20500e+03,2.08771e+00,-5.93332e+00,4.56017e-01,2.25628e-01,6.00563e-01
1.20500e+03,2.82592e+00,-2.96666e+00,4.49892e-01,2.29958e-01,6.00870e-01
1.29010e+03,3.63234e+01,0.00000e+00,-3.71708e-01,2.09509e-01,5.19470e-01
1.29010e+03,3.61405e+01,-2.76019e+00,-3.78392e-01,2.05951e-01,5.20026e-01
1.29010e+03,3.58971e+01,-5.52039e+00,-3.83741e-01,2.02305e-01,5.19653e-01
1.29010e+03,3.56513e+01,-8.28058e+00,-3.89036e-01,1.98577e-01,5.19276e-01
1.29010e+03,3.53522e+01,-1.10408e+01,-3.93153e-01,1.94772e-01,5.18052e-01
1.29010e+03,3.50407e+01,-1.38010e+01,-3.96996e-01,1.90897e-01,5.16653e-01
1.29010e+03,3.46882e+01,-1.65612e+01,-3.99934e-01,1.86957e-01,5.14593e-01
1.29010e+03,3.43158e+01,-1.93214e+01,-4.02434e-01,1.82957e-01,5.12223e-01
1.29010e+03,3.39106e+01,-2.20816e+01,-4.04206e-01,1.78903e-01,5.09315e-01
1.29010e+03,3.34783e+01,-2.48418e+01,-4.05381e-01,1.74801e-01,5.05965e-01
1.29010e+03,3.30163e+01,-2.76019e+01,-4.05899e-01,1.70656e-01,5.02120e-01
1.29010e+03,3.25183e+01,-3.03621e+01,-4.05622e-01,1.66472e-01,4.97663e-01
1.29010e+03,3.19834e+01,-3.31223e+01,-4.04531e-01,1.62256e-01,4.92572e-01
1.29010e+03,3.13964e+01,-3.58825e+01,-4.02287e-01,1.58015e-01,4.86561e-01
1.29010e+03,3.07585e+01,-3.86427e+01,-3.98921e-01,1.53757e-01,4.79648e-01
1.29010e+03,3.00599e+01,-4.14029e+01,-3.94211e-01,1.49489e-01,4.71639e-01
1.29010e+03,2.92790e+01,-4.41631e+01,-3.87683e-01,1.45225e-01,4.62136e-01
1.29010e+03,2.84408e+01,-4.69233e+01,-3.79891e-01,1.40968e-01,4.51590e-01
1.29010e+03,2.74738e+01,-4.96835e+01,-3.69252e-01,1.36742e-01,4.38683e-01
1.29010e+03,2.64534e+01,-5.24437e+01,-3.57433e-01,1.32556e-01,4.24820e-01
1.29010e+03,2.52842e+01,-5.52039e+01,-3.42327e-01,1.28421e-01,4.08245e-01
1.29010e+03,2.39957e+01,-5.79641e+01,-3.24587e-01,1.24371e-01,3.89566e-01
1.29010e+03,2.25860e+01,-6.07243e+01,-3.04167e-01,1.20414e-01,3.68803e-01
1.29010e+03,2.09725e+01,-6.34845e+01,-2.79246e-01,1.16563e-01,3.44586e-01
1.29010e+03,1.91232e+01,-6.62447e+01,-2.49114e-01,1.12866e-01,3.16660e-01
1.29010e+03,1.70072e+01,-6.90049e+01,-2.13090e-01,1.09366e-01,2.85115e-01
1.29010e+03,1.45045e+01,-7.17651e+01,-1.68522e-01,1.06094e-01,2.49334e-01
1.29010e+03,1.12920e+01,-7.45253e+01,-1.08274e-01,1.03209e-01,2.08996e-01
1.29010e+03,6.94724e+00,-7.72855e+01,-2.30096e-02,1.01445e-01,1.77207e-01
1.29010e+03,-2.81497e+00,-8.00457e+01,1.81944e-01,1.02141e-01,2.53776e-01
1.29010e+03,-3.51951e+00,-8.00521e+01,1.97485e-01,1.04309e-01,2.67658e-01
1.29010e+03,-9.93839e+00,-7.71931e+01,3.50408e-01,1.08420e-01,3.97556e-01
1.29010e+03,-1.07156e+01,-7.43341e+01,3.78688e-01,1.11457e-01,4.25056e-01
1.29010e+03,-1.09838e+01,-7.14751e+01,3.95723e-01,1.14654e-01,4.42756e-01
1.29010e+03,-1.10244e+01,-6.86160e+01,4.07732e-01,1.17999e-01,4.56088e-01
1.29010e+03,-1.08937e+01,-6.57570e+01,4.15954e-01,1.21466e-01,4.66132e-01
1.29010e+03,-1.06555e+01,-6.28980e+01,4.21799e-01,1.25034e-01,4.74147e-01
1.29010e+03,-1.03093e+01,-6.00390e+01,4.25259e-01,1.28684e-01,4.80129e-01
1.29010e+03,-9.89713e+00,-5.71800e+01,4.27264e-01,1.32397e-01,4.84913e-01
1.29010e+03,-9.44680e+00,-5.43210e+01,4.28424e-01,1.36163e-01,4.89048e-01
1.29010e+03,-8.93890e+00,-5.14620e+01,4.28312e-01,1.39973e-01,4.92167e-01
1.29010e+03,-8.39503e+00,-4.86030e+01,4.27406e-01,1.43815e-01,4.94696e-01
1.29010e+03,-7.81612e+00,-4.57440e+01,4.25725e-01,1.47683e-01,4.96662e-01
1.29010e+03,-7.20231e+00,-4.28850e+01,4.23274e-01,1.51567e-01,4.98075e-01
1.29010e+03,-6.56662e+00,-4.00260e+01,4.20339e-01,1.55462e-01,4.99190e-01
1.29010e+03,-5.90290e+00,-3.71670e+01,4.16785e-01,1.59362e-01,4.99898e-01
1.29010e+03,-5.22123e+00,-3.43080e+01,4.12834e-01,1.63260e-01,5.00393e-01
1.29010e+03,-4.52347e+00,-3.14490e+01,4.08528e-01,1.67153e-01,5.00715e-01
1.29010e+03,-3.81134e+00,-2.85900e+01,4.03904e-01,1.71035e-01,5.00897e-01
1.29010e+03,-3.09313e+00,-2.57310e+01,3.99146e-01,1.74905e-01,5.01092e-01
1.29010e+03,-2.36549e+00,-2.28720e+01,3.94180e-01,1.78760e-01,5.01242e-01
1.29010e+03,-1.63628e+00,-2.00130e+01,3.89179e-01,1.82599e-01,5.01485e-01
1.29010e+03,-9.01444e-01,-1.71540e+01,3.84053e-01,1.86420e-01,5.01751e-01
1.29010e+03,-1.66680e-01,-1.42950e+01,3.78929e-01,1.90221e-01,5.02135e-01
1.29010e+03,5.65307e-01,-1.14360e+01,3.73867e-01,1.94004e-01,5.02682e-01
1.29010e+03,1.29729e+00,-8.57701e+00,3.68805e-01,1.97767e-01,5.03341e-01
1.29010e+03,2.01195e+00,-5.71800e+00,3.64125e-01,2.01512e-01,5.04389e-01
1.29010e+03,2.72337e+00,-2.85900e+00,3.59517e-01,2.05241e-01,5.05593e-01
1.37170e+03,3.50118e+01,0.00000e+00,-2.88822e-01,1.85062e-01,4.31465e-01
1.37170e+03,3.48355e+01,-2.66053e+00,-2.94297e-01,1.82038e-01,4.31306e-01
1.37170e+03,3.46009e+01,-5.32106e+00,-2.98730e-01,1.78942e-01,4.30465e-01
1.37170e+03,3.43640e+01,-7.98159e+00,-3.03122e-01,1.75774e-01,4.29619e-01
1.37170e+03,3.40757e+01,-1.06421e+01,-3.06594e-01,1.72542e-01,4.28150e-01
1.37170e+03,3.37754e+01,-1.33027e+01,-3.09854e-01,1.69250e-01,4.26552e-01
1.37170e+03,3.34357e+01,-1.59632e+01,-3.12408e-01,1.65903e-01,4.24464e-01
1.37170e+03,3.30768e+01,-1.86237e+01,-3.14619e-01,1.62506e-01,4.22149e-01
1.37170e+03,3.26861e+01,-2.12842e+01,-3.16264e-01,1.59062e-01,4.19435e-01
1.37170e+03,3.22695e+01,-2.39448e+01,-3.17443e-01,1.55578e-01,4.16394e-01
1.37170e+03,3.18241e+01,-2.66053e+01,-3.18111e-01,1.52056e-01,4.12986e-01
1.37170e+03,3.13441e+01,-2.92658e+01,-3.18158e-01,1.48503e-01,4.09125e-01
1.37170e+03,3.08286e+01,-3.19264e+01,-3.17570e-01,1.44921e-01,4.04793e-01
1.37170e+03,3.02627e+01,-3.45869e+01,-3.16084e-01,1.41319e-01,3.99778e-01
1.37170e+03,2.96479e+01,-3.72474e+01,-3.13722e-01,1.37702e-01,3.94091e-01
1.37170e+03,2.89745e+01,-3.99080e+01,-3.10314e-01,1.34076e-01,3.87588e-01
1.37170e+03,2.82218e+01,-4.25685e+01,-3.05488e-01,1.30454e-01,3.79971e-01
1.37170e+03,2.74139e+01,-4.52290e+01,-2.99676e-01,1.26839e-01,3.71578e-01
1.37170e+03,2.64818e+01,-4.78895e+01,-2.91644e-01,1.23249e-01,3.61424e-01
1.37170e+03,2.54982e+01,-5.05501e+01,-2.82693e-01,1.19694e-01,3.50564e-01
1.37170e+03,2.43712e+01,-5.32106e+01,-2.71179e-01,1.16181e-01,3.37687e-01
1.37170e+03,2.31293e+01,-5.58711e+01,-2.57611e-01,1.12741e-01,3.23257e-01
1.37170e+03,2.17704e+01,-5.85317e+01,-2.41954e-01,1.09380e-01,3.07300e-01
1.37170e+03,2.02153e+01,-6.11922e+01,-2.22788e-01,1.06109e-01,2.88811e-01
1.37170e+03,1.84327e+01,-6.38527e+01,-1.99559e-01,1.02969e-01,2.67640e-01
1.37170e+03,1.63931e+01,-6.65133e+01,-1.71736e-01,9.99966e-02,2.43909e-01
1.37170e+03,1.39807e+01,-6.91738e+01,-1.37252e-01,9.72175e-02,2.17237e-01
1.37170e+03,1.08843e+01,-7.18343e+01,-9.05438e-02,9.47670e-02,1.87458e-01
1.37170e+03,6.69639e+00,-7.44949e+01,-2.43318e-02,9.32689e-02,1.63369e-01
1.37170e+03,-2.71333e+00,-7.71554e+01,1.35195e-01,9.38610e-02,2.11441e-01
1.37170e+03,-3.39243e+00,-7.71616e+01,1.47310e-01,9.57022e-02,2.21759e-01
1.37170e+03,-9.57954e+00,-7.44058e+01,2.66808e-01,9.91946e-02,3.17341e-01
1.37170e+03,-1.03287e+01,-7.16500e+01,2.89128e-01,1.01775e-01,3.38629e-01
1.37170e+03,-1.05872e+01,-6.88942e+01,3.02682e-01,1.04490e-01,3.52663e-01
1.37170e+03,-1.06264e+01,-6.61385e+01,3.12317e-01,1.07331e-01,3.63458e-01
1.37170e+03,-1.05004e+01,-6.33827e+01,3.19000e-01,1.10276e-01,3.71811e-01
1.37170e+03,-1.02708e+01,-6.06269e+01,3.23830e-01,1.13308e-01,3.78658e-01
1.37170e+03,-9.93701e+00,-5.78712e+01,3.26800e-01,1.16408e-01,3.83993e-01
1.37170e+03,-9.53977e+00,-5.51154e+01,3.28635e-01,1.19561e-01,3.88440e-01
1.37170e+03,-9.10569e+00,-5.23596e+01,3.29812e-01,1.22760e-01,3.92411e-01
1.37170e+03,-8.61613e+00,-4.96039e+01,3.29998e-01,1.25996e-01,3.95631e-01
1.37170e+03,-8.09190e+00,-4.68481e+01,3.29564e-01,1.29260e-01,3.98418e-01
1.37170e+03,-7.53389e+00,-4.40923e+01,3.28526e-01,1.32545e-01,4.00792e-01
1.37170e+03,-6.94225e+00,-4.13365e+01,3.26887e-01,1.35844e-01,4.02761e-01
1.37170e+03,-6.32951e+00,-3.85808e+01,3.24872e-01,1.39153e-01,4.04515e-01
1.37170e+03,-5.68976e+00,-3.58250e+01,3.22373e-01,1.42465e-01,4.05972e-01
1.37170e+03,-5.03271e+00,-3.30692e+01,3.19566e-01,1.45776e-01,4.07276e-01
1.37170e+03,-4.36014e+00,-3.03135e+01,3.16481e-01,1.49082e-01,4.08456e-01
1.37170e+03,-3.67372e+00,-2.75577e+01,3.13149e-01,1.52380e-01,4.09537e-01
1.37170e+03,-2.98144e+00,-2.48019e+01,3.09712e-01,1.55667e-01,4.10631e-01
1.37170e+03,-2.28008e+00,-2.20462e+01,3.06112e-01,1.58941e-01,4.11693e-01
1.37170e+03,-1.57720e+00,-1.92904e+01,3.02486e-01,1.62201e-01,4.12825e-01
1.37170e+03,-8.68894e-01,-1.65346e+01,2.98762e-01,1.65446e-01,4.13976e-01
1.37170e+03,-1.60661e-01,-1.37788e+01,2.95040e-01,1.68675e-01,4.15213e-01
1.37170e+03,5.44895e-01,-1.10231e+01,2.91366e-01,1.71888e-01,4.16569e-01
1.37170e+03,1.25045e+00,-8.26731e+00,2.87692e-01,1.75083e-01,4.18006e-01
1.37170e+03,1.93930e+00,-5.51154e+00,2.84316e-01,1.78264e-01,4.19726e-01
1.37170e+03,2.62503e+00,-2.75577e+00,2.80996e-01,1.81431e-01,4.21557e-01
1.44960e+03,3.37597e+01,0.00000e+00,-2.18509e-01,1.61589e-01,3.55077e-01
1.44960e+03,3.35897e+01,-2.56538e+00,-2.22912e-01,1.59058e-01,3.54384e-01
1.44960e+03,3.33635e+01,-5.13077e+00,-2.26525e-01,1.56464e-01,3.53209e-01
1.44960e+03,3.31351e+01,-7.69615e+00,-2.30105e-01,1.53812e-01,3.52027e-01
1.44960e+03,3.28571e+01,-1.02615e+01,-2.32988e-01,1.51106e-01,3.50403e-01
1.44960e+03,3.25675e+01,-1.28269e+01,-2.35709e-01,1.48350e-01,3.48685e-01
1.44960e+03,3.22399e+01,-1.53923e+01,-2.37894e-01,1.45547e-01,3.46620e-01
1.44960e+03,3.18939e+01,-1.79577e+01,-2.39819e-01,1.42703e-01,3.44391e-01
1.44960e+03,3.15172e+01,-2.05231e+01,-2.41313e-01,1.39819e-01,3.41878e-01
1.44960e+03,3.11155e+01,-2.30885e+01,-2.42454e-01,1.36902e-01,3.39132e-01
1.44960e+03,3.06860e+01,-2.56538e+01,-2.43206e-01,1.33953e-01,3.36125e-01
1.44960e+03,3.02232e+01,-2.82192e+01,-2.43488e-01,1.30978e-01,3.32794e-01
1.44960e+03,2.97261e+01,-3.07846e+01,-2.43287e-01,1.27980e-01,3.29127e-01
1.44960e+03,2.91805e+01,-3.33500e+01,-2.42403e-01,1.24963e-01,3.24972e-01
1.44960e+03,2.85877e+01,-3.59154e+01,-2.40855e-01,1.21935e-01,3.20337e-01
1.44960e+03,2.79383e+01,-3.84808e+01,-2.38512e-01,1.18900e-01,3.15118e-01
1.44960e+03,2.72125e+01,-4.10462e+01,-2.35092e-01,1.15867e-01,3.09102e-01
1.44960e+03,2.64335e+01,-4.36115e+01,-2.30924e-01,1.12840e-01,3.02530e-01
1.44960e+03,2.55347e+01,-4.61769e+01,-2.25070e-01,1.09835e-01,2.94699e-01
1.44960e+03,2.45863e+01,-4.87423e+01,-2.18517e-01,1.06858e-01,2.86366e-01
1.44960e+03,2.34997e+01,-5.13077e+01,-2.10018e-01,1.03917e-01,2.76594e-01
1.44960e+03,2.23022e+01,-5.38731e+01,-1.99960e-01,1.01037e-01,2.65724e-01
1.44960e+03,2.09919e+01,-5.64385e+01,-1.88314e-01,9.82228e-02,2.53782e-01
1.44960e+03,1.94923e+01,-5.90039e+01,-1.74004e-01,9.54846e-02,2.40061e-01
1.44960e+03,1.77735e+01,-6.15692e+01,-1.56608e-01,9.28555e-02,2.24483e-01
1.44960e+03,1.58069e+01,-6.41346e+01,-1.35724e-01,9.03673e-02,2.07171e-01
1.44960e+03,1.34808e+01,-6.67000e+01,-1.09781e-01,8.80407e-02,1.87897e-01
1.44960e+03,1.04950e+01,-6.92654e+01,-7.45542e-02,8.59893e-02,1.66556e-01
1.44960e+03,6.45692e+00,-7.18308e+01,-2.45154e-02,8.47356e-02,1.48800e-01
1.44960e+03,-2.61629e+00,-7.43962e+01,9.63902e-02,8.52316e-02,1.76308e-01
1.44960e+03,-3.27111e+00,-7.44021e+01,1.05591e-01,8.67734e-02,1.83680e-01
1.44960e+03,-9.23696e+00,-7.17449e+01,1.96596e-01,8.96975e-02,2.50573e-01
1.44960e+03,-9.95928e+00,-6.90877e+01,2.13802e-01,9.18579e-02,2.66505e-01
1.44960e+03,-1.02085e+01,-6.64305e+01,2.24349e-01,9.41314e-02,2.77335e-01
1.44960e+03,-1.02464e+01,-6.37732e+01,2.31920e-01,9.65102e-02,2.85884e-01
1.44960e+03,-1.01249e+01,-6.11160e+01,2.37250e-01,9.89759e-02,2.92705e-01
1.44960e+03,-9.90345e+00,-5.84588e+01,2.41172e-01,1.01514e-01,2.98461e-01
1.44960e+03,-9.58164e+00,-5.58016e+01,2.43682e-01,1.04109e-01,3.03145e-01
1.44960e+03,-9.19861e+00,-5.31444e+01,2.45330e-01,1.06750e-01,3.07202e-01
1.44960e+03,-8.78006e+00,-5.04872e+01,2.46478e-01,1.09428e-01,3.10926e-01
1.44960e+03,-8.30801e+00,-4.78299e+01,2.46873e-01,1.12137e-01,3.14119e-01
1.44960e+03,-7.80252e+00,-4.51727e+01,2.46798e-01,1.14870e-01,3.17008e-01
1.44960e+03,-7.26447e+00,-4.25155e+01,2.46264e-01,1.17620e-01,3.19608e-01
1.44960e+03,-6.69398e+00,-3.98583e+01,2.45273e-01,1.20382e-01,3.21923e-01
1.44960e+03,-6.10316e+00,-3.72011e+01,2.43997e-01,1.23152e-01,3.24089e-01
1.44960e+03,-5.48628e+00,-3.45438e+01,2.42354e-01,1.25925e-01,3.26047e-01
1.44960e+03,-4.85273e+00,-3.18866e+01,2.40476e-01,1.28697e-01,3.27898e-01
1.44960e+03,-4.20421e+00,-2.92294e+01,2.38387e-01,1.31464e-01,3.29662e-01
1.44960e+03,-3.54234e+00,-2.65722e+01,2.36111e-01,1.34225e-01,3.31357e-01
1.44960e+03,-2.87482e+00,-2.39150e+01,2.33755e-01,1.36977e-01,3.33060e-01
1.44960e+03,-2.19854e+00,-2.12577e+01,2.31275e-01,1.39718e-01,3.34741e-01
1.44960e+03,-1.52080e+00,-1.86005e+01,2.28775e-01,1.42447e-01,3.36469e-01
1.44960e+03,-8.37821e-01,-1.59433e+01,2.26202e-01,1.45164e-01,3.38208e-01
1.44960e+03,-1.54916e-01,-1.32861e+01,2.23629e-01,1.47867e-01,3.40005e-01
1.44960e+03,5.25408e-01,-1.06289e+01,2.21093e-01,1.50556e-01,3.41882e-01
1.44960e+03,1.20573e+00,-7.97166e+00,2.18557e-01,1.53232e-01,3.43812e-01
1.44960e+03,1.86995e+00,-5.31444e+00,2.16247e-01,1.55894e-01,3.45936e-01
1.44960e+03,2.53116e+00,-2.65722e+00,2.13980e-01,1.58545e-01,3.48134e-01
1.52340e+03,3.25736e+01,0.00000e+00,-1.60421e-01,1.38610e-01,2.88744e-01
1.52340e+03,3.24095e+01,-2.47525e+00,-1.63881e-01,1.36537e-01,2.87722e-01
1.52340e+03,3.21913e+01,-4.95049e+00,-1.66759e-01,1.34413e-01,2.86372e-01
1.52340e+03,3.19709e+01,-7.42574e+00,-1.69614e-01,1.32240e-01,2.85011e-01
1.52340e+03,3.17026e+01,-9.90099e+00,-1.71954e-01,1.30023e-01,2.83348e-01
1.52340e+03,3.14232e+01,-1.23762e+01,-1.74174e-01,1.27765e-01,2.81618e-01
1.52340e+03,3.11072e+01,-1.48515e+01,-1.76000e-01,1.25470e-01,2.79650e-01
1.52340e+03,3.07733e+01,-1.73267e+01,-1.77633e-01,1.23140e-01,2.77568e-01
1.52340e+03,3.04098e+01,-1.98020e+01,-1.78950e-01,1.20778e-01,2.75291e-01
1.52340e+03,3.00222e+01,-2.22772e+01,-1.80006e-01,1.18388e-01,2.72854e-01
1.52340e+03,2.96079e+01,-2.47525e+01,-1.80775e-01,1.15973e-01,2.70238e-01
1.52340e+03,2.91613e+01,-2.72277e+01,-1.81197e-01,1.13536e-01,2.67402e-01
1.52340e+03,2.86816e+01,-2.97030e+01,-1.81263e-01,1.11080e-01,2.64335e-01
1.52340e+03,2.81552e+01,-3.21782e+01,-1.80827e-01,1.08610e-01,2.60934e-01
1.52340e+03,2.75832e+01,-3.46535e+01,-1.79900e-01,1.06129e-01,2.57205e-01
1.52340e+03,2.69567e+01,-3.71287e+01,-1.78387e-01,1.03643e-01,2.53076e-01
1.52340e+03,2.62564e+01,-3.96040e+01,-1.76080e-01,1.01159e-01,2.48402e-01
1.52340e+03,2.55047e+01,-4.20792e+01,-1.73222e-01,9.86796e-02,2.43349e-01
1.52340e+03,2.46375e+01,-4.45544e+01,-1.69120e-01,9.62179e-02,2.37435e-01
1.52340e+03,2.37225e+01,-4.70297e+01,-1.64504e-01,9.37797e-02,2.31183e-01
1.52340e+03,2.26740e+01,-4.95049e+01,-1.58453e-01,9.13711e-02,2.23949e-01
1.52340e+03,2.15185e+01,-5.19802e+01,-1.51252e-01,8.90123e-02,2.15978e-01
1.52340e+03,2.02543e+01,-5.44554e+01,-1.42881e-01,8.67072e-02,2.07290e-01
1.52340e+03,1.88075e+01,-5.69307e+01,-1.32545e-01,8.44645e-02,1.97411e-01
1.52340e+03,1.71490e+01,-5.94059e+01,-1.19935e-01,8.23112e-02,1.86306e-01
1.52340e+03,1.52515e+01,-6.18812e+01,-1.04752e-01,8.02734e-02,1.74082e-01
1.52340e+03,1.30071e+01,-6.43564e+01,-8.58404e-02,7.83678e-02,1.60602e-01
1.52340e+03,1.01263e+01,-6.68317e+01,-6.00836e-02,7.66878e-02,1.45784e-01
1.52340e+03,6.23005e+00,-6.93069e+01,-2.34068e-02,7.56612e-02,1.33123e-01
1.52340e+03,-2.52437e+00,-7.17822e+01,6.55171e-02,7.60678e-02,1.47144e-01
1.52340e+03,-3.15618e+00,-7.17879e+01,7.22997e-02,7.73308e-02,1.52208e-01
1.52340e+03,-8.91241e+00,-6.92241e+01,1.39617e-01,7.97260e-02,1.96371e-01
1.52340e+03,-9.60935e+00,-6.66602e+01,1.52524e-01,8.14956e-02,2.07817e-01
1.52340e+03,-9.84985e+00,-6.40963e+01,1.60522e-01,8.33579e-02,2.15900e-01
1.52340e+03,-9.88634e+00,-6.15325e+01,1.66326e-01,8.53064e-02,2.22477e-01
1.52340e+03,-9.76914e+00,-5.89686e+01,1.70478e-01,8.73260e-02,2.27904e-01
1.52340e+03,-9.55548e+00,-5.64048e+01,1.73592e-01,8.94047e-02,2.32624e-01
1.52340e+03,-9.24498e+00,-5.38409e+01,1.75664e-01,9.15306e-02,2.36625e-01
1.52340e+03,-8.87540e+00,-5.12771e+01,1.77102e-01,9.36932e-02,2.40209e-01
1.52340e+03,-8.47156e+00,-4.87132e+01,1.78170e-01,9.58870e-02,2.43573e-01
1.52340e+03,-8.01609e+00,-4.61494e+01,1.78684e-01,9.81059e-02,2.46581e-01
1.52340e+03,-7.52837e+00,-4.35855e+01,1.78851e-01,1.00344e-01,2.49388e-01
1.52340e+03,-7.00922e+00,-4.10217e+01,1.78680e-01,1.02596e-01,2.52001e-01
1.52340e+03,-6.45878e+00,-3.84578e+01,1.78172e-01,1.04859e-01,2.54423e-01
1.52340e+03,-5.88872e+00,-3.58940e+01,1.77453e-01,1.07127e-01,2.56746e-01
1.52340e+03,-5.29352e+00,-3.33301e+01,1.76464e-01,1.09398e-01,2.58928e-01
1.52340e+03,-4.68222e+00,-3.07662e+01,1.75301e-01,1.11669e-01,2.61037e-01
1.52340e+03,-4.05649e+00,-2.82024e+01,1.73984e-01,1.13936e-01,2.63086e-01
1.52340e+03,-3.41788e+00,-2.56385e+01,1.72528e-01,1.16197e-01,2.65087e-01
1.52340e+03,-2.77381e+00,-2.30747e+01,1.71013e-01,1.18450e-01,2.67090e-01
1.52340e+03,-2.12129e+00,-2.05108e+01,1.69408e-01,1.20695e-01,2.69074e-01
1.52340e+03,-1.46736e+00,-1.79470e+01,1.67787e-01,1.22930e-01,2.71087e-01
1.52340e+03,-8.08383e-01,-1.53831e+01,1.66112e-01,1.25155e-01,2.73102e-01
1.52340e+03,-1.49473e-01,-1.28193e+01,1.64437e-01,1.27369e-01,2.75151e-01
1.52340e+03,5.06948e-01,-1.02554e+01,1.62790e-01,1.29572e-01,2.77249e-01
1.52340e+03,1.16337e+00,-7.69156e+00,1.61142e-01,1.31763e-01,2.79376e-01
1.52340e+03,1.80424e+00,-5.12771e+00,1.59662e-01,1.33943e-01,2.81628e-01
1.52340e+03,2.44222e+00,-2.56385e+00,1.58213e-01,1.36114e-01,2.83923e-01
1.59310e+03,3.14533e+01,0.00000e+00,-1.13802e-01,1.16177e-01,2.31175e-01
1.59310e+03,3.12949e+01,-2.39012e+00,-1.16441e-01,1.14523e-01,2.30011e-01
1.59310e+03,3.10841e+01,-4.78023e+00,-1.18664e-01,1.12829e-01,2.28632e-01
1.59310e+03,3.08713e+01,-7.17035e+00,-1.20871e-01,1.11097e-01,2.27239e-01
1.59310e+03,3.06123e+01,-9.56047e+00,-1.22711e-01,1.09329e-01,2.25647e-01
1.59310e+03,3.03425e+01,-1.19506e+01,-1.24466e-01,1.07529e-01,2.24007e-01
1.59310e+03,3.00373e+01,-1.43407e+01,-1.25940e-01,1.05698e-01,2.22210e-01
1.59310e+03,2.97149e+01,-1.67308e+01,-1.27277e-01,1.03840e-01,2.20336e-01
1.59310e+03,2.93640e+01,-1.91209e+01,-1.28388e-01,1.01957e-01,2.18333e-01
1.59310e+03,2.89896e+01,-2.15111e+01,-1.29313e-01,1.00052e-01,2.16224e-01
1.59310e+03,2.85896e+01,-2.39012e+01,-1.30034e-01,9.81257e-02,2.13997e-01
1.59310e+03,2.81583e+01,-2.62913e+01,-1.30508e-01,9.61825e-02,2.11626e-01
1.59310e+03,2.76952e+01,-2.86814e+01,-1.30728e-01,9.42242e-02,2.09104e-01
1.59310e+03,2.71869e+01,-3.10715e+01,-1.30590e-01,9.22542e-02,2.06364e-01
1.59310e+03,2.66345e+01,-3.34616e+01,-1.30102e-01,9.02765e-02,2.03411e-01
1.59310e+03,2.60296e+01,-3.58518e+01,-1.29197e-01,8.82939e-02,2.00198e-01
1.59310e+03,2.53533e+01,-3.82419e+01,-1.27726e-01,8.63134e-02,1.96631e-01
1.59310e+03,2.46276e+01,-4.06320e+01,-1.25862e-01,8.43365e-02,1.92819e-01
1.59310e+03,2.37902e+01,-4.30221e+01,-1.23112e-01,8.23737e-02,1.88449e-01
1.59310e+03,2.29066e+01,-4.54122e+01,-1.19995e-01,8.04296e-02,1.83863e-01
1.59310e+03,2.18941e+01,-4.78023e+01,-1.15856e-01,7.85091e-02,1.78644e-01
1.59310e+03,2.07785e+01,-5.01925e+01,-1.10898e-01,7.66284e-02,1.72957e-01
1.59310e+03,1.95577e+01,-5.25826e+01,-1.05106e-01,7.47905e-02,1.66817e-01
1.59310e+03,1.81606e+01,-5.49727e+01,-9.79138e-02,7.30023e-02,1.59922e-01
1.59310e+03,1.65592e+01,-5.73628e+01,-8.91005e-02,7.12855e-02,1.52262e-01
1.59310e+03,1.47269e+01,-5.97529e+01,-7.84548e-02,6.96607e-02,1.43920e-01
1.59310e+03,1.25597e+01,-6.21430e+01,-6.51513e-02,6.81415e-02,1.34813e-01
1.59310e+03,9.77800e+00,-6.45332e+01,-4.69705e-02,6.68021e-02,1.24875e-01
1.59310e+03,6.01578e+00,-6.69233e+01,-2.10082e-02,6.59838e-02,1.16202e-01
1.59310e+03,-2.43755e+00,-6.93134e+01,4.21841e-02,6.63082e-02,1.22351e-01
1.59310e+03,-3.04763e+00,-6.93189e+01,4.70168e-02,6.73153e-02,1.25716e-01
1.59310e+03,-8.60589e+00,-6.68433e+01,9.51643e-02,6.92253e-02,1.53077e-01
1.59310e+03,-9.27886e+00,-6.43676e+01,1.04541e-01,7.06364e-02,1.60926e-01
1.59310e+03,-9.51109e+00,-6.18919e+01,1.10419e-01,7.21213e-02,1.66724e-01
1.59310e+03,-9.54632e+00,-5.94162e+01,1.14734e-01,7.36750e-02,1.71604e-01
1.59310e+03,-9.43315e+00,-5.69406e+01,1.17871e-01,7.52853e-02,1.75776e-01
1.59310e+03,-9.22684e+00,-5.44649e+01,1.20269e-01,7.69428e-02,1.79514e-01
1.59310e+03,-8.92702e+00,-5.19892e+01,1.21925e-01,7.86379e-02,1.82805e-01
1.59310e+03,-8.57016e+00,-4.95135e+01,1.23129e-01,8.03623e-02,1.85836e-01
1.59310e+03,-8.18020e+00,-4.70379e+01,1.24069e-01,8.21115e-02,1.88733e-01
1.59310e+03,-7.74040e+00,-4.45622e+01,1.24614e-01,8.38807e-02,1.91407e-01
1.59310e+03,-7.26945e+00,-4.20865e+01,1.24912e-01,8.56650e-02,1.93955e-01
1.59310e+03,-6.76816e+00,-3.96108e+01,1.24969e-01,8.74612e-02,1.96381e-01
1.59310e+03,-6.23665e+00,-3.71351e+01,1.24786e-01,8.92650e-02,1.98686e-01
1.59310e+03,-5.68619e+00,-3.46595e+01,1.24453e-01,9.10737e-02,2.00927e-01
1.59310e+03,-5.11146e+00,-3.21838e+01,1.23927e-01,9.28845e-02,2.03078e-01
1.59310e+03,-4.52119e+00,-2.97081e+01,1.23278e-01,9.46945e-02,2.05179e-01
1.59310e+03,-3.91698e+00,-2.72324e+01,1.22518e-01,9.65019e-02,2.07240e-01
1.59310e+03,-3.30033e+00,-2.47568e+01,1.21660e-01,9.83047e-02,2.09267e-01
1.59310e+03,-2.67841e+00,-2.22811e+01,1.20759e-01,1.00101e-01,2.11291e-01
1.59310e+03,-2.04833e+00,-1.98054e+01,1.19794e-01,1.01891e-01,2.13298e-01
1.59310e+03,-1.41689e+00,-1.73297e+01,1.18818e-01,1.03673e-01,2.15319e-01
1.59310e+03,-7.80581e-01,-1.48541e+01,1.17804e-01,1.05447e-01,2.17336e-01
1.59310e+03,-1.44332e-01,-1.23784e+01,1.16790e-01,1.07212e-01,2.19370e-01
1.59310e+03,4.89512e-01,-9.90271e+00,1.15795e-01,1.08968e-01,2.21429e-01
1.59310e+03,1.12336e+00,-7.42703e+00,1.14800e-01,1.10715e-01,2.23500e-01
1.59310e+03,1.74219e+00,-4.95135e+00,1.13924e-01,1.12453e-01,2.25646e-01
1.59310e+03,2.35823e+00,-2.47568e+00,1.13070e-01,1.14184e-01,2.27814e-01
1.65850e+03,3.04021e+01,0.00000e+00,-7.78110e-02,9.41821e-02,1.80736e-01
1.65850e+03,3.02490e+01,-2.31024e+00,-7.97476e-02,9.29077e-02,1.79597e-01
1.65850e+03,3.00453e+01,-4.62048e+00,-8.13990e-02,9.16024e-02,1.78322e-01
1.65850e+03,2.98396e+01,-6.93072e+00,-8.30389e-02,9.02673e-02,1.77031e-01
1.65850e+03,2.95892e+01,-9.24096e+00,-8.44271e-02,8.89051e-02,1.75614e-01
1.65850e+03,2.93285e+01,-1.15512e+01,-8.57568e-02,8.75176e-02,1.74162e-01
1.65850e+03,2.90335e+01,-1.38614e+01,-8.68932e-02,8.61070e-02,1.72608e-01
1.65850e+03,2.87218e+01,-1.61717e+01,-8.79358e-02,8.46752e-02,1.71004e-01
1.65850e+03,2.83826e+01,-1.84819e+01,-8.88231e-02,8.32240e-02,1.69317e-01
1.65850e+03,2.80208e+01,-2.07921e+01,-8.95828e-02,8.17555e-02,1.67562e-01
1.65850e+03,2.76341e+01,-2.31024e+01,-9.02022e-02,8.02715e-02,1.65732e-01
1.65850e+03,2.72173e+01,-2.54126e+01,-9.06517e-02,7.87740e-02,1.63810e-01
1.65850e+03,2.67696e+01,-2.77229e+01,-9.09274e-02,7.72650e-02,1.61794e-01
1.65850e+03,2.62783e+01,-3.00331e+01,-9.09567e-02,7.57470e-02,1.59643e-01
1.65850e+03,2.57444e+01,-3.23433e+01,-9.07461e-02,7.42230e-02,1.57360e-01
1.65850e+03,2.51597e+01,-3.46536e+01,-9.02488e-02,7.26952e-02,1.54915e-01
1.65850e+03,2.45060e+01,-3.69638e+01,-8.93629e-02,7.11691e-02,1.52253e-01
1.65850e+03,2.38045e+01,-3.92741e+01,-8.82069e-02,6.96458e-02,1.49439e-01
1.65850e+03,2.29951e+01,-4.15843e+01,-8.64428e-02,6.81333e-02,1.46283e-01
1.65850e+03,2.21410e+01,-4.38945e+01,-8.44267e-02,6.66352e-02,1.42999e-01
1.65850e+03,2.11624e+01,-4.62048e+01,-8.17083e-02,6.51554e-02,1.39327e-01
1.65850e+03,2.00840e+01,-4.85150e+01,-7.84272e-02,6.37062e-02,1.35375e-01
1.65850e+03,1.89041e+01,-5.08253e+01,-7.45735e-02,6.22900e-02,1.31154e-01
1.65850e+03,1.75537e+01,-5.31355e+01,-6.97585e-02,6.09121e-02,1.26480e-01
1.65850e+03,1.60058e+01,-5.54457e+01,-6.38300e-02,5.95893e-02,1.21354e-01
1.65850e+03,1.42348e+01,-5.77560e+01,-5.66430e-02,5.83373e-02,1.15837e-01
1.65850e+03,1.21400e+01,-6.00662e+01,-4.76306e-02,5.71667e-02,1.09876e-01
1.65850e+03,9.45122e+00,-6.23764e+01,-3.52686e-02,5.61348e-02,1.03427e-01
1.65850e+03,5.81473e+00,-6.46867e+01,-1.75624e-02,5.55044e-02,9.77275e-02
1.65850e+03,-2.35608e+00,-6.69969e+01,2.57129e-02,5.57545e-02,9.99342e-02
1.65850e+03,-2.94577e+00,-6.70023e+01,2.90317e-02,5.65307e-02,1.02127e-01
1.65850e+03,-8.31828e+00,-6.46093e+01,6.22275e-02,5.80026e-02,1.18174e-01
1.65850e+03,-8.96876e+00,-6.22164e+01,6.87958e-02,5.90900e-02,1.23320e-01
1.65850e+03,-9.19322e+00,-5.98235e+01,7.29617e-02,6.02342e-02,1.27310e-01
1.65850e+03,-9.22728e+00,-5.74305e+01,7.60540e-02,6.14315e-02,1.30789e-01
1.65850e+03,-9.11789e+00,-5.50376e+01,7.83374e-02,6.26724e-02,1.33866e-01
1.65850e+03,-8.91848e+00,-5.26447e+01,8.01131e-02,6.39497e-02,1.36700e-01
1.65850e+03,-8.62868e+00,-5.02517e+01,8.13792e-02,6.52559e-02,1.39275e-01
1.65850e+03,-8.28374e+00,-4.78588e+01,8.23343e-02,6.65846e-02,1.41702e-01
1.65850e+03,-7.90682e+00,-4.54658e+01,8.31090e-02,6.79325e-02,1.44054e-01
1.65850e+03,-7.48171e+00,-4.30729e+01,8.36121e-02,6.92957e-02,1.46276e-01
1.65850e+03,-7.02650e+00,-4.06800e+01,8.39454e-02,7.06707e-02,1.48425e-01
1.65850e+03,-6.54196e+00,-3.82870e+01,8.41133e-02,7.20547e-02,1.50501e-01
1.65850e+03,-6.02822e+00,-3.58941e+01,8.41164e-02,7.34446e-02,1.52505e-01
1.65850e+03,-5.49615e+00,-3.35011e+01,8.40164e-02,7.48383e-02,1.54470e-01
1.65850e+03,-4.94063e+00,-3.11082e+01,8.37840e-02,7.62335e-02,1.56379e-01
1.65850e+03,-4.37009e+00,-2.87153e+01,8.34669e-02,7.76282e-02,1.58257e-01
1.65850e+03,-3.78607e+00,-2.63223e+01,8.30739e-02,7.90209e-02,1.60107e-01
1.65850e+03,-3.19003e+00,-2.39294e+01,8.26130e-02,8.04099e-02,1.61933e-01
1.65850e+03,-2.58890e+00,-2.15364e+01,8.21235e-02,8.17944e-02,1.63754e-01
1.65850e+03,-1.97988e+00,-1.91435e+01,8.15894e-02,8.31734e-02,1.65561e-01
1.65850e+03,-1.36954e+00,-1.67506e+01,8.10479e-02,8.45465e-02,1.67371e-01
1.65850e+03,-7.54494e-01,-1.43576e+01,8.04799e-02,8.59132e-02,1.69175e-01
1.65850e+03,-1.39508e-01,-1.19647e+01,7.99122e-02,8.72731e-02,1.70985e-01
1.65850e+03,4.73153e-01,-9.57176e+00,7.93576e-02,8.86262e-02,1.72805e-01
1.65850e+03,1.08581e+00,-7.17882e+00,7.88030e-02,8.99721e-02,1.74628e-01
1.65850e+03,1.68397e+00,-4.78588e+00,7.83303e-02,9.13114e-02,1.76491e-01
1.65850e+03,2.27942e+00,-2.39294e+00,7.78728e-02,9.26451e-02,1.78363e-01
1.71930e+03,2.94249e+01,0.00000e+00,-5.14309e-02,7.26582e-02,1.35951e-01
1.71930e+03,2.92767e+01,-2.23598e+00,-5.27904e-02,7.17210e-02,1.34976e-01
1.71930e+03,2.90795e+01,-4.47196e+00,-5.39607e-02,7.07609e-02,1.33914e-01
1.71930e+03,2.88804e+01,-6.70794e+00,-5.51233e-02,6.97790e-02,1.32838e-01
1.71930e+03,2.86381e+01,-8.94392e+00,-5.61189e-02,6.87772e-02,1.31682e-01
1.71930e+03,2.83857e+01,-1.11799e+01,-5.70757e-02,6.77568e-02,1.30501e-01
1.71930e+03,2.81002e+01,-1.34159e+01,-5.79042e-02,6.67194e-02,1.29257e-01
1.71930e+03,2.77986e+01,-1.56519e+01,-5.86705e-02,6.56664e-02,1.27978e-01
1.71930e+03,2.74703e+01,-1.78878e+01,-5.93338e-02,6.45992e-02,1.26648e-01
1.71930e+03,2.71201e+01,-2.01238e+01,-5.99124e-02,6.35192e-02,1.25274e-01
1.71930e+03,2.67458e+01,-2.23598e+01,-6.03979e-02,6.24279e-02,1.23853e-01
1.71930e+03,2.63424e+01,-2.45958e+01,-6.07708e-02,6.13266e-02,1.22376e-01
1.71930e+03,2.59091e+01,-2.68317e+01,-6.10282e-02,6.02169e-02,1.20841e-01
1.71930e+03,2.54336e+01,-2.90677e+01,-6.11222e-02,5.91005e-02,1.19225e-01
1.71930e+03,2.49169e+01,-3.13037e+01,-6.10570e-02,5.79798e-02,1.17528e-01
1.71930e+03,2.43509e+01,-3.35397e+01,-6.08016e-02,5.68563e-02,1.15736e-01
1.71930e+03,2.37183e+01,-3.57757e+01,-6.02883e-02,5.57340e-02,1.13814e-01
1.71930e+03,2.30393e+01,-3.80116e+01,-5.95959e-02,5.46137e-02,1.11802e-01
1.71930e+03,2.22560e+01,-4.02476e+01,-5.84999e-02,5.35015e-02,1.09588e-01
1.71930e+03,2.14293e+01,-4.24836e+01,-5.72367e-02,5.23998e-02,1.07300e-01
1.71930e+03,2.04822e+01,-4.47196e+01,-5.55077e-02,5.13116e-02,1.04784e-01
1.71930e+03,1.94385e+01,-4.69556e+01,-5.34052e-02,5.02459e-02,1.02108e-01
1.71930e+03,1.82964e+01,-4.91915e+01,-5.09228e-02,4.92045e-02,9.92792e-02
1.71930e+03,1.69894e+01,-5.14275e+01,-4.78025e-02,4.81913e-02,9.61888e-02
1.71930e+03,1.54913e+01,-5.36635e+01,-4.39435e-02,4.72185e-02,9.28428e-02
1.71930e+03,1.37772e+01,-5.58995e+01,-3.92494e-02,4.62979e-02,8.92805e-02
1.71930e+03,1.17498e+01,-5.81355e+01,-3.33443e-02,4.54371e-02,8.54718e-02
1.71930e+03,9.14742e+00,-6.03714e+01,-2.52165e-02,4.46783e-02,8.13899e-02
1.71930e+03,5.62782e+00,-6.26074e+01,-1.35430e-02,4.42149e-02,7.77707e-02
1.71930e+03,-2.28035e+00,-6.48434e+01,1.50958e-02,4.43989e-02,7.83688e-02
1.71930e+03,-2.85109e+00,-6.48486e+01,1.72976e-02,4.49698e-02,7.97875e-02
1.71930e+03,-8.05090e+00,-6.25326e+01,3.94003e-02,4.60523e-02,8.89653e-02
1.71930e+03,-8.68047e+00,-6.02165e+01,4.38356e-02,4.68519e-02,9.22327e-02
1.71930e+03,-8.89772e+00,-5.79005e+01,4.66770e-02,4.76934e-02,9.48827e-02
1.71930e+03,-8.93068e+00,-5.55845e+01,4.88059e-02,4.85739e-02,9.72641e-02
1.71930e+03,-8.82481e+00,-5.32685e+01,5.03981e-02,4.94865e-02,9.94319e-02
1.71930e+03,-8.63181e+00,-5.09525e+01,5.16536e-02,5.04258e-02,1.01471e-01
1.71930e+03,-8.35132e+00,-4.86364e+01,5.25708e-02,5.13863e-02,1.03370e-01
1.71930e+03,-8.01747e+00,-4.63204e+01,5.32817e-02,5.23635e-02,1.05189e-01
1.71930e+03,-7.65266e+00,-4.40044e+01,5.38730e-02,5.33547e-02,1.06969e-01
1.71930e+03,-7.24122e+00,-4.16884e+01,5.42840e-02,5.43572e-02,1.08678e-01
1.71930e+03,-6.80064e+00,-3.93724e+01,5.45823e-02,5.53683e-02,1.10346e-01
1.71930e+03,-6.33168e+00,-3.70563e+01,5.47709e-02,5.63860e-02,1.11973e-01
1.71930e+03,-5.83445e+00,-3.47403e+01,5.48502e-02,5.74082e-02,1.13559e-01
1.71930e+03,-5.31949e+00,-3.24243e+01,5.48611e-02,5.84330e-02,1.15122e-01
1.71930e+03,-4.78182e+00,-3.01083e+01,5.47841e-02,5.94590e-02,1.16651e-01
1.71930e+03,-4.22962e+00,-2.77922e+01,5.46509e-02,6.04846e-02,1.18160e-01
1.71930e+03,-3.66437e+00,-2.54762e+01,5.44673e-02,6.15087e-02,1.19652e-01
1.71930e+03,-3.08749e+00,-2.31602e+01,5.42388e-02,6.25301e-02,1.21128e-01
1.71930e+03,-2.50568e+00,-2.08442e+01,5.39911e-02,6.35482e-02,1.22598e-01
1.71930e+03,-1.91624e+00,-1.85282e+01,5.37140e-02,6.45622e-02,1.24057e-01
1.71930e+03,-1.32552e+00,-1.62121e+01,5.34320e-02,6.55719e-02,1.25515e-01
1.71930e+03,-7.30242e-01,-1.38961e+01,5.31323e-02,6.65769e-02,1.26966e-01
1.71930e+03,-1.35024e-01,-1.15801e+01,5.28328e-02,6.75768e-02,1.28418e-01
1.71930e+03,4.57944e-01,-9.26408e+00,5.25421e-02,6.85717e-02,1.29873e-01
1.71930e+03,1.05091e+00,-6.94806e+00,5.22513e-02,6.95614e-02,1.31326e-01
1.71930e+03,1.62984e+00,-4.63204e+00,5.20148e-02,7.05462e-02,1.32800e-01
1.71930e+03,2.20615e+00,-2.31602e+00,5.17885e-02,7.15268e-02,1.34277e-01
1.77540e+03,2.77303e+01,0.00000e+00,-5.94450e-02,6.48850e-02,1.27137e-01
1.77540e+03,2.75906e+01,-2.10721e+00,-6.10869e-02,6.37491e-02,1.26188e-01
1.77540e+03,2.74048e+01,-4.21442e+00,-6.25088e-02,6.25854e-02,1.25133e-01
1.77540e+03,2.72172e+01,-6.32163e+00,-6.39220e-02,6.13950e-02,1.24073e-01
1.77540e+03,2.69888e+01,-8.42884e+00,-6.51410e-02,6.01802e-02,1.22916e-01
1.77540e+03,2.67510e+01,-1.05361e+01,-6.63148e-02,5.89426e-02,1.21739e-01
1.77540e+03,2.64819e+01,-1.26433e+01,-6.73396e-02,5.76842e-02,1.20487e-01
1.77540e+03,2.61977e+01,-1.47505e+01,-6.82921e-02,5.64067e-02,1.19201e-01
1.77540e+03,2.58883e+01,-1.68577e+01,-6.91248e-02,5.51118e-02,1.17857e-01
1.77540e+03,2.55583e+01,-1.89649e+01,-6.98592e-02,5.38012e-02,1.16465e-01
1.77540e+03,2.52056e+01,-2.10721e+01,-7.04853e-02,5.24766e-02,1.15020e-01
1.77540e+03,2.48254e+01,-2.31793e+01,-7.09804e-02,5.11398e-02,1.13508e-01
1.77540e+03,2.44171e+01,-2.52865e+01,-7.13414e-02,4.97925e-02,1.11926e-01
1.77540e+03,2.39689e+01,-2.73937e+01,-7.15125e-02,4.84370e-02,1.10238e-01
1.77540e+03,2.34819e+01,-2.95009e+01,-7.14985e-02,4.70761e-02,1.08446e-01
1.77540e+03,2.29486e+01,-3.16082e+01,-7.12634e-02,4.57116e-02,1.06523e-01
1.77540e+03,2.23524e+01,-3.37154e+01,-7.07287e-02,4.43484e-02,1.04417e-01
1.77540e+03,2.17125e+01,-3.58226e+01,-6.99856e-02,4.29876e-02,1.02185e-01
1.77540e+03,2.09743e+01,-3.79298e+01,-6.87736e-02,4.16362e-02,9.96521e-02
1.77540e+03,2.01952e+01,-4.00370e+01,-6.73672e-02,4.02977e-02,9.70054e-02
1.77540e+03,1.93026e+01,-4.21442e+01,-6.54193e-02,3.89752e-02,9.40047e-02
1.77540e+03,1.83190e+01,-4.42514e+01,-6.30374e-02,3.76799e-02,9.07361e-02
1.77540e+03,1.72428e+01,-4.63586e+01,-6.02139e-02,3.64139e-02,8.71988e-02
1.77540e+03,1.60110e+01,-4.84658e+01,-5.66491e-02,3.51821e-02,8.32013e-02
1.77540e+03,1.45992e+01,-5.05731e+01,-5.22255e-02,3.39991e-02,7.87104e-02
1.77540e+03,1.29838e+01,-5.26803e+01,-4.68315e-02,3.28792e-02,7.37314e-02
1.77540e+03,1.10731e+01,-5.47875e+01,-4.00297e-02,3.18318e-02,6.81334e-02
1.77540e+03,8.62063e+00,-5.68947e+01,-3.06447e-02,3.09076e-02,6.16842e-02
1.77540e+03,5.30372e+00,-5.90019e+01,-1.71383e-02,3.03408e-02,5.52758e-02
1.77540e+03,-2.14903e+00,-6.11091e+01,1.60865e-02,3.05616e-02,5.53246e-02
1.77540e+03,-2.68689e+00,-6.11140e+01,1.86456e-02,3.12533e-02,5.72535e-02
1.77540e+03,-7.58725e+00,-5.89314e+01,4.43995e-02,3.25664e-02,7.17846e-02
1.77540e+03,-8.18057e+00,-5.67487e+01,4.96186e-02,3.35370e-02,7.63950e-02
1.77540e+03,-8.38530e+00,-5.45661e+01,5.29851e-02,3.45586e-02,7.99394e-02
1.77540e+03,-8.41637e+00,-5.23834e+01,5.55236e-02,3.56277e-02,8.30113e-02
1.77540e+03,-8.31659e+00,-5.02008e+01,5.74383e-02,3.67360e-02,8.57191e-02
1.77540e+03,-8.13471e+00,-4.80181e+01,5.89614e-02,3.78770e-02,8.82069e-02
1.77540e+03,-7.87037e+00,-4.58355e+01,6.00915e-02,3.90440e-02,9.04671e-02
1.77540e+03,-7.55575e+00,-4.36529e+01,6.09819e-02,4.02313e-02,9.25984e-02
1.77540e+03,-7.21195e+00,-4.14702e+01,6.17331e-02,4.14359e-02,9.46667e-02
1.77540e+03,-6.82421e+00,-3.92876e+01,6.22748e-02,4.26544e-02,9.66248e-02
1.77540e+03,-6.40900e+00,-3.71049e+01,6.26856e-02,4.38836e-02,9.85230e-02
1.77540e+03,-5.96704e+00,-3.49223e+01,6.29688e-02,4.51209e-02,1.00363e-01
1.77540e+03,-5.49844e+00,-3.27396e+01,6.31250e-02,4.63638e-02,1.02145e-01
1.77540e+03,-5.01314e+00,-3.05570e+01,6.32016e-02,4.76102e-02,1.03897e-01
1.77540e+03,-4.50644e+00,-2.83744e+01,6.31761e-02,4.88582e-02,1.05606e-01
1.77540e+03,-3.98604e+00,-2.61917e+01,6.30854e-02,5.01058e-02,1.07292e-01
1.77540e+03,-3.45334e+00,-2.40091e+01,6.29360e-02,5.13518e-02,1.08959e-01
1.77540e+03,-2.90969e+00,-2.18264e+01,6.27343e-02,5.25948e-02,1.10608e-01
1.77540e+03,-2.36138e+00,-1.96438e+01,6.25105e-02,5.38338e-02,1.12258e-01
1.77540e+03,-1.80588e+00,-1.74611e+01,6.22524e-02,5.50681e-02,1.13898e-01
1.77540e+03,-1.24918e+00,-1.52785e+01,6.19886e-02,5.62973e-02,1.15545e-01
1.77540e+03,-6.88187e-01,-1.30959e+01,6.17043e-02,5.75210e-02,1.17190e-01
1.77540e+03,-1.27248e-01,-1.09132e+01,6.14203e-02,5.87388e-02,1.18841e-01
1.77540e+03,4.31571e-01,-8.73057e+00,6.11463e-02,5.99506e-02,1.20504e-01
1.77540e+03,9.90390e-01,-6.54793e+00,6.08724e-02,6.11562e-02,1.22171e-01
1.77540e+03,1.53598e+00,-4.36529e+00,6.06616e-02,6.23562e-02,1.23874e-01
1.77540e+03,2.07910e+00,-2.18264e+00,6.04625e-02,6.35512e-02,1.25586e-01
1.82660e+03,2.53092e+01,0.00000e+00,-4.18590e-02,4.66182e-02,9.09503e-02
1.82660e+03,2.51817e+01,-1.92323e+00,-4.30199e-02,4.58587e-02,9.03315e-02
1.82660e+03,2.50121e+01,-3.84646e+00,-4.40260e-02,4.50806e-02,8.96386e-02
1.82660e+03,2.48409e+01,-5.76969e+00,-4.50259e-02,4.42847e-02,8.89423e-02
1.82660e+03,2.46324e+01,-7.69292e+00,-4.58890e-02,4.34725e-02,8.81781e-02
1.82660e+03,2.44154e+01,-9.61614e+00,-4.67205e-02,4.26450e-02,8.73991e-02
1.82660e+03,2.41698e+01,-1.15394e+01,-4.74469e-02,4.18037e-02,8.65671e-02
1.82660e+03,2.39103e+01,-1.34626e+01,-4.81224e-02,4.09496e-02,8.57111e-02
1.82660e+03,2.36280e+01,-1.53858e+01,-4.87136e-02,4.00839e-02,8.48126e-02
1.82660e+03,2.33268e+01,-1.73091e+01,-4.92355e-02,3.92078e-02,8.38802e-02
1.82660e+03,2.30049e+01,-1.92323e+01,-4.96811e-02,3.83223e-02,8.29097e-02
1.82660e+03,2.26579e+01,-2.11555e+01,-5.00346e-02,3.74287e-02,8.18913e-02
1.82660e+03,2.22852e+01,-2.30787e+01,-5.02936e-02,3.65281e-02,8.08229e-02
1.82660e+03,2.18762e+01,-2.50020e+01,-5.04189e-02,3.56220e-02,7.96796e-02
1.82660e+03,2.14317e+01,-2.69252e+01,-5.04139e-02,3.47123e-02,7.84627e-02
1.82660e+03,2.09449e+01,-2.88484e+01,-5.02531e-02,3.38002e-02,7.71540e-02
1.82660e+03,2.04008e+01,-3.07717e+01,-4.98814e-02,3.28891e-02,7.57181e-02
1.82660e+03,1.98168e+01,-3.26949e+01,-4.93630e-02,3.19795e-02,7.41942e-02
1.82660e+03,1.91430e+01,-3.46181e+01,-4.85144e-02,3.10763e-02,7.24628e-02
1.82660e+03,1.84320e+01,-3.65413e+01,-4.75289e-02,3.01816e-02,7.06526e-02
1.82660e+03,1.76173e+01,-3.84646e+01,-4.61621e-02,2.92978e-02,6.86004e-02
1.82660e+03,1.67196e+01,-4.03878e+01,-4.44897e-02,2.84321e-02,6.63663e-02
1.82660e+03,1.57373e+01,-4.23110e+01,-4.25063e-02,2.75860e-02,6.39512e-02
1.82660e+03,1.46131e+01,-4.42343e+01,-4.00010e-02,2.67628e-02,6.12276e-02
1.82660e+03,1.33245e+01,-4.61575e+01,-3.68909e-02,2.59722e-02,5.81774e-02
1.82660e+03,1.18502e+01,-4.80807e+01,-3.30975e-02,2.52239e-02,5.48104e-02
1.82660e+03,1.01063e+01,-5.00040e+01,-2.83129e-02,2.45240e-02,5.10479e-02
1.82660e+03,7.86795e+00,-5.19272e+01,-2.17092e-02,2.39065e-02,4.67532e-02
1.82660e+03,4.84065e+00,-5.38504e+01,-1.22035e-02,2.35281e-02,4.25399e-02
1.82660e+03,-1.96139e+00,-5.57736e+01,1.11870e-02,2.36760e-02,4.25065e-02
1.82660e+03,-2.45230e+00,-5.57781e+01,1.29889e-02,2.41385e-02,4.37803e-02
1.82660e+03,-6.92480e+00,-5.37860e+01,3.11286e-02,2.50163e-02,5.33520e-02
1.82660e+03,-7.46632e+00,-5.17940e+01,3.48086e-02,2.56652e-02,5.64601e-02
1.82660e+03,-7.65318e+00,-4.98019e+01,3.71841e-02,2.63481e-02,5.88670e-02
1.82660e+03,-7.68153e+00,-4.78098e+01,3.89766e-02,2.70627e-02,6.09618e-02
1.82660e+03,-7.59047e+00,-4.58177e+01,4.03298e-02,2.78035e-02,6.28140e-02
1.82660e+03,-7.42446e+00,-4.38257e+01,4.14073e-02,2.85661e-02,6.45185e-02
1.82660e+03,-7.18321e+00,-4.18336e+01,4.22080e-02,2.93461e-02,6.60689e-02
1.82660e+03,-6.89605e+00,-3.98415e+01,4.28400e-02,3.01396e-02,6.75311e-02
1.82660e+03,-6.58227e+00,-3.78494e+01,4.33739e-02,3.09447e-02,6.89494e-02
1.82660e+03,-6.22838e+00,-3.58574e+01,4.37604e-02,3.17590e-02,7.02914e-02
1.82660e+03,-5.84943e+00,-3.38653e+01,4.40546e-02,3.25805e-02,7.15910e-02
1.82660e+03,-5.44606e+00,-3.18732e+01,4.42590e-02,3.34074e-02,7.28493e-02
1.82660e+03,-5.01837e+00,-2.98811e+01,4.43740e-02,3.42379e-02,7.40659e-02
1.82660e+03,-4.57544e+00,-2.78891e+01,4.44329e-02,3.50708e-02,7.52607e-02
1.82660e+03,-4.11298e+00,-2.58970e+01,4.44200e-02,3.59048e-02,7.64237e-02
1.82660e+03,-3.63801e+00,-2.39049e+01,4.43610e-02,3.67384e-02,7.75696e-02
1.82660e+03,-3.15183e+00,-2.19128e+01,4.42608e-02,3.75710e-02,7.87005e-02
1.82660e+03,-2.65564e+00,-1.99208e+01,4.41238e-02,3.84015e-02,7.98182e-02
1.82660e+03,-2.15521e+00,-1.79287e+01,4.39712e-02,3.92294e-02,8.09340e-02
1.82660e+03,-1.64821e+00,-1.59366e+01,4.37945e-02,4.00541e-02,8.20424e-02
1.82660e+03,-1.14012e+00,-1.39445e+01,4.36137e-02,4.08754e-02,8.31537e-02
1.82660e+03,-6.28101e-01,-1.19525e+01,4.34185e-02,4.16929e-02,8.42619e-02
1.82660e+03,-1.16138e-01,-9.96038e+00,4.32235e-02,4.25065e-02,8.53737e-02
1.82660e+03,3.93890e-01,-7.96830e+00,4.30356e-02,4.33161e-02,8.64923e-02
1.82660e+03,9.03919e-01,-5.97623e+00,4.28477e-02,4.41215e-02,8.76130e-02
1.82660e+03,1.40187e+00,-3.98415e+00,4.27042e-02,4.49231e-02,8.87575e-02
1.82660e+03,1.89757e+00,-1.99208e+00,4.25690e-02,4.57214e-02,8.99080e-02
1.87280e+03,2.31244e+01,0.00000e+00,-3.03103e-02,3.25907e-02,6.40717e-02
1.87280e+03,2.30080e+01,-1.75721e+00,-3.11429e-02,3.20711e-02,6.36832e-02
1.87280e+03,2.28531e+01,-3.51443e+00,-3.18635e-02,3.15388e-02,6.32405e-02
1.87280e+03,2.26966e+01,-5.27164e+00,-3.25797e-02,3.09942e-02,6.27962e-02
1.87280e+03,2.25061e+01,-7.02886e+00,-3.31970e-02,3.04386e-02,6.23021e-02
1.87280e+03,2.23078e+01,-8.78607e+00,-3.37913e-02,2.98725e-02,6.17977e-02
1.87280e+03,2.20834e+01,-1.05433e+01,-3.43097e-02,2.92970e-02,6.12544e-02
1.87280e+03,2.18464e+01,-1.23005e+01,-3.47913e-02,2.87127e-02,6.06935e-02
1.87280e+03,2.15884e+01,-1.40577e+01,-3.52119e-02,2.81206e-02,6.01014e-02
1.87280e+03,2.13132e+01,-1.58149e+01,-3.55824e-02,2.75213e-02,5.94841e-02
1.87280e+03,2.10191e+01,-1.75721e+01,-3.58978e-02,2.69156e-02,5.88387e-02
1.87280e+03,2.07020e+01,-1.93294e+01,-3.61465e-02,2.63043e-02,5.81577e-02
1.87280e+03,2.03615e+01,-2.10866e+01,-3.63269e-02,2.56883e-02,5.74396e-02
1.87280e+03,1.99878e+01,-2.28438e+01,-3.64105e-02,2.50686e-02,5.66659e-02
1.87280e+03,1.95817e+01,-2.46010e+01,-3.64000e-02,2.44464e-02,5.58376e-02
1.87280e+03,1.91369e+01,-2.63582e+01,-3.62769e-02,2.38226e-02,5.49414e-02
1.87280e+03,1.86398e+01,-2.81154e+01,-3.60012e-02,2.31994e-02,5.39511e-02
1.87280e+03,1.81062e+01,-2.98726e+01,-3.56194e-02,2.25773e-02,5.28956e-02
1.87280e+03,1.74905e+01,-3.16299e+01,-3.49988e-02,2.19596e-02,5.16874e-02
1.87280e+03,1.68409e+01,-3.33871e+01,-3.42793e-02,2.13477e-02,5.04207e-02
1.87280e+03,1.60966e+01,-3.51443e+01,-3.32840e-02,2.07433e-02,4.89763e-02
1.87280e+03,1.52763e+01,-3.69015e+01,-3.20677e-02,2.01513e-02,4.73979e-02
1.87280e+03,1.43788e+01,-3.86587e+01,-3.06265e-02,1.95727e-02,4.56865e-02
1.87280e+03,1.33517e+01,-4.04159e+01,-2.88079e-02,1.90097e-02,4.37493e-02
1.87280e+03,1.21743e+01,-4.21731e+01,-2.65520e-02,1.84691e-02,4.15733e-02
1.87280e+03,1.08272e+01,-4.39304e+01,-2.38020e-02,1.79574e-02,3.91656e-02
1.87280e+03,9.23393e+00,-4.56876e+01,-2.03351e-02,1.74789e-02,3.64699e-02
1.87280e+03,7.18879e+00,-4.74448e+01,-1.55528e-02,1.70568e-02,3.33870e-02
1.87280e+03,4.42280e+00,-4.92020e+01,-8.67201e-03,1.67982e-02,3.03602e-02
1.87280e+03,-1.79208e+00,-5.09592e+01,8.24947e-03,1.68995e-02,3.04111e-02
1.87280e+03,-2.24062e+00,-5.09633e+01,9.55255e-03,1.72160e-02,3.13117e-02
1.87280e+03,-6.32705e+00,-4.91432e+01,2.26629e-02,1.78165e-02,3.82869e-02
1.87280e+03,-6.82182e+00,-4.73231e+01,2.53169e-02,1.82603e-02,4.05125e-02
1.87280e+03,-6.99255e+00,-4.55029e+01,2.70276e-02,1.87274e-02,4.22212e-02
1.87280e+03,-7.01846e+00,-4.36828e+01,2.83166e-02,1.92162e-02,4.36991e-02
1.87280e+03,-6.93525e+00,-4.18627e+01,2.92880e-02,1.97228e-02,4.49973e-02
1.87280e+03,-6.78358e+00,-4.00426e+01,3.00601e-02,2.02444e-02,4.61856e-02
1.87280e+03,-6.56315e+00,-3.82225e+01,3.06320e-02,2.07778e-02,4.72596e-02
1.87280e+03,-6.30078e+00,-3.64024e+01,3.10818e-02,2.13205e-02,4.82677e-02
1.87280e+03,-6.01408e+00,-3.45822e+01,3.14608e-02,2.18710e-02,4.92423e-02
1.87280e+03,-5.69074e+00,-3.27621e+01,3.17331e-02,2.24279e-02,5.01600e-02
1.87280e+03,-5.34450e+00,-3.09420e+01,3.19387e-02,2.29897e-02,5.10456e-02
1.87280e+03,-4.97595e+00,-2.91219e+01,3.20794e-02,2.35551e-02,5.19001e-02
1.87280e+03,-4.58518e+00,-2.73018e+01,3.21554e-02,2.41231e-02,5.27232e-02
1.87280e+03,-4.18049e+00,-2.54816e+01,3.21908e-02,2.46926e-02,5.35296e-02
1.87280e+03,-3.75794e+00,-2.36615e+01,3.21743e-02,2.52628e-02,5.43122e-02
1.87280e+03,-3.32398e+00,-2.18414e+01,3.21245e-02,2.58328e-02,5.50817e-02
1.87280e+03,-2.87976e+00,-2.00213e+01,3.20449e-02,2.64021e-02,5.58399e-02
1.87280e+03,-2.42640e+00,-1.82012e+01,3.19387e-02,2.69699e-02,5.65881e-02
1.87280e+03,-1.96917e+00,-1.63811e+01,3.18212e-02,2.75360e-02,5.73348e-02
1.87280e+03,-1.50594e+00,-1.45609e+01,3.16863e-02,2.80998e-02,5.80759e-02
1.87280e+03,-1.04170e+00,-1.27408e+01,3.15484e-02,2.86613e-02,5.88193e-02
1.87280e+03,-5.73883e-01,-1.09207e+01,3.14001e-02,2.92202e-02,5.95603e-02
1.87280e+03,-1.06113e-01,-9.10059e+00,3.12519e-02,2.97764e-02,6.03040e-02
1.87280e+03,3.59890e-01,-7.28047e+00,3.11089e-02,3.03298e-02,6.10529e-02
1.87280e+03,8.25892e-01,-5.46035e+00,3.09658e-02,3.08804e-02,6.18036e-02
1.87280e+03,1.28086e+00,-3.64024e+00,3.08549e-02,3.14284e-02,6.25720e-02
1.87280e+03,1.73377e+00,-1.82012e+00,3.07500e-02,3.19740e-02,6.33449e-02
1.91380e+03,2.11856e+01,0.00000e+00,-2.06445e-02,3.68963e-02,6.71580e-02
1.91380e+03,2.10789e+01,-1.60989e+00,-2.12065e-02,3.63657e-02,6.64613e-02
1.91380e+03,2.09370e+01,-3.21977e+00,-2.16922e-02,3.58221e-02,6.57284e-02
1.91380e+03,2.07936e+01,-4.82966e+00,-2.21749e-02,3.52662e-02,6.49833e-02
1.91380e+03,2.06192e+01,-6.43954e+00,-2.25904e-02,3.46988e-02,6.42055e-02
1.91380e+03,2.04375e+01,-8.04943e+00,-2.29902e-02,3.41209e-02,6.34134e-02
1.91380e+03,2.02319e+01,-9.65931e+00,-2.33384e-02,3.35334e-02,6.25950e-02
1.91380e+03,2.00147e+01,-1.12692e+01,-2.36615e-02,3.29369e-02,6.17607e-02
1.91380e+03,1.97784e+01,-1.28791e+01,-2.39432e-02,3.23323e-02,6.09050e-02
1.91380e+03,1.95262e+01,-1.44890e+01,-2.41907e-02,3.17205e-02,6.00314e-02
1.91380e+03,1.92568e+01,-1.60989e+01,-2.44008e-02,3.11022e-02,5.91392e-02
1.91380e+03,1.89663e+01,-1.77087e+01,-2.45655e-02,3.04782e-02,5.82257e-02
1.91380e+03,1.86544e+01,-1.93186e+01,-2.46837e-02,2.98494e-02,5.72909e-02
1.91380e+03,1.83120e+01,-2.09285e+01,-2.47361e-02,2.92168e-02,5.63271e-02
1.91380e+03,1.79399e+01,-2.25384e+01,-2.47245e-02,2.85817e-02,5.53357e-02
1.91380e+03,1.75325e+01,-2.41483e+01,-2.46362e-02,2.79449e-02,5.43111e-02
1.91380e+03,1.70770e+01,-2.57582e+01,-2.44441e-02,2.73088e-02,5.32431e-02
1.91380e+03,1.65881e+01,-2.73680e+01,-2.41799e-02,2.66738e-02,5.21455e-02
1.91380e+03,1.60241e+01,-2.89779e+01,-2.37532e-02,2.60434e-02,5.09802e-02
1.91380e+03,1.54289e+01,-3.05878e+01,-2.32592e-02,2.54188e-02,4.97930e-02
1.91380e+03,1.47470e+01,-3.21977e+01,-2.25776e-02,2.48019e-02,4.85299e-02
1.91380e+03,1.39955e+01,-3.38076e+01,-2.17456e-02,2.41977e-02,4.72171e-02
1.91380e+03,1.31733e+01,-3.54175e+01,-2.07607e-02,2.36072e-02,4.58574e-02
1.91380e+03,1.22322e+01,-3.70274e+01,-1.95189e-02,2.30326e-02,4.44127e-02
1.91380e+03,1.11536e+01,-3.86372e+01,-1.79797e-02,2.24809e-02,4.28887e-02
1.91380e+03,9.91946e+00,-4.02471e+01,-1.61043e-02,2.19587e-02,4.13026e-02
1.91380e+03,8.45973e+00,-4.18570e+01,-1.37412e-02,2.14703e-02,3.96453e-02
1.91380e+03,6.58606e+00,-4.34669e+01,-1.04832e-02,2.10396e-02,3.79196e-02
1.91380e+03,4.05198e+00,-4.50768e+01,-5.79753e-03,2.07760e-02,3.64491e-02
1.91380e+03,-1.64183e+00,-4.66867e+01,5.71900e-03,2.08796e-02,3.66139e-02
1.91380e+03,-2.05276e+00,-4.66904e+01,6.60552e-03,2.12027e-02,3.73135e-02
1.91380e+03,-5.79657e+00,-4.50229e+01,1.55201e-02,2.18158e-02,4.08492e-02
1.91380e+03,-6.24986e+00,-4.33554e+01,1.73210e-02,2.22688e-02,4.22814e-02
1.91380e+03,-6.40628e+00,-4.16879e+01,1.84801e-02,2.27456e-02,4.35156e-02
1.91380e+03,-6.43001e+00,-4.00204e+01,1.93525e-02,2.32445e-02,4.46704e-02
1.91380e+03,-6.35378e+00,-3.83528e+01,2.00087e-02,2.37617e-02,4.57625e-02
1.91380e+03,-6.21483e+00,-3.66853e+01,2.05292e-02,2.42941e-02,4.68194e-02
1.91380e+03,-6.01288e+00,-3.50178e+01,2.09136e-02,2.48385e-02,4.78355e-02
1.91380e+03,-5.77251e+00,-3.33503e+01,2.12150e-02,2.53924e-02,4.88303e-02
1.91380e+03,-5.50985e+00,-3.16828e+01,2.14682e-02,2.59543e-02,4.98173e-02
1.91380e+03,-5.21362e+00,-3.00153e+01,2.16488e-02,2.65227e-02,5.07842e-02
1.91380e+03,-4.89640e+00,-2.83477e+01,2.17840e-02,2.70960e-02,5.17409e-02
1.91380e+03,-4.55876e+00,-2.66802e+01,2.18750e-02,2.76731e-02,5.26870e-02
1.91380e+03,-4.20075e+00,-2.50127e+01,2.19221e-02,2.82527e-02,5.36211e-02
1.91380e+03,-3.82998e+00,-2.33452e+01,2.19415e-02,2.88339e-02,5.45492e-02
1.91380e+03,-3.44287e+00,-2.16777e+01,2.19256e-02,2.94159e-02,5.54672e-02
1.91380e+03,-3.04529e+00,-2.00102e+01,2.18871e-02,2.99976e-02,5.63792e-02
1.91380e+03,-2.63832e+00,-1.83427e+01,2.18283e-02,3.05785e-02,5.72853e-02
1.91380e+03,-2.22297e+00,-1.66751e+01,2.17514e-02,3.11579e-02,5.81857e-02
1.91380e+03,-1.80407e+00,-1.50076e+01,2.16668e-02,3.17355e-02,5.90837e-02
1.91380e+03,-1.37967e+00,-1.33401e+01,2.15703e-02,3.23109e-02,5.99771e-02
1.91380e+03,-9.54362e-01,-1.16726e+01,2.14718e-02,3.28838e-02,6.08693e-02
1.91380e+03,-5.25768e-01,-1.00051e+01,2.13663e-02,3.34541e-02,6.17580e-02
1.91380e+03,-9.72161e-02,-8.33757e+00,2.12608e-02,3.40216e-02,6.26452e-02
1.91380e+03,3.29716e-01,-6.67006e+00,2.11588e-02,3.45863e-02,6.35321e-02
1.91380e+03,7.56647e-01,-5.00254e+00,2.10569e-02,3.51480e-02,6.44169e-02
1.91380e+03,1.17347e+00,-3.33503e+00,2.09768e-02,3.57071e-02,6.53071e-02
1.91380e+03,1.58841e+00,-1.66751e+00,2.09007e-02,3.62638e-02,6.61969e-02
1.94970e+03,1.94880e+01,0.00000e+00,-1.17604e-02,2.91515e-02,5.18434e-02
1.94970e+03,1.93899e+01,-1.48088e+00,-1.20808e-02,2.87498e-02,5.12407e-02
1.94970e+03,1.92593e+01,-2.96177e+00,-1.23578e-02,2.83384e-02,5.06153e-02
1.94970e+03,1.91274e+01,-4.44265e+00,-1.26331e-02,2.79175e-02,4.99776e-02
1.94970e+03,1.89669e+01,-5.92353e+00,-1.28700e-02,2.74881e-02,4.93196e-02
1.94970e+03,1.87998e+01,-7.40441e+00,-1.30981e-02,2.70507e-02,4.86495e-02
1.94970e+03,1.86107e+01,-8.88530e+00,-1.32967e-02,2.66059e-02,4.79628e-02
1.94970e+03,1.84109e+01,-1.03662e+01,-1.34811e-02,2.61545e-02,4.72642e-02
1.94970e+03,1.81935e+01,-1.18471e+01,-1.36418e-02,2.56969e-02,4.65520e-02
1.94970e+03,1.79616e+01,-1.33279e+01,-1.37831e-02,2.52338e-02,4.58281e-02
1.94970e+03,1.77137e+01,-1.48088e+01,-1.39031e-02,2.47658e-02,4.50925e-02
1.94970e+03,1.74465e+01,-1.62897e+01,-1.39972e-02,2.42936e-02,4.43448e-02
1.94970e+03,1.71596e+01,-1.77706e+01,-1.40649e-02,2.38177e-02,4.35851e-02
1.94970e+03,1.68446e+01,-1.92515e+01,-1.40951e-02,2.33389e-02,4.28110e-02
1.94970e+03,1.65024e+01,-2.07324e+01,-1.40888e-02,2.28582e-02,4.20237e-02
1.94970e+03,1.61276e+01,-2.22132e+01,-1.40388e-02,2.23763e-02,4.12212e-02
1.94970e+03,1.57086e+01,-2.36941e+01,-1.39298e-02,2.18950e-02,4.04006e-02
1.94970e+03,1.52589e+01,-2.51750e+01,-1.37796e-02,2.14144e-02,3.95678e-02
1.94970e+03,1.47401e+01,-2.66559e+01,-1.35369e-02,2.09373e-02,3.87086e-02
1.94970e+03,1.41926e+01,-2.81368e+01,-1.32559e-02,2.04647e-02,3.78435e-02
1.94970e+03,1.35653e+01,-2.96177e+01,-1.28680e-02,1.99978e-02,3.69503e-02
1.94970e+03,1.28740e+01,-3.10985e+01,-1.23945e-02,1.95406e-02,3.60434e-02
1.94970e+03,1.21177e+01,-3.25794e+01,-1.18339e-02,1.90937e-02,3.51248e-02
1.94970e+03,1.12521e+01,-3.40603e+01,-1.11270e-02,1.86590e-02,3.41801e-02
1.94970e+03,1.02599e+01,-3.55412e+01,-1.02507e-02,1.82415e-02,3.32165e-02
1.94970e+03,9.12460e+00,-3.70221e+01,-9.18284e-03,1.78464e-02,3.22460e-02
1.94970e+03,7.78184e+00,-3.85029e+01,-7.83730e-03,1.74769e-02,3.12690e-02
1.94970e+03,6.05831e+00,-3.99838e+01,-5.98209e-03,1.71511e-02,3.03029e-02
1.94970e+03,3.72729e+00,-4.14647e+01,-3.31374e-03,1.69517e-02,2.95477e-02
1.94970e+03,-1.51027e+00,-4.29456e+01,3.24507e-03,1.70303e-02,2.96752e-02
1.94970e+03,-1.88827e+00,-4.29490e+01,3.74998e-03,1.72749e-02,3.01550e-02
1.94970e+03,-5.33209e+00,-4.14151e+01,8.82753e-03,1.77389e-02,3.19676e-02
1.94970e+03,-5.74905e+00,-3.98812e+01,9.85357e-03,1.80818e-02,3.28321e-02
1.94970e+03,-5.89293e+00,-3.83473e+01,1.05141e-02,1.84426e-02,3.36294e-02
1.94970e+03,-5.91477e+00,-3.68135e+01,1.10113e-02,1.88202e-02,3.44071e-02
1.94970e+03,-5.84465e+00,-3.52796e+01,1.13853e-02,1.92116e-02,3.51694e-02
1.94970e+03,-5.71682e+00,-3.37457e+01,1.16822e-02,1.96145e-02,3.59257e-02
1.94970e+03,-5.53106e+00,-3.22118e+01,1.19015e-02,2.00265e-02,3.66719e-02
1.94970e+03,-5.30995e+00,-3.06779e+01,1.20734e-02,2.04457e-02,3.74145e-02
1.94970e+03,-5.06834e+00,-2.91440e+01,1.22180e-02,2.08709e-02,3.81584e-02
1.94970e+03,-4.79584e+00,-2.76101e+01,1.23212e-02,2.13010e-02,3.88974e-02
1.94970e+03,-4.50405e+00,-2.60762e+01,1.23985e-02,2.17348e-02,3.96349e-02
1.94970e+03,-4.19345e+00,-2.45423e+01,1.24507e-02,2.21715e-02,4.03701e-02
1.94970e+03,-3.86414e+00,-2.30084e+01,1.24778e-02,2.26101e-02,4.11016e-02
1.94970e+03,-3.52308e+00,-2.14745e+01,1.24893e-02,2.30498e-02,4.18314e-02
1.94970e+03,-3.16699e+00,-1.99406e+01,1.24806e-02,2.34901e-02,4.25573e-02
1.94970e+03,-2.80126e+00,-1.84067e+01,1.24590e-02,2.39303e-02,4.32805e-02
1.94970e+03,-2.42690e+00,-1.68728e+01,1.24258e-02,2.43698e-02,4.40007e-02
1.94970e+03,-2.04484e+00,-1.53389e+01,1.23823e-02,2.48082e-02,4.47176e-02
1.94970e+03,-1.65951e+00,-1.38050e+01,1.23345e-02,2.52452e-02,4.54324e-02
1.94970e+03,-1.26912e+00,-1.22712e+01,1.22799e-02,2.56805e-02,4.61439e-02
1.94970e+03,-8.77888e-01,-1.07373e+01,1.22242e-02,2.61139e-02,4.68534e-02
1.94970e+03,-4.83637e-01,-9.20336e+00,1.21644e-02,2.65454e-02,4.75599e-02
1.94970e+03,-8.94260e-02,-7.66947e+00,1.21047e-02,2.69747e-02,4.82642e-02
1.94970e+03,3.03295e-01,-6.13558e+00,1.20469e-02,2.74019e-02,4.89666e-02
1.94970e+03,6.96016e-01,-4.60168e+00,1.19892e-02,2.78269e-02,4.96663e-02
1.94970e+03,1.07944e+00,-3.06779e+00,1.19439e-02,2.82498e-02,5.03668e-02
1.94970e+03,1.46113e+00,-1.53389e+00,1.19009e-02,2.86709e-02,5.10656e-02
1.98010e+03,1.80504e+01,0.00000e+00,-5.68640e-03,2.03473e-02,3.56984e-02
1.98010e+03,1.79595e+01,-1.37164e+00,-5.84756e-03,2.00860e-02,3.52780e-02
1.98010e+03,1.78386e+01,-2.74329e+00,-5.98767e-03,1.98183e-02,3.48446e-02
1.98010e+03,1.77165e+01,-4.11493e+00,-6.12694e-03,1.95445e-02,3.44021e-02
1.98010e+03,1.75678e+01,-5.48657e+00,-6.24764e-03,1.92651e-02,3.39480e-02
1.98010e+03,1.74130e+01,-6.85822e+00,-6.36402e-03,1.89806e-02,3.34856e-02
1.98010e+03,1.72378e+01,-8.22986e+00,-6.46613e-03,1.86912e-02,3.30136e-02
1.98010e+03,1.70528e+01,-9.60150e+00,-6.56133e-03,1.83975e-02,3.25340e-02
1.98010e+03,1.68514e+01,-1.09731e+01,-6.64507e-03,1.80999e-02,3.20464e-02
1.98010e+03,1.66366e+01,-1.23448e+01,-6.71940e-03,1.77987e-02,3.15520e-02
1.98010e+03,1.64070e+01,-1.37164e+01,-6.78337e-03,1.74942e-02,3.10509e-02
1.98010e+03,1.61595e+01,-1.50881e+01,-6.83481e-03,1.71870e-02,3.05434e-02
1.98010e+03,1.58938e+01,-1.64597e+01,-6.87342e-03,1.68775e-02,3.00298e-02
1.98010e+03,1.56020e+01,-1.78314e+01,-6.89386e-03,1.65660e-02,2.95097e-02
1.98010e+03,1.52851e+01,-1.92030e+01,-6.89660e-03,1.62534e-02,2.89841e-02
1.98010e+03,1.49379e+01,-2.05747e+01,-6.87817e-03,1.59399e-02,2.84526e-02
1.98010e+03,1.45498e+01,-2.19463e+01,-6.83109e-03,1.56268e-02,2.79151e-02
1.98010e+03,1.41333e+01,-2.33179e+01,-6.76407e-03,1.53142e-02,2.73739e-02
1.98010e+03,1.36527e+01,-2.46896e+01,-6.65219e-03,1.50039e-02,2.68254e-02
1.98010e+03,1.31457e+01,-2.60612e+01,-6.52171e-03,1.46965e-02,2.62773e-02
1.98010e+03,1.25646e+01,-2.74329e+01,-6.33942e-03,1.43928e-02,2.57226e-02
1.98010e+03,1.19244e+01,-2.88045e+01,-6.11561e-03,1.40955e-02,2.51684e-02
1.98010e+03,1.12238e+01,-3.01762e+01,-5.84955e-03,1.38048e-02,2.46158e-02
1.98010e+03,1.04220e+01,-3.15478e+01,-5.51257e-03,1.35221e-02,2.40609e-02
1.98010e+03,9.50303e+00,-3.29194e+01,-5.09343e-03,1.32506e-02,2.35091e-02
1.98010e+03,8.45151e+00,-3.42911e+01,-4.58144e-03,1.29936e-02,2.29672e-02
1.98010e+03,7.20780e+00,-3.56627e+01,-3.93477e-03,1.27533e-02,2.24371e-02
1.98010e+03,5.61141e+00,-3.70344e+01,-3.04096e-03,1.25415e-02,2.19343e-02
1.98010e+03,3.45234e+00,-3.84060e+01,-1.75285e-03,1.24119e-02,2.15694e-02
1.98010e+03,-1.39886e+00,-3.97777e+01,1.42177e-03,1.24630e-02,2.16334e-02
1.98010e+03,-1.74898e+00,-3.97808e+01,1.66659e-03,1.26222e-02,2.19257e-02
1.98010e+03,-4.93876e+00,-3.83601e+01,4.13474e-03,1.29241e-02,2.27638e-02
1.98010e+03,-5.32496e+00,-3.69394e+01,4.63828e-03,1.31471e-02,2.32390e-02
1.98010e+03,-5.45823e+00,-3.55186e+01,4.96458e-03,1.33818e-02,2.37037e-02
1.98010e+03,-5.47846e+00,-3.40979e+01,5.21166e-03,1.36274e-02,2.41719e-02
1.98010e+03,-5.41351e+00,-3.26771e+01,5.39905e-03,1.38820e-02,2.46431e-02
1.98010e+03,-5.29511e+00,-3.12564e+01,5.54900e-03,1.41441e-02,2.51188e-02
1.98010e+03,-5.12305e+00,-2.98356e+01,5.66133e-03,1.44121e-02,2.55964e-02
1.98010e+03,-4.91825e+00,-2.84149e+01,5.75073e-03,1.46847e-02,2.60767e-02
1.98010e+03,-4.69446e+00,-2.69941e+01,5.82682e-03,1.49613e-02,2.65607e-02
1.98010e+03,-4.44207e+00,-2.55734e+01,5.88286e-03,1.52410e-02,2.70457e-02
1.98010e+03,-4.17180e+00,-2.41527e+01,5.92638e-03,1.55231e-02,2.75323e-02
1.98010e+03,-3.88412e+00,-2.27319e+01,5.95769e-03,1.58072e-02,2.80195e-02
1.98010e+03,-3.57909e+00,-2.13112e+01,5.97686e-03,1.60924e-02,2.85065e-02
1.98010e+03,-3.26320e+00,-1.98904e+01,5.98840e-03,1.63784e-02,2.89934e-02
1.98010e+03,-2.93337e+00,-1.84697e+01,5.99018e-03,1.66648e-02,2.94792e-02
1.98010e+03,-2.59462e+00,-1.70489e+01,5.98572e-03,1.69510e-02,2.99640e-02
1.98010e+03,-2.24788e+00,-1.56282e+01,5.97564e-03,1.72368e-02,3.04472e-02
1.98010e+03,-1.89400e+00,-1.42074e+01,5.96057e-03,1.75219e-02,3.09287e-02
1.98010e+03,-1.53709e+00,-1.27867e+01,5.94338e-03,1.78061e-02,3.14086e-02
1.98010e+03,-1.17550e+00,-1.13660e+01,5.92290e-03,1.80892e-02,3.18863e-02
1.98010e+03,-8.13129e-01,-9.94521e+00,5.90188e-03,1.83711e-02,3.23623e-02
1.98010e+03,-4.47961e-01,-8.52447e+00,5.87889e-03,1.86516e-02,3.28361e-02
1.98010e+03,-8.28294e-02,-7.10372e+00,5.85594e-03,1.89308e-02,3.33079e-02
1.98010e+03,2.80922e-01,-5.68298e+00,5.83395e-03,1.92086e-02,3.37778e-02
1.98010e+03,6.44673e-01,-4.26223e+00,5.81196e-03,1.94849e-02,3.42456e-02
1.98010e+03,9.99811e-01,-2.84149e+00,5.79600e-03,1.97599e-02,3.47124e-02
1.98010e+03,1.35334e+00,-1.42074e+00,5.78117e-03,2.00337e-02,3.51777e-02
2.00520e+03,1.68635e+01,0.00000e+00,-2.22135e-03,1.28231e-02,2.23210e-02
2.00520e+03,1.67786e+01,-1.28145e+00,-2.28927e-03,1.26731e-02,2.20695e-02
2.00520e+03,1.66656e+01,-2.56290e+00,-2.34893e-03,1.25194e-02,2.18112e-02
2.00520e+03,1.65515e+01,-3.84435e+00,-2.40825e-03,1.23623e-02,2.15471e-02
2.00520e+03,1.64126e+01,-5.12580e+00,-2.46027e-03,1.22020e-02,2.12771e-02
2.00520e+03,1.62680e+01,-6.40725e+00,-2.51061e-03,1.20386e-02,2.10021e-02
2.00520e+03,1.61044e+01,-7.68870e+00,-2.55533e-03,1.18726e-02,2.07221e-02
2.00520e+03,1.59315e+01,-8.97015e+00,-2.59734e-03,1.17041e-02,2.04377e-02
2.00520e+03,1.57433e+01,-1.02516e+01,-2.63485e-03,1.15332e-02,2.01492e-02
2.00520e+03,1.55427e+01,-1.15330e+01,-2.66866e-03,1.13604e-02,1.98569e-02
2.00520e+03,1.53282e+01,-1.28145e+01,-2.69840e-03,1.11857e-02,1.95612e-02
2.00520e+03,1.50970e+01,-1.40959e+01,-2.72322e-03,1.10094e-02,1.92623e-02
2.00520e+03,1.48486e+01,-1.53774e+01,-2.74299e-03,1.08317e-02,1.89606e-02
2.00520e+03,1.45761e+01,-1.66588e+01,-2.75563e-03,1.06530e-02,1.86562e-02
2.00520e+03,1.42800e+01,-1.79403e+01,-2.76132e-03,1.04736e-02,1.83498e-02
2.00520e+03,1.39556e+01,-1.92217e+01,-2.75869e-03,1.02937e-02,1.80415e-02
2.00520e+03,1.35931e+01,-2.05032e+01,-2.74480e-03,1.01141e-02,1.77318e-02
2.00520e+03,1.32039e+01,-2.17846e+01,-2.72309e-03,9.93472e-03,1.74216e-02
2.00520e+03,1.27550e+01,-2.30661e+01,-2.68374e-03,9.75665e-03,1.71108e-02
2.00520e+03,1.22812e+01,-2.43475e+01,-2.63709e-03,9.58027e-03,1.68018e-02
2.00520e+03,1.17384e+01,-2.56290e+01,-2.57009e-03,9.40603e-03,1.64932e-02
2.00520e+03,1.11403e+01,-2.69104e+01,-2.48678e-03,9.23539e-03,1.61883e-02
2.00520e+03,1.04858e+01,-2.81919e+01,-2.38686e-03,9.06864e-03,1.58877e-02
2.00520e+03,9.73672e+00,-2.94733e+01,-2.25909e-03,8.90640e-03,1.55909e-02
2.00520e+03,8.87814e+00,-3.07548e+01,-2.09904e-03,8.75063e-03,1.53012e-02
2.00520e+03,7.89577e+00,-3.20362e+01,-1.90251e-03,8.60320e-03,1.50221e-02
2.00520e+03,6.73385e+00,-3.33177e+01,-1.65308e-03,8.46535e-03,1.47553e-02
2.00520e+03,5.24243e+00,-3.45991e+01,-1.30655e-03,8.34380e-03,1.45108e-02
2.00520e+03,3.22533e+00,-3.58806e+01,-8.05123e-04,8.26950e-03,1.43458e-02
2.00520e+03,-1.30688e+00,-3.71620e+01,4.37425e-04,8.29888e-03,1.43807e-02
2.00520e+03,-1.63397e+00,-3.71650e+01,5.33593e-04,8.39022e-03,1.45421e-02
2.00520e+03,-4.61400e+00,-3.58377e+01,1.50799e-03,8.56347e-03,1.49088e-02
2.00520e+03,-4.97481e+00,-3.45104e+01,1.71058e-03,8.69147e-03,1.51509e-02
2.00520e+03,-5.09932e+00,-3.31830e+01,1.84354e-03,8.82616e-03,1.53981e-02
2.00520e+03,-5.11821e+00,-3.18557e+01,1.94538e-03,8.96711e-03,1.56528e-02
2.00520e+03,-5.05754e+00,-3.05284e+01,2.02378e-03,9.11319e-03,1.59137e-02
2.00520e+03,-4.94693e+00,-2.92011e+01,2.08746e-03,9.26356e-03,1.61802e-02
2.00520e+03,-4.78618e+00,-2.78738e+01,2.13636e-03,9.41734e-03,1.64506e-02
2.00520e+03,-4.59485e+00,-2.65464e+01,2.17626e-03,9.57377e-03,1.67245e-02
2.00520e+03,-4.38577e+00,-2.52191e+01,2.21092e-03,9.73247e-03,1.70015e-02
2.00520e+03,-4.14998e+00,-2.38918e+01,2.23772e-03,9.89298e-03,1.72806e-02
2.00520e+03,-3.89748e+00,-2.25645e+01,2.25959e-03,1.00549e-02,1.75615e-02
2.00520e+03,-3.62871e+00,-2.12371e+01,2.27666e-03,1.02178e-02,1.78436e-02
2.00520e+03,-3.34375e+00,-1.99098e+01,2.28897e-03,1.03815e-02,1.81263e-02
2.00520e+03,-3.04862e+00,-1.85825e+01,2.29828e-03,1.05456e-02,1.84095e-02
2.00520e+03,-2.74048e+00,-1.72552e+01,2.30375e-03,1.07099e-02,1.86925e-02
2.00520e+03,-2.42401e+00,-1.59279e+01,2.30677e-03,1.08741e-02,1.89752e-02
2.00520e+03,-2.10007e+00,-1.46005e+01,2.30759e-03,1.10381e-02,1.92573e-02
2.00520e+03,-1.76946e+00,-1.32732e+01,2.30644e-03,1.12017e-02,1.95385e-02
2.00520e+03,-1.43602e+00,-1.19459e+01,2.30446e-03,1.13647e-02,1.98187e-02
2.00520e+03,-1.09820e+00,-1.06186e+01,2.30119e-03,1.15271e-02,2.00977e-02
2.00520e+03,-7.59661e-01,-9.29125e+00,2.29771e-03,1.16888e-02,2.03756e-02
2.00520e+03,-4.18505e-01,-7.96393e+00,2.29345e-03,1.18498e-02,2.06521e-02
2.00520e+03,-7.73829e-02,-6.63661e+00,2.28921e-03,1.20099e-02,2.09274e-02
2.00520e+03,2.62450e-01,-5.30929e+00,2.28535e-03,1.21693e-02,2.12013e-02
2.00520e+03,6.02282e-01,-3.98196e+00,2.28148e-03,1.23278e-02,2.14739e-02
2.00520e+03,9.34067e-01,-2.65464e+00,2.27999e-03,1.24855e-02,2.17454e-02
2.00520e+03,1.26435e+00,-1.32732e+00,2.27894e-03,1.26426e-02,2.20159e-02
2.02480e+03,1.59367e+01,0.00000e+00,-6.31085e-04,6.82057e-03,1.18304e-02
2.02480e+03,1.58564e+01,-1.21102e+00,-6.52725e-04,6.74983e-03,1.17093e-02
2.02480e+03,1.57496e+01,-2.42204e+00,-6.71995e-04,6.67737e-03,1.15850e-02
2.02480e+03,1.56418e+01,-3.63306e+00,-6.91170e-04,6.60325e-03,1.14580e-02
2.02480e+03,1.55106e+01,-4.84408e+00,-7.08253e-04,6.52763e-03,1.13284e-02
2.02480e+03,1.53739e+01,-6.05509e+00,-7.24851e-04,6.45061e-03,1.11963e-02
2.02480e+03,1.52192e+01,-7.26611e+00,-7.39843e-04,6.37230e-03,1.10619e-02
2.02480e+03,1.50559e+01,-8.47713e+00,-7.54055e-04,6.29281e-03,1.09255e-02
2.02480e+03,1.48781e+01,-9.68815e+00,-7.66977e-04,6.21225e-03,1.07872e-02
2.02480e+03,1.46884e+01,-1.08992e+01,-7.78838e-04,6.13072e-03,1.06473e-02
2.02480e+03,1.44857e+01,-1.21102e+01,-7.89534e-04,6.04834e-03,1.05057e-02
2.02480e+03,1.42672e+01,-1.33212e+01,-7.98819e-04,5.96520e-03,1.03629e-02
2.02480e+03,1.40325e+01,-1.45322e+01,-8.06659e-04,5.88142e-03,1.02188e-02
2.02480e+03,1.37750e+01,-1.57432e+01,-8.12452e-04,5.79714e-03,1.00738e-02
2.02480e+03,1.34951e+01,-1.69543e+01,-8.16252e-04,5.71253e-03,9.92801e-03
2.02480e+03,1.31886e+01,-1.81653e+01,-8.17669e-04,5.62771e-03,9.78172e-03
2.02480e+03,1.28460e+01,-1.93763e+01,-8.15859e-04,5.54299e-03,9.63534e-03
2.02480e+03,1.24782e+01,-2.05873e+01,-8.11804e-04,5.45841e-03,9.48903e-03
2.02480e+03,1.20540e+01,-2.17983e+01,-8.02696e-04,5.37443e-03,9.34334e-03
2.02480e+03,1.16063e+01,-2.30094e+01,-7.91494e-04,5.29126e-03,9.19885e-03
2.02480e+03,1.10933e+01,-2.42204e+01,-7.74458e-04,5.20910e-03,9.05560e-03
2.02480e+03,1.05280e+01,-2.54314e+01,-7.52746e-04,5.12863e-03,8.91489e-03
2.02480e+03,9.90946e+00,-2.66424e+01,-7.26276e-04,5.05000e-03,8.77696e-03
2.02480e+03,9.20158e+00,-2.78534e+01,-6.91819e-04,4.97350e-03,8.64209e-03
2.02480e+03,8.39019e+00,-2.90645e+01,-6.48111e-04,4.90005e-03,8.51184e-03
2.02480e+03,7.46181e+00,-3.02755e+01,-5.93946e-04,4.83053e-03,8.38778e-03
2.02480e+03,6.36374e+00,-3.14865e+01,-5.24615e-04,4.76553e-03,8.27080e-03
2.02480e+03,4.95429e+00,-3.26975e+01,-4.27453e-04,4.70822e-03,8.16608e-03
2.02480e+03,3.04806e+00,-3.39085e+01,-2.85888e-04,4.67320e-03,8.09928e-03
2.02480e+03,-1.23505e+00,-3.51195e+01,6.81222e-05,4.68707e-03,8.11854e-03
2.02480e+03,-1.54416e+00,-3.51224e+01,9.56838e-05,4.73016e-03,8.19343e-03
2.02480e+03,-4.36041e+00,-3.38680e+01,3.77245e-04,4.81186e-03,8.34293e-03
2.02480e+03,-4.70139e+00,-3.26136e+01,4.37566e-04,4.87223e-03,8.45028e-03
2.02480e+03,-4.81905e+00,-3.13592e+01,4.77928e-04,4.93575e-03,8.56232e-03
2.02480e+03,-4.83691e+00,-3.01049e+01,5.09369e-04,5.00222e-03,8.67906e-03
2.02480e+03,-4.77957e+00,-2.88505e+01,5.34089e-04,5.07111e-03,8.79964e-03
2.02480e+03,-4.67504e+00,-2.75961e+01,5.54592e-04,5.14202e-03,8.92349e-03
2.02480e+03,-4.52312e+00,-2.63418e+01,5.70859e-04,5.21454e-03,9.04987e-03
2.02480e+03,-4.34231e+00,-2.50874e+01,5.84543e-04,5.28831e-03,9.17825e-03
2.02480e+03,-4.14473e+00,-2.38330e+01,5.96728e-04,5.36314e-03,9.30838e-03
2.02480e+03,-3.92189e+00,-2.25787e+01,6.06656e-04,5.43883e-03,9.43984e-03
2.02480e+03,-3.68327e+00,-2.13243e+01,6.15173e-04,5.51517e-03,9.57234e-03
2.02480e+03,-3.42927e+00,-2.00699e+01,6.22317e-04,5.59201e-03,9.70561e-03
2.02480e+03,-3.15997e+00,-1.88155e+01,6.28091e-04,5.66918e-03,9.83937e-03
2.02480e+03,-2.88106e+00,-1.75612e+01,6.33008e-04,5.74656e-03,9.97344e-03
2.02480e+03,-2.58986e+00,-1.63068e+01,6.36826e-04,5.82403e-03,1.01076e-02
2.02480e+03,-2.29078e+00,-1.50524e+01,6.39939e-04,5.90147e-03,1.02417e-02
2.02480e+03,-1.98465e+00,-1.37981e+01,6.42422e-04,5.97879e-03,1.03755e-02
2.02480e+03,-1.67220e+00,-1.25437e+01,6.44341e-04,6.05592e-03,1.05089e-02
2.02480e+03,-1.35709e+00,-1.12893e+01,6.46022e-04,6.13279e-03,1.06419e-02
2.02480e+03,-1.03784e+00,-1.00350e+01,6.47333e-04,6.20936e-03,1.07744e-02
2.02480e+03,-7.17909e-01,-8.78059e+00,6.48582e-04,6.28561e-03,1.09063e-02
2.02480e+03,-3.95503e-01,-7.52622e+00,6.49611e-04,6.36150e-03,1.10376e-02
2.02480e+03,-7.31298e-02,-6.27185e+00,6.50642e-04,6.43700e-03,1.11682e-02
2.02480e+03,2.48025e-01,-5.01748e+00,6.51783e-04,6.51214e-03,1.12982e-02
2.02480e+03,5.69180e-01,-3.76311e+00,6.52923e-04,6.58688e-03,1.14275e-02
2.02480e+03,8.82730e-01,-2.50874e+00,6.54743e-04,6.66125e-03,1.15562e-02
2.02480e+03,1.19486e+00,-1.25437e+00,6.56690e-04,6.73531e-03,1.16844e-02
2.03880e+03,1.52746e+01,0.00000e+00,-1.08106e-04,2.58353e-03,4.47611e-03
2.03880e+03,1.51977e+01,-1.16071e+00,-1.12468e-04,2.55954e-03,4.43469e-03
2.03880e+03,1.50954e+01,-2.32142e+00,-1.16418e-04,2.53497e-03,4.39225e-03
2.03880e+03,1.49920e+01,-3.48213e+00,-1.20352e-04,2.50984e-03,4.34884e-03
2.03880e+03,1.48662e+01,-4.64285e+00,-1.23922e-04,2.48420e-03,4.30455e-03
2.03880e+03,1.47352e+01,-5.80356e+00,-1.27408e-04,2.45809e-03,4.25944e-03
2.03880e+03,1.45870e+01,-6.96427e+00,-1.30615e-04,2.43154e-03,4.21357e-03
2.03880e+03,1.44304e+01,-8.12498e+00,-1.33686e-04,2.40459e-03,4.16701e-03
2.03880e+03,1.42600e+01,-9.28569e+00,-1.36533e-04,2.37727e-03,4.11982e-03
2.03880e+03,1.40782e+01,-1.04464e+01,-1.39197e-04,2.34963e-03,4.07206e-03
2.03880e+03,1.38839e+01,-1.16071e+01,-1.41657e-04,2.32170e-03,4.02379e-03
2.03880e+03,1.36745e+01,-1.27678e+01,-1.43873e-04,2.29351e-03,3.97508e-03
2.03880e+03,1.34496e+01,-1.39285e+01,-1.45837e-04,2.26511e-03,3.92599e-03
2.03880e+03,1.32028e+01,-1.50892e+01,-1.47446e-04,2.23653e-03,3.87659e-03
2.03880e+03,1.29345e+01,-1.62500e+01,-1.48708e-04,2.20785e-03,3.82699e-03
2.03880e+03,1.26407e+01,-1.74107e+01,-1.49557e-04,2.17909e-03,3.77726e-03
2.03880e+03,1.23123e+01,-1.85714e+01,-1.49844e-04,2.15036e-03,3.72755e-03
2.03880e+03,1.19599e+01,-1.97321e+01,-1.49742e-04,2.12169e-03,3.67792e-03
2.03880e+03,1.15532e+01,-2.08928e+01,-1.48762e-04,2.09322e-03,3.62862e-03
2.03880e+03,1.11241e+01,-2.20535e+01,-1.47418e-04,2.06502e-03,3.57976e-03
2.03880e+03,1.06324e+01,-2.32142e+01,-1.45061e-04,2.03717e-03,3.53146e-03
2.03880e+03,1.00906e+01,-2.43749e+01,-1.41891e-04,2.00989e-03,3.48412e-03
2.03880e+03,9.49781e+00,-2.55357e+01,-1.37894e-04,1.98323e-03,3.43782e-03
2.03880e+03,8.81933e+00,-2.66964e+01,-1.32510e-04,1.95730e-03,3.39272e-03
2.03880e+03,8.04165e+00,-2.78571e+01,-1.25519e-04,1.93239e-03,3.34936e-03
2.03880e+03,7.15183e+00,-2.90178e+01,-1.16710e-04,1.90883e-03,3.30825e-03
2.03880e+03,6.09938e+00,-3.01785e+01,-1.05267e-04,1.88679e-03,3.26972e-03
2.03880e+03,4.74849e+00,-3.13392e+01,-8.89887e-05,1.86737e-03,3.23560e-03
2.03880e+03,2.92144e+00,-3.24999e+01,-6.49957e-05,1.85550e-03,3.21448e-03
2.03880e+03,-1.18374e+00,-3.36606e+01,-4.09293e-06,1.86021e-03,3.22197e-03
2.03880e+03,-1.48002e+00,-3.36633e+01,6.94191e-07,1.87481e-03,3.24727e-03
2.03880e+03,-4.17927e+00,-3.24611e+01,5.02359e-05,1.90252e-03,3.29564e-03
2.03880e+03,-4.50609e+00,-3.12588e+01,6.13400e-05,1.92298e-03,3.33127e-03
2.03880e+03,-4.61886e+00,-3.00565e+01,6.89762e-05,1.94452e-03,3.36872e-03
2.03880e+03,-4.63598e+00,-2.88543e+01,7.50626e-05,1.96706e-03,3.40787e-03
2.03880e+03,-4.58102e+00,-2.76520e+01,7.99812e-05,1.99041e-03,3.44842e-03
2.03880e+03,-4.48083e+00,-2.64498e+01,8.41671e-05,2.01445e-03,3.49015e-03
2.03880e+03,-4.33523e+00,-2.52475e+01,8.76172e-05,2.03904e-03,3.53281e-03
2.03880e+03,-4.16192e+00,-2.40452e+01,9.06184e-05,2.06405e-03,3.57619e-03
2.03880e+03,-3.97255e+00,-2.28430e+01,9.33594e-05,2.08942e-03,3.62018e-03
2.03880e+03,-3.75897e+00,-2.16407e+01,9.57081e-05,2.11508e-03,3.66468e-03
2.03880e+03,-3.53026e+00,-2.04384e+01,9.78117e-05,2.14096e-03,3.70954e-03
2.03880e+03,-3.28682e+00,-1.92362e+01,9.96766e-05,2.16701e-03,3.75469e-03
2.03880e+03,-3.02870e+00,-1.80339e+01,1.01304e-04,2.19317e-03,3.80004e-03
2.03880e+03,-2.76138e+00,-1.68317e+01,1.02782e-04,2.21940e-03,3.84550e-03
2.03880e+03,-2.48228e+00,-1.56294e+01,1.04069e-04,2.24567e-03,3.89100e-03
2.03880e+03,-2.19562e+00,-1.44271e+01,1.05234e-04,2.27192e-03,3.93649e-03
2.03880e+03,-1.90220e+00,-1.32249e+01,1.06289e-04,2.29813e-03,3.98190e-03
2.03880e+03,-1.60274e+00,-1.20226e+01,1.07246e-04,2.32428e-03,4.02720e-03
2.03880e+03,-1.30072e+00,-1.08204e+01,1.08162e-04,2.35034e-03,4.07234e-03
2.03880e+03,-9.94731e-01,-9.61809e+00,1.09014e-04,2.37630e-03,4.11731e-03
2.03880e+03,-6.88086e-01,-8.41583e+00,1.09855e-04,2.40214e-03,4.16208e-03
2.03880e+03,-3.79073e-01,-7.21357e+00,1.10657e-04,2.42787e-03,4.20665e-03
2.03880e+03,-7.00919e-02,-6.01131e+00,1.11460e-04,2.45346e-03,4.25099e-03
2.03880e+03,2.37722e-01,-4.80905e+00,1.12282e-04,2.47893e-03,4.29511e-03
2.03880e+03,5.45535e-01,-3.60678e+00,1.13104e-04,2.50427e-03,4.33899e-03
2.03880e+03,8.46060e-01,-2.40452e+00,1.14044e-04,2.52948e-03,4.38267e-03
2.03880e+03,1.14523e+00,-1.20226e+00,1.15006e-04,2.55458e-03,4.42616e-03
2.04720e+03,1.48774e+01,0.00000e+00,-1.26198e-05,4.78613e-04,8.29079e-04
2.04720e+03,1.48025e+01,-1.13053e+00,-1.32593e-05,4.75055e-04,8.22926e-04
2.04720e+03,1.47028e+01,-2.26105e+00,-1.38497e-05,4.71409e-04,8.16622e-04
2.04720e+03,1.46021e+01,-3.39158e+00,-1.44380e-05,4.67681e-04,8.10176e-04
2.04720e+03,1.44796e+01,-4.52211e+00,-1.49829e-05,4.63877e-04,8.03598e-04
2.04720e+03,1.43520e+01,-5.65264e+00,-1.55178e-05,4.60002e-04,7.96898e-04
2.04720e+03,1.42077e+01,-6.78316e+00,-1.60192e-05,4.56063e-04,7.90086e-04
2.04720e+03,1.40552e+01,-7.91369e+00,-1.65045e-05,4.52064e-04,7.83172e-04
2.04720e+03,1.38892e+01,-9.04422e+00,-1.69630e-05,4.48012e-04,7.76165e-04
2.04720e+03,1.37121e+01,-1.01747e+01,-1.73995e-05,4.43911e-04,7.69073e-04
2.04720e+03,1.35229e+01,-1.13053e+01,-1.78118e-05,4.39767e-04,7.61907e-04
2.04720e+03,1.33189e+01,-1.24358e+01,-1.81948e-05,4.35585e-04,7.54675e-04
2.04720e+03,1.30998e+01,-1.35663e+01,-1.85477e-05,4.31371e-04,7.47387e-04
2.04720e+03,1.28594e+01,-1.46969e+01,-1.88582e-05,4.27132e-04,7.40054e-04
2.04720e+03,1.25982e+01,-1.58274e+01,-1.91273e-05,4.22876e-04,7.32693e-04
2.04720e+03,1.23120e+01,-1.69579e+01,-1.93469e-05,4.18610e-04,7.25312e-04
2.04720e+03,1.19922e+01,-1.80884e+01,-1.94994e-05,4.14348e-04,7.17937e-04
2.04720e+03,1.16489e+01,-1.92190e+01,-1.96054e-05,4.10094e-04,7.10574e-04
2.04720e+03,1.12528e+01,-2.03495e+01,-1.96064e-05,4.05870e-04,7.03262e-04
2.04720e+03,1.08348e+01,-2.14800e+01,-1.95640e-05,4.01687e-04,6.96017e-04
2.04720e+03,1.03559e+01,-2.26105e+01,-1.94004e-05,3.97555e-04,6.88858e-04
2.04720e+03,9.82823e+00,-2.37411e+01,-1.91397e-05,3.93508e-04,6.81844e-04
2.04720e+03,9.25081e+00,-2.48716e+01,-1.87802e-05,3.89553e-04,6.74987e-04
2.04720e+03,8.58998e+00,-2.60021e+01,-1.82549e-05,3.85705e-04,6.68311e-04
2.04720e+03,7.83252e+00,-2.71326e+01,-1.75374e-05,3.82011e-04,6.61895e-04
2.04720e+03,6.96585e+00,-2.82632e+01,-1.66028e-05,3.78515e-04,6.55818e-04
2.04720e+03,5.94077e+00,-2.93937e+01,-1.53533e-05,3.75246e-04,6.50127e-04
2.04720e+03,4.62500e+00,-3.05242e+01,-1.35259e-05,3.72365e-04,6.45096e-04
2.04720e+03,2.84547e+00,-3.16548e+01,-1.07764e-05,3.70604e-04,6.41996e-04
2.04720e+03,-1.15296e+00,-3.27853e+01,-3.61536e-06,3.71303e-04,6.43126e-04
2.04720e+03,-1.44153e+00,-3.27879e+01,-3.04347e-06,3.73470e-04,6.46877e-04
2.04720e+03,-4.07059e+00,-3.16169e+01,3.00025e-06,3.77581e-04,6.53996e-04
2.04720e+03,-4.38891e+00,-3.04459e+01,4.44984e-06,3.80617e-04,6.59263e-04
2.04720e+03,-4.49875e+00,-2.92749e+01,5.48495e-06,3.83812e-04,6.64805e-04
2.04720e+03,-4.51542e+00,-2.81039e+01,6.33482e-06,3.87156e-04,6.70603e-04
2.04720e+03,-4.46189e+00,-2.69329e+01,7.04511e-06,3.90621e-04,6.76612e-04
2.04720e+03,-4.36430e+00,-2.57619e+01,7.66783e-06,3.94187e-04,6.82796e-04
2.04720e+03,-4.22249e+00,-2.45909e+01,8.20260e-06,3.97835e-04,6.89119e-04
2.04720e+03,-4.05369e+00,-2.34199e+01,8.68373e-06,4.01545e-04,6.95551e-04
2.04720e+03,-3.86924e+00,-2.22489e+01,9.13374e-06,4.05309e-04,7.02075e-04
2.04720e+03,-3.66121e+00,-2.10779e+01,9.53688e-06,4.09116e-04,7.08674e-04
2.04720e+03,-3.43845e+00,-1.99069e+01,9.91072e-06,4.12955e-04,7.15328e-04
2.04720e+03,-3.20134e+00,-1.87359e+01,1.02560e-05,4.16820e-04,7.22026e-04
2.04720e+03,-2.94994e+00,-1.75649e+01,1.05729e-05,4.20701e-04,7.28753e-04
2.04720e+03,-2.68957e+00,-1.63940e+01,1.08720e-05,4.24593e-04,7.35497e-04
2.04720e+03,-2.41772e+00,-1.52230e+01,1.11482e-05,4.28489e-04,7.42248e-04
2.04720e+03,-2.13852e+00,-1.40520e+01,1.14099e-05,4.32383e-04,7.48997e-04
2.04720e+03,-1.85273e+00,-1.28810e+01,1.16584e-05,4.36272e-04,7.55736e-04
2.04720e+03,-1.56106e+00,-1.17100e+01,1.18952e-05,4.40151e-04,7.62457e-04
2.04720e+03,-1.26689e+00,-1.05390e+01,1.21271e-05,4.44017e-04,7.69155e-04
2.04720e+03,-9.68863e-01,-9.36797e+00,1.23513e-05,4.47868e-04,7.75828e-04
2.04720e+03,-6.70192e-01,-8.19698e+00,1.25742e-05,4.51702e-04,7.82471e-04
2.04720e+03,-3.69215e-01,-7.02598e+00,1.27926e-05,4.55518e-04,7.89084e-04
2.04720e+03,-6.82691e-02,-5.85498e+00,1.30110e-05,4.59315e-04,7.95664e-04
2.04720e+03,2.31540e-01,-4.68399e+00,1.32316e-05,4.63094e-04,8.02211e-04
2.04720e+03,5.31348e-01,-3.51299e+00,1.34523e-05,4.66852e-04,8.08723e-04
2.04720e+03,8.24058e-01,-2.34199e+00,1.36871e-05,4.70592e-04,8.15203e-04
2.04720e+03,1.11544e+00,-1.17100e+00,1.39245e-05,4.74316e-04,8.21657e-04
2.05000e+03,1.47450e+01,0.00000e+00,0.00000e+00,0.00000e+00,0.00000e+00
2.05000e+03,1.46708e+01,-1.12047e+00,0.00000e+00,0.00000e+00,0.00000e+00
2.05000e+03,1.45720e+01,-2.24093e+00,0.00000e+00,0.00000e+00,0.00000e+00
2.05000e+03,1.44722e+01,-3.36140e+00,0.00000e+00,0.00000e+00,0.00000e+00
2.05000e+03,1.43508e+01,-4.48186e+00,0.00000e+00,0.00000e+00,0.00000e+00
2.05000e+03,1.42243e+01,-5.60233e+00,0.00000e+00,0.00000e+00,0.00000e+00
2.05000e+03,1.40812e+01,-6.72279e+00,0.00000e+00,0.00000e+00,0.00000e+00
2.05000e+03,1.39301e+01,-7.84326e+00,0.00000e+00,0.00000e+00,0.00000e+00
2.05000e+03,1.37656e+01,-8.96372e+00,0.00000e+00,0.00000e+00,0.00000e+00
2.05000e+03,1.35901e+01,-1.00842e+01,0.00000e+00,0.00000e+00,0.00000e+00
2.05000e+03,1.34025e+01,-1.12047e+01,0.00000e+00,0.00000e+00,0.00000e+00
2.05000e+03,1.32004e+01,-1.23251e+01,0.00000e+00,0.00000e+00,0.00000e+00
2.05000e+03,1.29833e+01,-1.34456e+01,0.00000e+00,0.00000e+00,0.00000e+00
2.05000e+03,1.27450e+01,-1.45661e+01,0.00000e+00,0.00000e+00,0.00000e+00
2.05000e+03,1.24860e+01,-1.56865e+01,0.00000e+00,0.00000e+00,0.00000e+00
2.05000e+03,1.22024e+01,-1.68070e+01,0.00000e+00,0.00000e+00,0.00000e+00
2.05000e+03,1.18854e+01,-1.79274e+01,0.00000e+00,0.00000e+00,0.00000e+00
2.05000e+03,1.15452e+01,-1.90479e+01,0.00000e+00,0.00000e+00,0.00000e+00
2.05000e+03,1.11526e+01,-2.01684e+01,0.00000e+00,0.00000e+00,0.00000e+00
2.05000e+03,1.07384e+01,-2.12888e+01,0.00000e+00,0.00000e+00,0.00000e+00
2.05000e+03,1.02638e+01,-2.24093e+01,0.00000e+00,0.00000e+00,0.00000e+00
2.05000e+03,9.74076e+00,-2.35298e+01,0.00000e+00,0.00000e+00,0.00000e+00
2.05000e+03,9.16848e+00,-2.46502e+01,0.00000e+00,0.00000e+00,0.00000e+00
2.05000e+03,8.51353e+00,-2.57707e+01,0.00000e+00,0.00000e+00,0.00000e+00
2.05000e+03,7.76281e+00,-2.68912e+01,0.00000e+00,0.00000e+00,0.00000e+00
2.05000e+03,6.90385e+00,-2.80116e+01,0.00000e+00,0.00000e+00,0.00000e+00
2.05000e+03,5.88790e+00,-2.91321e+01,0.00000e+00,0.00000e+00,0.00000e+00
2.05000e+03,4.58384e+00,-3.02526e+01,0.00000e+00,0.00000e+00,0.00000e+00
2.05000e+03,2.82014e+00,-3.13730e+01,0.00000e+00,0.00000e+00,0.00000e+00
2.05000e+03,-1.14270e+00,-3.24935e+01,0.00000e+00,0.00000e+00,0.00000e+00
2.05000e+03,-1.42870e+00,-3.24961e+01,0.00000e+00,0.00000e+00,0.00000e+00
2.05000e+03,-4.03436e+00,-3.13355e+01,0.00000e+00,0.00000e+00,0.00000e+00
2.05000e+03,-4.34985e+00,-3.01749e+01,0.00000e+00,0.00000e+00,0.00000e+00
2.05000e+03,-4.45871e+00,-2.90144e+01,0.00000e+00,0.00000e+00,0.00000e+00
2.05000e+03,-4.47523e+00,-2.78538e+01,0.00000e+00,0.00000e+00,0.00000e+00
2.05000e+03,-4.42218e+00,-2.66932e+01,0.00000e+00,0.00000e+00,0.00000e+00
2.05000e+03,-4.32546e+00,-2.55327e+01,0.00000e+00,0.00000e+00,0.00000e+00
2.05000e+03,-4.18491e+00,-2.43721e+01,0.00000e+00,0.00000e+00,0.00000e+00
2.05000e+03,-4.01761e+00,-2.32115e+01,0.00000e+00,0.00000e+00,0.00000e+00
2.05000e+03,-3.83480e+00,-2.20509e+01,0.00000e+00,0.00000e+00,0.00000e+00
2.05000e+03,-3.62863e+00,-2.08903e+01,0.00000e+00,0.00000e+00,0.00000e+00
2.05000e+03,-3.40785e+00,-1.97298e+01,0.00000e+00,0.00000e+00,0.00000e+00
2.05000e+03,-3.17285e+00,-1.85692e+01,0.00000e+00,0.00000e+00,0.00000e+00
2.05000e+03,-2.92368e+00,-1.74086e+01,0.00000e+00,0.00000e+00,0.00000e+00
2.05000e+03,-2.66563e+00,-1.62480e+01,0.00000e+00,0.00000e+00,0.00000e+00
2.05000e+03,-2.39621e+00,-1.50875e+01,0.00000e+00,0.00000e+00,0.00000e+00
2.05000e+03,-2.11949e+00,-1.39269e+01,0.00000e+00,0.00000e+00,0.00000e+00
2.05000e+03,-1.83624e+00,-1.27663e+01,0.00000e+00,0.00000e+00,0.00000e+00
2.05000e+03,-1.54717e+00,-1.16057e+01,0.00000e+00,0.00000e+00,0.00000e+00
2.05000e+03,-1.25562e+00,-1.04452e+01,0.00000e+00,0.00000e+00,0.00000e+00
2.05000e+03,-9.60241e-01,-9.28460e+00,0.00000e+00,0.00000e+00,0.00000e+00
2.05000e+03,-6.64227e-01,-8.12402e+00,0.00000e+00,0.00000e+00,0.00000e+00
2.05000e+03,-3.65929e-01,-6.96345e+00,0.00000e+00,0.00000e+00,0.00000e+00
2.05000e+03,-6.76615e-02,-5.80287e+00,0.00000e+00,0.00000e+00,0.00000e+00
2.05000e+03,2.29479e-01,-4.64230e+00,0.00000e+00,0.00000e+00,0.00000e+00
2.05000e+03,5.26620e-01,-3.48173e+00,0.00000e+00,0.00000e+00,0.00000e+00
2.05000e+03,8.16724e-01,-2.32115e+00,0.00000e+00,0.00000e+00,0.00000e+00
2.05000e+03,1.10552e+00,-1.16058e+00,0.00000e+00,0.00000e+00,0.00000e+00
--------------------------------------------------------------------------------------------------------------------------------------------------------------------------------------------------------------------------------------------------------------------------------------------------------------------------------------------------------------------------------

LAMINADO 
--------------------------------------------------------------------------------------------------------------------------------------------------------------------------------------------------------------------------------------------------------------------------------------------------------------------------------------------------------------------------------
X,Y,Z,Sigma,Tau,Von Mises
0.00000e+00,4.31008e+01,0.00000e+00,0.00000e+00,0.00000e+00,0.00000e+00
0.00000e+00,4.28837e+01,-3.27521e+00,0.00000e+00,0.00000e+00,0.00000e+00
0.00000e+00,4.25950e+01,-6.55041e+00,0.00000e+00,0.00000e+00,0.00000e+00
0.00000e+00,4.23033e+01,-9.82562e+00,0.00000e+00,0.00000e+00,0.00000e+00
0.00000e+00,4.19484e+01,-1.31008e+01,0.00000e+00,0.00000e+00,0.00000e+00
0.00000e+00,4.15787e+01,-1.63760e+01,0.00000e+00,0.00000e+00,0.00000e+00
0.00000e+00,4.11605e+01,-1.96512e+01,0.00000e+00,0.00000e+00,0.00000e+00
0.00000e+00,4.07187e+01,-2.29264e+01,0.00000e+00,0.00000e+00,0.00000e+00
0.00000e+00,4.02378e+01,-2.62017e+01,0.00000e+00,0.00000e+00,0.00000e+00
0.00000e+00,3.97249e+01,-2.94769e+01,0.00000e+00,0.00000e+00,0.00000e+00
0.00000e+00,3.91766e+01,-3.27521e+01,0.00000e+00,0.00000e+00,0.00000e+00
0.00000e+00,3.85857e+01,-3.60273e+01,0.00000e+00,0.00000e+00,0.00000e+00
0.00000e+00,3.79511e+01,-3.93025e+01,0.00000e+00,0.00000e+00,0.00000e+00
0.00000e+00,3.72545e+01,-4.25777e+01,0.00000e+00,0.00000e+00,0.00000e+00
0.00000e+00,3.64976e+01,-4.58529e+01,0.00000e+00,0.00000e+00,0.00000e+00
0.00000e+00,3.56687e+01,-4.91281e+01,0.00000e+00,0.00000e+00,0.00000e+00
0.00000e+00,3.47420e+01,-5.24033e+01,0.00000e+00,0.00000e+00,0.00000e+00
0.00000e+00,3.37474e+01,-5.56785e+01,0.00000e+00,0.00000e+00,0.00000e+00
0.00000e+00,3.26000e+01,-5.89537e+01,0.00000e+00,0.00000e+00,0.00000e+00
0.00000e+00,3.13892e+01,-6.22289e+01,0.00000e+00,0.00000e+00,0.00000e+00
0.00000e+00,3.00018e+01,-6.55041e+01,0.00000e+00,0.00000e+00,0.00000e+00
0.00000e+00,2.84730e+01,-6.87793e+01,0.00000e+00,0.00000e+00,0.00000e+00
0.00000e+00,2.68002e+01,-7.20546e+01,0.00000e+00,0.00000e+00,0.00000e+00
0.00000e+00,2.48857e+01,-7.53298e+01,0.00000e+00,0.00000e+00,0.00000e+00
0.00000e+00,2.26913e+01,-7.86050e+01,0.00000e+00,0.00000e+00,0.00000e+00
0.00000e+00,2.01805e+01,-8.18802e+01,0.00000e+00,0.00000e+00,0.00000e+00
0.00000e+00,1.72108e+01,-8.51554e+01,0.00000e+00,0.00000e+00,0.00000e+00
0.00000e+00,1.33989e+01,-8.84306e+01,0.00000e+00,0.00000e+00,0.00000e+00
0.00000e+00,8.24350e+00,-9.17058e+01,0.00000e+00,0.00000e+00,0.00000e+00
0.00000e+00,-3.34020e+00,-9.49810e+01,0.00000e+00,0.00000e+00,0.00000e+00
0.00000e+00,-4.17620e+00,-9.49886e+01,0.00000e+00,0.00000e+00,0.00000e+00
0.00000e+00,-1.17928e+01,-9.15961e+01,0.00000e+00,0.00000e+00,0.00000e+00
0.00000e+00,-1.27149e+01,-8.82037e+01,0.00000e+00,0.00000e+00,0.00000e+00
0.00000e+00,-1.30332e+01,-8.48113e+01,0.00000e+00,0.00000e+00,0.00000e+00
0.00000e+00,-1.30814e+01,-8.14188e+01,0.00000e+00,0.00000e+00,0.00000e+00
0.00000e+00,-1.29264e+01,-7.80264e+01,0.00000e+00,0.00000e+00,0.00000e+00
0.00000e+00,-1.26437e+01,-7.46339e+01,0.00000e+00,0.00000e+00,0.00000e+00
0.00000e+00,-1.22328e+01,-7.12415e+01,0.00000e+00,0.00000e+00,0.00000e+00
0.00000e+00,-1.17438e+01,-6.78490e+01,0.00000e+00,0.00000e+00,0.00000e+00
0.00000e+00,-1.12094e+01,-6.44565e+01,0.00000e+00,0.00000e+00,0.00000e+00
0.00000e+00,-1.06068e+01,-6.10641e+01,0.00000e+00,0.00000e+00,0.00000e+00
0.00000e+00,-9.96142e+00,-5.76716e+01,0.00000e+00,0.00000e+00,0.00000e+00
0.00000e+00,-9.27449e+00,-5.42792e+01,0.00000e+00,0.00000e+00,0.00000e+00
0.00000e+00,-8.54615e+00,-5.08867e+01,0.00000e+00,0.00000e+00,0.00000e+00
0.00000e+00,-7.79185e+00,-4.74943e+01,0.00000e+00,0.00000e+00,0.00000e+00
0.00000e+00,-7.00429e+00,-4.41018e+01,0.00000e+00,0.00000e+00,0.00000e+00
0.00000e+00,-6.19544e+00,-4.07094e+01,0.00000e+00,0.00000e+00,0.00000e+00
0.00000e+00,-5.36748e+00,-3.73169e+01,0.00000e+00,0.00000e+00,0.00000e+00
0.00000e+00,-4.52248e+00,-3.39245e+01,0.00000e+00,0.00000e+00,0.00000e+00
0.00000e+00,-3.67026e+00,-3.05320e+01,0.00000e+00,0.00000e+00,0.00000e+00
0.00000e+00,-2.80686e+00,-2.71396e+01,0.00000e+00,0.00000e+00,0.00000e+00
0.00000e+00,-1.94159e+00,-2.37472e+01,0.00000e+00,0.00000e+00,0.00000e+00
0.00000e+00,-1.06964e+00,-2.03547e+01,0.00000e+00,0.00000e+00,0.00000e+00
0.00000e+00,-1.97780e-01,-1.69622e+01,0.00000e+00,0.00000e+00,0.00000e+00
0.00000e+00,6.70785e-01,-1.35698e+01,0.00000e+00,0.00000e+00,0.00000e+00
0.00000e+00,1.53935e+00,-1.01774e+01,0.00000e+00,0.00000e+00,0.00000e+00
0.00000e+00,2.38735e+00,-6.78490e+00,0.00000e+00,0.00000e+00,0.00000e+00
0.00000e+00,3.23151e+00,-3.39245e+00,0.00000e+00,0.00000e+00,0.00000e+00
1.07300e+02,4.26785e+01,0.00000e+00,0.00000e+00,0.00000e+00,0.00000e+00
1.07300e+02,4.24636e+01,-3.24312e+00,0.00000e+00,0.00000e+00,0.00000e+00
1.07300e+02,4.21777e+01,-6.48624e+00,0.00000e+00,0.00000e+00,0.00000e+00
1.07300e+02,4.18889e+01,-9.72936e+00,0.00000e+00,0.00000e+00,0.00000e+00
1.07300e+02,4.15374e+01,-1.29725e+01,0.00000e+00,0.00000e+00,0.00000e+00
1.07300e+02,4.11714e+01,-1.62156e+01,0.00000e+00,0.00000e+00,0.00000e+00
1.07300e+02,4.07572e+01,-1.94587e+01,0.00000e+00,0.00000e+00,0.00000e+00
1.07300e+02,4.03197e+01,-2.27018e+01,0.00000e+00,0.00000e+00,0.00000e+00
1.07300e+02,3.98436e+01,-2.59450e+01,0.00000e+00,0.00000e+00,0.00000e+00
1.07300e+02,3.93357e+01,-2.91881e+01,0.00000e+00,0.00000e+00,0.00000e+00
1.07300e+02,3.87928e+01,-3.24312e+01,0.00000e+00,0.00000e+00,0.00000e+00
1.07300e+02,3.82077e+01,-3.56743e+01,0.00000e+00,0.00000e+00,0.00000e+00
1.07300e+02,3.75793e+01,-3.89174e+01,0.00000e+00,0.00000e+00,0.00000e+00
1.07300e+02,3.68895e+01,-4.21606e+01,0.00000e+00,0.00000e+00,0.00000e+00
1.07300e+02,3.61401e+01,-4.54037e+01,0.00000e+00,0.00000e+00,0.00000e+00
1.07300e+02,3.53192e+01,-4.86468e+01,0.00000e+00,0.00000e+00,0.00000e+00
1.07300e+02,3.44016e+01,-5.18899e+01,0.00000e+00,0.00000e+00,0.00000e+00
1.07300e+02,3.34168e+01,-5.51330e+01,0.00000e+00,0.00000e+00,0.00000e+00
1.07300e+02,3.22806e+01,-5.83762e+01,0.00000e+00,0.00000e+00,0.00000e+00
1.07300e+02,3.10816e+01,-6.16193e+01,0.00000e+00,0.00000e+00,0.00000e+00
1.07300e+02,2.97079e+01,-6.48624e+01,0.00000e+00,0.00000e+00,0.00000e+00
1.07300e+02,2.81940e+01,-6.81055e+01,0.00000e+00,0.00000e+00,0.00000e+00
1.07300e+02,2.65376e+01,-7.13486e+01,0.00000e+00,0.00000e+00,0.00000e+00
1.07300e+02,2.46419e+01,-7.45918e+01,0.00000e+00,0.00000e+00,0.00000e+00
1.07300e+02,2.24690e+01,-7.78349e+01,0.00000e+00,0.00000e+00,0.00000e+00
1.07300e+02,1.99828e+01,-8.10780e+01,0.00000e+00,0.00000e+00,0.00000e+00
1.07300e+02,1.70422e+01,-8.43211e+01,0.00000e+00,0.00000e+00,0.00000e+00
1.07300e+02,1.32676e+01,-8.75642e+01,0.00000e+00,0.00000e+00,0.00000e+00
1.07300e+02,8.16273e+00,-9.08074e+01,0.00000e+00,0.00000e+00,0.00000e+00
1.07300e+02,-3.30748e+00,-9.40505e+01,0.00000e+00,0.00000e+00,0.00000e+00
1.07300e+02,-4.13529e+00,-9.40580e+01,0.00000e+00,0.00000e+00,0.00000e+00
1.07300e+02,-1.16772e+01,-9.06988e+01,0.00000e+00,0.00000e+00,0.00000e+00
1.07300e+02,-1.25904e+01,-8.73396e+01,0.00000e+00,0.00000e+00,0.00000e+00
1.07300e+02,-1.29055e+01,-8.39804e+01,0.00000e+00,0.00000e+00,0.00000e+00
1.07300e+02,-1.29533e+01,-8.06211e+01,0.00000e+00,0.00000e+00,0.00000e+00
1.07300e+02,-1.27997e+01,-7.72619e+01,0.00000e+00,0.00000e+00,0.00000e+00
1.07300e+02,-1.25198e+01,-7.39027e+01,0.00000e+00,0.00000e+00,0.00000e+00
1.07300e+02,-1.21130e+01,-7.05435e+01,0.00000e+00,0.00000e+00,0.00000e+00
1.07300e+02,-1.16287e+01,-6.71843e+01,0.00000e+00,0.00000e+00,0.00000e+00
1.07300e+02,-1.10996e+01,-6.38251e+01,0.00000e+00,0.00000e+00,0.00000e+00
1.07300e+02,-1.05029e+01,-6.04659e+01,0.00000e+00,0.00000e+00,0.00000e+00
1.07300e+02,-9.86382e+00,-5.71066e+01,0.00000e+00,0.00000e+00,0.00000e+00
1.07300e+02,-9.18363e+00,-5.37474e+01,0.00000e+00,0.00000e+00,0.00000e+00
1.07300e+02,-8.46243e+00,-5.03882e+01,0.00000e+00,0.00000e+00,0.00000e+00
1.07300e+02,-7.71552e+00,-4.70290e+01,0.00000e+00,0.00000e+00,0.00000e+00
1.07300e+02,-6.93567e+00,-4.36698e+01,0.00000e+00,0.00000e+00,0.00000e+00
1.07300e+02,-6.13474e+00,-4.03106e+01,0.00000e+00,0.00000e+00,0.00000e+00
1.07300e+02,-5.31490e+00,-3.69514e+01,0.00000e+00,0.00000e+00,0.00000e+00
1.07300e+02,-4.47818e+00,-3.35921e+01,0.00000e+00,0.00000e+00,0.00000e+00
1.07300e+02,-3.63431e+00,-3.02329e+01,0.00000e+00,0.00000e+00,0.00000e+00
1.07300e+02,-2.77936e+00,-2.68737e+01,0.00000e+00,0.00000e+00,0.00000e+00
1.07300e+02,-1.92257e+00,-2.35145e+01,0.00000e+00,0.00000e+00,0.00000e+00
1.07300e+02,-1.05916e+00,-2.01553e+01,0.00000e+00,0.00000e+00,0.00000e+00
1.07300e+02,-1.95842e-01,-1.67961e+01,0.00000e+00,0.00000e+00,0.00000e+00
1.07300e+02,6.64213e-01,-1.34369e+01,0.00000e+00,0.00000e+00,0.00000e+00
1.07300e+02,1.52427e+00,-1.00776e+01,0.00000e+00,0.00000e+00,0.00000e+00
1.07300e+02,2.36396e+00,-6.71843e+00,0.00000e+00,0.00000e+00,0.00000e+00
1.07300e+02,3.19985e+00,-3.35921e+00,0.00000e+00,0.00000e+00,0.00000e+00
2.14300e+02,4.22575e+01,0.00000e+00,0.00000e+00,0.00000e+00,0.00000e+00
2.14300e+02,4.20447e+01,-3.21112e+00,0.00000e+00,0.00000e+00,0.00000e+00
2.14300e+02,4.17615e+01,-6.42224e+00,0.00000e+00,0.00000e+00,0.00000e+00
2.14300e+02,4.14756e+01,-9.63337e+00,0.00000e+00,0.00000e+00,0.00000e+00
2.14300e+02,4.11276e+01,-1.28445e+01,0.00000e+00,0.00000e+00,0.00000e+00
2.14300e+02,4.07652e+01,-1.60556e+01,0.00000e+00,0.00000e+00,0.00000e+00
2.14300e+02,4.03551e+01,-1.92667e+01,0.00000e+00,0.00000e+00,0.00000e+00
2.14300e+02,3.99219e+01,-2.24779e+01,0.00000e+00,0.00000e+00,0.00000e+00
2.14300e+02,3.94505e+01,-2.56890e+01,0.00000e+00,0.00000e+00,0.00000e+00
2.14300e+02,3.89476e+01,-2.89001e+01,0.00000e+00,0.00000e+00,0.00000e+00
2.14300e+02,3.84101e+01,-3.21112e+01,0.00000e+00,0.00000e+00,0.00000e+00
2.14300e+02,3.78307e+01,-3.53223e+01,0.00000e+00,0.00000e+00,0.00000e+00
2.14300e+02,3.72085e+01,-3.85335e+01,0.00000e+00,0.00000e+00,0.00000e+00
2.14300e+02,3.65256e+01,-4.17446e+01,0.00000e+00,0.00000e+00,0.00000e+00
2.14300e+02,3.57835e+01,-4.49557e+01,0.00000e+00,0.00000e+00,0.00000e+00
2.14300e+02,3.49707e+01,-4.81668e+01,0.00000e+00,0.00000e+00,0.00000e+00
2.14300e+02,3.40622e+01,-5.13780e+01,0.00000e+00,0.00000e+00,0.00000e+00
2.14300e+02,3.30871e+01,-5.45891e+01,0.00000e+00,0.00000e+00,0.00000e+00
2.14300e+02,3.19621e+01,-5.78002e+01,0.00000e+00,0.00000e+00,0.00000e+00
2.14300e+02,3.07750e+01,-6.10113e+01,0.00000e+00,0.00000e+00,0.00000e+00
2.14300e+02,2.94148e+01,-6.42224e+01,0.00000e+00,0.00000e+00,0.00000e+00
2.14300e+02,2.79159e+01,-6.74336e+01,0.00000e+00,0.00000e+00,0.00000e+00
2.14300e+02,2.62758e+01,-7.06447e+01,0.00000e+00,0.00000e+00,0.00000e+00
2.14300e+02,2.43988e+01,-7.38558e+01,0.00000e+00,0.00000e+00,0.00000e+00
2.14300e+02,2.22473e+01,-7.70669e+01,0.00000e+00,0.00000e+00,0.00000e+00
2.14300e+02,1.97856e+01,-8.02781e+01,0.00000e+00,0.00000e+00,0.00000e+00
2.14300e+02,1.68740e+01,-8.34892e+01,0.00000e+00,0.00000e+00,0.00000e+00
2.14300e+02,1.31367e+01,-8.67003e+01,0.00000e+00,0.00000e+00,0.00000e+00
2.14300e+02,8.08220e+00,-8.99114e+01,0.00000e+00,0.00000e+00,0.00000e+00
2.14300e+02,-3.27484e+00,-9.31226e+01,0.00000e+00,0.00000e+00,0.00000e+00
2.14300e+02,-4.09449e+00,-9.31300e+01,0.00000e+00,0.00000e+00,0.00000e+00
2.14300e+02,-1.15620e+01,-8.98039e+01,0.00000e+00,0.00000e+00,0.00000e+00
2.14300e+02,-1.24661e+01,-8.64779e+01,0.00000e+00,0.00000e+00,0.00000e+00
2.14300e+02,-1.27781e+01,-8.31518e+01,0.00000e+00,0.00000e+00,0.00000e+00
2.14300e+02,-1.28255e+01,-7.98257e+01,0.00000e+00,0.00000e+00,0.00000e+00
2.14300e+02,-1.26734e+01,-7.64996e+01,0.00000e+00,0.00000e+00,0.00000e+00
2.14300e+02,-1.23963e+01,-7.31736e+01,0.00000e+00,0.00000e+00,0.00000e+00
2.14300e+02,-1.19935e+01,-6.98475e+01,0.00000e+00,0.00000e+00,0.00000e+00
2.14300e+02,-1.15140e+01,-6.65214e+01,0.00000e+00,0.00000e+00,0.00000e+00
2.14300e+02,-1.09901e+01,-6.31954e+01,0.00000e+00,0.00000e+00,0.00000e+00
2.14300e+02,-1.03992e+01,-5.98693e+01,0.00000e+00,0.00000e+00,0.00000e+00
2.14300e+02,-9.76651e+00,-5.65432e+01,0.00000e+00,0.00000e+00,0.00000e+00
2.14300e+02,-9.09302e+00,-5.32171e+01,0.00000e+00,0.00000e+00,0.00000e+00
2.14300e+02,-8.37893e+00,-4.98911e+01,0.00000e+00,0.00000e+00,0.00000e+00
2.14300e+02,-7.63939e+00,-4.65650e+01,0.00000e+00,0.00000e+00,0.00000e+00
2.14300e+02,-6.86724e+00,-4.32389e+01,0.00000e+00,0.00000e+00,0.00000e+00
2.14300e+02,-6.07421e+00,-3.99129e+01,0.00000e+00,0.00000e+00,0.00000e+00
2.14300e+02,-5.26246e+00,-3.65868e+01,0.00000e+00,0.00000e+00,0.00000e+00
2.14300e+02,-4.43399e+00,-3.32607e+01,0.00000e+00,0.00000e+00,0.00000e+00
2.14300e+02,-3.59845e+00,-2.99346e+01,0.00000e+00,0.00000e+00,0.00000e+00
2.14300e+02,-2.75194e+00,-2.66086e+01,0.00000e+00,0.00000e+00,0.00000e+00
2.14300e+02,-1.90360e+00,-2.32825e+01,0.00000e+00,0.00000e+00,0.00000e+00
2.14300e+02,-1.04871e+00,-1.99564e+01,0.00000e+00,0.00000e+00,0.00000e+00
2.14300e+02,-1.93910e-01,-1.66304e+01,0.00000e+00,0.00000e+00,0.00000e+00
2.14300e+02,6.57660e-01,-1.33043e+01,0.00000e+00,0.00000e+00,0.00000e+00
2.14300e+02,1.50923e+00,-9.97821e+00,0.00000e+00,0.00000e+00,0.00000e+00
2.14300e+02,2.34063e+00,-6.65214e+00,0.00000e+00,0.00000e+00,0.00000e+00
2.14300e+02,3.16828e+00,-3.32607e+00,0.00000e+00,0.00000e+00,0.00000e+00
3.20700e+02,4.18388e+01,0.00000e+00,0.00000e+00,0.00000e+00,0.00000e+00
3.20700e+02,4.16280e+01,-3.17930e+00,0.00000e+00,0.00000e+00,0.00000e+00
3.20700e+02,4.13477e+01,-6.35861e+00,0.00000e+00,0.00000e+00,0.00000e+00
3.20700e+02,4.10646e+01,-9.53791e+00,0.00000e+00,0.00000e+00,0.00000e+00
3.20700e+02,4.07201e+01,-1.27172e+01,0.00000e+00,0.00000e+00,0.00000e+00
3.20700e+02,4.03613e+01,-1.58965e+01,0.00000e+00,0.00000e+00,0.00000e+00
3.20700e+02,3.99553e+01,-1.90758e+01,0.00000e+00,0.00000e+00,0.00000e+00
3.20700e+02,3.95264e+01,-2.22551e+01,0.00000e+00,0.00000e+00,0.00000e+00
3.20700e+02,3.90596e+01,-2.54344e+01,0.00000e+00,0.00000e+00,0.00000e+00
3.20700e+02,3.85617e+01,-2.86137e+01,0.00000e+00,0.00000e+00,0.00000e+00
3.20700e+02,3.80295e+01,-3.17930e+01,0.00000e+00,0.00000e+00,0.00000e+00
3.20700e+02,3.74559e+01,-3.49724e+01,0.00000e+00,0.00000e+00,0.00000e+00
3.20700e+02,3.68398e+01,-3.81517e+01,0.00000e+00,0.00000e+00,0.00000e+00
3.20700e+02,3.61637e+01,-4.13310e+01,0.00000e+00,0.00000e+00,0.00000e+00
3.20700e+02,3.54289e+01,-4.45103e+01,0.00000e+00,0.00000e+00,0.00000e+00
3.20700e+02,3.46242e+01,-4.76896e+01,0.00000e+00,0.00000e+00,0.00000e+00
3.20700e+02,3.37247e+01,-5.08689e+01,0.00000e+00,0.00000e+00,0.00000e+00
3.20700e+02,3.27593e+01,-5.40482e+01,0.00000e+00,0.00000e+00,0.00000e+00
3.20700e+02,3.16454e+01,-5.72275e+01,0.00000e+00,0.00000e+00,0.00000e+00
3.20700e+02,3.04701e+01,-6.04068e+01,0.00000e+00,0.00000e+00,0.00000e+00
3.20700e+02,2.91233e+01,-6.35861e+01,0.00000e+00,0.00000e+00,0.00000e+00
3.20700e+02,2.76393e+01,-6.67654e+01,0.00000e+00,0.00000e+00,0.00000e+00
3.20700e+02,2.60154e+01,-6.99447e+01,0.00000e+00,0.00000e+00,0.00000e+00
3.20700e+02,2.41570e+01,-7.31240e+01,0.00000e+00,0.00000e+00,0.00000e+00
3.20700e+02,2.20269e+01,-7.63033e+01,0.00000e+00,0.00000e+00,0.00000e+00
3.20700e+02,1.95896e+01,-7.94826e+01,0.00000e+00,0.00000e+00,0.00000e+00
3.20700e+02,1.67068e+01,-8.26619e+01,0.00000e+00,0.00000e+00,0.00000e+00
3.20700e+02,1.30066e+01,-8.58412e+01,0.00000e+00,0.00000e+00,0.00000e+00
3.20700e+02,8.00212e+00,-8.90205e+01,0.00000e+00,0.00000e+00,0.00000e+00
3.20700e+02,-3.24239e+00,-9.21998e+01,0.00000e+00,0.00000e+00,0.00000e+00
3.20700e+02,-4.05392e+00,-9.22072e+01,0.00000e+00,0.00000e+00,0.00000e+00
3.20700e+02,-1.14474e+01,-8.89141e+01,0.00000e+00,0.00000e+00,0.00000e+00
3.20700e+02,-1.23426e+01,-8.56210e+01,0.00000e+00,0.00000e+00,0.00000e+00
3.20700e+02,-1.26515e+01,-8.23279e+01,0.00000e+00,0.00000e+00,0.00000e+00
3.20700e+02,-1.26984e+01,-7.90348e+01,0.00000e+00,0.00000e+00,0.00000e+00
3.20700e+02,-1.25479e+01,-7.57416e+01,0.00000e+00,0.00000e+00,0.00000e+00
3.20700e+02,-1.22734e+01,-7.24485e+01,0.00000e+00,0.00000e+00,0.00000e+00
3.20700e+02,-1.18746e+01,-6.91554e+01,0.00000e+00,0.00000e+00,0.00000e+00
3.20700e+02,-1.13999e+01,-6.58623e+01,0.00000e+00,0.00000e+00,0.00000e+00
3.20700e+02,-1.08812e+01,-6.25692e+01,0.00000e+00,0.00000e+00,0.00000e+00
3.20700e+02,-1.02962e+01,-5.92761e+01,0.00000e+00,0.00000e+00,0.00000e+00
3.20700e+02,-9.66973e+00,-5.59829e+01,0.00000e+00,0.00000e+00,0.00000e+00
3.20700e+02,-9.00292e+00,-5.26898e+01,0.00000e+00,0.00000e+00,0.00000e+00
3.20700e+02,-8.29591e+00,-4.93967e+01,0.00000e+00,0.00000e+00,0.00000e+00
3.20700e+02,-7.56370e+00,-4.61036e+01,0.00000e+00,0.00000e+00,0.00000e+00
3.20700e+02,-6.79920e+00,-4.28105e+01,0.00000e+00,0.00000e+00,0.00000e+00
3.20700e+02,-6.01403e+00,-3.95174e+01,0.00000e+00,0.00000e+00,0.00000e+00
3.20700e+02,-5.21032e+00,-3.62243e+01,0.00000e+00,0.00000e+00,0.00000e+00
3.20700e+02,-4.39006e+00,-3.29311e+01,0.00000e+00,0.00000e+00,0.00000e+00
3.20700e+02,-3.56279e+00,-2.96380e+01,0.00000e+00,0.00000e+00,0.00000e+00
3.20700e+02,-2.72467e+00,-2.63449e+01,0.00000e+00,0.00000e+00,0.00000e+00
3.20700e+02,-1.88474e+00,-2.30518e+01,0.00000e+00,0.00000e+00,0.00000e+00
3.20700e+02,-1.03832e+00,-1.97587e+01,0.00000e+00,0.00000e+00,0.00000e+00
3.20700e+02,-1.91989e-01,-1.64656e+01,0.00000e+00,0.00000e+00,0.00000e+00
3.20700e+02,6.51143e-01,-1.31725e+01,0.00000e+00,0.00000e+00,0.00000e+00
3.20700e+02,1.49428e+00,-9.87934e+00,0.00000e+00,0.00000e+00,0.00000e+00
3.20700e+02,2.31744e+00,-6.58623e+00,0.00000e+00,0.00000e+00,0.00000e+00
3.20700e+02,3.13689e+00,-3.29311e+00,0.00000e+00,0.00000e+00,0.00000e+00
4.26200e+02,4.14236e+01,0.00000e+00,0.00000e+00,0.00000e+00,0.00000e+00
4.26200e+02,4.12150e+01,-3.14776e+00,0.00000e+00,0.00000e+00,0.00000e+00
4.26200e+02,4.09374e+01,-6.29551e+00,0.00000e+00,0.00000e+00,0.00000e+00
4.26200e+02,4.06571e+01,-9.44327e+00,0.00000e+00,0.00000e+00,0.00000e+00
4.26200e+02,4.03160e+01,-1.25910e+01,0.00000e+00,0.00000e+00,0.00000e+00
4.26200e+02,3.99607e+01,-1.57388e+01,0.00000e+00,0.00000e+00,0.00000e+00
4.26200e+02,3.95588e+01,-1.88865e+01,0.00000e+00,0.00000e+00,0.00000e+00
4.26200e+02,3.91341e+01,-2.20343e+01,0.00000e+00,0.00000e+00,0.00000e+00
4.26200e+02,3.86720e+01,-2.51820e+01,0.00000e+00,0.00000e+00,0.00000e+00
4.26200e+02,3.81790e+01,-2.83298e+01,0.00000e+00,0.00000e+00,0.00000e+00
4.26200e+02,3.76521e+01,-3.14776e+01,0.00000e+00,0.00000e+00,0.00000e+00
4.26200e+02,3.70842e+01,-3.46253e+01,0.00000e+00,0.00000e+00,0.00000e+00
4.26200e+02,3.64743e+01,-3.77731e+01,0.00000e+00,0.00000e+00,0.00000e+00
4.26200e+02,3.58048e+01,-4.09208e+01,0.00000e+00,0.00000e+00,0.00000e+00
4.26200e+02,3.50774e+01,-4.40686e+01,0.00000e+00,0.00000e+00,0.00000e+00
4.26200e+02,3.42806e+01,-4.72163e+01,0.00000e+00,0.00000e+00,0.00000e+00
4.26200e+02,3.33901e+01,-5.03641e+01,0.00000e+00,0.00000e+00,0.00000e+00
4.26200e+02,3.24342e+01,-5.35118e+01,0.00000e+00,0.00000e+00,0.00000e+00
4.26200e+02,3.13314e+01,-5.66596e+01,0.00000e+00,0.00000e+00,0.00000e+00
4.26200e+02,3.01677e+01,-5.98074e+01,0.00000e+00,0.00000e+00,0.00000e+00
4.26200e+02,2.88343e+01,-6.29551e+01,0.00000e+00,0.00000e+00,0.00000e+00
4.26200e+02,2.73650e+01,-6.61029e+01,0.00000e+00,0.00000e+00,0.00000e+00
4.26200e+02,2.57573e+01,-6.92506e+01,0.00000e+00,0.00000e+00,0.00000e+00
4.26200e+02,2.39173e+01,-7.23984e+01,0.00000e+00,0.00000e+00,0.00000e+00
4.26200e+02,2.18083e+01,-7.55461e+01,0.00000e+00,0.00000e+00,0.00000e+00
4.26200e+02,1.93952e+01,-7.86939e+01,0.00000e+00,0.00000e+00,0.00000e+00
4.26200e+02,1.65410e+01,-8.18417e+01,0.00000e+00,0.00000e+00,0.00000e+00
4.26200e+02,1.28775e+01,-8.49894e+01,0.00000e+00,0.00000e+00,0.00000e+00
4.26200e+02,7.92271e+00,-8.81372e+01,0.00000e+00,0.00000e+00,0.00000e+00
4.26200e+02,-3.21022e+00,-9.12849e+01,0.00000e+00,0.00000e+00,0.00000e+00
4.26200e+02,-4.01369e+00,-9.12922e+01,0.00000e+00,0.00000e+00,0.00000e+00
4.26200e+02,-1.13339e+01,-8.80318e+01,0.00000e+00,0.00000e+00,0.00000e+00
4.26200e+02,-1.22201e+01,-8.47713e+01,0.00000e+00,0.00000e+00,0.00000e+00
4.26200e+02,-1.25260e+01,-8.15109e+01,0.00000e+00,0.00000e+00,0.00000e+00
4.26200e+02,-1.25724e+01,-7.82505e+01,0.00000e+00,0.00000e+00,0.00000e+00
4.26200e+02,-1.24233e+01,-7.49900e+01,0.00000e+00,0.00000e+00,0.00000e+00
4.26200e+02,-1.21516e+01,-7.17296e+01,0.00000e+00,0.00000e+00,0.00000e+00
4.26200e+02,-1.17568e+01,-6.84692e+01,0.00000e+00,0.00000e+00,0.00000e+00
4.26200e+02,-1.12868e+01,-6.52087e+01,0.00000e+00,0.00000e+00,0.00000e+00
4.26200e+02,-1.07732e+01,-6.19483e+01,0.00000e+00,0.00000e+00,0.00000e+00
4.26200e+02,-1.01940e+01,-5.86879e+01,0.00000e+00,0.00000e+00,0.00000e+00
4.26200e+02,-9.57378e+00,-5.54274e+01,0.00000e+00,0.00000e+00,0.00000e+00
4.26200e+02,-8.91358e+00,-5.21670e+01,0.00000e+00,0.00000e+00,0.00000e+00
4.26200e+02,-8.21359e+00,-4.89065e+01,0.00000e+00,0.00000e+00,0.00000e+00
4.26200e+02,-7.48864e+00,-4.56461e+01,0.00000e+00,0.00000e+00,0.00000e+00
4.26200e+02,-6.73173e+00,-4.23857e+01,0.00000e+00,0.00000e+00,0.00000e+00
4.26200e+02,-5.95435e+00,-3.91252e+01,0.00000e+00,0.00000e+00,0.00000e+00
4.26200e+02,-5.15861e+00,-3.58648e+01,0.00000e+00,0.00000e+00,0.00000e+00
4.26200e+02,-4.34650e+00,-3.26044e+01,0.00000e+00,0.00000e+00,0.00000e+00
4.26200e+02,-3.52744e+00,-2.93439e+01,0.00000e+00,0.00000e+00,0.00000e+00
4.26200e+02,-2.69763e+00,-2.60835e+01,0.00000e+00,0.00000e+00,0.00000e+00
4.26200e+02,-1.86603e+00,-2.28231e+01,0.00000e+00,0.00000e+00,0.00000e+00
4.26200e+02,-1.02802e+00,-1.95626e+01,0.00000e+00,0.00000e+00,0.00000e+00
4.26200e+02,-1.90083e-01,-1.63022e+01,0.00000e+00,0.00000e+00,0.00000e+00
4.26200e+02,6.44682e-01,-1.30417e+01,0.00000e+00,0.00000e+00,0.00000e+00
4.26200e+02,1.47945e+00,-9.78131e+00,0.00000e+00,0.00000e+00,0.00000e+00
4.26200e+02,2.29445e+00,-6.52087e+00,0.00000e+00,0.00000e+00,0.00000e+00
4.26200e+02,3.10576e+00,-3.26044e+00,0.00000e+00,0.00000e+00,0.00000e+00
5.30600e+02,4.10127e+01,0.00000e+00,0.00000e+00,0.00000e+00,0.00000e+00
5.30600e+02,4.08062e+01,-3.11654e+00,0.00000e+00,0.00000e+00,0.00000e+00
5.30600e+02,4.05314e+01,-6.23307e+00,0.00000e+00,0.00000e+00,0.00000e+00
5.30600e+02,4.02539e+01,-9.34961e+00,0.00000e+00,0.00000e+00,0.00000e+00
5.30600e+02,3.99161e+01,-1.24661e+01,0.00000e+00,0.00000e+00,0.00000e+00
5.30600e+02,3.95644e+01,-1.55827e+01,0.00000e+00,0.00000e+00,0.00000e+00
5.30600e+02,3.91664e+01,-1.86992e+01,0.00000e+00,0.00000e+00,0.00000e+00
5.30600e+02,3.87460e+01,-2.18158e+01,0.00000e+00,0.00000e+00,0.00000e+00
5.30600e+02,3.82884e+01,-2.49323e+01,0.00000e+00,0.00000e+00,0.00000e+00
5.30600e+02,3.78003e+01,-2.80488e+01,0.00000e+00,0.00000e+00,0.00000e+00
5.30600e+02,3.72787e+01,-3.11654e+01,0.00000e+00,0.00000e+00,0.00000e+00
5.30600e+02,3.67164e+01,-3.42819e+01,0.00000e+00,0.00000e+00,0.00000e+00
5.30600e+02,3.61125e+01,-3.73984e+01,0.00000e+00,0.00000e+00,0.00000e+00
5.30600e+02,3.54497e+01,-4.05150e+01,0.00000e+00,0.00000e+00,0.00000e+00
5.30600e+02,3.47295e+01,-4.36315e+01,0.00000e+00,0.00000e+00,0.00000e+00
5.30600e+02,3.39406e+01,-4.67480e+01,0.00000e+00,0.00000e+00,0.00000e+00
5.30600e+02,3.30589e+01,-4.98646e+01,0.00000e+00,0.00000e+00,0.00000e+00
5.30600e+02,3.21125e+01,-5.29811e+01,0.00000e+00,0.00000e+00,0.00000e+00
5.30600e+02,3.10206e+01,-5.60976e+01,0.00000e+00,0.00000e+00,0.00000e+00
5.30600e+02,2.98685e+01,-5.92142e+01,0.00000e+00,0.00000e+00,0.00000e+00
5.30600e+02,2.85484e+01,-6.23307e+01,0.00000e+00,0.00000e+00,0.00000e+00
5.30600e+02,2.70936e+01,-6.54473e+01,0.00000e+00,0.00000e+00,0.00000e+00
5.30600e+02,2.55018e+01,-6.85638e+01,0.00000e+00,0.00000e+00,0.00000e+00
5.30600e+02,2.36801e+01,-7.16803e+01,0.00000e+00,0.00000e+00,0.00000e+00
5.30600e+02,2.15920e+01,-7.47969e+01,0.00000e+00,0.00000e+00,0.00000e+00
5.30600e+02,1.92028e+01,-7.79134e+01,0.00000e+00,0.00000e+00,0.00000e+00
5.30600e+02,1.63770e+01,-8.10299e+01,0.00000e+00,0.00000e+00,0.00000e+00
5.30600e+02,1.27498e+01,-8.41465e+01,0.00000e+00,0.00000e+00,0.00000e+00
5.30600e+02,7.84413e+00,-8.72630e+01,0.00000e+00,0.00000e+00,0.00000e+00
5.30600e+02,-3.17838e+00,-9.03795e+01,0.00000e+00,0.00000e+00,0.00000e+00
5.30600e+02,-3.97388e+00,-9.03868e+01,0.00000e+00,0.00000e+00,0.00000e+00
5.30600e+02,-1.12214e+01,-8.71587e+01,0.00000e+00,0.00000e+00,0.00000e+00
5.30600e+02,-1.20989e+01,-8.39306e+01,0.00000e+00,0.00000e+00,0.00000e+00
5.30600e+02,-1.24018e+01,-8.07025e+01,0.00000e+00,0.00000e+00,0.00000e+00
5.30600e+02,-1.24477e+01,-7.74744e+01,0.00000e+00,0.00000e+00,0.00000e+00
5.30600e+02,-1.23001e+01,-7.42463e+01,0.00000e+00,0.00000e+00,0.00000e+00
5.30600e+02,-1.20311e+01,-7.10182e+01,0.00000e+00,0.00000e+00,0.00000e+00
5.30600e+02,-1.16402e+01,-6.77901e+01,0.00000e+00,0.00000e+00,0.00000e+00
5.30600e+02,-1.11748e+01,-6.45620e+01,0.00000e+00,0.00000e+00,0.00000e+00
5.30600e+02,-1.06664e+01,-6.13339e+01,0.00000e+00,0.00000e+00,0.00000e+00
5.30600e+02,-1.00929e+01,-5.81058e+01,0.00000e+00,0.00000e+00,0.00000e+00
5.30600e+02,-9.47882e+00,-5.48777e+01,0.00000e+00,0.00000e+00,0.00000e+00
5.30600e+02,-8.82518e+00,-5.16496e+01,0.00000e+00,0.00000e+00,0.00000e+00
5.30600e+02,-8.13212e+00,-4.84215e+01,0.00000e+00,0.00000e+00,0.00000e+00
5.30600e+02,-7.41437e+00,-4.51934e+01,0.00000e+00,0.00000e+00,0.00000e+00
5.30600e+02,-6.66496e+00,-4.19653e+01,0.00000e+00,0.00000e+00,0.00000e+00
5.30600e+02,-5.89529e+00,-3.87372e+01,0.00000e+00,0.00000e+00,0.00000e+00
5.30600e+02,-5.10745e+00,-3.55091e+01,0.00000e+00,0.00000e+00,0.00000e+00
5.30600e+02,-4.30339e+00,-3.22810e+01,0.00000e+00,0.00000e+00,0.00000e+00
5.30600e+02,-3.49245e+00,-2.90529e+01,0.00000e+00,0.00000e+00,0.00000e+00
5.30600e+02,-2.67088e+00,-2.58248e+01,0.00000e+00,0.00000e+00,0.00000e+00
5.30600e+02,-1.84753e+00,-2.25967e+01,0.00000e+00,0.00000e+00,0.00000e+00
5.30600e+02,-1.01782e+00,-1.93686e+01,0.00000e+00,0.00000e+00,0.00000e+00
5.30600e+02,-1.88198e-01,-1.61405e+01,0.00000e+00,0.00000e+00,0.00000e+00
5.30600e+02,6.38288e-01,-1.29124e+01,0.00000e+00,0.00000e+00,0.00000e+00
5.30600e+02,1.46477e+00,-9.68430e+00,0.00000e+00,0.00000e+00,0.00000e+00
5.30600e+02,2.27169e+00,-6.45620e+00,0.00000e+00,0.00000e+00,0.00000e+00
5.30600e+02,3.07496e+00,-3.22810e+00,0.00000e+00,0.00000e+00,0.00000e+00
6.33500e+02,4.06078e+01,0.00000e+00,0.00000e+00,0.00000e+00,0.00000e+00
6.33500e+02,4.04033e+01,-3.08576e+00,0.00000e+00,0.00000e+00,0.00000e+00
6.33500e+02,4.01312e+01,-6.17153e+00,0.00000e+00,0.00000e+00,0.00000e+00
6.33500e+02,3.98564e+01,-9.25729e+00,0.00000e+00,0.00000e+00,0.00000e+00
6.33500e+02,3.95220e+01,-1.23431e+01,0.00000e+00,0.00000e+00,0.00000e+00
6.33500e+02,3.91738e+01,-1.54288e+01,0.00000e+00,0.00000e+00,0.00000e+00
6.33500e+02,3.87797e+01,-1.85146e+01,0.00000e+00,0.00000e+00,0.00000e+00
6.33500e+02,3.83634e+01,-2.16004e+01,0.00000e+00,0.00000e+00,0.00000e+00
6.33500e+02,3.79104e+01,-2.46861e+01,0.00000e+00,0.00000e+00,0.00000e+00
6.33500e+02,3.74271e+01,-2.77719e+01,0.00000e+00,0.00000e+00,0.00000e+00
6.33500e+02,3.69106e+01,-3.08576e+01,0.00000e+00,0.00000e+00,0.00000e+00
6.33500e+02,3.63539e+01,-3.39434e+01,0.00000e+00,0.00000e+00,0.00000e+00
6.33500e+02,3.57559e+01,-3.70292e+01,0.00000e+00,0.00000e+00,0.00000e+00
6.33500e+02,3.50997e+01,-4.01149e+01,0.00000e+00,0.00000e+00,0.00000e+00
6.33500e+02,3.43866e+01,-4.32007e+01,0.00000e+00,0.00000e+00,0.00000e+00
6.33500e+02,3.36055e+01,-4.62865e+01,0.00000e+00,0.00000e+00,0.00000e+00
6.33500e+02,3.27325e+01,-4.93722e+01,0.00000e+00,0.00000e+00,0.00000e+00
6.33500e+02,3.17954e+01,-5.24580e+01,0.00000e+00,0.00000e+00,0.00000e+00
6.33500e+02,3.07144e+01,-5.55438e+01,0.00000e+00,0.00000e+00,0.00000e+00
6.33500e+02,2.95736e+01,-5.86295e+01,0.00000e+00,0.00000e+00,0.00000e+00
6.33500e+02,2.82665e+01,-6.17153e+01,0.00000e+00,0.00000e+00,0.00000e+00
6.33500e+02,2.68261e+01,-6.48011e+01,0.00000e+00,0.00000e+00,0.00000e+00
6.33500e+02,2.52500e+01,-6.78868e+01,0.00000e+00,0.00000e+00,0.00000e+00
6.33500e+02,2.34463e+01,-7.09726e+01,0.00000e+00,0.00000e+00,0.00000e+00
6.33500e+02,2.13788e+01,-7.40584e+01,0.00000e+00,0.00000e+00,0.00000e+00
6.33500e+02,1.90132e+01,-7.71441e+01,0.00000e+00,0.00000e+00,0.00000e+00
6.33500e+02,1.62153e+01,-8.02299e+01,0.00000e+00,0.00000e+00,0.00000e+00
6.33500e+02,1.26239e+01,-8.33156e+01,0.00000e+00,0.00000e+00,0.00000e+00
6.33500e+02,7.76668e+00,-8.64014e+01,0.00000e+00,0.00000e+00,0.00000e+00
6.33500e+02,-3.14700e+00,-8.94872e+01,0.00000e+00,0.00000e+00,0.00000e+00
6.33500e+02,-3.93464e+00,-8.94943e+01,0.00000e+00,0.00000e+00,0.00000e+00
6.33500e+02,-1.11106e+01,-8.62981e+01,0.00000e+00,0.00000e+00,0.00000e+00
6.33500e+02,-1.19795e+01,-8.31019e+01,0.00000e+00,0.00000e+00,0.00000e+00
6.33500e+02,-1.22793e+01,-7.99057e+01,0.00000e+00,0.00000e+00,0.00000e+00
6.33500e+02,-1.23248e+01,-7.67094e+01,0.00000e+00,0.00000e+00,0.00000e+00
6.33500e+02,-1.21787e+01,-7.35132e+01,0.00000e+00,0.00000e+00,0.00000e+00
6.33500e+02,-1.19123e+01,-7.03170e+01,0.00000e+00,0.00000e+00,0.00000e+00
6.33500e+02,-1.15252e+01,-6.71208e+01,0.00000e+00,0.00000e+00,0.00000e+00
6.33500e+02,-1.10645e+01,-6.39245e+01,0.00000e+00,0.00000e+00,0.00000e+00
6.33500e+02,-1.05611e+01,-6.07283e+01,0.00000e+00,0.00000e+00,0.00000e+00
6.33500e+02,-9.99326e+00,-5.75321e+01,0.00000e+00,0.00000e+00,0.00000e+00
6.33500e+02,-9.38524e+00,-5.43358e+01,0.00000e+00,0.00000e+00,0.00000e+00
6.33500e+02,-8.73804e+00,-5.11396e+01,0.00000e+00,0.00000e+00,0.00000e+00
6.33500e+02,-8.05183e+00,-4.79434e+01,0.00000e+00,0.00000e+00,0.00000e+00
6.33500e+02,-7.34116e+00,-4.47472e+01,0.00000e+00,0.00000e+00,0.00000e+00
6.33500e+02,-6.59916e+00,-4.15509e+01,0.00000e+00,0.00000e+00,0.00000e+00
6.33500e+02,-5.83709e+00,-3.83547e+01,0.00000e+00,0.00000e+00,0.00000e+00
6.33500e+02,-5.05702e+00,-3.51585e+01,0.00000e+00,0.00000e+00,0.00000e+00
6.33500e+02,-4.26090e+00,-3.19623e+01,0.00000e+00,0.00000e+00,0.00000e+00
6.33500e+02,-3.45797e+00,-2.87660e+01,0.00000e+00,0.00000e+00,0.00000e+00
6.33500e+02,-2.64450e+00,-2.55698e+01,0.00000e+00,0.00000e+00,0.00000e+00
6.33500e+02,-1.82928e+00,-2.23736e+01,0.00000e+00,0.00000e+00,0.00000e+00
6.33500e+02,-1.00777e+00,-1.91774e+01,0.00000e+00,0.00000e+00,0.00000e+00
6.33500e+02,-1.86340e-01,-1.59811e+01,0.00000e+00,0.00000e+00,0.00000e+00
6.33500e+02,6.31986e-01,-1.27849e+01,0.00000e+00,0.00000e+00,0.00000e+00
6.33500e+02,1.45031e+00,-9.58868e+00,0.00000e+00,0.00000e+00,0.00000e+00
6.33500e+02,2.24926e+00,-6.39245e+00,0.00000e+00,0.00000e+00,0.00000e+00
6.33500e+02,3.04460e+00,-3.19623e+00,0.00000e+00,0.00000e+00,0.00000e+00
7.34700e+02,4.02095e+01,0.00000e+00,0.00000e+00,0.00000e+00,0.00000e+00
7.34700e+02,4.00070e+01,-3.05550e+00,0.00000e+00,0.00000e+00,0.00000e+00
7.34700e+02,3.97376e+01,-6.11100e+00,0.00000e+00,0.00000e+00,0.00000e+00
7.34700e+02,3.94656e+01,-9.16651e+00,0.00000e+00,0.00000e+00,0.00000e+00
7.34700e+02,3.91344e+01,-1.22220e+01,0.00000e+00,0.00000e+00,0.00000e+00
7.34700e+02,3.87896e+01,-1.52775e+01,0.00000e+00,0.00000e+00,0.00000e+00
7.34700e+02,3.83994e+01,-1.83330e+01,0.00000e+00,0.00000e+00,0.00000e+00
7.34700e+02,3.79872e+01,-2.13885e+01,0.00000e+00,0.00000e+00,0.00000e+00
7.34700e+02,3.75386e+01,-2.44440e+01,0.00000e+00,0.00000e+00,0.00000e+00
7.34700e+02,3.70601e+01,-2.74995e+01,0.00000e+00,0.00000e+00,0.00000e+00
7.34700e+02,3.65486e+01,-3.05550e+01,0.00000e+00,0.00000e+00,0.00000e+00
7.34700e+02,3.59973e+01,-3.36105e+01,0.00000e+00,0.00000e+00,0.00000e+00
7.34700e+02,3.54053e+01,-3.66660e+01,0.00000e+00,0.00000e+00,0.00000e+00
7.34700e+02,3.47554e+01,-3.97215e+01,0.00000e+00,0.00000e+00,0.00000e+00
7.34700e+02,3.40493e+01,-4.27770e+01,0.00000e+00,0.00000e+00,0.00000e+00
7.34700e+02,3.32760e+01,-4.58325e+01,0.00000e+00,0.00000e+00,0.00000e+00
7.34700e+02,3.24115e+01,-4.88880e+01,0.00000e+00,0.00000e+00,0.00000e+00
7.34700e+02,3.14836e+01,-5.19435e+01,0.00000e+00,0.00000e+00,0.00000e+00
7.34700e+02,3.04131e+01,-5.49990e+01,0.00000e+00,0.00000e+00,0.00000e+00
7.34700e+02,2.92835e+01,-5.80545e+01,0.00000e+00,0.00000e+00,0.00000e+00
7.34700e+02,2.79893e+01,-6.11100e+01,0.00000e+00,0.00000e+00,0.00000e+00
7.34700e+02,2.65630e+01,-6.41655e+01,0.00000e+00,0.00000e+00,0.00000e+00
7.34700e+02,2.50024e+01,-6.72210e+01,0.00000e+00,0.00000e+00,0.00000e+00
7.34700e+02,2.32164e+01,-7.02765e+01,0.00000e+00,0.00000e+00,0.00000e+00
7.34700e+02,2.11691e+01,-7.33320e+01,0.00000e+00,0.00000e+00,0.00000e+00
7.34700e+02,1.88268e+01,-7.63875e+01,0.00000e+00,0.00000e+00,0.00000e+00
7.34700e+02,1.60563e+01,-7.94430e+01,0.00000e+00,0.00000e+00,0.00000e+00
7.34700e+02,1.25001e+01,-8.24985e+01,0.00000e+00,0.00000e+00,0.00000e+00
7.34700e+02,7.69051e+00,-8.55540e+01,0.00000e+00,0.00000e+00,0.00000e+00
7.34700e+02,-3.11614e+00,-8.86096e+01,0.00000e+00,0.00000e+00,0.00000e+00
7.34700e+02,-3.89606e+00,-8.86166e+01,0.00000e+00,0.00000e+00,0.00000e+00
7.34700e+02,-1.10017e+01,-8.54518e+01,0.00000e+00,0.00000e+00,0.00000e+00
7.34700e+02,-1.18620e+01,-8.22869e+01,0.00000e+00,0.00000e+00,0.00000e+00
7.34700e+02,-1.21589e+01,-7.91220e+01,0.00000e+00,0.00000e+00,0.00000e+00
7.34700e+02,-1.22039e+01,-7.59571e+01,0.00000e+00,0.00000e+00,0.00000e+00
7.34700e+02,-1.20592e+01,-7.27922e+01,0.00000e+00,0.00000e+00,0.00000e+00
7.34700e+02,-1.17955e+01,-6.96274e+01,0.00000e+00,0.00000e+00,0.00000e+00
7.34700e+02,-1.14122e+01,-6.64625e+01,0.00000e+00,0.00000e+00,0.00000e+00
7.34700e+02,-1.09560e+01,-6.32976e+01,0.00000e+00,0.00000e+00,0.00000e+00
7.34700e+02,-1.04575e+01,-6.01327e+01,0.00000e+00,0.00000e+00,0.00000e+00
7.34700e+02,-9.89525e+00,-5.69678e+01,0.00000e+00,0.00000e+00,0.00000e+00
7.34700e+02,-9.29319e+00,-5.38030e+01,0.00000e+00,0.00000e+00,0.00000e+00
7.34700e+02,-8.65235e+00,-5.06381e+01,0.00000e+00,0.00000e+00,0.00000e+00
7.34700e+02,-7.97287e+00,-4.74732e+01,0.00000e+00,0.00000e+00,0.00000e+00
7.34700e+02,-7.26917e+00,-4.43083e+01,0.00000e+00,0.00000e+00,0.00000e+00
7.34700e+02,-6.53444e+00,-4.11434e+01,0.00000e+00,0.00000e+00,0.00000e+00
7.34700e+02,-5.77984e+00,-3.79786e+01,0.00000e+00,0.00000e+00,0.00000e+00
7.34700e+02,-5.00742e+00,-3.48137e+01,0.00000e+00,0.00000e+00,0.00000e+00
7.34700e+02,-4.21911e+00,-3.16488e+01,0.00000e+00,0.00000e+00,0.00000e+00
7.34700e+02,-3.42406e+00,-2.84839e+01,0.00000e+00,0.00000e+00,0.00000e+00
7.34700e+02,-2.61857e+00,-2.53190e+01,0.00000e+00,0.00000e+00,0.00000e+00
7.34700e+02,-1.81134e+00,-2.21542e+01,0.00000e+00,0.00000e+00,0.00000e+00
7.34700e+02,-9.97887e-01,-1.89893e+01,0.00000e+00,0.00000e+00,0.00000e+00
7.34700e+02,-1.84513e-01,-1.58244e+01,0.00000e+00,0.00000e+00,0.00000e+00
7.34700e+02,6.25788e-01,-1.26595e+01,0.00000e+00,0.00000e+00,0.00000e+00
7.34700e+02,1.43609e+00,-9.49464e+00,0.00000e+00,0.00000e+00,0.00000e+00
7.34700e+02,2.22720e+00,-6.32976e+00,0.00000e+00,0.00000e+00,0.00000e+00
7.34700e+02,3.01474e+00,-3.16488e+00,0.00000e+00,0.00000e+00,0.00000e+00
8.33800e+02,3.98196e+01,0.00000e+00,0.00000e+00,0.00000e+00,0.00000e+00
8.33800e+02,3.96190e+01,-3.02587e+00,0.00000e+00,0.00000e+00,0.00000e+00
8.33800e+02,3.93522e+01,-6.05173e+00,0.00000e+00,0.00000e+00,0.00000e+00
8.33800e+02,3.90828e+01,-9.07760e+00,0.00000e+00,0.00000e+00,0.00000e+00
8.33800e+02,3.87549e+01,-1.21035e+01,0.00000e+00,0.00000e+00,0.00000e+00
8.33800e+02,3.84134e+01,-1.51293e+01,0.00000e+00,0.00000e+00,0.00000e+00
8.33800e+02,3.80270e+01,-1.81552e+01,0.00000e+00,0.00000e+00,0.00000e+00
8.33800e+02,3.76188e+01,-2.11811e+01,0.00000e+00,0.00000e+00,0.00000e+00
8.33800e+02,3.71745e+01,-2.42069e+01,0.00000e+00,0.00000e+00,0.00000e+00
8.33800e+02,3.67006e+01,-2.72328e+01,0.00000e+00,0.00000e+00,0.00000e+00
8.33800e+02,3.61941e+01,-3.02587e+01,0.00000e+00,0.00000e+00,0.00000e+00
8.33800e+02,3.56482e+01,-3.32845e+01,0.00000e+00,0.00000e+00,0.00000e+00
8.33800e+02,3.50619e+01,-3.63104e+01,0.00000e+00,0.00000e+00,0.00000e+00
8.33800e+02,3.44183e+01,-3.93363e+01,0.00000e+00,0.00000e+00,0.00000e+00
8.33800e+02,3.37191e+01,-4.23621e+01,0.00000e+00,0.00000e+00,0.00000e+00
8.33800e+02,3.29532e+01,-4.53880e+01,0.00000e+00,0.00000e+00,0.00000e+00
8.33800e+02,3.20971e+01,-4.84139e+01,0.00000e+00,0.00000e+00,0.00000e+00
8.33800e+02,3.11783e+01,-5.14397e+01,0.00000e+00,0.00000e+00,0.00000e+00
8.33800e+02,3.01182e+01,-5.44656e+01,0.00000e+00,0.00000e+00,0.00000e+00
8.33800e+02,2.89995e+01,-5.74915e+01,0.00000e+00,0.00000e+00,0.00000e+00
8.33800e+02,2.77178e+01,-6.05173e+01,0.00000e+00,0.00000e+00,0.00000e+00
8.33800e+02,2.63054e+01,-6.35432e+01,0.00000e+00,0.00000e+00,0.00000e+00
8.33800e+02,2.47599e+01,-6.65691e+01,0.00000e+00,0.00000e+00,0.00000e+00
8.33800e+02,2.29912e+01,-6.95949e+01,0.00000e+00,0.00000e+00,0.00000e+00
8.33800e+02,2.09638e+01,-7.26208e+01,0.00000e+00,0.00000e+00,0.00000e+00
8.33800e+02,1.86442e+01,-7.56467e+01,0.00000e+00,0.00000e+00,0.00000e+00
8.33800e+02,1.59005e+01,-7.86725e+01,0.00000e+00,0.00000e+00,0.00000e+00
8.33800e+02,1.23789e+01,-8.16984e+01,0.00000e+00,0.00000e+00,0.00000e+00
8.33800e+02,7.61592e+00,-8.47243e+01,0.00000e+00,0.00000e+00,0.00000e+00
8.33800e+02,-3.08591e+00,-8.77501e+01,0.00000e+00,0.00000e+00,0.00000e+00
8.33800e+02,-3.85827e+00,-8.77572e+01,0.00000e+00,0.00000e+00,0.00000e+00
8.33800e+02,-1.08950e+01,-8.46230e+01,0.00000e+00,0.00000e+00,0.00000e+00
8.33800e+02,-1.17470e+01,-8.14888e+01,0.00000e+00,0.00000e+00,0.00000e+00
8.33800e+02,-1.20409e+01,-7.83546e+01,0.00000e+00,0.00000e+00,0.00000e+00
8.33800e+02,-1.20856e+01,-7.52204e+01,0.00000e+00,0.00000e+00,0.00000e+00
8.33800e+02,-1.19423e+01,-7.20862e+01,0.00000e+00,0.00000e+00,0.00000e+00
8.33800e+02,-1.16811e+01,-6.89521e+01,0.00000e+00,0.00000e+00,0.00000e+00
8.33800e+02,-1.13015e+01,-6.58179e+01,0.00000e+00,0.00000e+00,0.00000e+00
8.33800e+02,-1.08497e+01,-6.26837e+01,0.00000e+00,0.00000e+00,0.00000e+00
8.33800e+02,-1.03561e+01,-5.95495e+01,0.00000e+00,0.00000e+00,0.00000e+00
8.33800e+02,-9.79928e+00,-5.64153e+01,0.00000e+00,0.00000e+00,0.00000e+00
8.33800e+02,-9.20306e+00,-5.32811e+01,0.00000e+00,0.00000e+00,0.00000e+00
8.33800e+02,-8.56843e+00,-5.01469e+01,0.00000e+00,0.00000e+00,0.00000e+00
8.33800e+02,-7.89554e+00,-4.70128e+01,0.00000e+00,0.00000e+00,0.00000e+00
8.33800e+02,-7.19866e+00,-4.38786e+01,0.00000e+00,0.00000e+00,0.00000e+00
8.33800e+02,-6.47106e+00,-4.07444e+01,0.00000e+00,0.00000e+00,0.00000e+00
8.33800e+02,-5.72378e+00,-3.76102e+01,0.00000e+00,0.00000e+00,0.00000e+00
8.33800e+02,-4.95886e+00,-3.44760e+01,0.00000e+00,0.00000e+00,0.00000e+00
8.33800e+02,-4.17819e+00,-3.13418e+01,0.00000e+00,0.00000e+00,0.00000e+00
8.33800e+02,-3.39085e+00,-2.82077e+01,0.00000e+00,0.00000e+00,0.00000e+00
8.33800e+02,-2.59317e+00,-2.50735e+01,0.00000e+00,0.00000e+00,0.00000e+00
8.33800e+02,-1.79378e+00,-2.19393e+01,0.00000e+00,0.00000e+00,0.00000e+00
8.33800e+02,-9.88209e-01,-1.88051e+01,0.00000e+00,0.00000e+00,0.00000e+00
8.33800e+02,-1.82723e-01,-1.56709e+01,0.00000e+00,0.00000e+00,0.00000e+00
8.33800e+02,6.19718e-01,-1.25367e+01,0.00000e+00,0.00000e+00,0.00000e+00
8.33800e+02,1.42216e+00,-9.40255e+00,0.00000e+00,0.00000e+00,0.00000e+00
8.33800e+02,2.20560e+00,-6.26837e+00,0.00000e+00,0.00000e+00,0.00000e+00
8.33800e+02,2.98550e+00,-3.13418e+00,0.00000e+00,0.00000e+00,0.00000e+00
9.30700e+02,3.94382e+01,0.00000e+00,0.00000e+00,0.00000e+00,0.00000e+00
9.30700e+02,3.92396e+01,-2.99689e+00,0.00000e+00,0.00000e+00,0.00000e+00
9.30700e+02,3.89754e+01,-5.99378e+00,0.00000e+00,0.00000e+00,0.00000e+00
9.30700e+02,3.87085e+01,-8.99067e+00,0.00000e+00,0.00000e+00,0.00000e+00
9.30700e+02,3.83837e+01,-1.19876e+01,0.00000e+00,0.00000e+00,0.00000e+00
9.30700e+02,3.80455e+01,-1.49844e+01,0.00000e+00,0.00000e+00,0.00000e+00
9.30700e+02,3.76628e+01,-1.79813e+01,0.00000e+00,0.00000e+00,0.00000e+00
9.30700e+02,3.72585e+01,-2.09782e+01,0.00000e+00,0.00000e+00,0.00000e+00
9.30700e+02,3.68185e+01,-2.39751e+01,0.00000e+00,0.00000e+00,0.00000e+00
9.30700e+02,3.63492e+01,-2.69720e+01,0.00000e+00,0.00000e+00,0.00000e+00
9.30700e+02,3.58475e+01,-2.99689e+01,0.00000e+00,0.00000e+00,0.00000e+00
9.30700e+02,3.53068e+01,-3.29658e+01,0.00000e+00,0.00000e+00,0.00000e+00
9.30700e+02,3.47261e+01,-3.59627e+01,0.00000e+00,0.00000e+00,0.00000e+00
9.30700e+02,3.40887e+01,-3.89596e+01,0.00000e+00,0.00000e+00,0.00000e+00
9.30700e+02,3.33962e+01,-4.19565e+01,0.00000e+00,0.00000e+00,0.00000e+00
9.30700e+02,3.26376e+01,-4.49533e+01,0.00000e+00,0.00000e+00,0.00000e+00
9.30700e+02,3.17897e+01,-4.79502e+01,0.00000e+00,0.00000e+00,0.00000e+00
9.30700e+02,3.08797e+01,-5.09471e+01,0.00000e+00,0.00000e+00,0.00000e+00
9.30700e+02,2.98297e+01,-5.39440e+01,0.00000e+00,0.00000e+00,0.00000e+00
9.30700e+02,2.87218e+01,-5.69409e+01,0.00000e+00,0.00000e+00,0.00000e+00
9.30700e+02,2.74524e+01,-5.99378e+01,0.00000e+00,0.00000e+00,0.00000e+00
9.30700e+02,2.60534e+01,-6.29347e+01,0.00000e+00,0.00000e+00,0.00000e+00
9.30700e+02,2.45228e+01,-6.59316e+01,0.00000e+00,0.00000e+00,0.00000e+00
9.30700e+02,2.27710e+01,-6.89285e+01,0.00000e+00,0.00000e+00,0.00000e+00
9.30700e+02,2.07631e+01,-7.19254e+01,0.00000e+00,0.00000e+00,0.00000e+00
9.30700e+02,1.84656e+01,-7.49222e+01,0.00000e+00,0.00000e+00,0.00000e+00
9.30700e+02,1.57483e+01,-7.79191e+01,0.00000e+00,0.00000e+00,0.00000e+00
9.30700e+02,1.22603e+01,-8.09160e+01,0.00000e+00,0.00000e+00,0.00000e+00
9.30700e+02,7.54299e+00,-8.39129e+01,0.00000e+00,0.00000e+00,0.00000e+00
9.30700e+02,-3.05636e+00,-8.69098e+01,0.00000e+00,0.00000e+00,0.00000e+00
9.30700e+02,-3.82132e+00,-8.69168e+01,0.00000e+00,0.00000e+00,0.00000e+00
9.30700e+02,-1.07906e+01,-8.38126e+01,0.00000e+00,0.00000e+00,0.00000e+00
9.30700e+02,-1.16345e+01,-8.07084e+01,0.00000e+00,0.00000e+00,0.00000e+00
9.30700e+02,-1.19256e+01,-7.76042e+01,0.00000e+00,0.00000e+00,0.00000e+00
9.30700e+02,-1.19698e+01,-7.45001e+01,0.00000e+00,0.00000e+00,0.00000e+00
9.30700e+02,-1.18279e+01,-7.13959e+01,0.00000e+00,0.00000e+00,0.00000e+00
9.30700e+02,-1.15692e+01,-6.82917e+01,0.00000e+00,0.00000e+00,0.00000e+00
9.30700e+02,-1.11933e+01,-6.51876e+01,0.00000e+00,0.00000e+00,0.00000e+00
9.30700e+02,-1.07458e+01,-6.20834e+01,0.00000e+00,0.00000e+00,0.00000e+00
9.30700e+02,-1.02569e+01,-5.89792e+01,0.00000e+00,0.00000e+00,0.00000e+00
9.30700e+02,-9.70544e+00,-5.58751e+01,0.00000e+00,0.00000e+00,0.00000e+00
9.30700e+02,-9.11493e+00,-5.27709e+01,0.00000e+00,0.00000e+00,0.00000e+00
9.30700e+02,-8.48637e+00,-4.96667e+01,0.00000e+00,0.00000e+00,0.00000e+00
9.30700e+02,-7.81993e+00,-4.65625e+01,0.00000e+00,0.00000e+00,0.00000e+00
9.30700e+02,-7.12973e+00,-4.34584e+01,0.00000e+00,0.00000e+00,0.00000e+00
9.30700e+02,-6.40909e+00,-4.03542e+01,0.00000e+00,0.00000e+00,0.00000e+00
9.30700e+02,-5.66897e+00,-3.72500e+01,0.00000e+00,0.00000e+00,0.00000e+00
9.30700e+02,-4.91137e+00,-3.41459e+01,0.00000e+00,0.00000e+00,0.00000e+00
9.30700e+02,-4.13818e+00,-3.10417e+01,0.00000e+00,0.00000e+00,0.00000e+00
9.30700e+02,-3.35837e+00,-2.79375e+01,0.00000e+00,0.00000e+00,0.00000e+00
9.30700e+02,-2.56834e+00,-2.48334e+01,0.00000e+00,0.00000e+00,0.00000e+00
9.30700e+02,-1.77660e+00,-2.17292e+01,0.00000e+00,0.00000e+00,0.00000e+00
9.30700e+02,-9.78745e-01,-1.86250e+01,0.00000e+00,0.00000e+00,0.00000e+00
9.30700e+02,-1.80973e-01,-1.55208e+01,0.00000e+00,0.00000e+00,0.00000e+00
9.30700e+02,6.13784e-01,-1.24167e+01,0.00000e+00,0.00000e+00,0.00000e+00
9.30700e+02,1.40854e+00,-9.31251e+00,0.00000e+00,0.00000e+00,0.00000e+00
9.30700e+02,2.18448e+00,-6.20834e+00,0.00000e+00,0.00000e+00,0.00000e+00
9.30700e+02,2.95691e+00,-3.10417e+00,0.00000e+00,0.00000e+00,0.00000e+00
1.02500e+03,3.90671e+01,0.00000e+00,0.00000e+00,0.00000e+00,0.00000e+00
1.02500e+03,3.88704e+01,-2.96869e+00,0.00000e+00,0.00000e+00,0.00000e+00
1.02500e+03,3.86086e+01,-5.93738e+00,0.00000e+00,0.00000e+00,0.00000e+00
1.02500e+03,3.83443e+01,-8.90607e+00,0.00000e+00,0.00000e+00,0.00000e+00
1.02500e+03,3.80226e+01,-1.18748e+01,0.00000e+00,0.00000e+00,0.00000e+00
1.02500e+03,3.76875e+01,-1.48435e+01,0.00000e+00,0.00000e+00,0.00000e+00
1.02500e+03,3.73084e+01,-1.78121e+01,0.00000e+00,0.00000e+00,0.00000e+00
1.02500e+03,3.69079e+01,-2.07808e+01,0.00000e+00,0.00000e+00,0.00000e+00
1.02500e+03,3.64721e+01,-2.37495e+01,0.00000e+00,0.00000e+00,0.00000e+00
1.02500e+03,3.60071e+01,-2.67182e+01,0.00000e+00,0.00000e+00,0.00000e+00
1.02500e+03,3.55102e+01,-2.96869e+01,0.00000e+00,0.00000e+00,0.00000e+00
1.02500e+03,3.49746e+01,-3.26556e+01,0.00000e+00,0.00000e+00,0.00000e+00
1.02500e+03,3.43994e+01,-3.56243e+01,0.00000e+00,0.00000e+00,0.00000e+00
1.02500e+03,3.37680e+01,-3.85930e+01,0.00000e+00,0.00000e+00,0.00000e+00
1.02500e+03,3.30819e+01,-4.15617e+01,0.00000e+00,0.00000e+00,0.00000e+00
1.02500e+03,3.23305e+01,-4.45304e+01,0.00000e+00,0.00000e+00,0.00000e+00
1.02500e+03,3.14906e+01,-4.74990e+01,0.00000e+00,0.00000e+00,0.00000e+00
1.02500e+03,3.05891e+01,-5.04677e+01,0.00000e+00,0.00000e+00,0.00000e+00
1.02500e+03,2.95491e+01,-5.34364e+01,0.00000e+00,0.00000e+00,0.00000e+00
1.02500e+03,2.84516e+01,-5.64051e+01,0.00000e+00,0.00000e+00,0.00000e+00
1.02500e+03,2.71940e+01,-5.93738e+01,0.00000e+00,0.00000e+00,0.00000e+00
1.02500e+03,2.58083e+01,-6.23425e+01,0.00000e+00,0.00000e+00,0.00000e+00
1.02500e+03,2.42920e+01,-6.53112e+01,0.00000e+00,0.00000e+00,0.00000e+00
1.02500e+03,2.25567e+01,-6.82799e+01,0.00000e+00,0.00000e+00,0.00000e+00
1.02500e+03,2.05677e+01,-7.12486e+01,0.00000e+00,0.00000e+00,0.00000e+00
1.02500e+03,1.82919e+01,-7.42173e+01,0.00000e+00,0.00000e+00,0.00000e+00
1.02500e+03,1.56001e+01,-7.71859e+01,0.00000e+00,0.00000e+00,0.00000e+00
1.02500e+03,1.21450e+01,-8.01546e+01,0.00000e+00,0.00000e+00,0.00000e+00
1.02500e+03,7.47201e+00,-8.31233e+01,0.00000e+00,0.00000e+00,0.00000e+00
1.02500e+03,-3.02760e+00,-8.60920e+01,0.00000e+00,0.00000e+00,0.00000e+00
1.02500e+03,-3.78536e+00,-8.60989e+01,0.00000e+00,0.00000e+00,0.00000e+00
1.02500e+03,-1.06891e+01,-8.30239e+01,0.00000e+00,0.00000e+00,0.00000e+00
1.02500e+03,-1.15250e+01,-7.99490e+01,0.00000e+00,0.00000e+00,0.00000e+00
1.02500e+03,-1.18134e+01,-7.68740e+01,0.00000e+00,0.00000e+00,0.00000e+00
1.02500e+03,-1.18572e+01,-7.37991e+01,0.00000e+00,0.00000e+00,0.00000e+00
1.02500e+03,-1.17166e+01,-7.07241e+01,0.00000e+00,0.00000e+00,0.00000e+00
1.02500e+03,-1.14604e+01,-6.76491e+01,0.00000e+00,0.00000e+00,0.00000e+00
1.02500e+03,-1.10880e+01,-6.45742e+01,0.00000e+00,0.00000e+00,0.00000e+00
1.02500e+03,-1.06447e+01,-6.14992e+01,0.00000e+00,0.00000e+00,0.00000e+00
1.02500e+03,-1.01604e+01,-5.84243e+01,0.00000e+00,0.00000e+00,0.00000e+00
1.02500e+03,-9.61411e+00,-5.53493e+01,0.00000e+00,0.00000e+00,0.00000e+00
1.02500e+03,-9.02916e+00,-5.22743e+01,0.00000e+00,0.00000e+00,0.00000e+00
1.02500e+03,-8.40652e+00,-4.91994e+01,0.00000e+00,0.00000e+00,0.00000e+00
1.02500e+03,-7.74634e+00,-4.61244e+01,0.00000e+00,0.00000e+00,0.00000e+00
1.02500e+03,-7.06264e+00,-4.30495e+01,0.00000e+00,0.00000e+00,0.00000e+00
1.02500e+03,-6.34878e+00,-3.99745e+01,0.00000e+00,0.00000e+00,0.00000e+00
1.02500e+03,-5.61563e+00,-3.68995e+01,0.00000e+00,0.00000e+00,0.00000e+00
1.02500e+03,-4.86516e+00,-3.38246e+01,0.00000e+00,0.00000e+00,0.00000e+00
1.02500e+03,-4.09924e+00,-3.07496e+01,0.00000e+00,0.00000e+00,0.00000e+00
1.02500e+03,-3.32677e+00,-2.76746e+01,0.00000e+00,0.00000e+00,0.00000e+00
1.02500e+03,-2.54417e+00,-2.45997e+01,0.00000e+00,0.00000e+00,0.00000e+00
1.02500e+03,-1.75988e+00,-2.15247e+01,0.00000e+00,0.00000e+00,0.00000e+00
1.02500e+03,-9.69535e-01,-1.84498e+01,0.00000e+00,0.00000e+00,0.00000e+00
1.02500e+03,-1.79270e-01,-1.53748e+01,0.00000e+00,0.00000e+00,0.00000e+00
1.02500e+03,6.08008e-01,-1.22998e+01,0.00000e+00,0.00000e+00,0.00000e+00
1.02500e+03,1.39529e+00,-9.22488e+00,0.00000e+00,0.00000e+00,0.00000e+00
1.02500e+03,2.16392e+00,-6.14992e+00,0.00000e+00,0.00000e+00,0.00000e+00
1.02500e+03,2.92908e+00,-3.07496e+00,0.00000e+00,0.00000e+00,0.00000e+00
1.11650e+03,3.87070e+01,0.00000e+00,0.00000e+00,0.00000e+00,0.00000e+00
1.11650e+03,3.85121e+01,-2.94133e+00,0.00000e+00,0.00000e+00,0.00000e+00
1.11650e+03,3.82528e+01,-5.88266e+00,0.00000e+00,0.00000e+00,0.00000e+00
1.11650e+03,3.79909e+01,-8.82398e+00,0.00000e+00,0.00000e+00,0.00000e+00
1.11650e+03,3.76721e+01,-1.17653e+01,0.00000e+00,0.00000e+00,0.00000e+00
1.11650e+03,3.73401e+01,-1.47066e+01,0.00000e+00,0.00000e+00,0.00000e+00
1.11650e+03,3.69645e+01,-1.76480e+01,0.00000e+00,0.00000e+00,0.00000e+00
1.11650e+03,3.65678e+01,-2.05893e+01,0.00000e+00,0.00000e+00,0.00000e+00
1.11650e+03,3.61359e+01,-2.35306e+01,0.00000e+00,0.00000e+00,0.00000e+00
1.11650e+03,3.56753e+01,-2.64720e+01,0.00000e+00,0.00000e+00,0.00000e+00
1.11650e+03,3.51829e+01,-2.94133e+01,0.00000e+00,0.00000e+00,0.00000e+00
1.11650e+03,3.46522e+01,-3.23546e+01,0.00000e+00,0.00000e+00,0.00000e+00
1.11650e+03,3.40823e+01,-3.52959e+01,0.00000e+00,0.00000e+00,0.00000e+00
1.11650e+03,3.34567e+01,-3.82373e+01,0.00000e+00,0.00000e+00,0.00000e+00
1.11650e+03,3.27770e+01,-4.11786e+01,0.00000e+00,0.00000e+00,0.00000e+00
1.11650e+03,3.20325e+01,-4.41199e+01,0.00000e+00,0.00000e+00,0.00000e+00
1.11650e+03,3.12004e+01,-4.70612e+01,0.00000e+00,0.00000e+00,0.00000e+00
1.11650e+03,3.03072e+01,-5.00026e+01,0.00000e+00,0.00000e+00,0.00000e+00
1.11650e+03,2.92767e+01,-5.29439e+01,0.00000e+00,0.00000e+00,0.00000e+00
1.11650e+03,2.81893e+01,-5.58852e+01,0.00000e+00,0.00000e+00,0.00000e+00
1.11650e+03,2.69434e+01,-5.88266e+01,0.00000e+00,0.00000e+00,0.00000e+00
1.11650e+03,2.55704e+01,-6.17679e+01,0.00000e+00,0.00000e+00,0.00000e+00
1.11650e+03,2.40681e+01,-6.47092e+01,0.00000e+00,0.00000e+00,0.00000e+00
1.11650e+03,2.23488e+01,-6.76505e+01,0.00000e+00,0.00000e+00,0.00000e+00
1.11650e+03,2.03781e+01,-7.05919e+01,0.00000e+00,0.00000e+00,0.00000e+00
1.11650e+03,1.81233e+01,-7.35332e+01,0.00000e+00,0.00000e+00,0.00000e+00
1.11650e+03,1.54563e+01,-7.64745e+01,0.00000e+00,0.00000e+00,0.00000e+00
1.11650e+03,1.20330e+01,-7.94159e+01,0.00000e+00,0.00000e+00,0.00000e+00
1.11650e+03,7.40314e+00,-8.23572e+01,0.00000e+00,0.00000e+00,0.00000e+00
1.11650e+03,-2.99970e+00,-8.52985e+01,0.00000e+00,0.00000e+00,0.00000e+00
1.11650e+03,-3.75047e+00,-8.53053e+01,0.00000e+00,0.00000e+00,0.00000e+00
1.11650e+03,-1.05906e+01,-8.22587e+01,0.00000e+00,0.00000e+00,0.00000e+00
1.11650e+03,-1.14188e+01,-7.92121e+01,0.00000e+00,0.00000e+00,0.00000e+00
1.11650e+03,-1.17045e+01,-7.61655e+01,0.00000e+00,0.00000e+00,0.00000e+00
1.11650e+03,-1.17479e+01,-7.31189e+01,0.00000e+00,0.00000e+00,0.00000e+00
1.11650e+03,-1.16086e+01,-7.00722e+01,0.00000e+00,0.00000e+00,0.00000e+00
1.11650e+03,-1.13547e+01,-6.70256e+01,0.00000e+00,0.00000e+00,0.00000e+00
1.11650e+03,-1.09858e+01,-6.39790e+01,0.00000e+00,0.00000e+00,0.00000e+00
1.11650e+03,-1.05466e+01,-6.09324e+01,0.00000e+00,0.00000e+00,0.00000e+00
1.11650e+03,-1.00667e+01,-5.78858e+01,0.00000e+00,0.00000e+00,0.00000e+00
1.11650e+03,-9.52550e+00,-5.48391e+01,0.00000e+00,0.00000e+00,0.00000e+00
1.11650e+03,-8.94594e+00,-5.17925e+01,0.00000e+00,0.00000e+00,0.00000e+00
1.11650e+03,-8.32904e+00,-4.87459e+01,0.00000e+00,0.00000e+00,0.00000e+00
1.11650e+03,-7.67495e+00,-4.56993e+01,0.00000e+00,0.00000e+00,0.00000e+00
1.11650e+03,-6.99754e+00,-4.26527e+01,0.00000e+00,0.00000e+00,0.00000e+00
1.11650e+03,-6.29027e+00,-3.96060e+01,0.00000e+00,0.00000e+00,0.00000e+00
1.11650e+03,-5.56387e+00,-3.65594e+01,0.00000e+00,0.00000e+00,0.00000e+00
1.11650e+03,-4.82031e+00,-3.35128e+01,0.00000e+00,0.00000e+00,0.00000e+00
1.11650e+03,-4.06146e+00,-3.04662e+01,0.00000e+00,0.00000e+00,0.00000e+00
1.11650e+03,-3.29611e+00,-2.74196e+01,0.00000e+00,0.00000e+00,0.00000e+00
1.11650e+03,-2.52072e+00,-2.43730e+01,0.00000e+00,0.00000e+00,0.00000e+00
1.11650e+03,-1.74366e+00,-2.13263e+01,0.00000e+00,0.00000e+00,0.00000e+00
1.11650e+03,-9.60599e-01,-1.82797e+01,0.00000e+00,0.00000e+00,0.00000e+00
1.11650e+03,-1.77618e-01,-1.52331e+01,0.00000e+00,0.00000e+00,0.00000e+00
1.11650e+03,6.02404e-01,-1.21865e+01,0.00000e+00,0.00000e+00,0.00000e+00
1.11650e+03,1.38243e+00,-9.13986e+00,0.00000e+00,0.00000e+00,0.00000e+00
1.11650e+03,2.14398e+00,-6.09324e+00,0.00000e+00,0.00000e+00,0.00000e+00
1.11650e+03,2.90209e+00,-3.04662e+00,0.00000e+00,0.00000e+00,0.00000e+00
1.20500e+03,3.76912e+01,0.00000e+00,0.00000e+00,0.00000e+00,0.00000e+00
1.20500e+03,3.75014e+01,-2.86413e+00,0.00000e+00,0.00000e+00,0.00000e+00
1.20500e+03,3.72488e+01,-5.72827e+00,0.00000e+00,0.00000e+00,0.00000e+00
1.20500e+03,3.69938e+01,-8.59240e+00,0.00000e+00,0.00000e+00,0.00000e+00
1.20500e+03,3.66834e+01,-1.14565e+01,0.00000e+00,0.00000e+00,0.00000e+00
1.20500e+03,3.63602e+01,-1.43207e+01,0.00000e+00,0.00000e+00,0.00000e+00
1.20500e+03,3.59944e+01,-1.71848e+01,0.00000e+00,0.00000e+00,0.00000e+00
1.20500e+03,3.56080e+01,-2.00489e+01,0.00000e+00,0.00000e+00,0.00000e+00
1.20500e+03,3.51875e+01,-2.29131e+01,0.00000e+00,0.00000e+00,0.00000e+00
1.20500e+03,3.47390e+01,-2.57772e+01,0.00000e+00,0.00000e+00,0.00000e+00
1.20500e+03,3.42596e+01,-2.86413e+01,0.00000e+00,0.00000e+00,0.00000e+00
1.20500e+03,3.37428e+01,-3.15055e+01,0.00000e+00,0.00000e+00,0.00000e+00
1.20500e+03,3.31878e+01,-3.43696e+01,0.00000e+00,0.00000e+00,0.00000e+00
1.20500e+03,3.25787e+01,-3.72337e+01,0.00000e+00,0.00000e+00,0.00000e+00
1.20500e+03,3.19168e+01,-4.00979e+01,0.00000e+00,0.00000e+00,0.00000e+00
1.20500e+03,3.11919e+01,-4.29620e+01,0.00000e+00,0.00000e+00,0.00000e+00
1.20500e+03,3.03815e+01,-4.58261e+01,0.00000e+00,0.00000e+00,0.00000e+00
1.20500e+03,2.95118e+01,-4.86903e+01,0.00000e+00,0.00000e+00,0.00000e+00
1.20500e+03,2.85084e+01,-5.15544e+01,0.00000e+00,0.00000e+00,0.00000e+00
1.20500e+03,2.74495e+01,-5.44186e+01,0.00000e+00,0.00000e+00,0.00000e+00
1.20500e+03,2.62363e+01,-5.72827e+01,0.00000e+00,0.00000e+00,0.00000e+00
1.20500e+03,2.48993e+01,-6.01468e+01,0.00000e+00,0.00000e+00,0.00000e+00
1.20500e+03,2.34365e+01,-6.30110e+01,0.00000e+00,0.00000e+00,0.00000e+00
1.20500e+03,2.17623e+01,-6.58751e+01,0.00000e+00,0.00000e+00,0.00000e+00
1.20500e+03,1.98433e+01,-6.87392e+01,0.00000e+00,0.00000e+00,0.00000e+00
1.20500e+03,1.76476e+01,-7.16034e+01,0.00000e+00,0.00000e+00,0.00000e+00
1.20500e+03,1.50506e+01,-7.44675e+01,0.00000e+00,0.00000e+00,0.00000e+00
1.20500e+03,1.17172e+01,-7.73316e+01,0.00000e+00,0.00000e+00,0.00000e+00
1.20500e+03,7.20885e+00,-8.01958e+01,0.00000e+00,0.00000e+00,0.00000e+00
1.20500e+03,-2.92097e+00,-8.30599e+01,0.00000e+00,0.00000e+00,0.00000e+00
1.20500e+03,-3.65204e+00,-8.30665e+01,0.00000e+00,0.00000e+00,0.00000e+00
1.20500e+03,-1.03126e+01,-8.00999e+01,0.00000e+00,0.00000e+00,0.00000e+00
1.20500e+03,-1.11191e+01,-7.71332e+01,0.00000e+00,0.00000e+00,0.00000e+00
1.20500e+03,-1.13974e+01,-7.41666e+01,0.00000e+00,0.00000e+00,0.00000e+00
1.20500e+03,-1.14396e+01,-7.11999e+01,0.00000e+00,0.00000e+00,0.00000e+00
1.20500e+03,-1.13040e+01,-6.82332e+01,0.00000e+00,0.00000e+00,0.00000e+00
1.20500e+03,-1.10567e+01,-6.52666e+01,0.00000e+00,0.00000e+00,0.00000e+00
1.20500e+03,-1.06975e+01,-6.22999e+01,0.00000e+00,0.00000e+00,0.00000e+00
1.20500e+03,-1.02698e+01,-5.93332e+01,0.00000e+00,0.00000e+00,0.00000e+00
1.20500e+03,-9.80253e+00,-5.63666e+01,0.00000e+00,0.00000e+00,0.00000e+00
1.20500e+03,-9.27551e+00,-5.33999e+01,0.00000e+00,0.00000e+00,0.00000e+00
1.20500e+03,-8.71115e+00,-5.04333e+01,0.00000e+00,0.00000e+00,0.00000e+00
1.20500e+03,-8.11045e+00,-4.74666e+01,0.00000e+00,0.00000e+00,0.00000e+00
1.20500e+03,-7.47352e+00,-4.44999e+01,0.00000e+00,0.00000e+00,0.00000e+00
1.20500e+03,-6.81389e+00,-4.15333e+01,0.00000e+00,0.00000e+00,0.00000e+00
1.20500e+03,-6.12518e+00,-3.85666e+01,0.00000e+00,0.00000e+00,0.00000e+00
1.20500e+03,-5.41785e+00,-3.55999e+01,0.00000e+00,0.00000e+00,0.00000e+00
1.20500e+03,-4.69381e+00,-3.26333e+01,0.00000e+00,0.00000e+00,0.00000e+00
1.20500e+03,-3.95486e+00,-2.96666e+01,0.00000e+00,0.00000e+00,0.00000e+00
1.20500e+03,-3.20961e+00,-2.67000e+01,0.00000e+00,0.00000e+00,0.00000e+00
1.20500e+03,-2.45457e+00,-2.37333e+01,0.00000e+00,0.00000e+00,0.00000e+00
1.20500e+03,-1.69790e+00,-2.07666e+01,0.00000e+00,0.00000e+00,0.00000e+00
1.20500e+03,-9.35389e-01,-1.78000e+01,0.00000e+00,0.00000e+00,0.00000e+00
1.20500e+03,-1.72956e-01,-1.48333e+01,0.00000e+00,0.00000e+00,0.00000e+00
1.20500e+03,5.86594e-01,-1.18666e+01,0.00000e+00,0.00000e+00,0.00000e+00
1.20500e+03,1.34615e+00,-8.89999e+00,0.00000e+00,0.00000e+00,0.00000e+00
1.20500e+03,2.08771e+00,-5.93332e+00,0.00000e+00,0.00000e+00,0.00000e+00
1.20500e+03,2.82592e+00,-2.96666e+00,0.00000e+00,0.00000e+00,0.00000e+00
1.29010e+03,3.63234e+01,0.00000e+00,0.00000e+00,0.00000e+00,0.00000e+00
1.29010e+03,3.61405e+01,-2.76019e+00,0.00000e+00,0.00000e+00,0.00000e+00
1.29010e+03,3.58971e+01,-5.52039e+00,0.00000e+00,0.00000e+00,0.00000e+00
1.29010e+03,3.56513e+01,-8.28058e+00,0.00000e+00,0.00000e+00,0.00000e+00
1.29010e+03,3.53522e+01,-1.10408e+01,0.00000e+00,0.00000e+00,0.00000e+00
1.29010e+03,3.50407e+01,-1.38010e+01,0.00000e+00,0.00000e+00,0.00000e+00
1.29010e+03,3.46882e+01,-1.65612e+01,0.00000e+00,0.00000e+00,0.00000e+00
1.29010e+03,3.43158e+01,-1.93214e+01,0.00000e+00,0.00000e+00,0.00000e+00
1.29010e+03,3.39106e+01,-2.20816e+01,0.00000e+00,0.00000e+00,0.00000e+00
1.29010e+03,3.34783e+01,-2.48418e+01,0.00000e+00,0.00000e+00,0.00000e+00
1.29010e+03,3.30163e+01,-2.76019e+01,0.00000e+00,0.00000e+00,0.00000e+00
1.29010e+03,3.25183e+01,-3.03621e+01,0.00000e+00,0.00000e+00,0.00000e+00
1.29010e+03,3.19834e+01,-3.31223e+01,0.00000e+00,0.00000e+00,0.00000e+00
1.29010e+03,3.13964e+01,-3.58825e+01,0.00000e+00,0.00000e+00,0.00000e+00
1.29010e+03,3.07585e+01,-3.86427e+01,0.00000e+00,0.00000e+00,0.00000e+00
1.29010e+03,3.00599e+01,-4.14029e+01,0.00000e+00,0.00000e+00,0.00000e+00
1.29010e+03,2.92790e+01,-4.41631e+01,0.00000e+00,0.00000e+00,0.00000e+00
1.29010e+03,2.84408e+01,-4.69233e+01,0.00000e+00,0.00000e+00,0.00000e+00
1.29010e+03,2.74738e+01,-4.96835e+01,0.00000e+00,0.00000e+00,0.00000e+00
1.29010e+03,2.64534e+01,-5.24437e+01,0.00000e+00,0.00000e+00,0.00000e+00
1.29010e+03,2.52842e+01,-5.52039e+01,0.00000e+00,0.00000e+00,0.00000e+00
1.29010e+03,2.39957e+01,-5.79641e+01,0.00000e+00,0.00000e+00,0.00000e+00
1.29010e+03,2.25860e+01,-6.07243e+01,0.00000e+00,0.00000e+00,0.00000e+00
1.29010e+03,2.09725e+01,-6.34845e+01,0.00000e+00,0.00000e+00,0.00000e+00
1.29010e+03,1.91232e+01,-6.62447e+01,0.00000e+00,0.00000e+00,0.00000e+00
1.29010e+03,1.70072e+01,-6.90049e+01,0.00000e+00,0.00000e+00,0.00000e+00
1.29010e+03,1.45045e+01,-7.17651e+01,0.00000e+00,0.00000e+00,0.00000e+00
1.29010e+03,1.12920e+01,-7.45253e+01,0.00000e+00,0.00000e+00,0.00000e+00
1.29010e+03,6.94724e+00,-7.72855e+01,0.00000e+00,0.00000e+00,0.00000e+00
1.29010e+03,-2.81497e+00,-8.00457e+01,0.00000e+00,0.00000e+00,0.00000e+00
1.29010e+03,-3.51951e+00,-8.00521e+01,0.00000e+00,0.00000e+00,0.00000e+00
1.29010e+03,-9.93839e+00,-7.71931e+01,0.00000e+00,0.00000e+00,0.00000e+00
1.29010e+03,-1.07156e+01,-7.43341e+01,0.00000e+00,0.00000e+00,0.00000e+00
1.29010e+03,-1.09838e+01,-7.14751e+01,0.00000e+00,0.00000e+00,0.00000e+00
1.29010e+03,-1.10244e+01,-6.86160e+01,0.00000e+00,0.00000e+00,0.00000e+00
1.29010e+03,-1.08937e+01,-6.57570e+01,0.00000e+00,0.00000e+00,0.00000e+00
1.29010e+03,-1.06555e+01,-6.28980e+01,0.00000e+00,0.00000e+00,0.00000e+00
1.29010e+03,-1.03093e+01,-6.00390e+01,0.00000e+00,0.00000e+00,0.00000e+00
1.29010e+03,-9.89713e+00,-5.71800e+01,0.00000e+00,0.00000e+00,0.00000e+00
1.29010e+03,-9.44680e+00,-5.43210e+01,0.00000e+00,0.00000e+00,0.00000e+00
1.29010e+03,-8.93890e+00,-5.14620e+01,0.00000e+00,0.00000e+00,0.00000e+00
1.29010e+03,-8.39503e+00,-4.86030e+01,0.00000e+00,0.00000e+00,0.00000e+00
1.29010e+03,-7.81612e+00,-4.57440e+01,0.00000e+00,0.00000e+00,0.00000e+00
1.29010e+03,-7.20231e+00,-4.28850e+01,0.00000e+00,0.00000e+00,0.00000e+00
1.29010e+03,-6.56662e+00,-4.00260e+01,0.00000e+00,0.00000e+00,0.00000e+00
1.29010e+03,-5.90290e+00,-3.71670e+01,0.00000e+00,0.00000e+00,0.00000e+00
1.29010e+03,-5.22123e+00,-3.43080e+01,0.00000e+00,0.00000e+00,0.00000e+00
1.29010e+03,-4.52347e+00,-3.14490e+01,0.00000e+00,0.00000e+00,0.00000e+00
1.29010e+03,-3.81134e+00,-2.85900e+01,0.00000e+00,0.00000e+00,0.00000e+00
1.29010e+03,-3.09313e+00,-2.57310e+01,0.00000e+00,0.00000e+00,0.00000e+00
1.29010e+03,-2.36549e+00,-2.28720e+01,0.00000e+00,0.00000e+00,0.00000e+00
1.29010e+03,-1.63628e+00,-2.00130e+01,0.00000e+00,0.00000e+00,0.00000e+00
1.29010e+03,-9.01444e-01,-1.71540e+01,0.00000e+00,0.00000e+00,0.00000e+00
1.29010e+03,-1.66680e-01,-1.42950e+01,0.00000e+00,0.00000e+00,0.00000e+00
1.29010e+03,5.65307e-01,-1.14360e+01,0.00000e+00,0.00000e+00,0.00000e+00
1.29010e+03,1.29729e+00,-8.57701e+00,0.00000e+00,0.00000e+00,0.00000e+00
1.29010e+03,2.01195e+00,-5.71800e+00,0.00000e+00,0.00000e+00,0.00000e+00
1.29010e+03,2.72337e+00,-2.85900e+00,0.00000e+00,0.00000e+00,0.00000e+00
1.37170e+03,3.50118e+01,0.00000e+00,0.00000e+00,0.00000e+00,0.00000e+00
1.37170e+03,3.48355e+01,-2.66053e+00,0.00000e+00,0.00000e+00,0.00000e+00
1.37170e+03,3.46009e+01,-5.32106e+00,0.00000e+00,0.00000e+00,0.00000e+00
1.37170e+03,3.43640e+01,-7.98159e+00,0.00000e+00,0.00000e+00,0.00000e+00
1.37170e+03,3.40757e+01,-1.06421e+01,0.00000e+00,0.00000e+00,0.00000e+00
1.37170e+03,3.37754e+01,-1.33027e+01,0.00000e+00,0.00000e+00,0.00000e+00
1.37170e+03,3.34357e+01,-1.59632e+01,0.00000e+00,0.00000e+00,0.00000e+00
1.37170e+03,3.30768e+01,-1.86237e+01,0.00000e+00,0.00000e+00,0.00000e+00
1.37170e+03,3.26861e+01,-2.12842e+01,0.00000e+00,0.00000e+00,0.00000e+00
1.37170e+03,3.22695e+01,-2.39448e+01,0.00000e+00,0.00000e+00,0.00000e+00
1.37170e+03,3.18241e+01,-2.66053e+01,0.00000e+00,0.00000e+00,0.00000e+00
1.37170e+03,3.13441e+01,-2.92658e+01,0.00000e+00,0.00000e+00,0.00000e+00
1.37170e+03,3.08286e+01,-3.19264e+01,0.00000e+00,0.00000e+00,0.00000e+00
1.37170e+03,3.02627e+01,-3.45869e+01,0.00000e+00,0.00000e+00,0.00000e+00
1.37170e+03,2.96479e+01,-3.72474e+01,0.00000e+00,0.00000e+00,0.00000e+00
1.37170e+03,2.89745e+01,-3.99080e+01,0.00000e+00,0.00000e+00,0.00000e+00
1.37170e+03,2.82218e+01,-4.25685e+01,0.00000e+00,0.00000e+00,0.00000e+00
1.37170e+03,2.74139e+01,-4.52290e+01,0.00000e+00,0.00000e+00,0.00000e+00
1.37170e+03,2.64818e+01,-4.78895e+01,0.00000e+00,0.00000e+00,0.00000e+00
1.37170e+03,2.54982e+01,-5.05501e+01,0.00000e+00,0.00000e+00,0.00000e+00
1.37170e+03,2.43712e+01,-5.32106e+01,0.00000e+00,0.00000e+00,0.00000e+00
1.37170e+03,2.31293e+01,-5.58711e+01,0.00000e+00,0.00000e+00,0.00000e+00
1.37170e+03,2.17704e+01,-5.85317e+01,0.00000e+00,0.00000e+00,0.00000e+00
1.37170e+03,2.02153e+01,-6.11922e+01,0.00000e+00,0.00000e+00,0.00000e+00
1.37170e+03,1.84327e+01,-6.38527e+01,0.00000e+00,0.00000e+00,0.00000e+00
1.37170e+03,1.63931e+01,-6.65133e+01,0.00000e+00,0.00000e+00,0.00000e+00
1.37170e+03,1.39807e+01,-6.91738e+01,0.00000e+00,0.00000e+00,0.00000e+00
1.37170e+03,1.08843e+01,-7.18343e+01,0.00000e+00,0.00000e+00,0.00000e+00
1.37170e+03,6.69639e+00,-7.44949e+01,0.00000e+00,0.00000e+00,0.00000e+00
1.37170e+03,-2.71333e+00,-7.71554e+01,0.00000e+00,0.00000e+00,0.00000e+00
1.37170e+03,-3.39243e+00,-7.71616e+01,0.00000e+00,0.00000e+00,0.00000e+00
1.37170e+03,-9.57954e+00,-7.44058e+01,0.00000e+00,0.00000e+00,0.00000e+00
1.37170e+03,-1.03287e+01,-7.16500e+01,0.00000e+00,0.00000e+00,0.00000e+00
1.37170e+03,-1.05872e+01,-6.88942e+01,0.00000e+00,0.00000e+00,0.00000e+00
1.37170e+03,-1.06264e+01,-6.61385e+01,0.00000e+00,0.00000e+00,0.00000e+00
1.37170e+03,-1.05004e+01,-6.33827e+01,0.00000e+00,0.00000e+00,0.00000e+00
1.37170e+03,-1.02708e+01,-6.06269e+01,0.00000e+00,0.00000e+00,0.00000e+00
1.37170e+03,-9.93701e+00,-5.78712e+01,0.00000e+00,0.00000e+00,0.00000e+00
1.37170e+03,-9.53977e+00,-5.51154e+01,0.00000e+00,0.00000e+00,0.00000e+00
1.37170e+03,-9.10569e+00,-5.23596e+01,0.00000e+00,0.00000e+00,0.00000e+00
1.37170e+03,-8.61613e+00,-4.96039e+01,0.00000e+00,0.00000e+00,0.00000e+00
1.37170e+03,-8.09190e+00,-4.68481e+01,0.00000e+00,0.00000e+00,0.00000e+00
1.37170e+03,-7.53389e+00,-4.40923e+01,0.00000e+00,0.00000e+00,0.00000e+00
1.37170e+03,-6.94225e+00,-4.13365e+01,0.00000e+00,0.00000e+00,0.00000e+00
1.37170e+03,-6.32951e+00,-3.85808e+01,0.00000e+00,0.00000e+00,0.00000e+00
1.37170e+03,-5.68976e+00,-3.58250e+01,0.00000e+00,0.00000e+00,0.00000e+00
1.37170e+03,-5.03271e+00,-3.30692e+01,0.00000e+00,0.00000e+00,0.00000e+00
1.37170e+03,-4.36014e+00,-3.03135e+01,0.00000e+00,0.00000e+00,0.00000e+00
1.37170e+03,-3.67372e+00,-2.75577e+01,0.00000e+00,0.00000e+00,0.00000e+00
1.37170e+03,-2.98144e+00,-2.48019e+01,0.00000e+00,0.00000e+00,0.00000e+00
1.37170e+03,-2.28008e+00,-2.20462e+01,0.00000e+00,0.00000e+00,0.00000e+00
1.37170e+03,-1.57720e+00,-1.92904e+01,0.00000e+00,0.00000e+00,0.00000e+00
1.37170e+03,-8.68894e-01,-1.65346e+01,0.00000e+00,0.00000e+00,0.00000e+00
1.37170e+03,-1.60661e-01,-1.37788e+01,0.00000e+00,0.00000e+00,0.00000e+00
1.37170e+03,5.44895e-01,-1.10231e+01,0.00000e+00,0.00000e+00,0.00000e+00
1.37170e+03,1.25045e+00,-8.26731e+00,0.00000e+00,0.00000e+00,0.00000e+00
1.37170e+03,1.93930e+00,-5.51154e+00,0.00000e+00,0.00000e+00,0.00000e+00
1.37170e+03,2.62503e+00,-2.75577e+00,0.00000e+00,0.00000e+00,0.00000e+00
1.44960e+03,3.37597e+01,0.00000e+00,0.00000e+00,0.00000e+00,0.00000e+00
1.44960e+03,3.35897e+01,-2.56538e+00,0.00000e+00,0.00000e+00,0.00000e+00
1.44960e+03,3.33635e+01,-5.13077e+00,0.00000e+00,0.00000e+00,0.00000e+00
1.44960e+03,3.31351e+01,-7.69615e+00,0.00000e+00,0.00000e+00,0.00000e+00
1.44960e+03,3.28571e+01,-1.02615e+01,0.00000e+00,0.00000e+00,0.00000e+00
1.44960e+03,3.25675e+01,-1.28269e+01,0.00000e+00,0.00000e+00,0.00000e+00
1.44960e+03,3.22399e+01,-1.53923e+01,0.00000e+00,0.00000e+00,0.00000e+00
1.44960e+03,3.18939e+01,-1.79577e+01,0.00000e+00,0.00000e+00,0.00000e+00
1.44960e+03,3.15172e+01,-2.05231e+01,0.00000e+00,0.00000e+00,0.00000e+00
1.44960e+03,3.11155e+01,-2.30885e+01,0.00000e+00,0.00000e+00,0.00000e+00
1.44960e+03,3.06860e+01,-2.56538e+01,0.00000e+00,0.00000e+00,0.00000e+00
1.44960e+03,3.02232e+01,-2.82192e+01,0.00000e+00,0.00000e+00,0.00000e+00
1.44960e+03,2.97261e+01,-3.07846e+01,0.00000e+00,0.00000e+00,0.00000e+00
1.44960e+03,2.91805e+01,-3.33500e+01,0.00000e+00,0.00000e+00,0.00000e+00
1.44960e+03,2.85877e+01,-3.59154e+01,0.00000e+00,0.00000e+00,0.00000e+00
1.44960e+03,2.79383e+01,-3.84808e+01,0.00000e+00,0.00000e+00,0.00000e+00
1.44960e+03,2.72125e+01,-4.10462e+01,0.00000e+00,0.00000e+00,0.00000e+00
1.44960e+03,2.64335e+01,-4.36115e+01,0.00000e+00,0.00000e+00,0.00000e+00
1.44960e+03,2.55347e+01,-4.61769e+01,0.00000e+00,0.00000e+00,0.00000e+00
1.44960e+03,2.45863e+01,-4.87423e+01,0.00000e+00,0.00000e+00,0.00000e+00
1.44960e+03,2.34997e+01,-5.13077e+01,0.00000e+00,0.00000e+00,0.00000e+00
1.44960e+03,2.23022e+01,-5.38731e+01,0.00000e+00,0.00000e+00,0.00000e+00
1.44960e+03,2.09919e+01,-5.64385e+01,0.00000e+00,0.00000e+00,0.00000e+00
1.44960e+03,1.94923e+01,-5.90039e+01,0.00000e+00,0.00000e+00,0.00000e+00
1.44960e+03,1.77735e+01,-6.15692e+01,0.00000e+00,0.00000e+00,0.00000e+00
1.44960e+03,1.58069e+01,-6.41346e+01,0.00000e+00,0.00000e+00,0.00000e+00
1.44960e+03,1.34808e+01,-6.67000e+01,0.00000e+00,0.00000e+00,0.00000e+00
1.44960e+03,1.04950e+01,-6.92654e+01,0.00000e+00,0.00000e+00,0.00000e+00
1.44960e+03,6.45692e+00,-7.18308e+01,0.00000e+00,0.00000e+00,0.00000e+00
1.44960e+03,-2.61629e+00,-7.43962e+01,0.00000e+00,0.00000e+00,0.00000e+00
1.44960e+03,-3.27111e+00,-7.44021e+01,0.00000e+00,0.00000e+00,0.00000e+00
1.44960e+03,-9.23696e+00,-7.17449e+01,0.00000e+00,0.00000e+00,0.00000e+00
1.44960e+03,-9.95928e+00,-6.90877e+01,0.00000e+00,0.00000e+00,0.00000e+00
1.44960e+03,-1.02085e+01,-6.64305e+01,0.00000e+00,0.00000e+00,0.00000e+00
1.44960e+03,-1.02464e+01,-6.37732e+01,0.00000e+00,0.00000e+00,0.00000e+00
1.44960e+03,-1.01249e+01,-6.11160e+01,0.00000e+00,0.00000e+00,0.00000e+00
1.44960e+03,-9.90345e+00,-5.84588e+01,0.00000e+00,0.00000e+00,0.00000e+00
1.44960e+03,-9.58164e+00,-5.58016e+01,0.00000e+00,0.00000e+00,0.00000e+00
1.44960e+03,-9.19861e+00,-5.31444e+01,0.00000e+00,0.00000e+00,0.00000e+00
1.44960e+03,-8.78006e+00,-5.04872e+01,0.00000e+00,0.00000e+00,0.00000e+00
1.44960e+03,-8.30801e+00,-4.78299e+01,0.00000e+00,0.00000e+00,0.00000e+00
1.44960e+03,-7.80252e+00,-4.51727e+01,0.00000e+00,0.00000e+00,0.00000e+00
1.44960e+03,-7.26447e+00,-4.25155e+01,0.00000e+00,0.00000e+00,0.00000e+00
1.44960e+03,-6.69398e+00,-3.98583e+01,0.00000e+00,0.00000e+00,0.00000e+00
1.44960e+03,-6.10316e+00,-3.72011e+01,0.00000e+00,0.00000e+00,0.00000e+00
1.44960e+03,-5.48628e+00,-3.45438e+01,0.00000e+00,0.00000e+00,0.00000e+00
1.44960e+03,-4.85273e+00,-3.18866e+01,0.00000e+00,0.00000e+00,0.00000e+00
1.44960e+03,-4.20421e+00,-2.92294e+01,0.00000e+00,0.00000e+00,0.00000e+00
1.44960e+03,-3.54234e+00,-2.65722e+01,0.00000e+00,0.00000e+00,0.00000e+00
1.44960e+03,-2.87482e+00,-2.39150e+01,0.00000e+00,0.00000e+00,0.00000e+00
1.44960e+03,-2.19854e+00,-2.12577e+01,0.00000e+00,0.00000e+00,0.00000e+00
1.44960e+03,-1.52080e+00,-1.86005e+01,0.00000e+00,0.00000e+00,0.00000e+00
1.44960e+03,-8.37821e-01,-1.59433e+01,0.00000e+00,0.00000e+00,0.00000e+00
1.44960e+03,-1.54916e-01,-1.32861e+01,0.00000e+00,0.00000e+00,0.00000e+00
1.44960e+03,5.25408e-01,-1.06289e+01,0.00000e+00,0.00000e+00,0.00000e+00
1.44960e+03,1.20573e+00,-7.97166e+00,0.00000e+00,0.00000e+00,0.00000e+00
1.44960e+03,1.86995e+00,-5.31444e+00,0.00000e+00,0.00000e+00,0.00000e+00
1.44960e+03,2.53116e+00,-2.65722e+00,0.00000e+00,0.00000e+00,0.00000e+00
1.52340e+03,3.25736e+01,0.00000e+00,0.00000e+00,0.00000e+00,0.00000e+00
1.52340e+03,3.24095e+01,-2.47525e+00,0.00000e+00,0.00000e+00,0.00000e+00
1.52340e+03,3.21913e+01,-4.95049e+00,0.00000e+00,0.00000e+00,0.00000e+00
1.52340e+03,3.19709e+01,-7.42574e+00,0.00000e+00,0.00000e+00,0.00000e+00
1.52340e+03,3.17026e+01,-9.90099e+00,0.00000e+00,0.00000e+00,0.00000e+00
1.52340e+03,3.14232e+01,-1.23762e+01,0.00000e+00,0.00000e+00,0.00000e+00
1.52340e+03,3.11072e+01,-1.48515e+01,0.00000e+00,0.00000e+00,0.00000e+00
1.52340e+03,3.07733e+01,-1.73267e+01,0.00000e+00,0.00000e+00,0.00000e+00
1.52340e+03,3.04098e+01,-1.98020e+01,0.00000e+00,0.00000e+00,0.00000e+00
1.52340e+03,3.00222e+01,-2.22772e+01,0.00000e+00,0.00000e+00,0.00000e+00
1.52340e+03,2.96079e+01,-2.47525e+01,0.00000e+00,0.00000e+00,0.00000e+00
1.52340e+03,2.91613e+01,-2.72277e+01,0.00000e+00,0.00000e+00,0.00000e+00
1.52340e+03,2.86816e+01,-2.97030e+01,0.00000e+00,0.00000e+00,0.00000e+00
1.52340e+03,2.81552e+01,-3.21782e+01,0.00000e+00,0.00000e+00,0.00000e+00
1.52340e+03,2.75832e+01,-3.46535e+01,0.00000e+00,0.00000e+00,0.00000e+00
1.52340e+03,2.69567e+01,-3.71287e+01,0.00000e+00,0.00000e+00,0.00000e+00
1.52340e+03,2.62564e+01,-3.96040e+01,0.00000e+00,0.00000e+00,0.00000e+00
1.52340e+03,2.55047e+01,-4.20792e+01,0.00000e+00,0.00000e+00,0.00000e+00
1.52340e+03,2.46375e+01,-4.45544e+01,0.00000e+00,0.00000e+00,0.00000e+00
1.52340e+03,2.37225e+01,-4.70297e+01,0.00000e+00,0.00000e+00,0.00000e+00
1.52340e+03,2.26740e+01,-4.95049e+01,0.00000e+00,0.00000e+00,0.00000e+00
1.52340e+03,2.15185e+01,-5.19802e+01,0.00000e+00,0.00000e+00,0.00000e+00
1.52340e+03,2.02543e+01,-5.44554e+01,0.00000e+00,0.00000e+00,0.00000e+00
1.52340e+03,1.88075e+01,-5.69307e+01,0.00000e+00,0.00000e+00,0.00000e+00
1.52340e+03,1.71490e+01,-5.94059e+01,0.00000e+00,0.00000e+00,0.00000e+00
1.52340e+03,1.52515e+01,-6.18812e+01,0.00000e+00,0.00000e+00,0.00000e+00
1.52340e+03,1.30071e+01,-6.43564e+01,0.00000e+00,0.00000e+00,0.00000e+00
1.52340e+03,1.01263e+01,-6.68317e+01,0.00000e+00,0.00000e+00,0.00000e+00
1.52340e+03,6.23005e+00,-6.93069e+01,0.00000e+00,0.00000e+00,0.00000e+00
1.52340e+03,-2.52437e+00,-7.17822e+01,0.00000e+00,0.00000e+00,0.00000e+00
1.52340e+03,-3.15618e+00,-7.17879e+01,0.00000e+00,0.00000e+00,0.00000e+00
1.52340e+03,-8.91241e+00,-6.92241e+01,0.00000e+00,0.00000e+00,0.00000e+00
1.52340e+03,-9.60935e+00,-6.66602e+01,0.00000e+00,0.00000e+00,0.00000e+00
1.52340e+03,-9.84985e+00,-6.40963e+01,0.00000e+00,0.00000e+00,0.00000e+00
1.52340e+03,-9.88634e+00,-6.15325e+01,0.00000e+00,0.00000e+00,0.00000e+00
1.52340e+03,-9.76914e+00,-5.89686e+01,0.00000e+00,0.00000e+00,0.00000e+00
1.52340e+03,-9.55548e+00,-5.64048e+01,0.00000e+00,0.00000e+00,0.00000e+00
1.52340e+03,-9.24498e+00,-5.38409e+01,0.00000e+00,0.00000e+00,0.00000e+00
1.52340e+03,-8.87540e+00,-5.12771e+01,0.00000e+00,0.00000e+00,0.00000e+00
1.52340e+03,-8.47156e+00,-4.87132e+01,0.00000e+00,0.00000e+00,0.00000e+00
1.52340e+03,-8.01609e+00,-4.61494e+01,0.00000e+00,0.00000e+00,0.00000e+00
1.52340e+03,-7.52837e+00,-4.35855e+01,0.00000e+00,0.00000e+00,0.00000e+00
1.52340e+03,-7.00922e+00,-4.10217e+01,0.00000e+00,0.00000e+00,0.00000e+00
1.52340e+03,-6.45878e+00,-3.84578e+01,0.00000e+00,0.00000e+00,0.00000e+00
1.52340e+03,-5.88872e+00,-3.58940e+01,0.00000e+00,0.00000e+00,0.00000e+00
1.52340e+03,-5.29352e+00,-3.33301e+01,0.00000e+00,0.00000e+00,0.00000e+00
1.52340e+03,-4.68222e+00,-3.07662e+01,0.00000e+00,0.00000e+00,0.00000e+00
1.52340e+03,-4.05649e+00,-2.82024e+01,0.00000e+00,0.00000e+00,0.00000e+00
1.52340e+03,-3.41788e+00,-2.56385e+01,0.00000e+00,0.00000e+00,0.00000e+00
1.52340e+03,-2.77381e+00,-2.30747e+01,0.00000e+00,0.00000e+00,0.00000e+00
1.52340e+03,-2.12129e+00,-2.05108e+01,0.00000e+00,0.00000e+00,0.00000e+00
1.52340e+03,-1.46736e+00,-1.79470e+01,0.00000e+00,0.00000e+00,0.00000e+00
1.52340e+03,-8.08383e-01,-1.53831e+01,0.00000e+00,0.00000e+00,0.00000e+00
1.52340e+03,-1.49473e-01,-1.28193e+01,0.00000e+00,0.00000e+00,0.00000e+00
1.52340e+03,5.06948e-01,-1.02554e+01,0.00000e+00,0.00000e+00,0.00000e+00
1.52340e+03,1.16337e+00,-7.69156e+00,0.00000e+00,0.00000e+00,0.00000e+00
1.52340e+03,1.80424e+00,-5.12771e+00,0.00000e+00,0.00000e+00,0.00000e+00
1.52340e+03,2.44222e+00,-2.56385e+00,0.00000e+00,0.00000e+00,0.00000e+00
1.59310e+03,3.14533e+01,0.00000e+00,0.00000e+00,0.00000e+00,0.00000e+00
1.59310e+03,3.12949e+01,-2.39012e+00,0.00000e+00,0.00000e+00,0.00000e+00
1.59310e+03,3.10841e+01,-4.78023e+00,0.00000e+00,0.00000e+00,0.00000e+00
1.59310e+03,3.08713e+01,-7.17035e+00,0.00000e+00,0.00000e+00,0.00000e+00
1.59310e+03,3.06123e+01,-9.56047e+00,0.00000e+00,0.00000e+00,0.00000e+00
1.59310e+03,3.03425e+01,-1.19506e+01,0.00000e+00,0.00000e+00,0.00000e+00
1.59310e+03,3.00373e+01,-1.43407e+01,0.00000e+00,0.00000e+00,0.00000e+00
1.59310e+03,2.97149e+01,-1.67308e+01,0.00000e+00,0.00000e+00,0.00000e+00
1.59310e+03,2.93640e+01,-1.91209e+01,0.00000e+00,0.00000e+00,0.00000e+00
1.59310e+03,2.89896e+01,-2.15111e+01,0.00000e+00,0.00000e+00,0.00000e+00
1.59310e+03,2.85896e+01,-2.39012e+01,0.00000e+00,0.00000e+00,0.00000e+00
1.59310e+03,2.81583e+01,-2.62913e+01,0.00000e+00,0.00000e+00,0.00000e+00
1.59310e+03,2.76952e+01,-2.86814e+01,0.00000e+00,0.00000e+00,0.00000e+00
1.59310e+03,2.71869e+01,-3.10715e+01,0.00000e+00,0.00000e+00,0.00000e+00
1.59310e+03,2.66345e+01,-3.34616e+01,0.00000e+00,0.00000e+00,0.00000e+00
1.59310e+03,2.60296e+01,-3.58518e+01,0.00000e+00,0.00000e+00,0.00000e+00
1.59310e+03,2.53533e+01,-3.82419e+01,0.00000e+00,0.00000e+00,0.00000e+00
1.59310e+03,2.46276e+01,-4.06320e+01,0.00000e+00,0.00000e+00,0.00000e+00
1.59310e+03,2.37902e+01,-4.30221e+01,0.00000e+00,0.00000e+00,0.00000e+00
1.59310e+03,2.29066e+01,-4.54122e+01,0.00000e+00,0.00000e+00,0.00000e+00
1.59310e+03,2.18941e+01,-4.78023e+01,0.00000e+00,0.00000e+00,0.00000e+00
1.59310e+03,2.07785e+01,-5.01925e+01,0.00000e+00,0.00000e+00,0.00000e+00
1.59310e+03,1.95577e+01,-5.25826e+01,0.00000e+00,0.00000e+00,0.00000e+00
1.59310e+03,1.81606e+01,-5.49727e+01,0.00000e+00,0.00000e+00,0.00000e+00
1.59310e+03,1.65592e+01,-5.73628e+01,0.00000e+00,0.00000e+00,0.00000e+00
1.59310e+03,1.47269e+01,-5.97529e+01,0.00000e+00,0.00000e+00,0.00000e+00
1.59310e+03,1.25597e+01,-6.21430e+01,0.00000e+00,0.00000e+00,0.00000e+00
1.59310e+03,9.77800e+00,-6.45332e+01,0.00000e+00,0.00000e+00,0.00000e+00
1.59310e+03,6.01578e+00,-6.69233e+01,0.00000e+00,0.00000e+00,0.00000e+00
1.59310e+03,-2.43755e+00,-6.93134e+01,0.00000e+00,0.00000e+00,0.00000e+00
1.59310e+03,-3.04763e+00,-6.93189e+01,0.00000e+00,0.00000e+00,0.00000e+00
1.59310e+03,-8.60589e+00,-6.68433e+01,0.00000e+00,0.00000e+00,0.00000e+00
1.59310e+03,-9.27886e+00,-6.43676e+01,0.00000e+00,0.00000e+00,0.00000e+00
1.59310e+03,-9.51109e+00,-6.18919e+01,0.00000e+00,0.00000e+00,0.00000e+00
1.59310e+03,-9.54632e+00,-5.94162e+01,0.00000e+00,0.00000e+00,0.00000e+00
1.59310e+03,-9.43315e+00,-5.69406e+01,0.00000e+00,0.00000e+00,0.00000e+00
1.59310e+03,-9.22684e+00,-5.44649e+01,0.00000e+00,0.00000e+00,0.00000e+00
1.59310e+03,-8.92702e+00,-5.19892e+01,0.00000e+00,0.00000e+00,0.00000e+00
1.59310e+03,-8.57016e+00,-4.95135e+01,0.00000e+00,0.00000e+00,0.00000e+00
1.59310e+03,-8.18020e+00,-4.70379e+01,0.00000e+00,0.00000e+00,0.00000e+00
1.59310e+03,-7.74040e+00,-4.45622e+01,0.00000e+00,0.00000e+00,0.00000e+00
1.59310e+03,-7.26945e+00,-4.20865e+01,0.00000e+00,0.00000e+00,0.00000e+00
1.59310e+03,-6.76816e+00,-3.96108e+01,0.00000e+00,0.00000e+00,0.00000e+00
1.59310e+03,-6.23665e+00,-3.71351e+01,0.00000e+00,0.00000e+00,0.00000e+00
1.59310e+03,-5.68619e+00,-3.46595e+01,0.00000e+00,0.00000e+00,0.00000e+00
1.59310e+03,-5.11146e+00,-3.21838e+01,0.00000e+00,0.00000e+00,0.00000e+00
1.59310e+03,-4.52119e+00,-2.97081e+01,0.00000e+00,0.00000e+00,0.00000e+00
1.59310e+03,-3.91698e+00,-2.72324e+01,0.00000e+00,0.00000e+00,0.00000e+00
1.59310e+03,-3.30033e+00,-2.47568e+01,0.00000e+00,0.00000e+00,0.00000e+00
1.59310e+03,-2.67841e+00,-2.22811e+01,0.00000e+00,0.00000e+00,0.00000e+00
1.59310e+03,-2.04833e+00,-1.98054e+01,0.00000e+00,0.00000e+00,0.00000e+00
1.59310e+03,-1.41689e+00,-1.73297e+01,0.00000e+00,0.00000e+00,0.00000e+00
1.59310e+03,-7.80581e-01,-1.48541e+01,0.00000e+00,0.00000e+00,0.00000e+00
1.59310e+03,-1.44332e-01,-1.23784e+01,0.00000e+00,0.00000e+00,0.00000e+00
1.59310e+03,4.89512e-01,-9.90271e+00,0.00000e+00,0.00000e+00,0.00000e+00
1.59310e+03,1.12336e+00,-7.42703e+00,0.00000e+00,0.00000e+00,0.00000e+00
1.59310e+03,1.74219e+00,-4.95135e+00,0.00000e+00,0.00000e+00,0.00000e+00
1.59310e+03,2.35823e+00,-2.47568e+00,0.00000e+00,0.00000e+00,0.00000e+00
1.65850e+03,3.04021e+01,0.00000e+00,0.00000e+00,0.00000e+00,0.00000e+00
1.65850e+03,3.02490e+01,-2.31024e+00,0.00000e+00,0.00000e+00,0.00000e+00
1.65850e+03,3.00453e+01,-4.62048e+00,0.00000e+00,0.00000e+00,0.00000e+00
1.65850e+03,2.98396e+01,-6.93072e+00,0.00000e+00,0.00000e+00,0.00000e+00
1.65850e+03,2.95892e+01,-9.24096e+00,0.00000e+00,0.00000e+00,0.00000e+00
1.65850e+03,2.93285e+01,-1.15512e+01,0.00000e+00,0.00000e+00,0.00000e+00
1.65850e+03,2.90335e+01,-1.38614e+01,0.00000e+00,0.00000e+00,0.00000e+00
1.65850e+03,2.87218e+01,-1.61717e+01,0.00000e+00,0.00000e+00,0.00000e+00
1.65850e+03,2.83826e+01,-1.84819e+01,0.00000e+00,0.00000e+00,0.00000e+00
1.65850e+03,2.80208e+01,-2.07921e+01,0.00000e+00,0.00000e+00,0.00000e+00
1.65850e+03,2.76341e+01,-2.31024e+01,0.00000e+00,0.00000e+00,0.00000e+00
1.65850e+03,2.72173e+01,-2.54126e+01,0.00000e+00,0.00000e+00,0.00000e+00
1.65850e+03,2.67696e+01,-2.77229e+01,0.00000e+00,0.00000e+00,0.00000e+00
1.65850e+03,2.62783e+01,-3.00331e+01,0.00000e+00,0.00000e+00,0.00000e+00
1.65850e+03,2.57444e+01,-3.23433e+01,0.00000e+00,0.00000e+00,0.00000e+00
1.65850e+03,2.51597e+01,-3.46536e+01,0.00000e+00,0.00000e+00,0.00000e+00
1.65850e+03,2.45060e+01,-3.69638e+01,0.00000e+00,0.00000e+00,0.00000e+00
1.65850e+03,2.38045e+01,-3.92741e+01,0.00000e+00,0.00000e+00,0.00000e+00
1.65850e+03,2.29951e+01,-4.15843e+01,0.00000e+00,0.00000e+00,0.00000e+00
1.65850e+03,2.21410e+01,-4.38945e+01,0.00000e+00,0.00000e+00,0.00000e+00
1.65850e+03,2.11624e+01,-4.62048e+01,0.00000e+00,0.00000e+00,0.00000e+00
1.65850e+03,2.00840e+01,-4.85150e+01,0.00000e+00,0.00000e+00,0.00000e+00
1.65850e+03,1.89041e+01,-5.08253e+01,0.00000e+00,0.00000e+00,0.00000e+00
1.65850e+03,1.75537e+01,-5.31355e+01,0.00000e+00,0.00000e+00,0.00000e+00
1.65850e+03,1.60058e+01,-5.54457e+01,0.00000e+00,0.00000e+00,0.00000e+00
1.65850e+03,1.42348e+01,-5.77560e+01,0.00000e+00,0.00000e+00,0.00000e+00
1.65850e+03,1.21400e+01,-6.00662e+01,0.00000e+00,0.00000e+00,0.00000e+00
1.65850e+03,9.45122e+00,-6.23764e+01,0.00000e+00,0.00000e+00,0.00000e+00
1.65850e+03,5.81473e+00,-6.46867e+01,0.00000e+00,0.00000e+00,0.00000e+00
1.65850e+03,-2.35608e+00,-6.69969e+01,0.00000e+00,0.00000e+00,0.00000e+00
1.65850e+03,-2.94577e+00,-6.70023e+01,0.00000e+00,0.00000e+00,0.00000e+00
1.65850e+03,-8.31828e+00,-6.46093e+01,0.00000e+00,0.00000e+00,0.00000e+00
1.65850e+03,-8.96876e+00,-6.22164e+01,0.00000e+00,0.00000e+00,0.00000e+00
1.65850e+03,-9.19322e+00,-5.98235e+01,0.00000e+00,0.00000e+00,0.00000e+00
1.65850e+03,-9.22728e+00,-5.74305e+01,0.00000e+00,0.00000e+00,0.00000e+00
1.65850e+03,-9.11789e+00,-5.50376e+01,0.00000e+00,0.00000e+00,0.00000e+00
1.65850e+03,-8.91848e+00,-5.26447e+01,0.00000e+00,0.00000e+00,0.00000e+00
1.65850e+03,-8.62868e+00,-5.02517e+01,0.00000e+00,0.00000e+00,0.00000e+00
1.65850e+03,-8.28374e+00,-4.78588e+01,0.00000e+00,0.00000e+00,0.00000e+00
1.65850e+03,-7.90682e+00,-4.54658e+01,0.00000e+00,0.00000e+00,0.00000e+00
1.65850e+03,-7.48171e+00,-4.30729e+01,0.00000e+00,0.00000e+00,0.00000e+00
1.65850e+03,-7.02650e+00,-4.06800e+01,0.00000e+00,0.00000e+00,0.00000e+00
1.65850e+03,-6.54196e+00,-3.82870e+01,0.00000e+00,0.00000e+00,0.00000e+00
1.65850e+03,-6.02822e+00,-3.58941e+01,0.00000e+00,0.00000e+00,0.00000e+00
1.65850e+03,-5.49615e+00,-3.35011e+01,0.00000e+00,0.00000e+00,0.00000e+00
1.65850e+03,-4.94063e+00,-3.11082e+01,0.00000e+00,0.00000e+00,0.00000e+00
1.65850e+03,-4.37009e+00,-2.87153e+01,0.00000e+00,0.00000e+00,0.00000e+00
1.65850e+03,-3.78607e+00,-2.63223e+01,0.00000e+00,0.00000e+00,0.00000e+00
1.65850e+03,-3.19003e+00,-2.39294e+01,0.00000e+00,0.00000e+00,0.00000e+00
1.65850e+03,-2.58890e+00,-2.15364e+01,0.00000e+00,0.00000e+00,0.00000e+00
1.65850e+03,-1.97988e+00,-1.91435e+01,0.00000e+00,0.00000e+00,0.00000e+00
1.65850e+03,-1.36954e+00,-1.67506e+01,0.00000e+00,0.00000e+00,0.00000e+00
1.65850e+03,-7.54494e-01,-1.43576e+01,0.00000e+00,0.00000e+00,0.00000e+00
1.65850e+03,-1.39508e-01,-1.19647e+01,0.00000e+00,0.00000e+00,0.00000e+00
1.65850e+03,4.73153e-01,-9.57176e+00,0.00000e+00,0.00000e+00,0.00000e+00
1.65850e+03,1.08581e+00,-7.17882e+00,0.00000e+00,0.00000e+00,0.00000e+00
1.65850e+03,1.68397e+00,-4.78588e+00,0.00000e+00,0.00000e+00,0.00000e+00
1.65850e+03,2.27942e+00,-2.39294e+00,0.00000e+00,0.00000e+00,0.00000e+00
1.71930e+03,2.94249e+01,0.00000e+00,0.00000e+00,0.00000e+00,0.00000e+00
1.71930e+03,2.92767e+01,-2.23598e+00,0.00000e+00,0.00000e+00,0.00000e+00
1.71930e+03,2.90795e+01,-4.47196e+00,0.00000e+00,0.00000e+00,0.00000e+00
1.71930e+03,2.88804e+01,-6.70794e+00,0.00000e+00,0.00000e+00,0.00000e+00
1.71930e+03,2.86381e+01,-8.94392e+00,0.00000e+00,0.00000e+00,0.00000e+00
1.71930e+03,2.83857e+01,-1.11799e+01,0.00000e+00,0.00000e+00,0.00000e+00
1.71930e+03,2.81002e+01,-1.34159e+01,0.00000e+00,0.00000e+00,0.00000e+00
1.71930e+03,2.77986e+01,-1.56519e+01,0.00000e+00,0.00000e+00,0.00000e+00
1.71930e+03,2.74703e+01,-1.78878e+01,0.00000e+00,0.00000e+00,0.00000e+00
1.71930e+03,2.71201e+01,-2.01238e+01,0.00000e+00,0.00000e+00,0.00000e+00
1.71930e+03,2.67458e+01,-2.23598e+01,0.00000e+00,0.00000e+00,0.00000e+00
1.71930e+03,2.63424e+01,-2.45958e+01,0.00000e+00,0.00000e+00,0.00000e+00
1.71930e+03,2.59091e+01,-2.68317e+01,0.00000e+00,0.00000e+00,0.00000e+00
1.71930e+03,2.54336e+01,-2.90677e+01,0.00000e+00,0.00000e+00,0.00000e+00
1.71930e+03,2.49169e+01,-3.13037e+01,0.00000e+00,0.00000e+00,0.00000e+00
1.71930e+03,2.43509e+01,-3.35397e+01,0.00000e+00,0.00000e+00,0.00000e+00
1.71930e+03,2.37183e+01,-3.57757e+01,0.00000e+00,0.00000e+00,0.00000e+00
1.71930e+03,2.30393e+01,-3.80116e+01,0.00000e+00,0.00000e+00,0.00000e+00
1.71930e+03,2.22560e+01,-4.02476e+01,0.00000e+00,0.00000e+00,0.00000e+00
1.71930e+03,2.14293e+01,-4.24836e+01,0.00000e+00,0.00000e+00,0.00000e+00
1.71930e+03,2.04822e+01,-4.47196e+01,0.00000e+00,0.00000e+00,0.00000e+00
1.71930e+03,1.94385e+01,-4.69556e+01,0.00000e+00,0.00000e+00,0.00000e+00
1.71930e+03,1.82964e+01,-4.91915e+01,0.00000e+00,0.00000e+00,0.00000e+00
1.71930e+03,1.69894e+01,-5.14275e+01,0.00000e+00,0.00000e+00,0.00000e+00
1.71930e+03,1.54913e+01,-5.36635e+01,0.00000e+00,0.00000e+00,0.00000e+00
1.71930e+03,1.37772e+01,-5.58995e+01,0.00000e+00,0.00000e+00,0.00000e+00
1.71930e+03,1.17498e+01,-5.81355e+01,0.00000e+00,0.00000e+00,0.00000e+00
1.71930e+03,9.14742e+00,-6.03714e+01,0.00000e+00,0.00000e+00,0.00000e+00
1.71930e+03,5.62782e+00,-6.26074e+01,0.00000e+00,0.00000e+00,0.00000e+00
1.71930e+03,-2.28035e+00,-6.48434e+01,0.00000e+00,0.00000e+00,0.00000e+00
1.71930e+03,-2.85109e+00,-6.48486e+01,0.00000e+00,0.00000e+00,0.00000e+00
1.71930e+03,-8.05090e+00,-6.25326e+01,0.00000e+00,0.00000e+00,0.00000e+00
1.71930e+03,-8.68047e+00,-6.02165e+01,0.00000e+00,0.00000e+00,0.00000e+00
1.71930e+03,-8.89772e+00,-5.79005e+01,0.00000e+00,0.00000e+00,0.00000e+00
1.71930e+03,-8.93068e+00,-5.55845e+01,0.00000e+00,0.00000e+00,0.00000e+00
1.71930e+03,-8.82481e+00,-5.32685e+01,0.00000e+00,0.00000e+00,0.00000e+00
1.71930e+03,-8.63181e+00,-5.09525e+01,0.00000e+00,0.00000e+00,0.00000e+00
1.71930e+03,-8.35132e+00,-4.86364e+01,0.00000e+00,0.00000e+00,0.00000e+00
1.71930e+03,-8.01747e+00,-4.63204e+01,0.00000e+00,0.00000e+00,0.00000e+00
1.71930e+03,-7.65266e+00,-4.40044e+01,0.00000e+00,0.00000e+00,0.00000e+00
1.71930e+03,-7.24122e+00,-4.16884e+01,0.00000e+00,0.00000e+00,0.00000e+00
1.71930e+03,-6.80064e+00,-3.93724e+01,0.00000e+00,0.00000e+00,0.00000e+00
1.71930e+03,-6.33168e+00,-3.70563e+01,0.00000e+00,0.00000e+00,0.00000e+00
1.71930e+03,-5.83445e+00,-3.47403e+01,0.00000e+00,0.00000e+00,0.00000e+00
1.71930e+03,-5.31949e+00,-3.24243e+01,0.00000e+00,0.00000e+00,0.00000e+00
1.71930e+03,-4.78182e+00,-3.01083e+01,0.00000e+00,0.00000e+00,0.00000e+00
1.71930e+03,-4.22962e+00,-2.77922e+01,0.00000e+00,0.00000e+00,0.00000e+00
1.71930e+03,-3.66437e+00,-2.54762e+01,0.00000e+00,0.00000e+00,0.00000e+00
1.71930e+03,-3.08749e+00,-2.31602e+01,0.00000e+00,0.00000e+00,0.00000e+00
1.71930e+03,-2.50568e+00,-2.08442e+01,0.00000e+00,0.00000e+00,0.00000e+00
1.71930e+03,-1.91624e+00,-1.85282e+01,0.00000e+00,0.00000e+00,0.00000e+00
1.71930e+03,-1.32552e+00,-1.62121e+01,0.00000e+00,0.00000e+00,0.00000e+00
1.71930e+03,-7.30242e-01,-1.38961e+01,0.00000e+00,0.00000e+00,0.00000e+00
1.71930e+03,-1.35024e-01,-1.15801e+01,0.00000e+00,0.00000e+00,0.00000e+00
1.71930e+03,4.57944e-01,-9.26408e+00,0.00000e+00,0.00000e+00,0.00000e+00
1.71930e+03,1.05091e+00,-6.94806e+00,0.00000e+00,0.00000e+00,0.00000e+00
1.71930e+03,1.62984e+00,-4.63204e+00,0.00000e+00,0.00000e+00,0.00000e+00
1.71930e+03,2.20615e+00,-2.31602e+00,0.00000e+00,0.00000e+00,0.00000e+00
1.77540e+03,2.77303e+01,0.00000e+00,0.00000e+00,0.00000e+00,0.00000e+00
1.77540e+03,2.75906e+01,-2.10721e+00,0.00000e+00,0.00000e+00,0.00000e+00
1.77540e+03,2.74048e+01,-4.21442e+00,0.00000e+00,0.00000e+00,0.00000e+00
1.77540e+03,2.72172e+01,-6.32163e+00,0.00000e+00,0.00000e+00,0.00000e+00
1.77540e+03,2.69888e+01,-8.42884e+00,0.00000e+00,0.00000e+00,0.00000e+00
1.77540e+03,2.67510e+01,-1.05361e+01,0.00000e+00,0.00000e+00,0.00000e+00
1.77540e+03,2.64819e+01,-1.26433e+01,0.00000e+00,0.00000e+00,0.00000e+00
1.77540e+03,2.61977e+01,-1.47505e+01,0.00000e+00,0.00000e+00,0.00000e+00
1.77540e+03,2.58883e+01,-1.68577e+01,0.00000e+00,0.00000e+00,0.00000e+00
1.77540e+03,2.55583e+01,-1.89649e+01,0.00000e+00,0.00000e+00,0.00000e+00
1.77540e+03,2.52056e+01,-2.10721e+01,0.00000e+00,0.00000e+00,0.00000e+00
1.77540e+03,2.48254e+01,-2.31793e+01,0.00000e+00,0.00000e+00,0.00000e+00
1.77540e+03,2.44171e+01,-2.52865e+01,0.00000e+00,0.00000e+00,0.00000e+00
1.77540e+03,2.39689e+01,-2.73937e+01,0.00000e+00,0.00000e+00,0.00000e+00
1.77540e+03,2.34819e+01,-2.95009e+01,0.00000e+00,0.00000e+00,0.00000e+00
1.77540e+03,2.29486e+01,-3.16082e+01,0.00000e+00,0.00000e+00,0.00000e+00
1.77540e+03,2.23524e+01,-3.37154e+01,0.00000e+00,0.00000e+00,0.00000e+00
1.77540e+03,2.17125e+01,-3.58226e+01,0.00000e+00,0.00000e+00,0.00000e+00
1.77540e+03,2.09743e+01,-3.79298e+01,0.00000e+00,0.00000e+00,0.00000e+00
1.77540e+03,2.01952e+01,-4.00370e+01,0.00000e+00,0.00000e+00,0.00000e+00
1.77540e+03,1.93026e+01,-4.21442e+01,0.00000e+00,0.00000e+00,0.00000e+00
1.77540e+03,1.83190e+01,-4.42514e+01,0.00000e+00,0.00000e+00,0.00000e+00
1.77540e+03,1.72428e+01,-4.63586e+01,0.00000e+00,0.00000e+00,0.00000e+00
1.77540e+03,1.60110e+01,-4.84658e+01,0.00000e+00,0.00000e+00,0.00000e+00
1.77540e+03,1.45992e+01,-5.05731e+01,0.00000e+00,0.00000e+00,0.00000e+00
1.77540e+03,1.29838e+01,-5.26803e+01,0.00000e+00,0.00000e+00,0.00000e+00
1.77540e+03,1.10731e+01,-5.47875e+01,0.00000e+00,0.00000e+00,0.00000e+00
1.77540e+03,8.62063e+00,-5.68947e+01,0.00000e+00,0.00000e+00,0.00000e+00
1.77540e+03,5.30372e+00,-5.90019e+01,0.00000e+00,0.00000e+00,0.00000e+00
1.77540e+03,-2.14903e+00,-6.11091e+01,0.00000e+00,0.00000e+00,0.00000e+00
1.77540e+03,-2.68689e+00,-6.11140e+01,0.00000e+00,0.00000e+00,0.00000e+00
1.77540e+03,-7.58725e+00,-5.89314e+01,0.00000e+00,0.00000e+00,0.00000e+00
1.77540e+03,-8.18057e+00,-5.67487e+01,0.00000e+00,0.00000e+00,0.00000e+00
1.77540e+03,-8.38530e+00,-5.45661e+01,0.00000e+00,0.00000e+00,0.00000e+00
1.77540e+03,-8.41637e+00,-5.23834e+01,0.00000e+00,0.00000e+00,0.00000e+00
1.77540e+03,-8.31659e+00,-5.02008e+01,0.00000e+00,0.00000e+00,0.00000e+00
1.77540e+03,-8.13471e+00,-4.80181e+01,0.00000e+00,0.00000e+00,0.00000e+00
1.77540e+03,-7.87037e+00,-4.58355e+01,0.00000e+00,0.00000e+00,0.00000e+00
1.77540e+03,-7.55575e+00,-4.36529e+01,0.00000e+00,0.00000e+00,0.00000e+00
1.77540e+03,-7.21195e+00,-4.14702e+01,0.00000e+00,0.00000e+00,0.00000e+00
1.77540e+03,-6.82421e+00,-3.92876e+01,0.00000e+00,0.00000e+00,0.00000e+00
1.77540e+03,-6.40900e+00,-3.71049e+01,0.00000e+00,0.00000e+00,0.00000e+00
1.77540e+03,-5.96704e+00,-3.49223e+01,0.00000e+00,0.00000e+00,0.00000e+00
1.77540e+03,-5.49844e+00,-3.27396e+01,0.00000e+00,0.00000e+00,0.00000e+00
1.77540e+03,-5.01314e+00,-3.05570e+01,0.00000e+00,0.00000e+00,0.00000e+00
1.77540e+03,-4.50644e+00,-2.83744e+01,0.00000e+00,0.00000e+00,0.00000e+00
1.77540e+03,-3.98604e+00,-2.61917e+01,0.00000e+00,0.00000e+00,0.00000e+00
1.77540e+03,-3.45334e+00,-2.40091e+01,0.00000e+00,0.00000e+00,0.00000e+00
1.77540e+03,-2.90969e+00,-2.18264e+01,0.00000e+00,0.00000e+00,0.00000e+00
1.77540e+03,-2.36138e+00,-1.96438e+01,0.00000e+00,0.00000e+00,0.00000e+00
1.77540e+03,-1.80588e+00,-1.74611e+01,0.00000e+00,0.00000e+00,0.00000e+00
1.77540e+03,-1.24918e+00,-1.52785e+01,0.00000e+00,0.00000e+00,0.00000e+00
1.77540e+03,-6.88187e-01,-1.30959e+01,0.00000e+00,0.00000e+00,0.00000e+00
1.77540e+03,-1.27248e-01,-1.09132e+01,0.00000e+00,0.00000e+00,0.00000e+00
1.77540e+03,4.31571e-01,-8.73057e+00,0.00000e+00,0.00000e+00,0.00000e+00
1.77540e+03,9.90390e-01,-6.54793e+00,0.00000e+00,0.00000e+00,0.00000e+00
1.77540e+03,1.53598e+00,-4.36529e+00,0.00000e+00,0.00000e+00,0.00000e+00
1.77540e+03,2.07910e+00,-2.18264e+00,0.00000e+00,0.00000e+00,0.00000e+00
1.82660e+03,2.53092e+01,0.00000e+00,0.00000e+00,0.00000e+00,0.00000e+00
1.82660e+03,2.51817e+01,-1.92323e+00,0.00000e+00,0.00000e+00,0.00000e+00
1.82660e+03,2.50121e+01,-3.84646e+00,0.00000e+00,0.00000e+00,0.00000e+00
1.82660e+03,2.48409e+01,-5.76969e+00,0.00000e+00,0.00000e+00,0.00000e+00
1.82660e+03,2.46324e+01,-7.69292e+00,0.00000e+00,0.00000e+00,0.00000e+00
1.82660e+03,2.44154e+01,-9.61614e+00,0.00000e+00,0.00000e+00,0.00000e+00
1.82660e+03,2.41698e+01,-1.15394e+01,0.00000e+00,0.00000e+00,0.00000e+00
1.82660e+03,2.39103e+01,-1.34626e+01,0.00000e+00,0.00000e+00,0.00000e+00
1.82660e+03,2.36280e+01,-1.53858e+01,0.00000e+00,0.00000e+00,0.00000e+00
1.82660e+03,2.33268e+01,-1.73091e+01,0.00000e+00,0.00000e+00,0.00000e+00
1.82660e+03,2.30049e+01,-1.92323e+01,0.00000e+00,0.00000e+00,0.00000e+00
1.82660e+03,2.26579e+01,-2.11555e+01,0.00000e+00,0.00000e+00,0.00000e+00
1.82660e+03,2.22852e+01,-2.30787e+01,0.00000e+00,0.00000e+00,0.00000e+00
1.82660e+03,2.18762e+01,-2.50020e+01,0.00000e+00,0.00000e+00,0.00000e+00
1.82660e+03,2.14317e+01,-2.69252e+01,0.00000e+00,0.00000e+00,0.00000e+00
1.82660e+03,2.09449e+01,-2.88484e+01,0.00000e+00,0.00000e+00,0.00000e+00
1.82660e+03,2.04008e+01,-3.07717e+01,0.00000e+00,0.00000e+00,0.00000e+00
1.82660e+03,1.98168e+01,-3.26949e+01,0.00000e+00,0.00000e+00,0.00000e+00
1.82660e+03,1.91430e+01,-3.46181e+01,0.00000e+00,0.00000e+00,0.00000e+00
1.82660e+03,1.84320e+01,-3.65413e+01,0.00000e+00,0.00000e+00,0.00000e+00
1.82660e+03,1.76173e+01,-3.84646e+01,0.00000e+00,0.00000e+00,0.00000e+00
1.82660e+03,1.67196e+01,-4.03878e+01,0.00000e+00,0.00000e+00,0.00000e+00
1.82660e+03,1.57373e+01,-4.23110e+01,0.00000e+00,0.00000e+00,0.00000e+00
1.82660e+03,1.46131e+01,-4.42343e+01,0.00000e+00,0.00000e+00,0.00000e+00
1.82660e+03,1.33245e+01,-4.61575e+01,0.00000e+00,0.00000e+00,0.00000e+00
1.82660e+03,1.18502e+01,-4.80807e+01,0.00000e+00,0.00000e+00,0.00000e+00
1.82660e+03,1.01063e+01,-5.00040e+01,0.00000e+00,0.00000e+00,0.00000e+00
1.82660e+03,7.86795e+00,-5.19272e+01,0.00000e+00,0.00000e+00,0.00000e+00
1.82660e+03,4.84065e+00,-5.38504e+01,0.00000e+00,0.00000e+00,0.00000e+00
1.82660e+03,-1.96139e+00,-5.57736e+01,0.00000e+00,0.00000e+00,0.00000e+00
1.82660e+03,-2.45230e+00,-5.57781e+01,0.00000e+00,0.00000e+00,0.00000e+00
1.82660e+03,-6.92480e+00,-5.37860e+01,0.00000e+00,0.00000e+00,0.00000e+00
1.82660e+03,-7.46632e+00,-5.17940e+01,0.00000e+00,0.00000e+00,0.00000e+00
1.82660e+03,-7.65318e+00,-4.98019e+01,0.00000e+00,0.00000e+00,0.00000e+00
1.82660e+03,-7.68153e+00,-4.78098e+01,0.00000e+00,0.00000e+00,0.00000e+00
1.82660e+03,-7.59047e+00,-4.58177e+01,0.00000e+00,0.00000e+00,0.00000e+00
1.82660e+03,-7.42446e+00,-4.38257e+01,0.00000e+00,0.00000e+00,0.00000e+00
1.82660e+03,-7.18321e+00,-4.18336e+01,0.00000e+00,0.00000e+00,0.00000e+00
1.82660e+03,-6.89605e+00,-3.98415e+01,0.00000e+00,0.00000e+00,0.00000e+00
1.82660e+03,-6.58227e+00,-3.78494e+01,0.00000e+00,0.00000e+00,0.00000e+00
1.82660e+03,-6.22838e+00,-3.58574e+01,0.00000e+00,0.00000e+00,0.00000e+00
1.82660e+03,-5.84943e+00,-3.38653e+01,0.00000e+00,0.00000e+00,0.00000e+00
1.82660e+03,-5.44606e+00,-3.18732e+01,0.00000e+00,0.00000e+00,0.00000e+00
1.82660e+03,-5.01837e+00,-2.98811e+01,0.00000e+00,0.00000e+00,0.00000e+00
1.82660e+03,-4.57544e+00,-2.78891e+01,0.00000e+00,0.00000e+00,0.00000e+00
1.82660e+03,-4.11298e+00,-2.58970e+01,0.00000e+00,0.00000e+00,0.00000e+00
1.82660e+03,-3.63801e+00,-2.39049e+01,0.00000e+00,0.00000e+00,0.00000e+00
1.82660e+03,-3.15183e+00,-2.19128e+01,0.00000e+00,0.00000e+00,0.00000e+00
1.82660e+03,-2.65564e+00,-1.99208e+01,0.00000e+00,0.00000e+00,0.00000e+00
1.82660e+03,-2.15521e+00,-1.79287e+01,0.00000e+00,0.00000e+00,0.00000e+00
1.82660e+03,-1.64821e+00,-1.59366e+01,0.00000e+00,0.00000e+00,0.00000e+00
1.82660e+03,-1.14012e+00,-1.39445e+01,0.00000e+00,0.00000e+00,0.00000e+00
1.82660e+03,-6.28101e-01,-1.19525e+01,0.00000e+00,0.00000e+00,0.00000e+00
1.82660e+03,-1.16138e-01,-9.96038e+00,0.00000e+00,0.00000e+00,0.00000e+00
1.82660e+03,3.93890e-01,-7.96830e+00,0.00000e+00,0.00000e+00,0.00000e+00
1.82660e+03,9.03919e-01,-5.97623e+00,0.00000e+00,0.00000e+00,0.00000e+00
1.82660e+03,1.40187e+00,-3.98415e+00,0.00000e+00,0.00000e+00,0.00000e+00
1.82660e+03,1.89757e+00,-1.99208e+00,0.00000e+00,0.00000e+00,0.00000e+00
1.87280e+03,2.31244e+01,0.00000e+00,0.00000e+00,0.00000e+00,0.00000e+00
1.87280e+03,2.30080e+01,-1.75721e+00,0.00000e+00,0.00000e+00,0.00000e+00
1.87280e+03,2.28531e+01,-3.51443e+00,0.00000e+00,0.00000e+00,0.00000e+00
1.87280e+03,2.26966e+01,-5.27164e+00,0.00000e+00,0.00000e+00,0.00000e+00
1.87280e+03,2.25061e+01,-7.02886e+00,0.00000e+00,0.00000e+00,0.00000e+00
1.87280e+03,2.23078e+01,-8.78607e+00,0.00000e+00,0.00000e+00,0.00000e+00
1.87280e+03,2.20834e+01,-1.05433e+01,0.00000e+00,0.00000e+00,0.00000e+00
1.87280e+03,2.18464e+01,-1.23005e+01,0.00000e+00,0.00000e+00,0.00000e+00
1.87280e+03,2.15884e+01,-1.40577e+01,0.00000e+00,0.00000e+00,0.00000e+00
1.87280e+03,2.13132e+01,-1.58149e+01,0.00000e+00,0.00000e+00,0.00000e+00
1.87280e+03,2.10191e+01,-1.75721e+01,0.00000e+00,0.00000e+00,0.00000e+00
1.87280e+03,2.07020e+01,-1.93294e+01,0.00000e+00,0.00000e+00,0.00000e+00
1.87280e+03,2.03615e+01,-2.10866e+01,0.00000e+00,0.00000e+00,0.00000e+00
1.87280e+03,1.99878e+01,-2.28438e+01,0.00000e+00,0.00000e+00,0.00000e+00
1.87280e+03,1.95817e+01,-2.46010e+01,0.00000e+00,0.00000e+00,0.00000e+00
1.87280e+03,1.91369e+01,-2.63582e+01,0.00000e+00,0.00000e+00,0.00000e+00
1.87280e+03,1.86398e+01,-2.81154e+01,0.00000e+00,0.00000e+00,0.00000e+00
1.87280e+03,1.81062e+01,-2.98726e+01,0.00000e+00,0.00000e+00,0.00000e+00
1.87280e+03,1.74905e+01,-3.16299e+01,0.00000e+00,0.00000e+00,0.00000e+00
1.87280e+03,1.68409e+01,-3.33871e+01,0.00000e+00,0.00000e+00,0.00000e+00
1.87280e+03,1.60966e+01,-3.51443e+01,0.00000e+00,0.00000e+00,0.00000e+00
1.87280e+03,1.52763e+01,-3.69015e+01,0.00000e+00,0.00000e+00,0.00000e+00
1.87280e+03,1.43788e+01,-3.86587e+01,0.00000e+00,0.00000e+00,0.00000e+00
1.87280e+03,1.33517e+01,-4.04159e+01,0.00000e+00,0.00000e+00,0.00000e+00
1.87280e+03,1.21743e+01,-4.21731e+01,0.00000e+00,0.00000e+00,0.00000e+00
1.87280e+03,1.08272e+01,-4.39304e+01,0.00000e+00,0.00000e+00,0.00000e+00
1.87280e+03,9.23393e+00,-4.56876e+01,0.00000e+00,0.00000e+00,0.00000e+00
1.87280e+03,7.18879e+00,-4.74448e+01,0.00000e+00,0.00000e+00,0.00000e+00
1.87280e+03,4.42280e+00,-4.92020e+01,0.00000e+00,0.00000e+00,0.00000e+00
1.87280e+03,-1.79208e+00,-5.09592e+01,0.00000e+00,0.00000e+00,0.00000e+00
1.87280e+03,-2.24062e+00,-5.09633e+01,0.00000e+00,0.00000e+00,0.00000e+00
1.87280e+03,-6.32705e+00,-4.91432e+01,0.00000e+00,0.00000e+00,0.00000e+00
1.87280e+03,-6.82182e+00,-4.73231e+01,0.00000e+00,0.00000e+00,0.00000e+00
1.87280e+03,-6.99255e+00,-4.55029e+01,0.00000e+00,0.00000e+00,0.00000e+00
1.87280e+03,-7.01846e+00,-4.36828e+01,0.00000e+00,0.00000e+00,0.00000e+00
1.87280e+03,-6.93525e+00,-4.18627e+01,0.00000e+00,0.00000e+00,0.00000e+00
1.87280e+03,-6.78358e+00,-4.00426e+01,0.00000e+00,0.00000e+00,0.00000e+00
1.87280e+03,-6.56315e+00,-3.82225e+01,0.00000e+00,0.00000e+00,0.00000e+00
1.87280e+03,-6.30078e+00,-3.64024e+01,0.00000e+00,0.00000e+00,0.00000e+00
1.87280e+03,-6.01408e+00,-3.45822e+01,0.00000e+00,0.00000e+00,0.00000e+00
1.87280e+03,-5.69074e+00,-3.27621e+01,0.00000e+00,0.00000e+00,0.00000e+00
1.87280e+03,-5.34450e+00,-3.09420e+01,0.00000e+00,0.00000e+00,0.00000e+00
1.87280e+03,-4.97595e+00,-2.91219e+01,0.00000e+00,0.00000e+00,0.00000e+00
1.87280e+03,-4.58518e+00,-2.73018e+01,0.00000e+00,0.00000e+00,0.00000e+00
1.87280e+03,-4.18049e+00,-2.54816e+01,0.00000e+00,0.00000e+00,0.00000e+00
1.87280e+03,-3.75794e+00,-2.36615e+01,0.00000e+00,0.00000e+00,0.00000e+00
1.87280e+03,-3.32398e+00,-2.18414e+01,0.00000e+00,0.00000e+00,0.00000e+00
1.87280e+03,-2.87976e+00,-2.00213e+01,0.00000e+00,0.00000e+00,0.00000e+00
1.87280e+03,-2.42640e+00,-1.82012e+01,0.00000e+00,0.00000e+00,0.00000e+00
1.87280e+03,-1.96917e+00,-1.63811e+01,0.00000e+00,0.00000e+00,0.00000e+00
1.87280e+03,-1.50594e+00,-1.45609e+01,0.00000e+00,0.00000e+00,0.00000e+00
1.87280e+03,-1.04170e+00,-1.27408e+01,0.00000e+00,0.00000e+00,0.00000e+00
1.87280e+03,-5.73883e-01,-1.09207e+01,0.00000e+00,0.00000e+00,0.00000e+00
1.87280e+03,-1.06113e-01,-9.10059e+00,0.00000e+00,0.00000e+00,0.00000e+00
1.87280e+03,3.59890e-01,-7.28047e+00,0.00000e+00,0.00000e+00,0.00000e+00
1.87280e+03,8.25892e-01,-5.46035e+00,0.00000e+00,0.00000e+00,0.00000e+00
1.87280e+03,1.28086e+00,-3.64024e+00,0.00000e+00,0.00000e+00,0.00000e+00
1.87280e+03,1.73377e+00,-1.82012e+00,0.00000e+00,0.00000e+00,0.00000e+00
1.91380e+03,2.11856e+01,0.00000e+00,0.00000e+00,0.00000e+00,0.00000e+00
1.91380e+03,2.10789e+01,-1.60989e+00,0.00000e+00,0.00000e+00,0.00000e+00
1.91380e+03,2.09370e+01,-3.21977e+00,0.00000e+00,0.00000e+00,0.00000e+00
1.91380e+03,2.07936e+01,-4.82966e+00,0.00000e+00,0.00000e+00,0.00000e+00
1.91380e+03,2.06192e+01,-6.43954e+00,0.00000e+00,0.00000e+00,0.00000e+00
1.91380e+03,2.04375e+01,-8.04943e+00,0.00000e+00,0.00000e+00,0.00000e+00
1.91380e+03,2.02319e+01,-9.65931e+00,0.00000e+00,0.00000e+00,0.00000e+00
1.91380e+03,2.00147e+01,-1.12692e+01,0.00000e+00,0.00000e+00,0.00000e+00
1.91380e+03,1.97784e+01,-1.28791e+01,0.00000e+00,0.00000e+00,0.00000e+00
1.91380e+03,1.95262e+01,-1.44890e+01,0.00000e+00,0.00000e+00,0.00000e+00
1.91380e+03,1.92568e+01,-1.60989e+01,0.00000e+00,0.00000e+00,0.00000e+00
1.91380e+03,1.89663e+01,-1.77087e+01,0.00000e+00,0.00000e+00,0.00000e+00
1.91380e+03,1.86544e+01,-1.93186e+01,0.00000e+00,0.00000e+00,0.00000e+00
1.91380e+03,1.83120e+01,-2.09285e+01,0.00000e+00,0.00000e+00,0.00000e+00
1.91380e+03,1.79399e+01,-2.25384e+01,0.00000e+00,0.00000e+00,0.00000e+00
1.91380e+03,1.75325e+01,-2.41483e+01,0.00000e+00,0.00000e+00,0.00000e+00
1.91380e+03,1.70770e+01,-2.57582e+01,0.00000e+00,0.00000e+00,0.00000e+00
1.91380e+03,1.65881e+01,-2.73680e+01,0.00000e+00,0.00000e+00,0.00000e+00
1.91380e+03,1.60241e+01,-2.89779e+01,0.00000e+00,0.00000e+00,0.00000e+00
1.91380e+03,1.54289e+01,-3.05878e+01,0.00000e+00,0.00000e+00,0.00000e+00
1.91380e+03,1.47470e+01,-3.21977e+01,0.00000e+00,0.00000e+00,0.00000e+00
1.91380e+03,1.39955e+01,-3.38076e+01,0.00000e+00,0.00000e+00,0.00000e+00
1.91380e+03,1.31733e+01,-3.54175e+01,0.00000e+00,0.00000e+00,0.00000e+00
1.91380e+03,1.22322e+01,-3.70274e+01,0.00000e+00,0.00000e+00,0.00000e+00
1.91380e+03,1.11536e+01,-3.86372e+01,0.00000e+00,0.00000e+00,0.00000e+00
1.91380e+03,9.91946e+00,-4.02471e+01,0.00000e+00,0.00000e+00,0.00000e+00
1.91380e+03,8.45973e+00,-4.18570e+01,0.00000e+00,0.00000e+00,0.00000e+00
1.91380e+03,6.58606e+00,-4.34669e+01,0.00000e+00,0.00000e+00,0.00000e+00
1.91380e+03,4.05198e+00,-4.50768e+01,0.00000e+00,0.00000e+00,0.00000e+00
1.91380e+03,-1.64183e+00,-4.66867e+01,0.00000e+00,0.00000e+00,0.00000e+00
1.91380e+03,-2.05276e+00,-4.66904e+01,0.00000e+00,0.00000e+00,0.00000e+00
1.91380e+03,-5.79657e+00,-4.50229e+01,0.00000e+00,0.00000e+00,0.00000e+00
1.91380e+03,-6.24986e+00,-4.33554e+01,0.00000e+00,0.00000e+00,0.00000e+00
1.91380e+03,-6.40628e+00,-4.16879e+01,0.00000e+00,0.00000e+00,0.00000e+00
1.91380e+03,-6.43001e+00,-4.00204e+01,0.00000e+00,0.00000e+00,0.00000e+00
1.91380e+03,-6.35378e+00,-3.83528e+01,0.00000e+00,0.00000e+00,0.00000e+00
1.91380e+03,-6.21483e+00,-3.66853e+01,0.00000e+00,0.00000e+00,0.00000e+00
1.91380e+03,-6.01288e+00,-3.50178e+01,0.00000e+00,0.00000e+00,0.00000e+00
1.91380e+03,-5.77251e+00,-3.33503e+01,0.00000e+00,0.00000e+00,0.00000e+00
1.91380e+03,-5.50985e+00,-3.16828e+01,0.00000e+00,0.00000e+00,0.00000e+00
1.91380e+03,-5.21362e+00,-3.00153e+01,0.00000e+00,0.00000e+00,0.00000e+00
1.91380e+03,-4.89640e+00,-2.83477e+01,0.00000e+00,0.00000e+00,0.00000e+00
1.91380e+03,-4.55876e+00,-2.66802e+01,0.00000e+00,0.00000e+00,0.00000e+00
1.91380e+03,-4.20075e+00,-2.50127e+01,0.00000e+00,0.00000e+00,0.00000e+00
1.91380e+03,-3.82998e+00,-2.33452e+01,0.00000e+00,0.00000e+00,0.00000e+00
1.91380e+03,-3.44287e+00,-2.16777e+01,0.00000e+00,0.00000e+00,0.00000e+00
1.91380e+03,-3.04529e+00,-2.00102e+01,0.00000e+00,0.00000e+00,0.00000e+00
1.91380e+03,-2.63832e+00,-1.83427e+01,0.00000e+00,0.00000e+00,0.00000e+00
1.91380e+03,-2.22297e+00,-1.66751e+01,0.00000e+00,0.00000e+00,0.00000e+00
1.91380e+03,-1.80407e+00,-1.50076e+01,0.00000e+00,0.00000e+00,0.00000e+00
1.91380e+03,-1.37967e+00,-1.33401e+01,0.00000e+00,0.00000e+00,0.00000e+00
1.91380e+03,-9.54362e-01,-1.16726e+01,0.00000e+00,0.00000e+00,0.00000e+00
1.91380e+03,-5.25768e-01,-1.00051e+01,0.00000e+00,0.00000e+00,0.00000e+00
1.91380e+03,-9.72161e-02,-8.33757e+00,0.00000e+00,0.00000e+00,0.00000e+00
1.91380e+03,3.29716e-01,-6.67006e+00,0.00000e+00,0.00000e+00,0.00000e+00
1.91380e+03,7.56647e-01,-5.00254e+00,0.00000e+00,0.00000e+00,0.00000e+00
1.91380e+03,1.17347e+00,-3.33503e+00,0.00000e+00,0.00000e+00,0.00000e+00
1.91380e+03,1.58841e+00,-1.66751e+00,0.00000e+00,0.00000e+00,0.00000e+00
1.94970e+03,1.94880e+01,0.00000e+00,0.00000e+00,0.00000e+00,0.00000e+00
1.94970e+03,1.93899e+01,-1.48088e+00,0.00000e+00,0.00000e+00,0.00000e+00
1.94970e+03,1.92593e+01,-2.96177e+00,0.00000e+00,0.00000e+00,0.00000e+00
1.94970e+03,1.91274e+01,-4.44265e+00,0.00000e+00,0.00000e+00,0.00000e+00
1.94970e+03,1.89669e+01,-5.92353e+00,0.00000e+00,0.00000e+00,0.00000e+00
1.94970e+03,1.87998e+01,-7.40441e+00,0.00000e+00,0.00000e+00,0.00000e+00
1.94970e+03,1.86107e+01,-8.88530e+00,0.00000e+00,0.00000e+00,0.00000e+00
1.94970e+03,1.84109e+01,-1.03662e+01,0.00000e+00,0.00000e+00,0.00000e+00
1.94970e+03,1.81935e+01,-1.18471e+01,0.00000e+00,0.00000e+00,0.00000e+00
1.94970e+03,1.79616e+01,-1.33279e+01,0.00000e+00,0.00000e+00,0.00000e+00
1.94970e+03,1.77137e+01,-1.48088e+01,0.00000e+00,0.00000e+00,0.00000e+00
1.94970e+03,1.74465e+01,-1.62897e+01,0.00000e+00,0.00000e+00,0.00000e+00
1.94970e+03,1.71596e+01,-1.77706e+01,0.00000e+00,0.00000e+00,0.00000e+00
1.94970e+03,1.68446e+01,-1.92515e+01,0.00000e+00,0.00000e+00,0.00000e+00
1.94970e+03,1.65024e+01,-2.07324e+01,0.00000e+00,0.00000e+00,0.00000e+00
1.94970e+03,1.61276e+01,-2.22132e+01,0.00000e+00,0.00000e+00,0.00000e+00
1.94970e+03,1.57086e+01,-2.36941e+01,0.00000e+00,0.00000e+00,0.00000e+00
1.94970e+03,1.52589e+01,-2.51750e+01,0.00000e+00,0.00000e+00,0.00000e+00
1.94970e+03,1.47401e+01,-2.66559e+01,0.00000e+00,0.00000e+00,0.00000e+00
1.94970e+03,1.41926e+01,-2.81368e+01,0.00000e+00,0.00000e+00,0.00000e+00
1.94970e+03,1.35653e+01,-2.96177e+01,0.00000e+00,0.00000e+00,0.00000e+00
1.94970e+03,1.28740e+01,-3.10985e+01,0.00000e+00,0.00000e+00,0.00000e+00
1.94970e+03,1.21177e+01,-3.25794e+01,0.00000e+00,0.00000e+00,0.00000e+00
1.94970e+03,1.12521e+01,-3.40603e+01,0.00000e+00,0.00000e+00,0.00000e+00
1.94970e+03,1.02599e+01,-3.55412e+01,0.00000e+00,0.00000e+00,0.00000e+00
1.94970e+03,9.12460e+00,-3.70221e+01,0.00000e+00,0.00000e+00,0.00000e+00
1.94970e+03,7.78184e+00,-3.85029e+01,0.00000e+00,0.00000e+00,0.00000e+00
1.94970e+03,6.05831e+00,-3.99838e+01,0.00000e+00,0.00000e+00,0.00000e+00
1.94970e+03,3.72729e+00,-4.14647e+01,0.00000e+00,0.00000e+00,0.00000e+00
1.94970e+03,-1.51027e+00,-4.29456e+01,0.00000e+00,0.00000e+00,0.00000e+00
1.94970e+03,-1.88827e+00,-4.29490e+01,0.00000e+00,0.00000e+00,0.00000e+00
1.94970e+03,-5.33209e+00,-4.14151e+01,0.00000e+00,0.00000e+00,0.00000e+00
1.94970e+03,-5.74905e+00,-3.98812e+01,0.00000e+00,0.00000e+00,0.00000e+00
1.94970e+03,-5.89293e+00,-3.83473e+01,0.00000e+00,0.00000e+00,0.00000e+00
1.94970e+03,-5.91477e+00,-3.68135e+01,0.00000e+00,0.00000e+00,0.00000e+00
1.94970e+03,-5.84465e+00,-3.52796e+01,0.00000e+00,0.00000e+00,0.00000e+00
1.94970e+03,-5.71682e+00,-3.37457e+01,0.00000e+00,0.00000e+00,0.00000e+00
1.94970e+03,-5.53106e+00,-3.22118e+01,0.00000e+00,0.00000e+00,0.00000e+00
1.94970e+03,-5.30995e+00,-3.06779e+01,0.00000e+00,0.00000e+00,0.00000e+00
1.94970e+03,-5.06834e+00,-2.91440e+01,0.00000e+00,0.00000e+00,0.00000e+00
1.94970e+03,-4.79584e+00,-2.76101e+01,0.00000e+00,0.00000e+00,0.00000e+00
1.94970e+03,-4.50405e+00,-2.60762e+01,0.00000e+00,0.00000e+00,0.00000e+00
1.94970e+03,-4.19345e+00,-2.45423e+01,0.00000e+00,0.00000e+00,0.00000e+00
1.94970e+03,-3.86414e+00,-2.30084e+01,0.00000e+00,0.00000e+00,0.00000e+00
1.94970e+03,-3.52308e+00,-2.14745e+01,0.00000e+00,0.00000e+00,0.00000e+00
1.94970e+03,-3.16699e+00,-1.99406e+01,0.00000e+00,0.00000e+00,0.00000e+00
1.94970e+03,-2.80126e+00,-1.84067e+01,0.00000e+00,0.00000e+00,0.00000e+00
1.94970e+03,-2.42690e+00,-1.68728e+01,0.00000e+00,0.00000e+00,0.00000e+00
1.94970e+03,-2.04484e+00,-1.53389e+01,0.00000e+00,0.00000e+00,0.00000e+00
1.94970e+03,-1.65951e+00,-1.38050e+01,0.00000e+00,0.00000e+00,0.00000e+00
1.94970e+03,-1.26912e+00,-1.22712e+01,0.00000e+00,0.00000e+00,0.00000e+00
1.94970e+03,-8.77888e-01,-1.07373e+01,0.00000e+00,0.00000e+00,0.00000e+00
1.94970e+03,-4.83637e-01,-9.20336e+00,0.00000e+00,0.00000e+00,0.00000e+00
1.94970e+03,-8.94260e-02,-7.66947e+00,0.00000e+00,0.00000e+00,0.00000e+00
1.94970e+03,3.03295e-01,-6.13558e+00,0.00000e+00,0.00000e+00,0.00000e+00
1.94970e+03,6.96016e-01,-4.60168e+00,0.00000e+00,0.00000e+00,0.00000e+00
1.94970e+03,1.07944e+00,-3.06779e+00,0.00000e+00,0.00000e+00,0.00000e+00
1.94970e+03,1.46113e+00,-1.53389e+00,0.00000e+00,0.00000e+00,0.00000e+00
1.98010e+03,1.80504e+01,0.00000e+00,0.00000e+00,0.00000e+00,0.00000e+00
1.98010e+03,1.79595e+01,-1.37164e+00,0.00000e+00,0.00000e+00,0.00000e+00
1.98010e+03,1.78386e+01,-2.74329e+00,0.00000e+00,0.00000e+00,0.00000e+00
1.98010e+03,1.77165e+01,-4.11493e+00,0.00000e+00,0.00000e+00,0.00000e+00
1.98010e+03,1.75678e+01,-5.48657e+00,0.00000e+00,0.00000e+00,0.00000e+00
1.98010e+03,1.74130e+01,-6.85822e+00,0.00000e+00,0.00000e+00,0.00000e+00
1.98010e+03,1.72378e+01,-8.22986e+00,0.00000e+00,0.00000e+00,0.00000e+00
1.98010e+03,1.70528e+01,-9.60150e+00,0.00000e+00,0.00000e+00,0.00000e+00
1.98010e+03,1.68514e+01,-1.09731e+01,0.00000e+00,0.00000e+00,0.00000e+00
1.98010e+03,1.66366e+01,-1.23448e+01,0.00000e+00,0.00000e+00,0.00000e+00
1.98010e+03,1.64070e+01,-1.37164e+01,0.00000e+00,0.00000e+00,0.00000e+00
1.98010e+03,1.61595e+01,-1.50881e+01,0.00000e+00,0.00000e+00,0.00000e+00
1.98010e+03,1.58938e+01,-1.64597e+01,0.00000e+00,0.00000e+00,0.00000e+00
1.98010e+03,1.56020e+01,-1.78314e+01,0.00000e+00,0.00000e+00,0.00000e+00
1.98010e+03,1.52851e+01,-1.92030e+01,0.00000e+00,0.00000e+00,0.00000e+00
1.98010e+03,1.49379e+01,-2.05747e+01,0.00000e+00,0.00000e+00,0.00000e+00
1.98010e+03,1.45498e+01,-2.19463e+01,0.00000e+00,0.00000e+00,0.00000e+00
1.98010e+03,1.41333e+01,-2.33179e+01,0.00000e+00,0.00000e+00,0.00000e+00
1.98010e+03,1.36527e+01,-2.46896e+01,0.00000e+00,0.00000e+00,0.00000e+00
1.98010e+03,1.31457e+01,-2.60612e+01,0.00000e+00,0.00000e+00,0.00000e+00
1.98010e+03,1.25646e+01,-2.74329e+01,0.00000e+00,0.00000e+00,0.00000e+00
1.98010e+03,1.19244e+01,-2.88045e+01,0.00000e+00,0.00000e+00,0.00000e+00
1.98010e+03,1.12238e+01,-3.01762e+01,0.00000e+00,0.00000e+00,0.00000e+00
1.98010e+03,1.04220e+01,-3.15478e+01,0.00000e+00,0.00000e+00,0.00000e+00
1.98010e+03,9.50303e+00,-3.29194e+01,0.00000e+00,0.00000e+00,0.00000e+00
1.98010e+03,8.45151e+00,-3.42911e+01,0.00000e+00,0.00000e+00,0.00000e+00
1.98010e+03,7.20780e+00,-3.56627e+01,0.00000e+00,0.00000e+00,0.00000e+00
1.98010e+03,5.61141e+00,-3.70344e+01,0.00000e+00,0.00000e+00,0.00000e+00
1.98010e+03,3.45234e+00,-3.84060e+01,0.00000e+00,0.00000e+00,0.00000e+00
1.98010e+03,-1.39886e+00,-3.97777e+01,0.00000e+00,0.00000e+00,0.00000e+00
1.98010e+03,-1.74898e+00,-3.97808e+01,0.00000e+00,0.00000e+00,0.00000e+00
1.98010e+03,-4.93876e+00,-3.83601e+01,0.00000e+00,0.00000e+00,0.00000e+00
1.98010e+03,-5.32496e+00,-3.69394e+01,0.00000e+00,0.00000e+00,0.00000e+00
1.98010e+03,-5.45823e+00,-3.55186e+01,0.00000e+00,0.00000e+00,0.00000e+00
1.98010e+03,-5.47846e+00,-3.40979e+01,0.00000e+00,0.00000e+00,0.00000e+00
1.98010e+03,-5.41351e+00,-3.26771e+01,0.00000e+00,0.00000e+00,0.00000e+00
1.98010e+03,-5.29511e+00,-3.12564e+01,0.00000e+00,0.00000e+00,0.00000e+00
1.98010e+03,-5.12305e+00,-2.98356e+01,0.00000e+00,0.00000e+00,0.00000e+00
1.98010e+03,-4.91825e+00,-2.84149e+01,0.00000e+00,0.00000e+00,0.00000e+00
1.98010e+03,-4.69446e+00,-2.69941e+01,0.00000e+00,0.00000e+00,0.00000e+00
1.98010e+03,-4.44207e+00,-2.55734e+01,0.00000e+00,0.00000e+00,0.00000e+00
1.98010e+03,-4.17180e+00,-2.41527e+01,0.00000e+00,0.00000e+00,0.00000e+00
1.98010e+03,-3.88412e+00,-2.27319e+01,0.00000e+00,0.00000e+00,0.00000e+00
1.98010e+03,-3.57909e+00,-2.13112e+01,0.00000e+00,0.00000e+00,0.00000e+00
1.98010e+03,-3.26320e+00,-1.98904e+01,0.00000e+00,0.00000e+00,0.00000e+00
1.98010e+03,-2.93337e+00,-1.84697e+01,0.00000e+00,0.00000e+00,0.00000e+00
1.98010e+03,-2.59462e+00,-1.70489e+01,0.00000e+00,0.00000e+00,0.00000e+00
1.98010e+03,-2.24788e+00,-1.56282e+01,0.00000e+00,0.00000e+00,0.00000e+00
1.98010e+03,-1.89400e+00,-1.42074e+01,0.00000e+00,0.00000e+00,0.00000e+00
1.98010e+03,-1.53709e+00,-1.27867e+01,0.00000e+00,0.00000e+00,0.00000e+00
1.98010e+03,-1.17550e+00,-1.13660e+01,0.00000e+00,0.00000e+00,0.00000e+00
1.98010e+03,-8.13129e-01,-9.94521e+00,0.00000e+00,0.00000e+00,0.00000e+00
1.98010e+03,-4.47961e-01,-8.52447e+00,0.00000e+00,0.00000e+00,0.00000e+00
1.98010e+03,-8.28294e-02,-7.10372e+00,0.00000e+00,0.00000e+00,0.00000e+00
1.98010e+03,2.80922e-01,-5.68298e+00,0.00000e+00,0.00000e+00,0.00000e+00
1.98010e+03,6.44673e-01,-4.26223e+00,0.00000e+00,0.00000e+00,0.00000e+00
1.98010e+03,9.99811e-01,-2.84149e+00,0.00000e+00,0.00000e+00,0.00000e+00
1.98010e+03,1.35334e+00,-1.42074e+00,0.00000e+00,0.00000e+00,0.00000e+00
2.00520e+03,1.68635e+01,0.00000e+00,0.00000e+00,0.00000e+00,0.00000e+00
2.00520e+03,1.67786e+01,-1.28145e+00,0.00000e+00,0.00000e+00,0.00000e+00
2.00520e+03,1.66656e+01,-2.56290e+00,0.00000e+00,0.00000e+00,0.00000e+00
2.00520e+03,1.65515e+01,-3.84435e+00,0.00000e+00,0.00000e+00,0.00000e+00
2.00520e+03,1.64126e+01,-5.12580e+00,0.00000e+00,0.00000e+00,0.00000e+00
2.00520e+03,1.62680e+01,-6.40725e+00,0.00000e+00,0.00000e+00,0.00000e+00
2.00520e+03,1.61044e+01,-7.68870e+00,0.00000e+00,0.00000e+00,0.00000e+00
2.00520e+03,1.59315e+01,-8.97015e+00,0.00000e+00,0.00000e+00,0.00000e+00
2.00520e+03,1.57433e+01,-1.02516e+01,0.00000e+00,0.00000e+00,0.00000e+00
2.00520e+03,1.55427e+01,-1.15330e+01,0.00000e+00,0.00000e+00,0.00000e+00
2.00520e+03,1.53282e+01,-1.28145e+01,0.00000e+00,0.00000e+00,0.00000e+00
2.00520e+03,1.50970e+01,-1.40959e+01,0.00000e+00,0.00000e+00,0.00000e+00
2.00520e+03,1.48486e+01,-1.53774e+01,0.00000e+00,0.00000e+00,0.00000e+00
2.00520e+03,1.45761e+01,-1.66588e+01,0.00000e+00,0.00000e+00,0.00000e+00
2.00520e+03,1.42800e+01,-1.79403e+01,0.00000e+00,0.00000e+00,0.00000e+00
2.00520e+03,1.39556e+01,-1.92217e+01,0.00000e+00,0.00000e+00,0.00000e+00
2.00520e+03,1.35931e+01,-2.05032e+01,0.00000e+00,0.00000e+00,0.00000e+00
2.00520e+03,1.32039e+01,-2.17846e+01,0.00000e+00,0.00000e+00,0.00000e+00
2.00520e+03,1.27550e+01,-2.30661e+01,0.00000e+00,0.00000e+00,0.00000e+00
2.00520e+03,1.22812e+01,-2.43475e+01,0.00000e+00,0.00000e+00,0.00000e+00
2.00520e+03,1.17384e+01,-2.56290e+01,0.00000e+00,0.00000e+00,0.00000e+00
2.00520e+03,1.11403e+01,-2.69104e+01,0.00000e+00,0.00000e+00,0.00000e+00
2.00520e+03,1.04858e+01,-2.81919e+01,0.00000e+00,0.00000e+00,0.00000e+00
2.00520e+03,9.73672e+00,-2.94733e+01,0.00000e+00,0.00000e+00,0.00000e+00
2.00520e+03,8.87814e+00,-3.07548e+01,0.00000e+00,0.00000e+00,0.00000e+00
2.00520e+03,7.89577e+00,-3.20362e+01,0.00000e+00,0.00000e+00,0.00000e+00
2.00520e+03,6.73385e+00,-3.33177e+01,0.00000e+00,0.00000e+00,0.00000e+00
2.00520e+03,5.24243e+00,-3.45991e+01,0.00000e+00,0.00000e+00,0.00000e+00
2.00520e+03,3.22533e+00,-3.58806e+01,0.00000e+00,0.00000e+00,0.00000e+00
2.00520e+03,-1.30688e+00,-3.71620e+01,0.00000e+00,0.00000e+00,0.00000e+00
2.00520e+03,-1.63397e+00,-3.71650e+01,0.00000e+00,0.00000e+00,0.00000e+00
2.00520e+03,-4.61400e+00,-3.58377e+01,0.00000e+00,0.00000e+00,0.00000e+00
2.00520e+03,-4.97481e+00,-3.45104e+01,0.00000e+00,0.00000e+00,0.00000e+00
2.00520e+03,-5.09932e+00,-3.31830e+01,0.00000e+00,0.00000e+00,0.00000e+00
2.00520e+03,-5.11821e+00,-3.18557e+01,0.00000e+00,0.00000e+00,0.00000e+00
2.00520e+03,-5.05754e+00,-3.05284e+01,0.00000e+00,0.00000e+00,0.00000e+00
2.00520e+03,-4.94693e+00,-2.92011e+01,0.00000e+00,0.00000e+00,0.00000e+00
2.00520e+03,-4.78618e+00,-2.78738e+01,0.00000e+00,0.00000e+00,0.00000e+00
2.00520e+03,-4.59485e+00,-2.65464e+01,0.00000e+00,0.00000e+00,0.00000e+00
2.00520e+03,-4.38577e+00,-2.52191e+01,0.00000e+00,0.00000e+00,0.00000e+00
2.00520e+03,-4.14998e+00,-2.38918e+01,0.00000e+00,0.00000e+00,0.00000e+00
2.00520e+03,-3.89748e+00,-2.25645e+01,0.00000e+00,0.00000e+00,0.00000e+00
2.00520e+03,-3.62871e+00,-2.12371e+01,0.00000e+00,0.00000e+00,0.00000e+00
2.00520e+03,-3.34375e+00,-1.99098e+01,0.00000e+00,0.00000e+00,0.00000e+00
2.00520e+03,-3.04862e+00,-1.85825e+01,0.00000e+00,0.00000e+00,0.00000e+00
2.00520e+03,-2.74048e+00,-1.72552e+01,0.00000e+00,0.00000e+00,0.00000e+00
2.00520e+03,-2.42401e+00,-1.59279e+01,0.00000e+00,0.00000e+00,0.00000e+00
2.00520e+03,-2.10007e+00,-1.46005e+01,0.00000e+00,0.00000e+00,0.00000e+00
2.00520e+03,-1.76946e+00,-1.32732e+01,0.00000e+00,0.00000e+00,0.00000e+00
2.00520e+03,-1.43602e+00,-1.19459e+01,0.00000e+00,0.00000e+00,0.00000e+00
2.00520e+03,-1.09820e+00,-1.06186e+01,0.00000e+00,0.00000e+00,0.00000e+00
2.00520e+03,-7.59661e-01,-9.29125e+00,0.00000e+00,0.00000e+00,0.00000e+00
2.00520e+03,-4.18505e-01,-7.96393e+00,0.00000e+00,0.00000e+00,0.00000e+00
2.00520e+03,-7.73829e-02,-6.63661e+00,0.00000e+00,0.00000e+00,0.00000e+00
2.00520e+03,2.62450e-01,-5.30929e+00,0.00000e+00,0.00000e+00,0.00000e+00
2.00520e+03,6.02282e-01,-3.98196e+00,0.00000e+00,0.00000e+00,0.00000e+00
2.00520e+03,9.34067e-01,-2.65464e+00,0.00000e+00,0.00000e+00,0.00000e+00
2.00520e+03,1.26435e+00,-1.32732e+00,0.00000e+00,0.00000e+00,0.00000e+00
2.02480e+03,1.59367e+01,0.00000e+00,0.00000e+00,0.00000e+00,0.00000e+00
2.02480e+03,1.58564e+01,-1.21102e+00,0.00000e+00,0.00000e+00,0.00000e+00
2.02480e+03,1.57496e+01,-2.42204e+00,0.00000e+00,0.00000e+00,0.00000e+00
2.02480e+03,1.56418e+01,-3.63306e+00,0.00000e+00,0.00000e+00,0.00000e+00
2.02480e+03,1.55106e+01,-4.84408e+00,0.00000e+00,0.00000e+00,0.00000e+00
2.02480e+03,1.53739e+01,-6.05509e+00,0.00000e+00,0.00000e+00,0.00000e+00
2.02480e+03,1.52192e+01,-7.26611e+00,0.00000e+00,0.00000e+00,0.00000e+00
2.02480e+03,1.50559e+01,-8.47713e+00,0.00000e+00,0.00000e+00,0.00000e+00
2.02480e+03,1.48781e+01,-9.68815e+00,0.00000e+00,0.00000e+00,0.00000e+00
2.02480e+03,1.46884e+01,-1.08992e+01,0.00000e+00,0.00000e+00,0.00000e+00
2.02480e+03,1.44857e+01,-1.21102e+01,0.00000e+00,0.00000e+00,0.00000e+00
2.02480e+03,1.42672e+01,-1.33212e+01,0.00000e+00,0.00000e+00,0.00000e+00
2.02480e+03,1.40325e+01,-1.45322e+01,0.00000e+00,0.00000e+00,0.00000e+00
2.02480e+03,1.37750e+01,-1.57432e+01,0.00000e+00,0.00000e+00,0.00000e+00
2.02480e+03,1.34951e+01,-1.69543e+01,0.00000e+00,0.00000e+00,0.00000e+00
2.02480e+03,1.31886e+01,-1.81653e+01,0.00000e+00,0.00000e+00,0.00000e+00
2.02480e+03,1.28460e+01,-1.93763e+01,0.00000e+00,0.00000e+00,0.00000e+00
2.02480e+03,1.24782e+01,-2.05873e+01,0.00000e+00,0.00000e+00,0.00000e+00
2.02480e+03,1.20540e+01,-2.17983e+01,0.00000e+00,0.00000e+00,0.00000e+00
2.02480e+03,1.16063e+01,-2.30094e+01,0.00000e+00,0.00000e+00,0.00000e+00
2.02480e+03,1.10933e+01,-2.42204e+01,0.00000e+00,0.00000e+00,0.00000e+00
2.02480e+03,1.05280e+01,-2.54314e+01,0.00000e+00,0.00000e+00,0.00000e+00
2.02480e+03,9.90946e+00,-2.66424e+01,0.00000e+00,0.00000e+00,0.00000e+00
2.02480e+03,9.20158e+00,-2.78534e+01,0.00000e+00,0.00000e+00,0.00000e+00
2.02480e+03,8.39019e+00,-2.90645e+01,0.00000e+00,0.00000e+00,0.00000e+00
2.02480e+03,7.46181e+00,-3.02755e+01,0.00000e+00,0.00000e+00,0.00000e+00
2.02480e+03,6.36374e+00,-3.14865e+01,0.00000e+00,0.00000e+00,0.00000e+00
2.02480e+03,4.95429e+00,-3.26975e+01,0.00000e+00,0.00000e+00,0.00000e+00
2.02480e+03,3.04806e+00,-3.39085e+01,0.00000e+00,0.00000e+00,0.00000e+00
2.02480e+03,-1.23505e+00,-3.51195e+01,0.00000e+00,0.00000e+00,0.00000e+00
2.02480e+03,-1.54416e+00,-3.51224e+01,0.00000e+00,0.00000e+00,0.00000e+00
2.02480e+03,-4.36041e+00,-3.38680e+01,0.00000e+00,0.00000e+00,0.00000e+00
2.02480e+03,-4.70139e+00,-3.26136e+01,0.00000e+00,0.00000e+00,0.00000e+00
2.02480e+03,-4.81905e+00,-3.13592e+01,0.00000e+00,0.00000e+00,0.00000e+00
2.02480e+03,-4.83691e+00,-3.01049e+01,0.00000e+00,0.00000e+00,0.00000e+00
2.02480e+03,-4.77957e+00,-2.88505e+01,0.00000e+00,0.00000e+00,0.00000e+00
2.02480e+03,-4.67504e+00,-2.75961e+01,0.00000e+00,0.00000e+00,0.00000e+00
2.02480e+03,-4.52312e+00,-2.63418e+01,0.00000e+00,0.00000e+00,0.00000e+00
2.02480e+03,-4.34231e+00,-2.50874e+01,0.00000e+00,0.00000e+00,0.00000e+00
2.02480e+03,-4.14473e+00,-2.38330e+01,0.00000e+00,0.00000e+00,0.00000e+00
2.02480e+03,-3.92189e+00,-2.25787e+01,0.00000e+00,0.00000e+00,0.00000e+00
2.02480e+03,-3.68327e+00,-2.13243e+01,0.00000e+00,0.00000e+00,0.00000e+00
2.02480e+03,-3.42927e+00,-2.00699e+01,0.00000e+00,0.00000e+00,0.00000e+00
2.02480e+03,-3.15997e+00,-1.88155e+01,0.00000e+00,0.00000e+00,0.00000e+00
2.02480e+03,-2.88106e+00,-1.75612e+01,0.00000e+00,0.00000e+00,0.00000e+00
2.02480e+03,-2.58986e+00,-1.63068e+01,0.00000e+00,0.00000e+00,0.00000e+00
2.02480e+03,-2.29078e+00,-1.50524e+01,0.00000e+00,0.00000e+00,0.00000e+00
2.02480e+03,-1.98465e+00,-1.37981e+01,0.00000e+00,0.00000e+00,0.00000e+00
2.02480e+03,-1.67220e+00,-1.25437e+01,0.00000e+00,0.00000e+00,0.00000e+00
2.02480e+03,-1.35709e+00,-1.12893e+01,0.00000e+00,0.00000e+00,0.00000e+00
2.02480e+03,-1.03784e+00,-1.00350e+01,0.00000e+00,0.00000e+00,0.00000e+00
2.02480e+03,-7.17909e-01,-8.78059e+00,0.00000e+00,0.00000e+00,0.00000e+00
2.02480e+03,-3.95503e-01,-7.52622e+00,0.00000e+00,0.00000e+00,0.00000e+00
2.02480e+03,-7.31298e-02,-6.27185e+00,0.00000e+00,0.00000e+00,0.00000e+00
2.02480e+03,2.48025e-01,-5.01748e+00,0.00000e+00,0.00000e+00,0.00000e+00
2.02480e+03,5.69180e-01,-3.76311e+00,0.00000e+00,0.00000e+00,0.00000e+00
2.02480e+03,8.82730e-01,-2.50874e+00,0.00000e+00,0.00000e+00,0.00000e+00
2.02480e+03,1.19486e+00,-1.25437e+00,0.00000e+00,0.00000e+00,0.00000e+00
2.03880e+03,1.52746e+01,0.00000e+00,0.00000e+00,0.00000e+00,0.00000e+00
2.03880e+03,1.51977e+01,-1.16071e+00,0.00000e+00,0.00000e+00,0.00000e+00
2.03880e+03,1.50954e+01,-2.32142e+00,0.00000e+00,0.00000e+00,0.00000e+00
2.03880e+03,1.49920e+01,-3.48213e+00,0.00000e+00,0.00000e+00,0.00000e+00
2.03880e+03,1.48662e+01,-4.64285e+00,0.00000e+00,0.00000e+00,0.00000e+00
2.03880e+03,1.47352e+01,-5.80356e+00,0.00000e+00,0.00000e+00,0.00000e+00
2.03880e+03,1.45870e+01,-6.96427e+00,0.00000e+00,0.00000e+00,0.00000e+00
2.03880e+03,1.44304e+01,-8.12498e+00,0.00000e+00,0.00000e+00,0.00000e+00
2.03880e+03,1.42600e+01,-9.28569e+00,0.00000e+00,0.00000e+00,0.00000e+00
2.03880e+03,1.40782e+01,-1.04464e+01,0.00000e+00,0.00000e+00,0.00000e+00
2.03880e+03,1.38839e+01,-1.16071e+01,0.00000e+00,0.00000e+00,0.00000e+00
2.03880e+03,1.36745e+01,-1.27678e+01,0.00000e+00,0.00000e+00,0.00000e+00
2.03880e+03,1.34496e+01,-1.39285e+01,0.00000e+00,0.00000e+00,0.00000e+00
2.03880e+03,1.32028e+01,-1.50892e+01,0.00000e+00,0.00000e+00,0.00000e+00
2.03880e+03,1.29345e+01,-1.62500e+01,0.00000e+00,0.00000e+00,0.00000e+00
2.03880e+03,1.26407e+01,-1.74107e+01,0.00000e+00,0.00000e+00,0.00000e+00
2.03880e+03,1.23123e+01,-1.85714e+01,0.00000e+00,0.00000e+00,0.00000e+00
2.03880e+03,1.19599e+01,-1.97321e+01,0.00000e+00,0.00000e+00,0.00000e+00
2.03880e+03,1.15532e+01,-2.08928e+01,0.00000e+00,0.00000e+00,0.00000e+00
2.03880e+03,1.11241e+01,-2.20535e+01,0.00000e+00,0.00000e+00,0.00000e+00
2.03880e+03,1.06324e+01,-2.32142e+01,0.00000e+00,0.00000e+00,0.00000e+00
2.03880e+03,1.00906e+01,-2.43749e+01,0.00000e+00,0.00000e+00,0.00000e+00
2.03880e+03,9.49781e+00,-2.55357e+01,0.00000e+00,0.00000e+00,0.00000e+00
2.03880e+03,8.81933e+00,-2.66964e+01,0.00000e+00,0.00000e+00,0.00000e+00
2.03880e+03,8.04165e+00,-2.78571e+01,0.00000e+00,0.00000e+00,0.00000e+00
2.03880e+03,7.15183e+00,-2.90178e+01,0.00000e+00,0.00000e+00,0.00000e+00
2.03880e+03,6.09938e+00,-3.01785e+01,0.00000e+00,0.00000e+00,0.00000e+00
2.03880e+03,4.74849e+00,-3.13392e+01,0.00000e+00,0.00000e+00,0.00000e+00
2.03880e+03,2.92144e+00,-3.24999e+01,0.00000e+00,0.00000e+00,0.00000e+00
2.03880e+03,-1.18374e+00,-3.36606e+01,0.00000e+00,0.00000e+00,0.00000e+00
2.03880e+03,-1.48002e+00,-3.36633e+01,0.00000e+00,0.00000e+00,0.00000e+00
2.03880e+03,-4.17927e+00,-3.24611e+01,0.00000e+00,0.00000e+00,0.00000e+00
2.03880e+03,-4.50609e+00,-3.12588e+01,0.00000e+00,0.00000e+00,0.00000e+00
2.03880e+03,-4.61886e+00,-3.00565e+01,0.00000e+00,0.00000e+00,0.00000e+00
2.03880e+03,-4.63598e+00,-2.88543e+01,0.00000e+00,0.00000e+00,0.00000e+00
2.03880e+03,-4.58102e+00,-2.76520e+01,0.00000e+00,0.00000e+00,0.00000e+00
2.03880e+03,-4.48083e+00,-2.64498e+01,0.00000e+00,0.00000e+00,0.00000e+00
2.03880e+03,-4.33523e+00,-2.52475e+01,0.00000e+00,0.00000e+00,0.00000e+00
2.03880e+03,-4.16192e+00,-2.40452e+01,0.00000e+00,0.00000e+00,0.00000e+00
2.03880e+03,-3.97255e+00,-2.28430e+01,0.00000e+00,0.00000e+00,0.00000e+00
2.03880e+03,-3.75897e+00,-2.16407e+01,0.00000e+00,0.00000e+00,0.00000e+00
2.03880e+03,-3.53026e+00,-2.04384e+01,0.00000e+00,0.00000e+00,0.00000e+00
2.03880e+03,-3.28682e+00,-1.92362e+01,0.00000e+00,0.00000e+00,0.00000e+00
2.03880e+03,-3.02870e+00,-1.80339e+01,0.00000e+00,0.00000e+00,0.00000e+00
2.03880e+03,-2.76138e+00,-1.68317e+01,0.00000e+00,0.00000e+00,0.00000e+00
2.03880e+03,-2.48228e+00,-1.56294e+01,0.00000e+00,0.00000e+00,0.00000e+00
2.03880e+03,-2.19562e+00,-1.44271e+01,0.00000e+00,0.00000e+00,0.00000e+00
2.03880e+03,-1.90220e+00,-1.32249e+01,0.00000e+00,0.00000e+00,0.00000e+00
2.03880e+03,-1.60274e+00,-1.20226e+01,0.00000e+00,0.00000e+00,0.00000e+00
2.03880e+03,-1.30072e+00,-1.08204e+01,0.00000e+00,0.00000e+00,0.00000e+00
2.03880e+03,-9.94731e-01,-9.61809e+00,0.00000e+00,0.00000e+00,0.00000e+00
2.03880e+03,-6.88086e-01,-8.41583e+00,0.00000e+00,0.00000e+00,0.00000e+00
2.03880e+03,-3.79073e-01,-7.21357e+00,0.00000e+00,0.00000e+00,0.00000e+00
2.03880e+03,-7.00919e-02,-6.01131e+00,0.00000e+00,0.00000e+00,0.00000e+00
2.03880e+03,2.37722e-01,-4.80905e+00,0.00000e+00,0.00000e+00,0.00000e+00
2.03880e+03,5.45535e-01,-3.60678e+00,0.00000e+00,0.00000e+00,0.00000e+00
2.03880e+03,8.46060e-01,-2.40452e+00,0.00000e+00,0.00000e+00,0.00000e+00
2.03880e+03,1.14523e+00,-1.20226e+00,0.00000e+00,0.00000e+00,0.00000e+00
2.04720e+03,1.48774e+01,0.00000e+00,0.00000e+00,0.00000e+00,0.00000e+00
2.04720e+03,1.48025e+01,-1.13053e+00,0.00000e+00,0.00000e+00,0.00000e+00
2.04720e+03,1.47028e+01,-2.26105e+00,0.00000e+00,0.00000e+00,0.00000e+00
2.04720e+03,1.46021e+01,-3.39158e+00,0.00000e+00,0.00000e+00,0.00000e+00
2.04720e+03,1.44796e+01,-4.52211e+00,0.00000e+00,0.00000e+00,0.00000e+00
2.04720e+03,1.43520e+01,-5.65264e+00,0.00000e+00,0.00000e+00,0.00000e+00
2.04720e+03,1.42077e+01,-6.78316e+00,0.00000e+00,0.00000e+00,0.00000e+00
2.04720e+03,1.40552e+01,-7.91369e+00,0.00000e+00,0.00000e+00,0.00000e+00
2.04720e+03,1.38892e+01,-9.04422e+00,0.00000e+00,0.00000e+00,0.00000e+00
2.04720e+03,1.37121e+01,-1.01747e+01,0.00000e+00,0.00000e+00,0.00000e+00
2.04720e+03,1.35229e+01,-1.13053e+01,0.00000e+00,0.00000e+00,0.00000e+00
2.04720e+03,1.33189e+01,-1.24358e+01,0.00000e+00,0.00000e+00,0.00000e+00
2.04720e+03,1.30998e+01,-1.35663e+01,0.00000e+00,0.00000e+00,0.00000e+00
2.04720e+03,1.28594e+01,-1.46969e+01,0.00000e+00,0.00000e+00,0.00000e+00
2.04720e+03,1.25982e+01,-1.58274e+01,0.00000e+00,0.00000e+00,0.00000e+00
2.04720e+03,1.23120e+01,-1.69579e+01,0.00000e+00,0.00000e+00,0.00000e+00
2.04720e+03,1.19922e+01,-1.80884e+01,0.00000e+00,0.00000e+00,0.00000e+00
2.04720e+03,1.16489e+01,-1.92190e+01,0.00000e+00,0.00000e+00,0.00000e+00
2.04720e+03,1.12528e+01,-2.03495e+01,0.00000e+00,0.00000e+00,0.00000e+00
2.04720e+03,1.08348e+01,-2.14800e+01,0.00000e+00,0.00000e+00,0.00000e+00
2.04720e+03,1.03559e+01,-2.26105e+01,0.00000e+00,0.00000e+00,0.00000e+00
2.04720e+03,9.82823e+00,-2.37411e+01,0.00000e+00,0.00000e+00,0.00000e+00
2.04720e+03,9.25081e+00,-2.48716e+01,0.00000e+00,0.00000e+00,0.00000e+00
2.04720e+03,8.58998e+00,-2.60021e+01,0.00000e+00,0.00000e+00,0.00000e+00
2.04720e+03,7.83252e+00,-2.71326e+01,0.00000e+00,0.00000e+00,0.00000e+00
2.04720e+03,6.96585e+00,-2.82632e+01,0.00000e+00,0.00000e+00,0.00000e+00
2.04720e+03,5.94077e+00,-2.93937e+01,0.00000e+00,0.00000e+00,0.00000e+00
2.04720e+03,4.62500e+00,-3.05242e+01,0.00000e+00,0.00000e+00,0.00000e+00
2.04720e+03,2.84547e+00,-3.16548e+01,0.00000e+00,0.00000e+00,0.00000e+00
2.04720e+03,-1.15296e+00,-3.27853e+01,0.00000e+00,0.00000e+00,0.00000e+00
2.04720e+03,-1.44153e+00,-3.27879e+01,0.00000e+00,0.00000e+00,0.00000e+00
2.04720e+03,-4.07059e+00,-3.16169e+01,0.00000e+00,0.00000e+00,0.00000e+00
2.04720e+03,-4.38891e+00,-3.04459e+01,0.00000e+00,0.00000e+00,0.00000e+00
2.04720e+03,-4.49875e+00,-2.92749e+01,0.00000e+00,0.00000e+00,0.00000e+00
2.04720e+03,-4.51542e+00,-2.81039e+01,0.00000e+00,0.00000e+00,0.00000e+00
2.04720e+03,-4.46189e+00,-2.69329e+01,0.00000e+00,0.00000e+00,0.00000e+00
2.04720e+03,-4.36430e+00,-2.57619e+01,0.00000e+00,0.00000e+00,0.00000e+00
2.04720e+03,-4.22249e+00,-2.45909e+01,0.00000e+00,0.00000e+00,0.00000e+00
2.04720e+03,-4.05369e+00,-2.34199e+01,0.00000e+00,0.00000e+00,0.00000e+00
2.04720e+03,-3.86924e+00,-2.22489e+01,0.00000e+00,0.00000e+00,0.00000e+00
2.04720e+03,-3.66121e+00,-2.10779e+01,0.00000e+00,0.00000e+00,0.00000e+00
2.04720e+03,-3.43845e+00,-1.99069e+01,0.00000e+00,0.00000e+00,0.00000e+00
2.04720e+03,-3.20134e+00,-1.87359e+01,0.00000e+00,0.00000e+00,0.00000e+00
2.04720e+03,-2.94994e+00,-1.75649e+01,0.00000e+00,0.00000e+00,0.00000e+00
2.04720e+03,-2.68957e+00,-1.63940e+01,0.00000e+00,0.00000e+00,0.00000e+00
2.04720e+03,-2.41772e+00,-1.52230e+01,0.00000e+00,0.00000e+00,0.00000e+00
2.04720e+03,-2.13852e+00,-1.40520e+01,0.00000e+00,0.00000e+00,0.00000e+00
2.04720e+03,-1.85273e+00,-1.28810e+01,0.00000e+00,0.00000e+00,0.00000e+00
2.04720e+03,-1.56106e+00,-1.17100e+01,0.00000e+00,0.00000e+00,0.00000e+00
2.04720e+03,-1.26689e+00,-1.05390e+01,0.00000e+00,0.00000e+00,0.00000e+00
2.04720e+03,-9.68863e-01,-9.36797e+00,0.00000e+00,0.00000e+00,0.00000e+00
2.04720e+03,-6.70192e-01,-8.19698e+00,0.00000e+00,0.00000e+00,0.00000e+00
2.04720e+03,-3.69215e-01,-7.02598e+00,0.00000e+00,0.00000e+00,0.00000e+00
2.04720e+03,-6.82691e-02,-5.85498e+00,0.00000e+00,0.00000e+00,0.00000e+00
2.04720e+03,2.31540e-01,-4.68399e+00,0.00000e+00,0.00000e+00,0.00000e+00
2.04720e+03,5.31348e-01,-3.51299e+00,0.00000e+00,0.00000e+00,0.00000e+00
2.04720e+03,8.24058e-01,-2.34199e+00,0.00000e+00,0.00000e+00,0.00000e+00
2.04720e+03,1.11544e+00,-1.17100e+00,0.00000e+00,0.00000e+00,0.00000e+00
2.05000e+03,1.47450e+01,0.00000e+00,0.00000e+00,0.00000e+00,0.00000e+00
2.05000e+03,1.46708e+01,-1.12047e+00,0.00000e+00,0.00000e+00,0.00000e+00
2.05000e+03,1.45720e+01,-2.24093e+00,0.00000e+00,0.00000e+00,0.00000e+00
2.05000e+03,1.44722e+01,-3.36140e+00,0.00000e+00,0.00000e+00,0.00000e+00
2.05000e+03,1.43508e+01,-4.48186e+00,0.00000e+00,0.00000e+00,0.00000e+00
2.05000e+03,1.42243e+01,-5.60233e+00,0.00000e+00,0.00000e+00,0.00000e+00
2.05000e+03,1.40812e+01,-6.72279e+00,0.00000e+00,0.00000e+00,0.00000e+00
2.05000e+03,1.39301e+01,-7.84326e+00,0.00000e+00,0.00000e+00,0.00000e+00
2.05000e+03,1.37656e+01,-8.96372e+00,0.00000e+00,0.00000e+00,0.00000e+00
2.05000e+03,1.35901e+01,-1.00842e+01,0.00000e+00,0.00000e+00,0.00000e+00
2.05000e+03,1.34025e+01,-1.12047e+01,0.00000e+00,0.00000e+00,0.00000e+00
2.05000e+03,1.32004e+01,-1.23251e+01,0.00000e+00,0.00000e+00,0.00000e+00
2.05000e+03,1.29833e+01,-1.34456e+01,0.00000e+00,0.00000e+00,0.00000e+00
2.05000e+03,1.27450e+01,-1.45661e+01,0.00000e+00,0.00000e+00,0.00000e+00
2.05000e+03,1.24860e+01,-1.56865e+01,0.00000e+00,0.00000e+00,0.00000e+00
2.05000e+03,1.22024e+01,-1.68070e+01,0.00000e+00,0.00000e+00,0.00000e+00
2.05000e+03,1.18854e+01,-1.79274e+01,0.00000e+00,0.00000e+00,0.00000e+00
2.05000e+03,1.15452e+01,-1.90479e+01,0.00000e+00,0.00000e+00,0.00000e+00
2.05000e+03,1.11526e+01,-2.01684e+01,0.00000e+00,0.00000e+00,0.00000e+00
2.05000e+03,1.07384e+01,-2.12888e+01,0.00000e+00,0.00000e+00,0.00000e+00
2.05000e+03,1.02638e+01,-2.24093e+01,0.00000e+00,0.00000e+00,0.00000e+00
2.05000e+03,9.74076e+00,-2.35298e+01,0.00000e+00,0.00000e+00,0.00000e+00
2.05000e+03,9.16848e+00,-2.46502e+01,0.00000e+00,0.00000e+00,0.00000e+00
2.05000e+03,8.51353e+00,-2.57707e+01,0.00000e+00,0.00000e+00,0.00000e+00
2.05000e+03,7.76281e+00,-2.68912e+01,0.00000e+00,0.00000e+00,0.00000e+00
2.05000e+03,6.90385e+00,-2.80116e+01,0.00000e+00,0.00000e+00,0.00000e+00
2.05000e+03,5.88790e+00,-2.91321e+01,0.00000e+00,0.00000e+00,0.00000e+00
2.05000e+03,4.58384e+00,-3.02526e+01,0.00000e+00,0.00000e+00,0.00000e+00
2.05000e+03,2.82014e+00,-3.13730e+01,0.00000e+00,0.00000e+00,0.00000e+00
2.05000e+03,-1.14270e+00,-3.24935e+01,0.00000e+00,0.00000e+00,0.00000e+00
2.05000e+03,-1.42870e+00,-3.24961e+01,0.00000e+00,0.00000e+00,0.00000e+00
2.05000e+03,-4.03436e+00,-3.13355e+01,0.00000e+00,0.00000e+00,0.00000e+00
2.05000e+03,-4.34985e+00,-3.01749e+01,0.00000e+00,0.00000e+00,0.00000e+00
2.05000e+03,-4.45871e+00,-2.90144e+01,0.00000e+00,0.00000e+00,0.00000e+00
2.05000e+03,-4.47523e+00,-2.78538e+01,0.00000e+00,0.00000e+00,0.00000e+00
2.05000e+03,-4.42218e+00,-2.66932e+01,0.00000e+00,0.00000e+00,0.00000e+00
2.05000e+03,-4.32546e+00,-2.55327e+01,0.00000e+00,0.00000e+00,0.00000e+00
2.05000e+03,-4.18491e+00,-2.43721e+01,0.00000e+00,0.00000e+00,0.00000e+00
2.05000e+03,-4.01761e+00,-2.32115e+01,0.00000e+00,0.00000e+00,0.00000e+00
2.05000e+03,-3.83480e+00,-2.20509e+01,0.00000e+00,0.00000e+00,0.00000e+00
2.05000e+03,-3.62863e+00,-2.08903e+01,0.00000e+00,0.00000e+00,0.00000e+00
2.05000e+03,-3.40785e+00,-1.97298e+01,0.00000e+00,0.00000e+00,0.00000e+00
2.05000e+03,-3.17285e+00,-1.85692e+01,0.00000e+00,0.00000e+00,0.00000e+00
2.05000e+03,-2.92368e+00,-1.74086e+01,0.00000e+00,0.00000e+00,0.00000e+00
2.05000e+03,-2.66563e+00,-1.62480e+01,0.00000e+00,0.00000e+00,0.00000e+00
2.05000e+03,-2.39621e+00,-1.50875e+01,0.00000e+00,0.00000e+00,0.00000e+00
2.05000e+03,-2.11949e+00,-1.39269e+01,0.00000e+00,0.00000e+00,0.00000e+00
2.05000e+03,-1.83624e+00,-1.27663e+01,0.00000e+00,0.00000e+00,0.00000e+00
2.05000e+03,-1.54717e+00,-1.16057e+01,0.00000e+00,0.00000e+00,0.00000e+00
2.05000e+03,-1.25562e+00,-1.04452e+01,0.00000e+00,0.00000e+00,0.00000e+00
2.05000e+03,-9.60241e-01,-9.28460e+00,0.00000e+00,0.00000e+00,0.00000e+00
2.05000e+03,-6.64227e-01,-8.12402e+00,0.00000e+00,0.00000e+00,0.00000e+00
2.05000e+03,-3.65929e-01,-6.96345e+00,0.00000e+00,0.00000e+00,0.00000e+00
2.05000e+03,-6.76615e-02,-5.80287e+00,0.00000e+00,0.00000e+00,0.00000e+00
2.05000e+03,2.29479e-01,-4.64230e+00,0.00000e+00,0.00000e+00,0.00000e+00
2.05000e+03,5.26620e-01,-3.48173e+00,0.00000e+00,0.00000e+00,0.00000e+00
2.05000e+03,8.16724e-01,-2.32115e+00,0.00000e+00,0.00000e+00,0.00000e+00
2.05000e+03,1.10552e+00,-1.16058e+00,0.00000e+00,0.00000e+00,0.00000e+00
--------------------------------------------------------------------------------------------------------------------------------------------------------------------------------------------------------------------------------------------------------------------------------------------------------------------------------------------------------------------------------

ALMA 
--------------------------------------------------------------------------------------------------------------------------------------------------------------------------------------------------------------------------------------------------------------------------------------------------------------------------------------------------------------------------------
X,Y,Z,Sigma,Tau,Von Mises
0.00000e+00,4.05613e+00,0.00000e+00,1.60954e-01,6.54086e-01,1.14429e+00
0.00000e+00,1.70710e+01,0.00000e+00,4.88291e-02,6.54953e-01,1.13546e+00
0.00000e+00,3.00859e+01,0.00000e+00,-6.32957e-02,6.54953e-01,1.13618e+00
0.00000e+00,4.31008e+01,0.00000e+00,-1.75421e-01,6.54104e-01,1.14644e+00
1.07300e+02,4.01639e+00,0.00000e+00,1.43742e-01,6.18315e-01,1.08056e+00
1.07300e+02,1.69038e+01,0.00000e+00,4.36861e-02,6.19127e-01,1.07325e+00
1.07300e+02,2.97912e+01,0.00000e+00,-5.63700e-02,6.19127e-01,1.07384e+00
1.07300e+02,4.26785e+01,0.00000e+00,-1.56426e-01,6.18332e-01,1.08235e+00
2.14300e+02,3.97676e+00,0.00000e+00,1.27439e-01,5.82628e-01,1.01716e+00
2.14300e+02,1.67370e+01,0.00000e+00,3.88099e-02,5.83386e-01,1.01120e+00
2.14300e+02,2.94972e+01,0.00000e+00,-4.98197e-02,5.83386e-01,1.01168e+00
2.14300e+02,4.22575e+01,0.00000e+00,-1.38449e-01,5.82643e-01,1.01862e+00
3.20700e+02,3.93736e+00,0.00000e+00,1.12105e-01,5.46046e-01,9.52401e-01
3.20700e+02,1.65712e+01,0.00000e+00,3.42172e-02,5.46750e-01,9.47617e-01
3.20700e+02,2.92050e+01,0.00000e+00,-4.36705e-02,5.46750e-01,9.48005e-01
3.20700e+02,4.18388e+01,0.00000e+00,-1.21558e-01,5.46061e-01,9.53584e-01
4.26200e+02,3.89829e+00,0.00000e+00,9.77950e-02,5.09315e-01,8.87563e-01
4.26200e+02,1.64067e+01,0.00000e+00,2.99242e-02,5.09964e-01,8.83791e-01
4.26200e+02,2.89151e+01,0.00000e+00,-3.79467e-02,5.09964e-01,8.84099e-01
4.26200e+02,4.14236e+01,0.00000e+00,-1.05818e-01,5.09328e-01,8.88505e-01
5.30600e+02,3.85963e+00,0.00000e+00,8.45330e-02,4.72539e-01,8.22816e-01
5.30600e+02,1.62440e+01,0.00000e+00,2.59377e-02,4.73136e-01,8.19907e-01
5.30600e+02,2.86284e+01,0.00000e+00,-3.26577e-02,4.73136e-01,8.20147e-01
5.30600e+02,4.10127e+01,0.00000e+00,-9.12531e-02,4.72551e-01,8.23554e-01
6.33500e+02,3.82152e+00,0.00000e+00,7.23556e-02,4.35974e-01,7.58587e-01
6.33500e+02,1.60836e+01,0.00000e+00,2.22688e-02,4.36519e-01,7.56401e-01
6.33500e+02,2.83457e+01,0.00000e+00,-2.78181e-02,4.36519e-01,7.56585e-01
6.33500e+02,4.06078e+01,0.00000e+00,-7.79050e-02,4.35984e-01,7.59155e-01
7.34700e+02,3.78404e+00,0.00000e+00,6.12631e-02,3.99700e-01,6.95006e-01
7.34700e+02,1.59259e+01,0.00000e+00,1.89177e-02,4.00195e-01,6.93416e-01
7.34700e+02,2.80677e+01,0.00000e+00,-2.34278e-02,4.00195e-01,6.93554e-01
7.34700e+02,4.02095e+01,0.00000e+00,-6.57732e-02,3.99710e-01,6.95435e-01
8.33800e+02,3.74734e+00,0.00000e+00,5.12673e-02,3.63877e-01,6.32336e-01
8.33800e+02,1.57714e+01,0.00000e+00,1.58885e-02,3.64324e-01,6.31227e-01
8.33800e+02,2.77955e+01,0.00000e+00,-1.94902e-02,3.64324e-01,6.31328e-01
8.33800e+02,3.98196e+01,0.00000e+00,-5.48689e-02,3.63886e-01,6.32653e-01
9.30700e+02,3.71145e+00,0.00000e+00,4.23403e-02,3.28462e-01,5.70486e-01
9.30700e+02,1.56204e+01,0.00000e+00,1.31739e-02,3.28861e-01,5.69756e-01
9.30700e+02,2.75293e+01,0.00000e+00,-1.59925e-02,3.28861e-01,5.69828e-01
9.30700e+02,3.94382e+01,0.00000e+00,-4.51589e-02,3.28470e-01,5.70716e-01
1.02500e+03,3.67653e+00,0.00000e+00,3.44695e-02,2.93986e-01,5.10363e-01
1.02500e+03,1.54734e+01,0.00000e+00,1.07716e-02,2.94339e-01,5.09925e-01
1.02500e+03,2.72703e+01,0.00000e+00,-1.29263e-02,2.94339e-01,5.09975e-01
1.02500e+03,3.90671e+01,0.00000e+00,-3.66242e-02,2.93992e-01,5.10525e-01
1.11650e+03,3.64264e+00,0.00000e+00,2.76208e-02,2.59706e-01,4.50671e-01
1.11650e+03,1.53308e+01,0.00000e+00,8.67328e-03,2.60016e-01,4.50444e-01
1.11650e+03,2.70189e+01,0.00000e+00,-1.02742e-02,2.60016e-01,4.50478e-01
1.11650e+03,3.87070e+01,0.00000e+00,-2.92218e-02,2.59712e-01,4.50782e-01
1.20500e+03,3.54704e+00,0.00000e+00,3.10957e-02,2.28244e-01,3.96551e-01
1.20500e+03,1.49284e+01,0.00000e+00,9.82045e-03,2.28623e-01,3.96108e-01
1.20500e+03,2.63098e+01,0.00000e+00,-1.14548e-02,2.28623e-01,3.96152e-01
1.20500e+03,3.76912e+01,0.00000e+00,-3.27300e-02,2.28254e-01,3.96700e-01
1.29010e+03,3.41832e+00,0.00000e+00,2.48691e-02,2.03858e-01,3.53968e-01
1.29010e+03,1.43867e+01,0.00000e+00,7.90622e-03,2.04184e-01,3.53746e-01
1.29010e+03,2.53550e+01,0.00000e+00,-9.05666e-03,2.04184e-01,3.53774e-01
1.29010e+03,3.63234e+01,0.00000e+00,-2.60195e-02,2.03867e-01,3.54065e-01
1.37170e+03,3.29489e+00,0.00000e+00,1.94572e-02,1.79765e-01,3.11970e-01
1.37170e+03,1.38672e+01,0.00000e+00,6.23225e-03,1.80042e-01,3.11905e-01
1.37170e+03,2.44395e+01,0.00000e+00,-6.99266e-03,1.80042e-01,3.11921e-01
1.37170e+03,3.50118e+01,0.00000e+00,-2.02176e-02,1.79772e-01,3.12031e-01
1.44960e+03,3.17706e+00,0.00000e+00,1.48350e-02,1.56350e-01,2.71212e-01
1.44960e+03,1.33713e+01,0.00000e+00,4.79143e-03,1.56582e-01,2.71250e-01
1.44960e+03,2.35655e+01,0.00000e+00,-5.25212e-03,1.56582e-01,2.71258e-01
1.44960e+03,3.37597e+01,0.00000e+00,-1.52957e-02,1.56356e-01,2.71247e-01
1.52340e+03,3.06543e+00,0.00000e+00,1.09846e-02,1.33149e-01,2.30882e-01
1.52340e+03,1.29015e+01,0.00000e+00,3.57989e-03,1.33339e-01,2.30977e-01
1.52340e+03,2.27375e+01,0.00000e+00,-3.82478e-03,1.33339e-01,2.30981e-01
1.52340e+03,3.25736e+01,0.00000e+00,-1.12295e-02,1.33154e-01,2.30902e-01
1.59310e+03,2.96000e+00,0.00000e+00,7.86309e-03,1.10458e-01,1.91480e-01
1.59310e+03,1.24578e+01,0.00000e+00,2.58668e-03,1.10609e-01,1.91598e-01
1.59310e+03,2.19555e+01,0.00000e+00,-2.68972e-03,1.10609e-01,1.91599e-01
1.59310e+03,3.14533e+01,0.00000e+00,-7.96612e-03,1.10461e-01,1.91490e-01
1.65850e+03,2.86108e+00,0.00000e+00,5.42451e-03,8.85236e-02,1.53423e-01
1.65850e+03,1.20414e+01,0.00000e+00,1.80075e-03,8.86401e-02,1.53540e-01
1.65850e+03,2.12218e+01,0.00000e+00,-1.82301e-03,8.86401e-02,1.53540e-01
1.65850e+03,3.04021e+01,0.00000e+00,-5.44677e-03,8.85262e-02,1.53429e-01
1.71930e+03,2.76911e+00,0.00000e+00,3.61296e-03,6.75875e-02,1.17121e-01
1.71930e+03,1.16544e+01,0.00000e+00,1.20858e-03,6.76731e-02,1.17219e-01
1.71930e+03,2.05396e+01,0.00000e+00,-1.19579e-03,6.76731e-02,1.17219e-01
1.71930e+03,2.94249e+01,0.00000e+00,-3.60017e-03,6.75893e-02,1.17123e-01
1.77540e+03,2.60964e+00,0.00000e+00,4.22263e-03,8.16447e-02,1.41476e-01
1.77540e+03,1.09832e+01,0.00000e+00,1.42804e-03,8.17497e-02,1.41602e-01
1.77540e+03,1.93567e+01,0.00000e+00,-1.36655e-03,8.17497e-02,1.41601e-01
1.77540e+03,2.77303e+01,0.00000e+00,-4.16115e-03,8.16488e-02,1.41481e-01
1.82660e+03,2.38179e+00,0.00000e+00,2.97332e-03,5.93329e-02,1.02811e-01
1.82660e+03,1.00242e+01,0.00000e+00,1.00550e-03,5.94029e-02,1.02894e-01
1.82660e+03,1.76667e+01,0.00000e+00,-9.62311e-04,5.94029e-02,1.02893e-01
1.82660e+03,2.53092e+01,0.00000e+00,-2.93013e-03,5.93354e-02,1.02814e-01
1.87280e+03,2.17619e+00,0.00000e+00,2.14729e-03,4.32549e-02,7.49504e-02
1.87280e+03,9.15894e+00,0.00000e+00,7.24290e-04,4.33027e-02,7.50060e-02
1.87280e+03,1.61417e+01,0.00000e+00,-6.98714e-04,4.33027e-02,7.50057e-02
1.87280e+03,2.31244e+01,0.00000e+00,-2.12172e-03,4.32564e-02,7.49524e-02
1.91380e+03,1.99374e+00,0.00000e+00,1.45918e-03,4.84790e-02,8.39807e-02
1.91380e+03,8.39104e+00,0.00000e+00,4.91082e-04,4.85277e-02,8.40539e-02
1.91380e+03,1.47883e+01,0.00000e+00,-4.77016e-04,4.85277e-02,8.40538e-02
1.91380e+03,2.11856e+01,0.00000e+00,-1.44511e-03,4.84804e-02,8.39830e-02
1.94970e+03,1.83398e+00,0.00000e+00,8.30887e-04,3.92782e-02,6.80370e-02
1.94970e+03,7.71865e+00,0.00000e+00,2.79515e-04,3.93151e-02,6.80963e-02
1.94970e+03,1.36033e+01,0.00000e+00,-2.71857e-04,3.93151e-02,6.80962e-02
1.94970e+03,1.94880e+01,0.00000e+00,-8.23229e-04,3.92793e-02,6.80386e-02
1.98010e+03,1.69869e+00,0.00000e+00,4.04046e-04,2.75186e-02,4.76654e-02
1.98010e+03,7.14927e+00,0.00000e+00,1.36681e-04,2.75426e-02,4.77053e-02
1.98010e+03,1.25999e+01,0.00000e+00,-1.30684e-04,2.75426e-02,4.77053e-02
1.98010e+03,1.80504e+01,0.00000e+00,-3.98048e-04,2.75193e-02,4.76664e-02
2.00520e+03,1.58699e+00,0.00000e+00,1.59610e-04,1.70637e-02,2.95557e-02
2.00520e+03,6.67917e+00,0.00000e+00,5.45751e-05,1.70775e-02,2.95791e-02
2.00520e+03,1.17713e+01,0.00000e+00,-5.04599e-05,1.70775e-02,2.95791e-02
2.00520e+03,1.68635e+01,0.00000e+00,-1.55495e-04,1.70641e-02,2.95562e-02
2.02480e+03,1.49977e+00,0.00000e+00,4.61498e-05,8.72530e-03,1.51127e-02
2.02480e+03,6.31207e+00,0.00000e+00,1.60412e-05,8.73177e-03,1.51239e-02
2.02480e+03,1.11244e+01,0.00000e+00,-1.40674e-05,8.73177e-03,1.51239e-02
2.02480e+03,1.59367e+01,0.00000e+00,-4.41759e-05,8.72545e-03,1.51130e-02
2.03880e+03,1.43746e+00,0.00000e+00,8.12564e-06,3.17171e-03,5.49358e-03
2.03880e+03,6.04986e+00,0.00000e+00,2.89463e-06,3.17391e-03,5.49737e-03
2.03880e+03,1.06622e+01,0.00000e+00,-2.33638e-06,3.17391e-03,5.49737e-03
2.03880e+03,1.52746e+01,0.00000e+00,-7.56739e-06,3.17176e-03,5.49366e-03
2.04720e+03,1.40008e+00,0.00000e+00,9.92269e-07,5.25648e-04,9.10449e-04
2.04720e+03,5.89253e+00,0.00000e+00,3.67051e-07,5.25973e-04,9.11012e-04
2.04720e+03,1.03850e+01,0.00000e+00,-2.58168e-07,5.25973e-04,9.11012e-04
2.04720e+03,1.48774e+01,0.00000e+00,-8.83387e-07,5.25655e-04,9.10461e-04
2.05000e+03,1.38762e+00,0.00000e+00,0.00000e+00,0.00000e+00,0.00000e+00
2.05000e+03,5.84009e+00,0.00000e+00,0.00000e+00,0.00000e+00,0.00000e+00
2.05000e+03,1.02925e+01,0.00000e+00,0.00000e+00,0.00000e+00,0.00000e+00
2.05000e+03,1.47450e+01,0.00000e+00,0.00000e+00,0.00000e+00,0.00000e+00
MESA INFERIOR 
--------------------------------------------------------------------------------------------------------------------------------------------------------------------------------------------------------------------------------------------------------------------------------------------------------------------------------------------------------------------------------
X,Y,Z,Sigma,Von Mises
0.00000e+00,4.05613e+00,0.00000e+00,0.00000e+00,0.00000e+00
1.07300e+02,4.01639e+00,0.00000e+00,0.00000e+00,0.00000e+00
2.14300e+02,3.97676e+00,0.00000e+00,0.00000e+00,0.00000e+00
3.20700e+02,3.93736e+00,0.00000e+00,0.00000e+00,0.00000e+00
4.26200e+02,3.89829e+00,0.00000e+00,0.00000e+00,0.00000e+00
5.30600e+02,3.85963e+00,0.00000e+00,0.00000e+00,0.00000e+00
6.33500e+02,3.82152e+00,0.00000e+00,0.00000e+00,0.00000e+00
7.34700e+02,3.78404e+00,0.00000e+00,0.00000e+00,0.00000e+00
8.33800e+02,3.74734e+00,0.00000e+00,0.00000e+00,0.00000e+00
9.30700e+02,3.71145e+00,0.00000e+00,0.00000e+00,0.00000e+00
1.02500e+03,3.67653e+00,0.00000e+00,0.00000e+00,0.00000e+00
1.11650e+03,3.64264e+00,0.00000e+00,0.00000e+00,0.00000e+00
1.20500e+03,3.54704e+00,0.00000e+00,0.00000e+00,0.00000e+00
1.29010e+03,3.41832e+00,0.00000e+00,0.00000e+00,0.00000e+00
1.37170e+03,3.29489e+00,0.00000e+00,0.00000e+00,0.00000e+00
1.44960e+03,3.17706e+00,0.00000e+00,0.00000e+00,0.00000e+00
1.52340e+03,3.06543e+00,0.00000e+00,0.00000e+00,0.00000e+00
1.59310e+03,2.96000e+00,0.00000e+00,0.00000e+00,0.00000e+00
1.65850e+03,2.86108e+00,0.00000e+00,0.00000e+00,0.00000e+00
1.71930e+03,2.76911e+00,0.00000e+00,0.00000e+00,0.00000e+00
1.77540e+03,2.60964e+00,0.00000e+00,0.00000e+00,0.00000e+00
1.82660e+03,2.38179e+00,0.00000e+00,0.00000e+00,0.00000e+00
1.87280e+03,2.17619e+00,0.00000e+00,0.00000e+00,0.00000e+00
1.91380e+03,1.99374e+00,0.00000e+00,0.00000e+00,0.00000e+00
1.94970e+03,1.83398e+00,0.00000e+00,0.00000e+00,0.00000e+00
1.98010e+03,1.69869e+00,0.00000e+00,0.00000e+00,0.00000e+00
2.00520e+03,1.58699e+00,0.00000e+00,0.00000e+00,0.00000e+00
2.02480e+03,1.49977e+00,0.00000e+00,0.00000e+00,0.00000e+00
2.03880e+03,1.43746e+00,0.00000e+00,0.00000e+00,0.00000e+00
2.04720e+03,1.40008e+00,0.00000e+00,0.00000e+00,0.00000e+00
2.05000e+03,1.38762e+00,0.00000e+00,0.00000e+00,0.00000e+00
--------------------------------------------------------------------------------------------------------------------------------------------------------------------------------------------------------------------------------------------------------------------------------------------------------------------------------------------------------------------------------

MESA SUPERIOR 
--------------------------------------------------------------------------------------------------------------------------------------------------------------------------------------------------------------------------------------------------------------------------------------------------------------------------------------------------------------------------------
X,Y,Z,Sigma,Von Mises
0.00000e+00,4.31008e+01,0.00000e+00,0.00000e+00,0.00000e+00
1.07300e+02,4.26785e+01,0.00000e+00,0.00000e+00,0.00000e+00
2.14300e+02,4.22575e+01,0.00000e+00,0.00000e+00,0.00000e+00
3.20700e+02,4.18388e+01,0.00000e+00,0.00000e+00,0.00000e+00
4.26200e+02,4.14236e+01,0.00000e+00,0.00000e+00,0.00000e+00
5.30600e+02,4.10127e+01,0.00000e+00,0.00000e+00,0.00000e+00
6.33500e+02,4.06078e+01,0.00000e+00,0.00000e+00,0.00000e+00
7.34700e+02,4.02095e+01,0.00000e+00,0.00000e+00,0.00000e+00
8.33800e+02,3.98196e+01,0.00000e+00,0.00000e+00,0.00000e+00
9.30700e+02,3.94382e+01,0.00000e+00,0.00000e+00,0.00000e+00
1.02500e+03,3.90671e+01,0.00000e+00,0.00000e+00,0.00000e+00
1.11650e+03,3.87070e+01,0.00000e+00,0.00000e+00,0.00000e+00
1.20500e+03,3.76912e+01,0.00000e+00,0.00000e+00,0.00000e+00
1.29010e+03,3.63234e+01,0.00000e+00,0.00000e+00,0.00000e+00
1.37170e+03,3.50118e+01,0.00000e+00,0.00000e+00,0.00000e+00
1.44960e+03,3.37597e+01,0.00000e+00,0.00000e+00,0.00000e+00
1.52340e+03,3.25736e+01,0.00000e+00,0.00000e+00,0.00000e+00
1.59310e+03,3.14533e+01,0.00000e+00,0.00000e+00,0.00000e+00
1.65850e+03,3.04021e+01,0.00000e+00,0.00000e+00,0.00000e+00
1.71930e+03,2.94249e+01,0.00000e+00,0.00000e+00,0.00000e+00
1.77540e+03,2.77303e+01,0.00000e+00,0.00000e+00,0.00000e+00
1.82660e+03,2.53092e+01,0.00000e+00,0.00000e+00,0.00000e+00
1.87280e+03,2.31244e+01,0.00000e+00,0.00000e+00,0.00000e+00
1.91380e+03,2.11856e+01,0.00000e+00,0.00000e+00,0.00000e+00
1.94970e+03,1.94880e+01,0.00000e+00,0.00000e+00,0.00000e+00
1.98010e+03,1.80504e+01,0.00000e+00,0.00000e+00,0.00000e+00
2.00520e+03,1.68635e+01,0.00000e+00,0.00000e+00,0.00000e+00
2.02480e+03,1.59367e+01,0.00000e+00,0.00000e+00,0.00000e+00
2.03880e+03,1.52746e+01,0.00000e+00,0.00000e+00,0.00000e+00
2.04720e+03,1.48774e+01,0.00000e+00,0.00000e+00,0.00000e+00
2.05000e+03,1.47450e+01,0.00000e+00,0.00000e+00,0.00000e+00
--------------------------------------------------------------------------------------------------------------------------------------------------------------------------------------------------------------------------------------------------------------------------------------------------------------------------------------------------------------------------------

