----------------------------------------------
LOG MATLAB Estruturas Copyright Charles 2020
----------------------------------------------

VISÃO GERAL POR SEÇÃO
--------------------------------------------------------------------------------------------------------------------------------------------------------------------------------------------------------------------------------------------------------------------------------------------------------------------------------------------------------------------------------
SEÇÃO,POSIÇÃO .25c,, ESFORÇOS,,,,,INÉRCIAS,,,,CENTROS GEOMÉTRICOS,,,DEFLEXÇOES,,,,,TENSÕES NORMAIS,,,,,,,,TENSÕES CISALHAMENTO,,,TENSÕES DE VON MISES
NUMERO,X,Y,MFz,MFy,MTx,Vz,Vy,EIzz,EIyy,EIzy,GJ,Zcg,Ycg,Zcc,Z,Y,Z´,Y´,Theta,Sigma_Chap+,Sigma_Chap-,Sigma_Lam+,Sigma_Lam-,Sigma_Mesa+,Sigma_Mesa-,Sigma_Alma+,Sigma_Alma-,  Tau_Alma,  Tau_Chap,  Tau_Lam, Von Mises_Alma,  Von Mises_Chap,  Von Mises_Lam
--------------------------------------------------------------------------------------------------------------------------------------------------------------------------------------------------------------------------------------------------------------------------------------------------------------------------------------------------------------------------------
01,0.00000e+00,0.00000e+00,3.49827e+05,2.32023e+04,-2.89140e+04,2.44234e+01,3.95013e+02,2.43720e+09,3.02407e+09,6.88619e+08,4.31199e+07,8.66395e+01,2.17434e+01,7.43235e+01,0.00000e+00,0.00000e+00,0.00000e+00,0.00000e+00,0.00000e+00,4.64553e+00,-5.89036e+00,0.00000e+00,0.00000e+00,2.61449e+02,-2.48884e+02,3.27068e-01,-3.11350e-01,1.35575e+00,1.67136e+00,0.00000e+00,2.36823e+00,6.35943e+00,0.00000e+00
02,1.07300e+02,0.00000e+00,3.08831e+05,2.06614e+04,-2.67191e+04,2.29383e+01,3.69134e+02,2.38487e+09,2.93941e+09,6.69313e+08,4.18648e+07,8.58583e+01,2.15452e+01,7.36225e+01,-1.45997e-01,8.26995e-01,-2.72130e-03,1.54146e-02,-7.02157e-02,4.14863e+00,-5.26772e+00,0.00000e+00,0.00000e+00,2.33514e+02,-2.22236e+02,2.92122e-01,-2.78013e-01,1.27933e+00,1.57278e+00,0.00000e+00,2.23253e+00,5.73135e+00,0.00000e+00
03,2.14300e+02,0.00000e+00,2.70695e+05,1.82857e+04,-2.45593e+04,2.14660e+01,3.43684e+02,2.33333e+09,2.85653e+09,6.50412e+08,4.06235e+07,8.50782e+01,2.13473e+01,7.29231e+01,-5.67010e-01,3.21539e+00,-5.14810e-03,2.92282e-02,-1.36705e-01,3.67881e+00,-4.67821e+00,0.00000e+00,0.00000e+00,2.07098e+02,-1.97038e+02,2.59077e-01,-2.46491e-01,1.20232e+00,1.47284e+00,0.00000e+00,2.09620e+00,5.13472e+00,0.00000e+00
04,3.20700e+02,0.00000e+00,2.35482e+05,1.60783e+04,-2.24815e+04,2.00264e+01,3.18210e+02,2.28273e+09,2.77562e+09,6.31961e+08,3.94270e+07,8.43013e+01,2.11503e+01,7.22271e+01,-1.22870e+00,6.97723e+00,-7.28967e-03,4.14831e-02,-1.99202e-01,3.23785e+00,-4.12410e+00,0.00000e+00,0.00000e+00,1.82303e+02,-1.73387e+02,2.28058e-01,-2.16905e-01,1.12420e+00,1.37325e+00,0.00000e+00,1.95831e+00,4.57288e+00,0.00000e+00
05,4.26200e+02,0.00000e+00,2.03229e+05,1.40401e+04,-2.04867e+04,1.86133e+01,2.93214e+02,2.23318e+09,2.69686e+09,6.14002e+08,3.82665e+07,8.35299e+01,2.09548e+01,7.15366e+01,-2.09636e+00,1.19212e+01,-9.15882e-03,5.22410e-02,-2.57521e-01,2.82730e+00,-3.60736e+00,0.00000e+00,0.00000e+00,1.59214e+02,-1.51368e+02,1.99174e-01,-1.89359e-01,1.04622e+00,1.27458e+00,0.00000e+00,1.82102e+00,4.04836e+00,0.00000e+00
06,5.30600e+02,0.00000e+00,1.73892e+05,1.21692e+04,-1.85739e+04,1.72284e+01,2.68802e+02,2.18477e+09,2.62035e+09,5.96558e+08,3.71407e+07,8.27655e+01,2.07610e+01,7.08528e+01,-3.13679e+00,1.78631e+01,-1.07728e-02,6.15885e-02,-3.11573e-01,2.44771e+00,-3.12876e+00,0.00000e+00,0.00000e+00,1.37862e+02,-1.31010e+02,1.72463e-01,-1.63891e-01,9.68681e-01,1.17698e+00,0.00000e+00,1.68481e+00,3.56104e+00,0.00000e+00
07,6.33500e+02,0.00000e+00,1.47451e+05,1.04643e+04,-1.67376e+04,1.59088e+01,2.45122e+02,2.13765e+09,2.54632e+09,5.79679e+08,3.60462e+07,8.20110e+01,2.05698e+01,7.01785e+01,-4.31605e+00,2.46131e+01,-1.21478e-02,6.96068e-02,-3.61193e-01,2.09994e+00,-2.68947e+00,0.00000e+00,0.00000e+00,1.18297e+02,-1.12361e+02,1.47988e-01,-1.40561e-01,8.91901e-01,1.08037e+00,0.00000e+00,1.55021e+00,3.11125e+00,0.00000e+00
08,7.34700e+02,0.00000e+00,1.23802e+05,8.91809e+03,-1.49820e+04,1.46479e+01,2.22245e+02,2.09189e+09,2.47483e+09,5.63383e+08,3.49830e+07,8.12680e+01,2.03815e+01,6.95148e+01,-5.60397e+00,3.20012e+01,-1.33050e-02,7.64045e-02,-4.06358e-01,1.78378e+00,-2.28954e+00,0.00000e+00,0.00000e+00,1.00508e+02,-9.54106e+01,1.25733e-01,-1.19357e-01,8.16199e-01,9.85161e-01,0.00000e+00,1.41775e+00,2.69864e+00,0.00000e+00
09,8.33800e+02,0.00000e+00,1.02866e+05,7.52615e+03,-1.33143e+04,1.34436e+01,2.00284e+02,2.04762e+09,2.40610e+09,5.47713e+08,3.39527e+07,8.05393e+01,2.01969e+01,6.88645e+01,-6.97003e+00,3.98543e+01,-1.42643e-02,8.20837e-02,-4.47010e-01,1.49930e+00,-1.92884e+00,0.00000e+00,0.00000e+00,8.44966e+01,-8.01638e+01,1.05704e-01,-1.00284e-01,7.42054e-01,8.91951e-01,0.00000e+00,1.28824e+00,2.32326e+00,0.00000e+00
10,9.30700e+02,0.00000e+00,8.44790e+04,6.28042e+03,-1.17272e+04,1.22681e+01,1.79218e+02,2.00486e+09,2.34009e+09,5.32666e+08,3.29505e+07,7.98259e+01,2.00162e+01,6.82283e+01,-8.39027e+00,4.80352e+01,-1.50491e-02,8.67685e-02,-4.83252e-01,1.24540e+00,-1.60603e+00,0.00000e+00,0.00000e+00,7.02034e+01,-6.65619e+01,8.78233e-02,-8.32678e-02,6.69432e-01,8.00552e-01,0.00000e+00,1.16158e+00,1.98377e+00,0.00000e+00
11,1.02500e+03,0.00000e+00,6.85158e+04,5.17780e+03,-1.02236e+04,1.11173e+01,1.59344e+02,1.96375e+09,2.27699e+09,5.18282e+08,3.19648e+07,7.91308e+01,1.98401e+01,6.76088e+01,-9.83915e+00,5.63966e+01,-1.56801e-02,9.05675e-02,-5.15114e-01,1.02145e+00,-1.32046e+00,0.00000e+00,0.00000e+00,5.75923e+01,-5.45691e+01,7.20470e-02,-6.82650e-02,5.99276e-01,7.11555e-01,0.00000e+00,1.03937e+00,1.67912e+00,0.00000e+00
12,1.11650e+03,0.00000e+00,5.48085e+04,4.21220e+03,-8.80395e+03,9.98893e+00,1.40269e+02,1.92432e+09,2.21681e+09,5.04566e+08,3.10085e+07,7.84554e+01,1.96691e+01,6.70073e+01,-1.12967e+01,6.48222e+01,-1.61789e-02,9.35981e-02,-5.42736e-01,8.26122e-01,-1.07066e+00,0.00000e+00,0.00000e+00,4.65905e+01,-4.41143e+01,5.82839e-02,-5.51862e-02,5.30689e-01,6.24849e-01,0.00000e+00,9.20056e-01,1.40725e+00,0.00000e+00
13,1.20500e+03,0.00000e+00,4.31835e+04,3.37665e+03,-7.48092e+03,8.89357e+00,1.22444e+02,1.32148e+09,1.95268e+09,4.45208e+08,2.82768e+07,7.39632e+01,1.86188e+01,6.42675e+01,-1.27502e+01,7.32320e+01,-1.66688e-02,9.64533e-02,-5.67006e-01,9.45162e-01,-1.18434e+00,0.00000e+00,0.00000e+00,5.31828e+01,-5.00686e+01,6.65308e-02,-6.26350e-02,4.70192e-01,6.04291e-01,0.00000e+00,8.15916e-01,1.45510e+00,0.00000e+00
14,1.29010e+03,0.00000e+00,3.34686e+04,2.66379e+03,-6.28575e+03,7.85972e+00,1.05874e+02,1.21619e+09,1.75686e+09,4.00479e+08,2.53916e+07,7.15330e+01,1.79989e+01,6.20379e+01,-1.41893e+01,8.15560e+01,-1.71514e-02,9.91756e-02,-5.88796e-01,7.65715e-01,-9.63306e-01,0.00000e+00,0.00000e+00,4.31003e+01,-4.05627e+01,5.39177e-02,-5.07432e-02,4.23396e-01,5.41162e-01,0.00000e+00,7.34282e-01,1.23071e+00,0.00000e+00
15,1.37170e+03,0.00000e+00,2.54572e+04,2.06252e+03,-5.20876e+03,6.87733e+00,9.04828e+01,1.12002e+09,1.58132e+09,3.60391e+08,2.27999e+07,6.91884e+01,1.74013e+01,5.98941e+01,-1.56043e+01,8.97374e+01,-1.75318e-02,1.01350e-01,-6.08217e-01,6.08548e-01,-7.68769e-01,0.00000e+00,0.00000e+00,3.42659e+01,-3.22366e+01,4.28661e-02,-4.03274e-02,3.76491e-01,4.78188e-01,0.00000e+00,6.52614e-01,1.03052e+00,0.00000e+00
16,1.44960e+03,0.00000e+00,1.89545e+04,1.56239e+03,-4.26345e+03,5.96289e+00,7.64676e+01,1.03251e+09,1.42458e+09,3.24609e+08,2.04866e+07,6.69366e+01,1.68278e+01,5.78421e+01,-1.69815e+01,9.76985e+01,-1.78242e-02,1.03043e-01,-6.25222e-01,4.73118e-01,-6.00251e-01,0.00000e+00,0.00000e+00,2.66501e+01,-2.50624e+01,3.33388e-02,-3.13527e-02,3.30784e-01,4.17336e-01,0.00000e+00,5.73142e-01,8.56326e-01,0.00000e+00
17,1.52340e+03,0.00000e+00,1.37863e+04,1.15474e+03,-3.43185e+03,5.08463e+00,6.35898e+01,9.53418e+08,1.28561e+09,2.92889e+08,1.84375e+07,6.47909e+01,1.62818e+01,5.58929e+01,-1.83049e+01,1.05350e+02,-1.80420e-02,1.04322e-01,-6.39769e-01,3.58962e-01,-4.57495e-01,0.00000e+00,0.00000e+00,2.02274e+01,-1.90159e+01,2.53041e-02,-2.37886e-02,2.85678e-01,3.57942e-01,0.00000e+00,4.94889e-01,7.09136e-01,0.00000e+00
18,1.59310e+03,0.00000e+00,9.76039e+03,8.31858e+02,-2.72142e+03,4.18031e+00,5.19326e+01,8.82075e+08,1.16263e+09,2.64824e+08,1.66397e+07,6.27531e+01,1.57637e+01,5.40474e+01,-1.95679e+01,1.12654e+02,-1.81993e-02,1.05259e-01,-6.51956e-01,2.64825e-01,-3.39166e-01,0.00000e+00,0.00000e+00,1.49288e+01,-1.40284e+01,1.86756e-02,-1.75493e-02,2.42262e-01,3.01896e-01,0.00000e+00,4.19661e-01,5.79980e-01,0.00000e+00
19,1.65850e+03,0.00000e+00,6.70124e+03,5.82712e+02,-2.11024e+03,3.43882e+00,4.16195e+01,8.18049e+08,1.05434e+09,2.40117e+08,1.50462e+07,6.08309e+01,1.52752e+01,5.23116e+01,-2.07617e+01,1.19560e+02,-1.83086e-02,1.05922e-01,-6.61890e-01,1.89235e-01,-2.43624e-01,0.00000e+00,0.00000e+00,1.06723e+01,-1.00224e+01,1.33508e-02,-1.25378e-02,2.01130e-01,2.48839e-01,0.00000e+00,3.48399e-01,4.66736e-01,0.00000e+00
20,1.71930e+03,0.00000e+00,4.44501e+03,3.94080e+02,-1.59283e+03,2.76619e+00,3.25984e+01,7.61023e+08,9.59670e+08,2.18523e+08,1.36420e+07,5.90349e+01,1.48192e+01,5.06943e+01,-2.18771e+01,1.26013e+02,-1.83813e-02,1.06369e-01,-6.69703e-01,1.30417e-01,-1.68786e-01,0.00000e+00,0.00000e+00,7.35839e+00,-6.90593e+00,9.20522e-03,-8.63920e-03,1.62724e-01,1.99445e-01,0.00000e+00,2.81865e-01,3.66834e-01,0.00000e+00
21,1.77540e+03,0.00000e+00,2.83194e+03,2.56637e+02,-1.15919e+03,2.13374e+00,2.49086e+01,3.98519e+08,7.29057e+08,1.66652e+08,9.65334e+06,5.21005e+01,1.31900e+01,4.07358e+01,-2.29102e+01,1.31992e+02,-1.84484e-02,1.06757e-01,-6.76346e-01,1.56079e-01,-1.91436e-01,0.00000e+00,0.00000e+00,8.77674e+00,-8.13326e+00,1.09796e-02,-1.01746e-02,2.15450e-01,1.87162e-01,0.00000e+00,3.73191e-01,3.55268e-01,0.00000e+00
22,1.82660e+03,0.00000e+00,1.72029e+03,1.61740e+02,-8.15851e+02,1.57317e+00,1.85152e+01,3.22692e+08,5.63581e+08,1.28741e+08,7.44098e+06,4.80842e+01,1.21552e+01,3.73499e+01,-2.38563e+01,1.37466e+02,-1.85106e-02,1.07101e-01,-6.82227e-01,1.06367e-01,-1.31517e-01,0.00000e+00,0.00000e+00,5.98520e+00,-5.54497e+00,7.48738e-03,-6.93667e-03,1.78071e-01,1.53001e-01,0.00000e+00,3.08440e-01,2.82927e-01,0.00000e+00
23,1.87280e+03,0.00000e+00,9.85389e+02,9.86209e+01,-5.60372e+02,1.15926e+00,1.32987e+01,2.62353e+08,4.36581e+08,9.96683e+07,5.76556e+06,4.43938e+01,1.12070e+01,3.42731e+01,-2.47124e+01,1.42420e+02,-1.85502e-02,1.07326e-01,-6.87005e-01,6.82373e-02,-8.52377e-02,0.00000e+00,0.00000e+00,3.84330e+00,-3.55309e+00,4.80790e-03,-4.44485e-03,1.42442e-01,1.21751e-01,0.00000e+00,2.46723e-01,2.20232e-01,0.00000e+00
24,1.91380e+03,0.00000e+00,5.24784e+02,5.72694e+01,-3.73709e+02,8.57888e-01,9.16978e+00,2.14932e+08,3.40501e+08,7.76906e+07,4.51099e+06,4.10625e+01,1.03532e+01,3.15244e+01,-2.54735e+01,1.46823e+02,-1.85731e-02,1.07462e-01,-6.90696e-01,4.05596e-02,-5.13696e-02,0.00000e+00,0.00000e+00,2.28740e+00,-2.10598e+00,2.86150e-03,-2.63454e-03,1.09393e-01,9.36136e-02,0.00000e+00,1.89477e-01,1.66454e-01,0.00000e+00
25,1.94970e+03,0.00000e+00,2.53028e+02,3.09123e+01,-2.37977e+02,6.10471e-01,5.96985e+00,1.77937e+08,2.68420e+08,6.12136e+07,3.57574e+06,3.80992e+01,9.59536e+00,2.91026e+01,-2.61405e+01,1.50682e+02,-1.85848e-02,1.07535e-01,-6.93378e-01,2.17276e-02,-2.80196e-02,0.00000e+00,0.00000e+00,1.22755e+00,-1.12263e+00,1.53564e-03,-1.40439e-03,7.92083e-02,6.82862e-02,0.00000e+00,1.37194e-01,1.19965e-01,0.00000e+00
26,1.98010e+03,0.00000e+00,1.07389e+02,1.51881e+01,-1.42510e+02,4.24022e-01,3.61165e+00,1.49784e+08,2.15653e+08,4.91590e+07,2.89393e+06,3.55543e+01,8.94582e+00,2.70403e+01,-2.67055e+01,1.53952e+02,-1.85898e-02,1.07570e-01,-6.95138e-01,1.01757e-02,-1.34612e-02,0.00000e+00,0.00000e+00,5.76349e-01,-5.21516e-01,7.21002e-04,-6.52408e-04,5.30397e-02,4.63294e-02,0.00000e+00,9.18679e-02,8.07843e-02,0.00000e+00
27,2.00520e+03,0.00000e+00,3.75665e+01,6.40054e+00,-7.77447e+01,2.76178e-01,1.95192e+00,1.28656e+08,1.77484e+08,4.04436e+07,2.40658e+06,3.34272e+01,8.40385e+00,2.53292e+01,-2.71721e+01,1.56652e+02,-1.85914e-02,1.07583e-01,-6.96161e-01,3.89941e-03,-5.34348e-03,0.00000e+00,0.00000e+00,2.21659e-01,-1.97285e-01,2.77292e-04,-2.46800e-04,3.15969e-02,2.81968e-02,0.00000e+00,5.47276e-02,4.89653e-02,0.00000e+00
28,2.02480e+03,0.00000e+00,9.77999e+00,2.12359e+00,-3.66890e+01,1.60245e-01,8.83436e-01,1.13447e+08,1.50904e+08,3.43767e+07,2.07772e+06,3.17493e+01,7.97693e+00,2.39876e+01,-2.75365e+01,1.58760e+02,-1.85918e-02,1.07587e-01,-6.96651e-01,1.10393e-03,-1.59538e-03,0.00000e+00,0.00000e+00,6.30967e-02,-5.46606e-02,7.89329e-05,-6.83795e-05,1.57218e-02,1.45174e-02,0.00000e+00,2.72310e-02,2.51639e-02,0.00000e+00
29,2.03880e+03,0.00000e+00,1.56912e+00,4.82021e-01,-1.34486e+01,7.42648e-02,2.89545e-01,1.03260e+08,1.33576e+08,3.04229e+07,1.88761e+06,3.05414e+01,7.66993e+00,2.30264e+01,-2.77968e+01,1.60267e+02,-1.85919e-02,1.07587e-01,-6.96824e-01,1.92440e-04,-3.05794e-04,0.00000e+00,0.00000e+00,1.11054e-02,-9.13621e-03,1.38926e-05,-1.14292e-05,5.72650e-03,5.62393e-03,0.00000e+00,9.91860e-03,9.74230e-03,0.00000e+00
30,2.04720e+03,0.00000e+00,1.76516e-01,8.50545e-02,-2.61446e+00,2.02511e-02,4.20276e-02,9.74134e+07,1.23821e+08,2.81976e+07,1.83810e+06,2.98129e+01,7.48488e+00,2.24484e+01,-2.79530e+01,1.61170e+02,-1.85919e-02,1.07587e-01,-6.96860e-01,2.37604e-05,-4.43593e-05,0.00000e+00,0.00000e+00,1.39380e-03,-1.04143e-03,1.74362e-06,-1.30281e-06,9.88525e-04,1.10465e-03,0.00000e+00,1.71218e-03,1.91340e-03,0.00000e+00
31,2.05000e+03,0.00000e+00,0.00000e+00,0.00000e+00,0.00000e+00,0.00000e+00,0.00000e+00,5.74754e+07,1.08343e+08,2.47732e+07,NaN,2.74871e+01,6.96602e+00,2.15905e+01,-2.80050e+01,1.61472e+02,-1.85919e-02,1.07587e-01,-6.96862e-01,0.00000e+00,0.00000e+00,0.00000e+00,0.00000e+00,0.00000e+00,0.00000e+00,0.00000e+00,0.00000e+00,0.00000e+00,0.00000e+00,0.00000e+00,0.00000e+00,0.00000e+00,0.00000e+00
--------------------------------------------------------------------------------------------------------------------------------------------------------------------------------------------------------------------------------------------------------------------------------------------------------------------------------------------------------------------------------

CHAPEADO 
--------------------------------------------------------------------------------------------------------------------------------------------------------------------------------------------------------------------------------------------------------------------------------------------------------------------------------------------------------------------------------
X,Y,Z,Sigma,Tau,Von Mises
0.00000e+00,4.31008e+01,0.00000e+00,-4.44786e+00,1.67136e+00,5.30695e+00
0.00000e+00,4.28837e+01,-3.27521e+00,-4.60906e+00,1.65431e+00,5.42712e+00
0.00000e+00,4.25950e+01,-6.55041e+00,-4.75351e+00,1.63685e+00,5.53477e+00
0.00000e+00,4.23033e+01,-9.82562e+00,-4.89729e+00,1.61899e+00,5.64330e+00
0.00000e+00,4.19484e+01,-1.31008e+01,-5.02628e+00,1.60077e+00,5.74029e+00
0.00000e+00,4.15787e+01,-1.63760e+01,-5.15184e+00,1.58221e+00,5.83538e+00
0.00000e+00,4.11605e+01,-1.96512e+01,-5.26605e+00,1.56334e+00,5.92143e+00
0.00000e+00,4.07187e+01,-2.29264e+01,-5.37475e+00,1.54419e+00,6.00346e+00
0.00000e+00,4.02378e+01,-2.62017e+01,-5.47433e+00,1.52478e+00,6.07808e+00
0.00000e+00,3.97249e+01,-2.94769e+01,-5.56641e+00,1.50514e+00,6.14665e+00
0.00000e+00,3.91766e+01,-3.27521e+01,-5.65026e+00,1.48529e+00,6.20836e+00
0.00000e+00,3.85857e+01,-3.60273e+01,-5.72413e+00,1.46526e+00,6.26152e+00
0.00000e+00,3.79511e+01,-3.93025e+01,-5.78779e+00,1.44507e+00,6.30581e+00
0.00000e+00,3.72545e+01,-4.25777e+01,-5.83699e+00,1.42477e+00,6.33722e+00
0.00000e+00,3.64976e+01,-4.58529e+01,-5.87210e+00,1.40438e+00,6.35597e+00
0.00000e+00,3.56687e+01,-4.91281e+01,-5.89036e+00,1.38395e+00,6.35943e+00
0.00000e+00,3.47420e+01,-5.24033e+01,-5.88582e+00,1.36353e+00,6.34196e+00
0.00000e+00,3.37474e+01,-5.56785e+01,-5.86540e+00,1.34316e+00,6.30993e+00
0.00000e+00,3.26000e+01,-5.89537e+01,-5.80928e+00,1.32293e+00,6.24485e+00
0.00000e+00,3.13892e+01,-6.22289e+01,-5.73835e+00,1.30289e+00,6.16614e+00
0.00000e+00,3.00018e+01,-6.55041e+01,-5.62619e+00,1.28310e+00,6.04922e+00
0.00000e+00,2.84730e+01,-6.87793e+01,-5.48098e+00,1.26371e+00,5.90187e+00
0.00000e+00,2.68002e+01,-7.20546e+01,-5.30214e+00,1.24477e+00,5.72373e+00
0.00000e+00,2.48857e+01,-7.53298e+01,-5.06685e+00,1.22634e+00,5.49406e+00
0.00000e+00,2.26913e+01,-7.86050e+01,-4.76618e+00,1.20865e+00,5.20566e+00
0.00000e+00,2.01805e+01,-8.18802e+01,-4.39159e+00,1.19190e+00,4.85262e+00
0.00000e+00,1.72108e+01,-8.51554e+01,-3.90981e+00,1.17624e+00,4.40877e+00
0.00000e+00,1.33989e+01,-8.84306e+01,-3.23132e+00,1.16244e+00,3.80726e+00
0.00000e+00,8.24350e+00,-9.17058e+01,-2.23900e+00,1.15401e+00,3.00138e+00
0.00000e+00,-3.34020e+00,-9.49810e+01,2.54880e-01,1.15735e+00,2.02073e+00
0.00000e+00,-4.17620e+00,-9.49886e+01,4.49665e-01,1.16773e+00,2.07195e+00
0.00000e+00,-1.17928e+01,-9.15961e+01,2.44827e+00,1.18741e+00,3.19748e+00
0.00000e+00,-1.27149e+01,-8.82037e+01,2.88316e+00,1.20196e+00,3.55622e+00
0.00000e+00,-1.30332e+01,-8.48113e+01,3.17698e+00,1.21726e+00,3.81293e+00
0.00000e+00,-1.30814e+01,-8.14188e+01,3.40775e+00,1.23327e+00,4.02190e+00
0.00000e+00,-1.29264e+01,-7.80264e+01,3.59102e+00,1.24987e+00,4.19308e+00
0.00000e+00,-1.26437e+01,-7.46339e+01,3.74447e+00,1.26695e+00,4.34011e+00
0.00000e+00,-1.22328e+01,-7.12415e+01,3.86799e+00,1.28442e+00,4.46212e+00
0.00000e+00,-1.17438e+01,-6.78490e+01,3.97325e+00,1.30219e+00,4.56879e+00
0.00000e+00,-1.12094e+01,-6.44565e+01,4.06792e+00,1.32021e+00,4.66657e+00
0.00000e+00,-1.06068e+01,-6.10641e+01,4.14664e+00,1.33845e+00,4.75067e+00
0.00000e+00,-9.96142e+00,-5.76716e+01,4.21538e+00,1.35683e+00,4.82622e+00
0.00000e+00,-9.27449e+00,-5.42792e+01,4.27441e+00,1.37534e+00,4.89339e+00
0.00000e+00,-8.54615e+00,-5.08867e+01,4.32377e+00,1.39393e+00,4.95218e+00
0.00000e+00,-7.79185e+00,-4.74943e+01,4.36707e+00,1.41257e+00,5.00573e+00
0.00000e+00,-7.00429e+00,-4.41018e+01,4.40260e+00,1.43123e+00,5.05253e+00
0.00000e+00,-6.19544e+00,-4.07094e+01,4.43315e+00,1.44988e+00,5.09502e+00
0.00000e+00,-5.36748e+00,-3.73169e+01,4.45924e+00,1.46850e+00,5.13364e+00
0.00000e+00,-4.52248e+00,-3.39245e+01,4.48135e+00,1.48708e+00,5.16882e+00
0.00000e+00,-3.67026e+00,-3.05320e+01,4.50177e+00,1.50559e+00,5.20253e+00
0.00000e+00,-2.80686e+00,-2.71396e+01,4.51958e+00,1.52403e+00,5.23399e+00
0.00000e+00,-1.94159e+00,-2.37472e+01,4.53695e+00,1.54240e+00,5.26506e+00
0.00000e+00,-1.06964e+00,-2.03547e+01,4.55277e+00,1.56067e+00,5.29479e+00
0.00000e+00,-1.97780e-01,-1.69622e+01,4.56860e+00,1.57886e+00,5.32452e+00
0.00000e+00,6.70785e-01,-1.35698e+01,4.58521e+00,1.59695e+00,5.35490e+00
0.00000e+00,1.53935e+00,-1.01774e+01,4.60181e+00,1.61495e+00,5.38525e+00
0.00000e+00,2.38735e+00,-6.78490e+00,4.62322e+00,1.63286e+00,5.41968e+00
0.00000e+00,3.23151e+00,-3.39245e+00,4.64553e+00,1.65069e+00,5.45484e+00
1.07300e+02,4.26785e+01,0.00000e+00,-3.97162e+00,1.57278e+00,4.81608e+00
1.07300e+02,4.24636e+01,-3.24312e+00,-4.11610e+00,1.55682e+00,4.92071e+00
1.07300e+02,4.21777e+01,-6.48624e+00,-4.24563e+00,1.54048e+00,5.01444e+00
1.07300e+02,4.18889e+01,-9.72936e+00,-4.37455e+00,1.52377e+00,5.10904e+00
1.07300e+02,4.15374e+01,-1.29725e+01,-4.49028e+00,1.50671e+00,5.19356e+00
1.07300e+02,4.11714e+01,-1.62156e+01,-4.60293e+00,1.48934e+00,5.27649e+00
1.07300e+02,4.07572e+01,-1.94587e+01,-4.70545e+00,1.47168e+00,5.35152e+00
1.07300e+02,4.03197e+01,-2.27018e+01,-4.80305e+00,1.45375e+00,5.42305e+00
1.07300e+02,3.98436e+01,-2.59450e+01,-4.89250e+00,1.43559e+00,5.48811e+00
1.07300e+02,3.93357e+01,-2.91881e+01,-4.97527e+00,1.41720e+00,5.54785e+00
1.07300e+02,3.87928e+01,-3.24312e+01,-5.05067e+00,1.39862e+00,5.60158e+00
1.07300e+02,3.82077e+01,-3.56743e+01,-5.11717e+00,1.37987e+00,5.64779e+00
1.07300e+02,3.75793e+01,-3.89174e+01,-5.17454e+00,1.36098e+00,5.68619e+00
1.07300e+02,3.68895e+01,-4.21606e+01,-5.21900e+00,1.34198e+00,5.71321e+00
1.07300e+02,3.61401e+01,-4.54037e+01,-5.25088e+00,1.32290e+00,5.72904e+00
1.07300e+02,3.53192e+01,-4.86468e+01,-5.26772e+00,1.30377e+00,5.73135e+00
1.07300e+02,3.44016e+01,-5.18899e+01,-5.26418e+00,1.28467e+00,5.71513e+00
1.07300e+02,3.34168e+01,-5.51330e+01,-5.24648e+00,1.26560e+00,5.68601e+00
1.07300e+02,3.22806e+01,-5.83762e+01,-5.19688e+00,1.24666e+00,5.62762e+00
1.07300e+02,3.10816e+01,-6.16193e+01,-5.13407e+00,1.22791e+00,5.55715e+00
1.07300e+02,2.97079e+01,-6.48624e+01,-5.03443e+00,1.20938e+00,5.45282e+00
1.07300e+02,2.81940e+01,-6.81055e+01,-4.90527e+00,1.19124e+00,5.32155e+00
1.07300e+02,2.65376e+01,-7.13486e+01,-4.74609e+00,1.17351e+00,5.16302e+00
1.07300e+02,2.46419e+01,-7.45918e+01,-4.53649e+00,1.15626e+00,4.95889e+00
1.07300e+02,2.24690e+01,-7.78349e+01,-4.26850e+00,1.13970e+00,4.70285e+00
1.07300e+02,1.99828e+01,-8.10780e+01,-3.93450e+00,1.12403e+00,4.38983e+00
1.07300e+02,1.70422e+01,-8.43211e+01,-3.50478e+00,1.10938e+00,3.99695e+00
1.07300e+02,1.32676e+01,-8.75642e+01,-2.89938e+00,1.09646e+00,3.46599e+00
1.07300e+02,8.16273e+00,-9.08074e+01,-2.01372e+00,1.08856e+00,2.75862e+00
1.07300e+02,-3.30748e+00,-9.40505e+01,2.12898e-01,1.09169e+00,1.90282e+00
1.07300e+02,-4.13529e+00,-9.40580e+01,3.86849e-01,1.10141e+00,1.94653e+00
1.07300e+02,-1.16772e+01,-9.06988e+01,2.17223e+00,1.11983e+00,2.91216e+00
1.07300e+02,-1.25904e+01,-8.73396e+01,2.56116e+00,1.13345e+00,3.22701e+00
1.07300e+02,-1.29055e+01,-8.39804e+01,2.82410e+00,1.14777e+00,3.45364e+00
1.07300e+02,-1.29533e+01,-8.06211e+01,3.03073e+00,1.16275e+00,3.63886e+00
1.07300e+02,-1.27997e+01,-7.72619e+01,3.19493e+00,1.17829e+00,3.79113e+00
1.07300e+02,-1.25198e+01,-7.39027e+01,3.33252e+00,1.19427e+00,3.92231e+00
1.07300e+02,-1.21130e+01,-7.05435e+01,3.44337e+00,1.21062e+00,4.03158e+00
1.07300e+02,-1.16287e+01,-6.71843e+01,3.53792e+00,1.22726e+00,4.12739e+00
1.07300e+02,-1.10996e+01,-6.38251e+01,3.62301e+00,1.24413e+00,4.21541e+00
1.07300e+02,-1.05029e+01,-6.04659e+01,3.69385e+00,1.26119e+00,4.29142e+00
1.07300e+02,-9.86382e+00,-5.71066e+01,3.75578e+00,1.27840e+00,4.35991e+00
1.07300e+02,-9.18363e+00,-5.37474e+01,3.80904e+00,1.29572e+00,4.42103e+00
1.07300e+02,-8.46243e+00,-5.03882e+01,3.85367e+00,1.31312e+00,4.47478e+00
1.07300e+02,-7.71552e+00,-4.70290e+01,3.89288e+00,1.33056e+00,4.52390e+00
1.07300e+02,-6.93567e+00,-4.36698e+01,3.92515e+00,1.34803e+00,4.56709e+00
1.07300e+02,-6.13474e+00,-4.03106e+01,3.95298e+00,1.36548e+00,4.60648e+00
1.07300e+02,-5.31490e+00,-3.69514e+01,3.97682e+00,1.38291e+00,4.64246e+00
1.07300e+02,-4.47818e+00,-3.35921e+01,3.99711e+00,1.40030e+00,4.67540e+00
1.07300e+02,-3.63431e+00,-3.02329e+01,4.01589e+00,1.41763e+00,4.70706e+00
1.07300e+02,-2.77936e+00,-2.68737e+01,4.03234e+00,1.43489e+00,4.73672e+00
1.07300e+02,-1.92257e+00,-2.35145e+01,4.04840e+00,1.45207e+00,4.76604e+00
1.07300e+02,-1.05916e+00,-2.01553e+01,4.06307e+00,1.46918e+00,4.79416e+00
1.07300e+02,-1.95842e-01,-1.67961e+01,4.07775e+00,1.48620e+00,4.82228e+00
1.07300e+02,6.64213e-01,-1.34369e+01,4.09313e+00,1.50313e+00,4.85097e+00
1.07300e+02,1.52427e+00,-1.00776e+01,4.10850e+00,1.51998e+00,4.87963e+00
1.07300e+02,2.36396e+00,-6.71843e+00,4.12816e+00,1.53674e+00,4.91187e+00
1.07300e+02,3.19985e+00,-3.35921e+00,4.14863e+00,1.55343e+00,4.94475e+00
2.14300e+02,4.22575e+01,0.00000e+00,-3.52130e+00,1.47284e+00,4.34826e+00
2.14300e+02,4.20447e+01,-3.21112e+00,-3.64993e+00,1.45796e+00,4.43835e+00
2.14300e+02,4.17615e+01,-6.42224e+00,-3.76529e+00,1.44272e+00,4.51905e+00
2.14300e+02,4.14756e+01,-9.63337e+00,-3.88013e+00,1.42713e+00,4.60060e+00
2.14300e+02,4.11276e+01,-1.28445e+01,-3.98325e+00,1.41123e+00,4.67343e+00
2.14300e+02,4.07652e+01,-1.60556e+01,-4.08365e+00,1.39503e+00,4.74495e+00
2.14300e+02,4.03551e+01,-1.92667e+01,-4.17506e+00,1.37856e+00,4.80962e+00
2.14300e+02,3.99219e+01,-2.24779e+01,-4.26212e+00,1.36185e+00,4.87129e+00
2.14300e+02,3.94505e+01,-2.56890e+01,-4.34195e+00,1.34490e+00,4.92735e+00
2.14300e+02,3.89476e+01,-2.89001e+01,-4.41584e+00,1.32776e+00,4.97881e+00
2.14300e+02,3.84101e+01,-3.21112e+01,-4.48321e+00,1.31044e+00,5.02503e+00
2.14300e+02,3.78307e+01,-3.53223e+01,-4.54269e+00,1.29295e+00,5.06470e+00
2.14300e+02,3.72085e+01,-3.85335e+01,-4.59407e+00,1.27534e+00,5.09754e+00
2.14300e+02,3.65256e+01,-4.17446e+01,-4.63400e+00,1.25761e+00,5.12042e+00
2.14300e+02,3.57835e+01,-4.49557e+01,-4.66277e+00,1.23982e+00,5.13351e+00
2.14300e+02,3.49707e+01,-4.81668e+01,-4.67821e+00,1.22199e+00,5.13472e+00
2.14300e+02,3.40622e+01,-5.13780e+01,-4.67558e+00,1.20417e+00,5.11968e+00
2.14300e+02,3.30871e+01,-5.45891e+01,-4.66039e+00,1.18639e+00,5.09330e+00
2.14300e+02,3.19621e+01,-5.78002e+01,-4.61691e+00,1.16873e+00,5.04120e+00
2.14300e+02,3.07750e+01,-6.10113e+01,-4.56172e+00,1.15124e+00,4.97849e+00
2.14300e+02,2.94148e+01,-6.42224e+01,-4.47387e+00,1.13397e+00,4.88601e+00
2.14300e+02,2.79159e+01,-6.74336e+01,-4.35985e+00,1.11705e+00,4.76987e+00
2.14300e+02,2.62758e+01,-7.06447e+01,-4.21919e+00,1.10052e+00,4.62980e+00
2.14300e+02,2.43988e+01,-7.38558e+01,-4.03384e+00,1.08443e+00,4.44970e+00
2.14300e+02,2.22473e+01,-7.70669e+01,-3.79670e+00,1.06899e+00,4.22412e+00
2.14300e+02,1.97856e+01,-8.02781e+01,-3.50103e+00,1.05438e+00,3.94872e+00
2.14300e+02,1.68740e+01,-8.34892e+01,-3.12048e+00,1.04071e+00,3.60370e+00
2.14300e+02,1.31367e+01,-8.67003e+01,-2.58415e+00,1.02867e+00,3.13884e+00
2.14300e+02,8.08220e+00,-8.99114e+01,-1.79929e+00,1.02131e+00,2.52322e+00
2.14300e+02,-3.27484e+00,-9.31226e+01,1.74657e-01,1.02423e+00,1.78259e+00
2.14300e+02,-4.09449e+00,-9.31300e+01,3.28907e-01,1.03329e+00,1.81968e+00
2.14300e+02,-1.15620e+01,-8.98039e+01,1.91262e+00,1.05047e+00,2.63980e+00
2.14300e+02,-1.24661e+01,-8.64779e+01,2.25803e+00,1.06316e+00,2.91369e+00
2.14300e+02,-1.27781e+01,-8.31518e+01,2.49171e+00,1.07652e+00,3.11212e+00
2.14300e+02,-1.28255e+01,-7.98257e+01,2.67546e+00,1.09049e+00,3.27500e+00
2.14300e+02,-1.26734e+01,-7.64996e+01,2.82160e+00,1.10497e+00,3.40945e+00
2.14300e+02,-1.23963e+01,-7.31736e+01,2.94413e+00,1.11988e+00,3.52566e+00
2.14300e+02,-1.19935e+01,-6.98475e+01,3.04295e+00,1.13513e+00,3.62286e+00
2.14300e+02,-1.15140e+01,-6.65214e+01,3.12731e+00,1.15064e+00,3.70837e+00
2.14300e+02,-1.09901e+01,-6.31954e+01,3.20329e+00,1.16637e+00,3.78712e+00
2.14300e+02,-1.03992e+01,-5.98693e+01,3.26663e+00,1.18228e+00,3.85542e+00
2.14300e+02,-9.76651e+00,-5.65432e+01,3.32207e+00,1.19833e+00,3.91716e+00
2.14300e+02,-9.09302e+00,-5.32171e+01,3.36983e+00,1.21448e+00,3.97249e+00
2.14300e+02,-8.37893e+00,-4.98911e+01,3.40992e+00,1.23071e+00,4.02138e+00
2.14300e+02,-7.63939e+00,-4.65650e+01,3.44522e+00,1.24697e+00,4.06624e+00
2.14300e+02,-6.86724e+00,-4.32389e+01,3.47436e+00,1.26326e+00,4.10592e+00
2.14300e+02,-6.07421e+00,-3.99129e+01,3.49956e+00,1.27954e+00,4.14229e+00
2.14300e+02,-5.26246e+00,-3.65868e+01,3.52122e+00,1.29579e+00,4.17567e+00
2.14300e+02,-4.43399e+00,-3.32607e+01,3.53974e+00,1.31200e+00,4.20640e+00
2.14300e+02,-3.59845e+00,-2.99346e+01,3.55692e+00,1.32816e+00,4.23600e+00
2.14300e+02,-2.75194e+00,-2.66086e+01,3.57203e+00,1.34425e+00,4.26385e+00
2.14300e+02,-1.90360e+00,-2.32825e+01,3.58679e+00,1.36028e+00,4.29140e+00
2.14300e+02,-1.04871e+00,-1.99564e+01,3.60032e+00,1.37623e+00,4.31791e+00
2.14300e+02,-1.93910e-01,-1.66304e+01,3.61387e+00,1.39210e+00,4.34441e+00
2.14300e+02,6.57660e-01,-1.33043e+01,3.62802e+00,1.40789e+00,4.37139e+00
2.14300e+02,1.50923e+00,-9.97821e+00,3.64218e+00,1.42360e+00,4.39834e+00
2.14300e+02,2.34063e+00,-6.65214e+00,3.66014e+00,1.43923e+00,4.42840e+00
2.14300e+02,3.16828e+00,-3.32607e+00,3.67881e+00,1.45479e+00,4.45902e+00
3.20700e+02,4.18388e+01,0.00000e+00,-3.09864e+00,1.37325e+00,3.90628e+00
3.20700e+02,4.16280e+01,-3.17930e+00,-3.21233e+00,1.35945e+00,3.98289e+00
3.20700e+02,4.13477e+01,-6.35861e+00,-3.31434e+00,1.34532e+00,4.05148e+00
3.20700e+02,4.10646e+01,-9.53791e+00,-3.41589e+00,1.33087e+00,4.12091e+00
3.20700e+02,4.07201e+01,-1.27172e+01,-3.50713e+00,1.31612e+00,4.18288e+00
3.20700e+02,4.03613e+01,-1.58965e+01,-3.59599e+00,1.30110e+00,4.24378e+00
3.20700e+02,3.99553e+01,-1.90758e+01,-3.67692e+00,1.28582e+00,4.29881e+00
3.20700e+02,3.95264e+01,-2.22551e+01,-3.75402e+00,1.27032e+00,4.35130e+00
3.20700e+02,3.90596e+01,-2.54344e+01,-3.82476e+00,1.25461e+00,4.39897e+00
3.20700e+02,3.85617e+01,-2.86137e+01,-3.89029e+00,1.23871e+00,4.44270e+00
3.20700e+02,3.80295e+01,-3.17930e+01,-3.95006e+00,1.22265e+00,4.48192e+00
3.20700e+02,3.74559e+01,-3.49724e+01,-4.00289e+00,1.20644e+00,4.51548e+00
3.20700e+02,3.68398e+01,-3.81517e+01,-4.04859e+00,1.19010e+00,4.54314e+00
3.20700e+02,3.61637e+01,-4.13310e+01,-4.08422e+00,1.17367e+00,4.56216e+00
3.20700e+02,3.54289e+01,-4.45103e+01,-4.11003e+00,1.15717e+00,4.57268e+00
3.20700e+02,3.46242e+01,-4.76896e+01,-4.12410e+00,1.14063e+00,4.57288e+00
3.20700e+02,3.37247e+01,-5.08689e+01,-4.12226e+00,1.12411e+00,4.55894e+00
3.20700e+02,3.27593e+01,-5.40482e+01,-4.10937e+00,1.10762e+00,4.53513e+00
3.20700e+02,3.16454e+01,-5.72275e+01,-4.07160e+00,1.09124e+00,4.48891e+00
3.20700e+02,3.04701e+01,-6.04068e+01,-4.02350e+00,1.07503e+00,4.43346e+00
3.20700e+02,2.91233e+01,-6.35861e+01,-3.94666e+00,1.05901e+00,4.35208e+00
3.20700e+02,2.76393e+01,-6.67654e+01,-3.84679e+00,1.04332e+00,4.25010e+00
3.20700e+02,2.60154e+01,-6.99447e+01,-3.72348e+00,1.02799e+00,4.12730e+00
3.20700e+02,2.41570e+01,-7.31240e+01,-3.56083e+00,1.01307e+00,3.96969e+00
3.20700e+02,2.20269e+01,-7.63033e+01,-3.35260e+00,9.98753e-01,3.77259e+00
3.20700e+02,1.95896e+01,-7.94826e+01,-3.09286e+00,9.85201e-01,3.53237e+00
3.20700e+02,1.67068e+01,-8.26619e+01,-2.75841e+00,9.72530e-01,3.23207e+00
3.20700e+02,1.30066e+01,-8.58412e+01,-2.28686e+00,9.61359e-01,2.82884e+00
3.20700e+02,8.00212e+00,-8.90205e+01,-1.59657e+00,9.54536e-01,2.29836e+00
3.20700e+02,-3.24239e+00,-9.21998e+01,1.40268e-01,9.57243e-01,1.66392e+00
3.20700e+02,-4.05392e+00,-9.22072e+01,2.76025e-01,9.65645e-01,1.69517e+00
3.20700e+02,-1.14474e+01,-8.89141e+01,1.67039e+00,9.81577e-01,2.38342e+00
3.20700e+02,-1.23426e+01,-8.56210e+01,1.97489e+00,9.93347e-01,2.61924e+00
3.20700e+02,-1.26515e+01,-8.23279e+01,2.18106e+00,1.00573e+00,2.79133e+00
3.20700e+02,-1.26984e+01,-7.90348e+01,2.34329e+00,1.01869e+00,2.93329e+00
3.20700e+02,-1.25479e+01,-7.57416e+01,2.47240e+00,1.03212e+00,3.05100e+00
3.20700e+02,-1.22734e+01,-7.24485e+01,2.58074e+00,1.04595e+00,3.15313e+00
3.20700e+02,-1.18746e+01,-6.91554e+01,2.66822e+00,1.06009e+00,3.23894e+00
3.20700e+02,-1.13999e+01,-6.58623e+01,2.74297e+00,1.07447e+00,3.31471e+00
3.20700e+02,-1.08812e+01,-6.25692e+01,2.81034e+00,1.08906e+00,3.38469e+00
3.20700e+02,-1.02962e+01,-5.92761e+01,2.86658e+00,1.10381e+00,3.44565e+00
3.20700e+02,-9.66973e+00,-5.59829e+01,2.91588e+00,1.11869e+00,3.50097e+00
3.20700e+02,-9.00292e+00,-5.26898e+01,2.95841e+00,1.13367e+00,3.55075e+00
3.20700e+02,-8.29591e+00,-4.93967e+01,2.99420e+00,1.14872e+00,3.59498e+00
3.20700e+02,-7.56370e+00,-4.61036e+01,3.02576e+00,1.16380e+00,3.63573e+00
3.20700e+02,-6.79920e+00,-4.28105e+01,3.05191e+00,1.17890e+00,3.67200e+00
3.20700e+02,-6.01403e+00,-3.95174e+01,3.07459e+00,1.19399e+00,3.70540e+00
3.20700e+02,-5.21032e+00,-3.62243e+01,3.09416e+00,1.20907e+00,3.73622e+00
3.20700e+02,-4.39006e+00,-3.29311e+01,3.11095e+00,1.22410e+00,3.76474e+00
3.20700e+02,-3.56279e+00,-2.96380e+01,3.12657e+00,1.23908e+00,3.79229e+00
3.20700e+02,-2.72467e+00,-2.63449e+01,3.14037e+00,1.25401e+00,3.81832e+00
3.20700e+02,-1.88474e+00,-2.30518e+01,3.15387e+00,1.26887e+00,3.84408e+00
3.20700e+02,-1.03832e+00,-1.97587e+01,3.16628e+00,1.28366e+00,3.86893e+00
3.20700e+02,-1.91989e-01,-1.64656e+01,3.17870e+00,1.29837e+00,3.89377e+00
3.20700e+02,6.51143e-01,-1.31725e+01,3.19166e+00,1.31302e+00,3.91902e+00
3.20700e+02,1.49428e+00,-9.87934e+00,3.20462e+00,1.32758e+00,3.94423e+00
3.20700e+02,2.31744e+00,-6.58623e+00,3.22092e+00,1.34208e+00,3.97213e+00
3.20700e+02,3.13689e+00,-3.29311e+00,3.23785e+00,1.35651e+00,4.00051e+00
4.26200e+02,4.14236e+01,0.00000e+00,-2.70512e+00,1.27458e+00,3.49161e+00
4.26200e+02,4.12150e+01,-3.14776e+00,-2.80485e+00,1.26185e+00,3.55584e+00
4.26200e+02,4.09374e+01,-6.29551e+00,-2.89438e+00,1.24881e+00,3.61331e+00
4.26200e+02,4.06571e+01,-9.44327e+00,-2.98351e+00,1.23547e+00,3.67157e+00
4.26200e+02,4.03160e+01,-1.25910e+01,-3.06364e+00,1.22185e+00,3.72353e+00
4.26200e+02,3.99607e+01,-1.57388e+01,-3.14167e+00,1.20799e+00,3.77463e+00
4.26200e+02,3.95588e+01,-1.88865e+01,-3.21280e+00,1.19390e+00,3.82077e+00
4.26200e+02,3.91341e+01,-2.20343e+01,-3.28058e+00,1.17959e+00,3.86478e+00
4.26200e+02,3.86720e+01,-2.51820e+01,-3.34280e+00,1.16509e+00,3.90470e+00
4.26200e+02,3.81790e+01,-2.83298e+01,-3.40047e+00,1.15042e+00,3.94127e+00
4.26200e+02,3.76521e+01,-3.14776e+01,-3.45312e+00,1.13559e+00,3.97401e+00
4.26200e+02,3.70842e+01,-3.46253e+01,-3.49970e+00,1.12063e+00,4.00192e+00
4.26200e+02,3.64743e+01,-3.77731e+01,-3.54007e+00,1.10556e+00,4.02478e+00
4.26200e+02,3.58048e+01,-4.09208e+01,-3.57163e+00,1.09039e+00,4.04022e+00
4.26200e+02,3.50774e+01,-4.40686e+01,-3.59462e+00,1.07516e+00,4.04836e+00
4.26200e+02,3.42806e+01,-4.72163e+01,-3.60736e+00,1.05990e+00,4.04762e+00
4.26200e+02,3.33901e+01,-5.03641e+01,-3.60621e+00,1.04465e+00,4.03469e+00
4.26200e+02,3.24342e+01,-5.35118e+01,-3.59541e+00,1.02943e+00,4.01325e+00
4.26200e+02,3.13314e+01,-5.66596e+01,-3.56288e+00,1.01432e+00,3.97249e+00
4.26200e+02,3.01677e+01,-5.98074e+01,-3.52134e+00,9.99358e-01,3.92377e+00
4.26200e+02,2.88343e+01,-6.29551e+01,-3.45470e+00,9.84575e-01,3.85268e+00
4.26200e+02,2.73650e+01,-6.61029e+01,-3.36795e+00,9.70097e-01,3.76382e+00
4.26200e+02,2.57573e+01,-6.92506e+01,-3.26074e+00,9.55949e-01,3.65704e+00
4.26200e+02,2.39173e+01,-7.23984e+01,-3.11917e+00,9.42185e-01,3.52028e+00
4.26200e+02,2.18083e+01,-7.55461e+01,-2.93780e+00,9.28969e-01,3.34957e+00
4.26200e+02,1.93952e+01,-7.86939e+01,-2.71146e+00,9.16463e-01,3.14193e+00
4.26200e+02,1.65410e+01,-8.18417e+01,-2.41988e+00,9.04769e-01,2.88299e+00
4.26200e+02,1.28775e+01,-8.49894e+01,-2.00858e+00,8.94460e-01,2.53664e+00
4.26200e+02,7.92271e+00,-8.81372e+01,-1.40629e+00,8.88164e-01,2.08426e+00
4.26200e+02,-3.21022e+00,-9.12849e+01,1.09830e-01,8.90662e-01,1.54658e+00
4.26200e+02,-4.01369e+00,-9.12922e+01,2.28370e-01,8.98416e-01,1.57277e+00
4.26200e+02,-1.13339e+01,-8.80318e+01,1.44637e+00,9.13120e-01,2.14321e+00
4.26200e+02,-1.22201e+01,-8.47713e+01,1.71273e+00,9.23982e-01,2.34407e+00
4.26200e+02,-1.25260e+01,-8.15109e+01,1.89322e+00,9.35413e-01,2.49184e+00
4.26200e+02,-1.25724e+01,-7.82505e+01,2.03535e+00,9.47372e-01,2.61442e+00
4.26200e+02,-1.24233e+01,-7.49900e+01,2.14856e+00,9.59768e-01,2.71657e+00
4.26200e+02,-1.21516e+01,-7.17296e+01,2.24363e+00,9.72526e-01,2.80558e+00
4.26200e+02,-1.17568e+01,-6.84692e+01,2.32048e+00,9.85573e-01,2.88075e+00
4.26200e+02,-1.12868e+01,-6.52087e+01,2.38623e+00,9.98846e-01,2.94740e+00
4.26200e+02,-1.07732e+01,-6.19483e+01,2.44552e+00,1.01231e+00,3.00913e+00
4.26200e+02,-1.01940e+01,-5.86879e+01,2.49511e+00,1.02593e+00,3.06319e+00
4.26200e+02,-9.57378e+00,-5.54274e+01,2.53863e+00,1.03966e+00,3.11244e+00
4.26200e+02,-8.91358e+00,-5.21670e+01,2.57623e+00,1.05348e+00,3.15697e+00
4.26200e+02,-8.21359e+00,-4.89065e+01,2.60795e+00,1.06737e+00,3.19675e+00
4.26200e+02,-7.48864e+00,-4.56461e+01,2.63598e+00,1.08129e+00,3.23357e+00
4.26200e+02,-6.73173e+00,-4.23857e+01,2.65929e+00,1.09522e+00,3.26655e+00
4.26200e+02,-5.95435e+00,-3.91252e+01,2.67956e+00,1.10915e+00,3.29707e+00
4.26200e+02,-5.15861e+00,-3.58648e+01,2.69712e+00,1.12306e+00,3.32540e+00
4.26200e+02,-4.34650e+00,-3.26044e+01,2.71226e+00,1.13693e+00,3.35175e+00
4.26200e+02,-3.52744e+00,-2.93439e+01,2.72637e+00,1.15076e+00,3.37725e+00
4.26200e+02,-2.69763e+00,-2.60835e+01,2.73889e+00,1.16453e+00,3.40146e+00
4.26200e+02,-1.86603e+00,-2.28231e+01,2.75114e+00,1.17825e+00,3.42543e+00
4.26200e+02,-1.02802e+00,-1.95626e+01,2.76245e+00,1.19190e+00,3.44862e+00
4.26200e+02,-1.90083e-01,-1.63022e+01,2.77377e+00,1.20548e+00,3.47179e+00
4.26200e+02,6.44682e-01,-1.30417e+01,2.78555e+00,1.21899e+00,3.49530e+00
4.26200e+02,1.47945e+00,-9.78131e+00,2.79734e+00,1.23243e+00,3.51877e+00
4.26200e+02,2.29445e+00,-6.52087e+00,2.81205e+00,1.24581e+00,3.54454e+00
4.26200e+02,3.10576e+00,-3.26044e+00,2.82730e+00,1.25913e+00,3.57069e+00
5.30600e+02,4.10127e+01,0.00000e+00,-2.34130e+00,1.17698e+00,3.10443e+00
5.30600e+02,4.08062e+01,-3.11654e+00,-2.42806e+00,1.16528e+00,3.15739e+00
5.30600e+02,4.05314e+01,-6.23307e+00,-2.50599e+00,1.15331e+00,3.20474e+00
5.30600e+02,4.02539e+01,-9.34961e+00,-2.58358e+00,1.14106e+00,3.25283e+00
5.30600e+02,3.99161e+01,-1.24661e+01,-2.65337e+00,1.12856e+00,3.29565e+00
5.30600e+02,3.95644e+01,-1.55827e+01,-2.72135e+00,1.11583e+00,3.33781e+00
5.30600e+02,3.91664e+01,-1.86992e+01,-2.78335e+00,1.10289e+00,3.37582e+00
5.30600e+02,3.87460e+01,-2.18158e+01,-2.84245e+00,1.08976e+00,3.41208e+00
5.30600e+02,3.82884e+01,-2.49323e+01,-2.89675e+00,1.07645e+00,3.44490e+00
5.30600e+02,3.78003e+01,-2.80488e+01,-2.94710e+00,1.06297e+00,3.47493e+00
5.30600e+02,3.72787e+01,-3.11654e+01,-2.99310e+00,1.04936e+00,3.50173e+00
5.30600e+02,3.67164e+01,-3.42819e+01,-3.03386e+00,1.03562e+00,3.52446e+00
5.30600e+02,3.61125e+01,-3.73984e+01,-3.06923e+00,1.02178e+00,3.54292e+00
5.30600e+02,3.54497e+01,-4.05150e+01,-3.09698e+00,1.00786e+00,3.55508e+00
5.30600e+02,3.47295e+01,-4.36315e+01,-3.11730e+00,9.93878e-01,3.56104e+00
5.30600e+02,3.39406e+01,-4.67480e+01,-3.12876e+00,9.79864e-01,3.55943e+00
5.30600e+02,3.30589e+01,-4.98646e+01,-3.12819e+00,9.65866e-01,3.54743e+00
5.30600e+02,3.21125e+01,-5.29811e+01,-3.11927e+00,9.51893e-01,3.52819e+00
5.30600e+02,3.10206e+01,-5.60976e+01,-3.09153e+00,9.38019e-01,3.49245e+00
5.30600e+02,2.98685e+01,-5.92142e+01,-3.05600e+00,9.24279e-01,3.44993e+00
5.30600e+02,2.85484e+01,-6.23307e+01,-2.99874e+00,9.10705e-01,3.38830e+00
5.30600e+02,2.70936e+01,-6.54473e+01,-2.92406e+00,8.97412e-01,3.31152e+00
5.30600e+02,2.55018e+01,-6.85638e+01,-2.83167e+00,8.84423e-01,3.21947e+00
5.30600e+02,2.36801e+01,-7.16803e+01,-2.70954e+00,8.71785e-01,3.10188e+00
5.30600e+02,2.15920e+01,-7.47969e+01,-2.55296e+00,8.59652e-01,2.95543e+00
5.30600e+02,1.92028e+01,-7.79134e+01,-2.35744e+00,8.48170e-01,2.77771e+00
5.30600e+02,1.63770e+01,-8.10299e+01,-2.10544e+00,8.37433e-01,2.55671e+00
5.30600e+02,1.27498e+01,-8.41465e+01,-1.74980e+00,8.27968e-01,2.26239e+00
5.30600e+02,7.84413e+00,-8.72630e+01,-1.22882e+00,8.22188e-01,1.88095e+00
5.30600e+02,-3.17838e+00,-9.03795e+01,8.32582e-02,8.24482e-01,1.43047e+00
5.30600e+02,-3.97388e+00,-9.03868e+01,1.85878e-01,8.31602e-01,1.45232e+00
5.30600e+02,-1.12214e+01,-8.71587e+01,1.24075e+00,8.45102e-01,1.91887e+00
5.30600e+02,-1.20989e+01,-8.39306e+01,1.47177e+00,8.55075e-01,2.08796e+00
5.30600e+02,-1.24018e+01,-8.07025e+01,1.62847e+00,8.65570e-01,2.21349e+00
5.30600e+02,-1.24477e+01,-7.74744e+01,1.75195e+00,8.76551e-01,2.31826e+00
5.30600e+02,-1.23001e+01,-7.42463e+01,1.85040e+00,8.87931e-01,2.40609e+00
5.30600e+02,-1.20311e+01,-7.10182e+01,1.93314e+00,8.99645e-01,2.48297e+00
5.30600e+02,-1.16402e+01,-6.77901e+01,2.00012e+00,9.11625e-01,2.54826e+00
5.30600e+02,-1.11748e+01,-6.45620e+01,2.05747e+00,9.23810e-01,2.60643e+00
5.30600e+02,-1.06664e+01,-6.13339e+01,2.10925e+00,9.36172e-01,2.66048e+00
5.30600e+02,-1.00929e+01,-5.81058e+01,2.15262e+00,9.48674e-01,2.70808e+00
5.30600e+02,-9.47882e+00,-5.48777e+01,2.19073e+00,9.61283e-01,2.75164e+00
5.30600e+02,-8.82518e+00,-5.16496e+01,2.22373e+00,9.73975e-01,2.79121e+00
5.30600e+02,-8.13212e+00,-4.84215e+01,2.25163e+00,9.86721e-01,2.82678e+00
5.30600e+02,-7.41437e+00,-4.51934e+01,2.27634e+00,9.99502e-01,2.85985e+00
5.30600e+02,-6.66496e+00,-4.19653e+01,2.29695e+00,1.01230e+00,2.88968e+00
5.30600e+02,-5.89529e+00,-3.87372e+01,2.31495e+00,1.02509e+00,2.91743e+00
5.30600e+02,-5.10745e+00,-3.55091e+01,2.33059e+00,1.03786e+00,2.94331e+00
5.30600e+02,-4.30339e+00,-3.22810e+01,2.34413e+00,1.05059e+00,2.96753e+00
5.30600e+02,-3.49245e+00,-2.90529e+01,2.35679e+00,1.06329e+00,2.99102e+00
5.30600e+02,-2.67088e+00,-2.58248e+01,2.36807e+00,1.07593e+00,3.01341e+00
5.30600e+02,-1.84753e+00,-2.25967e+01,2.37912e+00,1.08852e+00,3.03560e+00
5.30600e+02,-1.01782e+00,-1.93686e+01,2.38935e+00,1.10106e+00,3.05712e+00
5.30600e+02,-1.88198e-01,-1.61405e+01,2.39959e+00,1.11352e+00,3.07861e+00
5.30600e+02,6.38288e-01,-1.29124e+01,2.41024e+00,1.12593e+00,3.10039e+00
5.30600e+02,1.46477e+00,-9.68430e+00,2.42088e+00,1.13827e+00,3.12212e+00
5.30600e+02,2.27169e+00,-6.45620e+00,2.43406e+00,1.15055e+00,3.14578e+00
5.30600e+02,3.07496e+00,-3.22810e+00,2.44771e+00,1.16278e+00,3.16977e+00
6.33500e+02,4.06078e+01,0.00000e+00,-2.00802e+00,1.08037e+00,2.74476e+00
6.33500e+02,4.04033e+01,-3.08576e+00,-2.08284e+00,1.06969e+00,2.78764e+00
6.33500e+02,4.01312e+01,-6.17153e+00,-2.15009e+00,1.05875e+00,2.82591e+00
6.33500e+02,3.98564e+01,-9.25729e+00,-2.21704e+00,1.04757e+00,2.86487e+00
6.33500e+02,3.95220e+01,-1.23431e+01,-2.27731e+00,1.03615e+00,2.89948e+00
6.33500e+02,3.91738e+01,-1.54288e+01,-2.33602e+00,1.02453e+00,2.93360e+00
6.33500e+02,3.87797e+01,-1.85146e+01,-2.38961e+00,1.01271e+00,2.96428e+00
6.33500e+02,3.83634e+01,-2.16004e+01,-2.44070e+00,1.00071e+00,2.99355e+00
6.33500e+02,3.79104e+01,-2.46861e+01,-2.48768e+00,9.88555e-01,3.01998e+00
6.33500e+02,3.74271e+01,-2.77719e+01,-2.53126e+00,9.76253e-01,3.04409e+00
6.33500e+02,3.69106e+01,-3.08576e+01,-2.57112e+00,9.63820e-01,3.06554e+00
6.33500e+02,3.63539e+01,-3.39434e+01,-2.60648e+00,9.51274e-01,3.08358e+00
6.33500e+02,3.57559e+01,-3.70292e+01,-2.63721e+00,9.38632e-01,3.09806e+00
6.33500e+02,3.50997e+01,-4.01149e+01,-2.66141e+00,9.25915e-01,3.10726e+00
6.33500e+02,3.43866e+01,-4.32007e+01,-2.67925e+00,9.13148e-01,3.11125e+00
6.33500e+02,3.36055e+01,-4.62865e+01,-2.68947e+00,9.00349e-01,3.10888e+00
6.33500e+02,3.27325e+01,-4.93722e+01,-2.68938e+00,8.87565e-01,3.09775e+00
6.33500e+02,3.17954e+01,-5.24580e+01,-2.68212e+00,8.74803e-01,3.08052e+00
6.33500e+02,3.07144e+01,-5.55438e+01,-2.65871e+00,8.62133e-01,3.04936e+00
6.33500e+02,2.95736e+01,-5.86295e+01,-2.62862e+00,8.49584e-01,3.01248e+00
6.33500e+02,2.82665e+01,-6.17153e+01,-2.57989e+00,8.37188e-01,2.95947e+00
6.33500e+02,2.68261e+01,-6.48011e+01,-2.51623e+00,8.25048e-01,2.89370e+00
6.33500e+02,2.52500e+01,-6.78868e+01,-2.43736e+00,8.13185e-01,2.81505e+00
6.33500e+02,2.34463e+01,-7.09726e+01,-2.33298e+00,8.01643e-01,2.71490e+00
6.33500e+02,2.13788e+01,-7.40584e+01,-2.19904e+00,7.90563e-01,2.59051e+00
6.33500e+02,1.90132e+01,-7.71441e+01,-2.03171e+00,7.80076e-01,2.43996e+00
6.33500e+02,1.62153e+01,-8.02299e+01,-1.81592e+00,7.70271e-01,2.25333e+00
6.33500e+02,1.26239e+01,-8.33156e+01,-1.51122e+00,7.61627e-01,2.00600e+00
6.33500e+02,7.76668e+00,-8.64014e+01,-1.06468e+00,7.56348e-01,1.68811e+00
6.33500e+02,-3.14700e+00,-8.94872e+01,6.05276e-02,7.58444e-01,1.31506e+00
6.33500e+02,-3.93464e+00,-8.94943e+01,1.48561e-01,7.64946e-01,1.33323e+00
6.33500e+02,-1.11106e+01,-8.62981e+01,1.05392e+00,7.77276e-01,1.70974e+00
6.33500e+02,-1.19795e+01,-8.31019e+01,1.25251e+00,7.86384e-01,1.85040e+00
6.33500e+02,-1.22793e+01,-7.99057e+01,1.38735e+00,7.95969e-01,1.95587e+00
6.33500e+02,-1.23248e+01,-7.67094e+01,1.49369e+00,8.05998e-01,2.04450e+00
6.33500e+02,-1.21787e+01,-7.35132e+01,1.57855e+00,8.16391e-01,2.11927e+00
6.33500e+02,-1.19123e+01,-7.03170e+01,1.64994e+00,8.27089e-01,2.18507e+00
6.33500e+02,-1.15252e+01,-6.71208e+01,1.70781e+00,8.38030e-01,2.24131e+00
6.33500e+02,-1.10645e+01,-6.39245e+01,1.75742e+00,8.49159e-01,2.29166e+00
6.33500e+02,-1.05611e+01,-6.07283e+01,1.80224e+00,8.60448e-01,2.33863e+00
6.33500e+02,-9.99326e+00,-5.75321e+01,1.83985e+00,8.71866e-01,2.38023e+00
6.33500e+02,-9.38524e+00,-5.43358e+01,1.87296e+00,8.83382e-01,2.41848e+00
6.33500e+02,-8.73804e+00,-5.11396e+01,1.90168e+00,8.94973e-01,2.45343e+00
6.33500e+02,-8.05183e+00,-4.79434e+01,1.92602e+00,9.06614e-01,2.48503e+00
6.33500e+02,-7.34116e+00,-4.47472e+01,1.94762e+00,9.18286e-01,2.51455e+00
6.33500e+02,-6.59916e+00,-4.15509e+01,1.96572e+00,9.29971e-01,2.54137e+00
6.33500e+02,-5.83709e+00,-3.83547e+01,1.98156e+00,9.41651e-01,2.56646e+00
6.33500e+02,-5.05702e+00,-3.51585e+01,1.99539e+00,9.53314e-01,2.58998e+00
6.33500e+02,-4.26090e+00,-3.19623e+01,2.00741e+00,9.64946e-01,2.61210e+00
6.33500e+02,-3.45797e+00,-2.87660e+01,2.01868e+00,9.76540e-01,2.63362e+00
6.33500e+02,-2.64450e+00,-2.55698e+01,2.02877e+00,9.88088e-01,2.65421e+00
6.33500e+02,-1.82928e+00,-2.23736e+01,2.03865e+00,9.99587e-01,2.67463e+00
6.33500e+02,-1.00777e+00,-1.91774e+01,2.04784e+00,1.01103e+00,2.69447e+00
6.33500e+02,-1.86340e-01,-1.59811e+01,2.05703e+00,1.02242e+00,2.71429e+00
6.33500e+02,6.31986e-01,-1.27849e+01,2.06657e+00,1.03375e+00,2.73434e+00
6.33500e+02,1.45031e+00,-9.58868e+00,2.07611e+00,1.04502e+00,2.75434e+00
6.33500e+02,2.24926e+00,-6.39245e+00,2.08782e+00,1.05623e+00,2.77595e+00
6.33500e+02,3.04460e+00,-3.19623e+00,2.09994e+00,1.06740e+00,2.79781e+00
7.34700e+02,4.02095e+01,0.00000e+00,-1.70510e+00,9.85161e-01,2.41226e+00
7.34700e+02,4.00070e+01,-3.05550e+00,-1.76901e+00,9.75465e-01,2.44622e+00
7.34700e+02,3.97376e+01,-6.11100e+00,-1.82649e+00,9.65533e-01,2.47645e+00
7.34700e+02,3.94656e+01,-9.16651e+00,-1.88371e+00,9.55376e-01,2.50731e+00
7.34700e+02,3.91344e+01,-1.22220e+01,-1.93526e+00,9.45012e-01,2.53463e+00
7.34700e+02,3.87896e+01,-1.52775e+01,-1.98549e+00,9.34456e-01,2.56160e+00
7.34700e+02,3.83994e+01,-1.83330e+01,-2.03136e+00,9.23724e-01,2.58577e+00
7.34700e+02,3.79872e+01,-2.13885e+01,-2.07511e+00,9.12831e-01,2.60881e+00
7.34700e+02,3.75386e+01,-2.44440e+01,-2.11536e+00,9.01791e-01,2.62953e+00
7.34700e+02,3.70601e+01,-2.74995e+01,-2.15274e+00,8.90620e-01,2.64838e+00
7.34700e+02,3.65486e+01,-3.05550e+01,-2.18696e+00,8.79331e-01,2.66504e+00
7.34700e+02,3.59973e+01,-3.36105e+01,-2.21734e+00,8.67939e-01,2.67891e+00
7.34700e+02,3.54053e+01,-3.66660e+01,-2.24381e+00,8.56460e-01,2.68984e+00
7.34700e+02,3.47554e+01,-3.97215e+01,-2.26472e+00,8.44912e-01,2.69640e+00
7.34700e+02,3.40493e+01,-4.27770e+01,-2.28022e+00,8.33319e-01,2.69864e+00
7.34700e+02,3.32760e+01,-4.58325e+01,-2.28926e+00,8.21698e-01,2.69560e+00
7.34700e+02,3.24115e+01,-4.88880e+01,-2.28954e+00,8.10090e-01,2.68528e+00
7.34700e+02,3.14836e+01,-5.19435e+01,-2.28373e+00,7.98502e-01,2.66987e+00
7.34700e+02,3.04131e+01,-5.49990e+01,-2.26420e+00,7.86997e-01,2.64286e+00
7.34700e+02,2.92835e+01,-5.80545e+01,-2.23900e+00,7.75603e-01,2.61109e+00
7.34700e+02,2.79893e+01,-6.11100e+01,-2.19797e+00,7.64347e-01,2.56588e+00
7.34700e+02,2.65630e+01,-6.41655e+01,-2.14424e+00,7.53324e-01,2.51003e+00
7.34700e+02,2.50024e+01,-6.72210e+01,-2.07761e+00,7.42552e-01,2.44349e+00
7.34700e+02,2.32164e+01,-7.02765e+01,-1.98931e+00,7.32072e-01,2.35906e+00
7.34700e+02,2.11691e+01,-7.33320e+01,-1.87590e+00,7.22011e-01,2.25453e+00
7.34700e+02,1.88268e+01,-7.63875e+01,-1.73412e+00,7.12489e-01,2.12841e+00
7.34700e+02,1.60563e+01,-7.94430e+01,-1.55119e+00,7.03586e-01,1.97264e+00
7.34700e+02,1.25001e+01,-8.24985e+01,-1.29274e+00,6.95737e-01,1.76730e+00
7.34700e+02,7.69051e+00,-8.55540e+01,-9.13812e-01,6.90944e-01,1.50574e+00
7.34700e+02,-3.11614e+00,-8.86096e+01,4.15683e-02,6.92848e-01,1.20077e+00
7.34700e+02,-3.89606e+00,-8.86166e+01,1.16342e-01,6.98752e-01,1.21585e+00
7.34700e+02,-1.10017e+01,-8.54518e+01,8.85708e-01,7.09948e-01,1.51544e+00
7.34700e+02,-1.18620e+01,-8.22869e+01,1.05476e+00,7.18218e-01,1.63096e+00
7.34700e+02,-1.21589e+01,-7.91220e+01,1.16966e+00,7.26921e-01,1.71853e+00
7.34700e+02,-1.22039e+01,-7.59571e+01,1.26035e+00,7.36027e-01,1.79268e+00
7.34700e+02,-1.20592e+01,-7.27922e+01,1.33280e+00,7.45465e-01,1.85567e+00
7.34700e+02,-1.17955e+01,-6.96274e+01,1.39381e+00,7.55179e-01,1.91144e+00
7.34700e+02,-1.14122e+01,-6.64625e+01,1.44333e+00,7.65113e-01,1.95944e+00
7.34700e+02,-1.09560e+01,-6.32976e+01,1.48584e+00,7.75219e-01,2.00265e+00
7.34700e+02,-1.04575e+01,-6.01327e+01,1.52428e+00,7.85469e-01,2.04311e+00
7.34700e+02,-9.89525e+00,-5.69678e+01,1.55659e+00,7.95837e-01,2.07920e+00
7.34700e+02,-9.29319e+00,-5.38030e+01,1.58508e+00,8.06293e-01,2.11254e+00
7.34700e+02,-8.65235e+00,-5.06381e+01,1.60984e+00,8.16818e-01,2.14317e+00
7.34700e+02,-7.97287e+00,-4.74732e+01,1.63089e+00,8.27388e-01,2.17106e+00
7.34700e+02,-7.26917e+00,-4.43083e+01,1.64961e+00,8.37986e-01,2.19724e+00
7.34700e+02,-6.53444e+00,-4.11434e+01,1.66535e+00,8.48596e-01,2.22120e+00
7.34700e+02,-5.77984e+00,-3.79786e+01,1.67917e+00,8.59202e-01,2.24372e+00
7.34700e+02,-5.00742e+00,-3.48137e+01,1.69129e+00,8.69792e-01,2.26496e+00
7.34700e+02,-4.21911e+00,-3.16488e+01,1.70187e+00,8.80354e-01,2.28505e+00
7.34700e+02,-3.42406e+00,-2.84839e+01,1.71181e+00,8.90881e-01,2.30463e+00
7.34700e+02,-2.61857e+00,-2.53190e+01,1.72074e+00,9.01367e-01,2.32343e+00
7.34700e+02,-1.81134e+00,-2.21542e+01,1.72951e+00,9.11808e-01,2.34209e+00
7.34700e+02,-9.97887e-01,-1.89893e+01,1.73768e+00,9.22199e-01,2.36027e+00
7.34700e+02,-1.84513e-01,-1.58244e+01,1.74586e+00,9.32539e-01,2.37842e+00
7.34700e+02,6.25788e-01,-1.26595e+01,1.75433e+00,9.42827e-01,2.39675e+00
7.34700e+02,1.43609e+00,-9.49464e+00,1.76280e+00,9.53059e-01,2.41504e+00
7.34700e+02,2.22720e+00,-6.32976e+00,1.77312e+00,9.63242e-01,2.43464e+00
7.34700e+02,3.01474e+00,-3.16488e+00,1.78378e+00,9.73382e-01,2.45444e+00
8.33800e+02,3.98196e+01,0.00000e+00,-1.43262e+00,8.91951e-01,2.10693e+00
8.33800e+02,3.96190e+01,-3.02587e+00,-1.48665e+00,8.83200e-01,2.13313e+00
8.33800e+02,3.93522e+01,-6.05173e+00,-1.53527e+00,8.74236e-01,2.15637e+00
8.33800e+02,3.90828e+01,-9.07760e+00,-1.58368e+00,8.65069e-01,2.18016e+00
8.33800e+02,3.87549e+01,-1.21035e+01,-1.62732e+00,8.55716e-01,2.20111e+00
8.33800e+02,3.84134e+01,-1.51293e+01,-1.66984e+00,8.46189e-01,2.22182e+00
8.33800e+02,3.80270e+01,-1.81552e+01,-1.70871e+00,8.36503e-01,2.24029e+00
8.33800e+02,3.76188e+01,-2.11811e+01,-1.74580e+00,8.26672e-01,2.25787e+00
8.33800e+02,3.71745e+01,-2.42069e+01,-1.77994e+00,8.16709e-01,2.27360e+00
8.33800e+02,3.67006e+01,-2.72328e+01,-1.81167e+00,8.06627e-01,2.28782e+00
8.33800e+02,3.61941e+01,-3.02587e+01,-1.84074e+00,7.96438e-01,2.30028e+00
8.33800e+02,3.56482e+01,-3.32845e+01,-1.86659e+00,7.86157e-01,2.31048e+00
8.33800e+02,3.50619e+01,-3.63104e+01,-1.88915e+00,7.75797e-01,2.31829e+00
8.33800e+02,3.44183e+01,-3.93363e+01,-1.90704e+00,7.65375e-01,2.32254e+00
8.33800e+02,3.37191e+01,-4.23621e+01,-1.92038e+00,7.54913e-01,2.32326e+00
8.33800e+02,3.29532e+01,-4.53880e+01,-1.92829e+00,7.44425e-01,2.31966e+00
8.33800e+02,3.20971e+01,-4.84139e+01,-1.92884e+00,7.33948e-01,2.31008e+00
8.33800e+02,3.11783e+01,-5.14397e+01,-1.92427e+00,7.23490e-01,2.29633e+00
8.33800e+02,3.01182e+01,-5.44656e+01,-1.90818e+00,7.13108e-01,2.27304e+00
8.33800e+02,2.89995e+01,-5.74915e+01,-1.88731e+00,7.02824e-01,2.24584e+00
8.33800e+02,2.77178e+01,-6.05173e+01,-1.85314e+00,6.92665e-01,2.20759e+00
8.33800e+02,2.63054e+01,-6.35432e+01,-1.80830e+00,6.82717e-01,2.16061e+00
8.33800e+02,2.47599e+01,-6.65691e+01,-1.75261e+00,6.72996e-01,2.10486e+00
8.33800e+02,2.29912e+01,-6.95949e+01,-1.67871e+00,6.63538e-01,2.03443e+00
8.33800e+02,2.09638e+01,-7.26208e+01,-1.58371e+00,6.54458e-01,1.94759e+00
8.33800e+02,1.86442e+01,-7.56467e+01,-1.46487e+00,6.45864e-01,1.84317e+00
8.33800e+02,1.59005e+01,-7.86725e+01,-1.31144e+00,6.37830e-01,1.71474e+00
8.33800e+02,1.23789e+01,-8.16984e+01,-1.09454e+00,6.30747e-01,1.54646e+00
8.33800e+02,7.61592e+00,-8.47243e+01,-7.76374e-01,6.26422e-01,1.33416e+00
8.33800e+02,-3.08591e+00,-8.77501e+01,2.62662e-02,6.28140e-01,1.08829e+00
8.33800e+02,-3.85827e+00,-8.77572e+01,8.91096e-02,6.33468e-01,1.10081e+00
8.33800e+02,-1.08950e+01,-8.46230e+01,7.36053e-01,6.43573e-01,1.33579e+00
8.33800e+02,-1.17470e+01,-8.14888e+01,8.78461e-01,6.51037e-01,1.42942e+00
8.33800e+02,-1.20409e+01,-7.83546e+01,9.75352e-01,6.58891e-01,1.50124e+00
8.33800e+02,-1.20856e+01,-7.52204e+01,1.05190e+00,6.67110e-01,1.56256e+00
8.33800e+02,-1.19423e+01,-7.20862e+01,1.11312e+00,6.75627e-01,1.61507e+00
8.33800e+02,-1.16811e+01,-6.89521e+01,1.16472e+00,6.84394e-01,1.66185e+00
8.33800e+02,-1.13015e+01,-6.58179e+01,1.20666e+00,6.93359e-01,1.70243e+00
8.33800e+02,-1.08497e+01,-6.26837e+01,1.24271e+00,7.02479e-01,1.73918e+00
8.33800e+02,-1.03561e+01,-5.95495e+01,1.27534e+00,7.11730e-01,1.77375e+00
8.33800e+02,-9.79928e+00,-5.64153e+01,1.30283e+00,7.21087e-01,1.80479e+00
8.33800e+02,-9.20306e+00,-5.32811e+01,1.32710e+00,7.30524e-01,1.83363e+00
8.33800e+02,-8.56843e+00,-5.01469e+01,1.34823e+00,7.40022e-01,1.86028e+00
8.33800e+02,-7.89554e+00,-4.70128e+01,1.36625e+00,7.49562e-01,1.88472e+00
8.33800e+02,-7.19866e+00,-4.38786e+01,1.38231e+00,7.59126e-01,1.90777e+00
8.33800e+02,-6.47106e+00,-4.07444e+01,1.39586e+00,7.68702e-01,1.92902e+00
8.33800e+02,-5.72378e+00,-3.76102e+01,1.40780e+00,7.78273e-01,1.94911e+00
8.33800e+02,-4.95886e+00,-3.44760e+01,1.41831e+00,7.87830e-01,1.96815e+00
8.33800e+02,-4.17819e+00,-3.13418e+01,1.42753e+00,7.97362e-01,1.98625e+00
8.33800e+02,-3.39085e+00,-2.82077e+01,1.43621e+00,8.06863e-01,2.00394e+00
8.33800e+02,-2.59317e+00,-2.50735e+01,1.44404e+00,8.16326e-01,2.02100e+00
8.33800e+02,-1.79378e+00,-2.19393e+01,1.45174e+00,8.25748e-01,2.03792e+00
8.33800e+02,-9.88209e-01,-1.88051e+01,1.45893e+00,8.35127e-01,2.05445e+00
8.33800e+02,-1.82723e-01,-1.56709e+01,1.46612e+00,8.44457e-01,2.07095e+00
8.33800e+02,6.19718e-01,-1.25367e+01,1.47357e+00,8.53742e-01,2.08759e+00
8.33800e+02,1.42216e+00,-9.40255e+00,1.48102e+00,8.62977e-01,2.10418e+00
8.33800e+02,2.20560e+00,-6.26837e+00,1.49001e+00,8.72167e-01,2.12183e+00
8.33800e+02,2.98550e+00,-3.13418e+00,1.49930e+00,8.81317e-01,2.13964e+00
9.30700e+02,3.94382e+01,0.00000e+00,-1.18954e+00,8.00552e-01,1.82693e+00
9.30700e+02,3.92396e+01,-2.99689e+00,-1.23469e+00,7.92711e-01,1.84652e+00
9.30700e+02,3.89754e+01,-5.99378e+00,-1.27534e+00,7.84678e-01,1.86378e+00
9.30700e+02,3.87085e+01,-8.99067e+00,-1.31582e+00,7.76463e-01,1.88151e+00
9.30700e+02,3.83837e+01,-1.19876e+01,-1.35233e+00,7.68082e-01,1.89701e+00
9.30700e+02,3.80455e+01,-1.49844e+01,-1.38793e+00,7.59545e-01,1.91235e+00
9.30700e+02,3.76628e+01,-1.79813e+01,-1.42048e+00,7.50865e-01,1.92592e+00
9.30700e+02,3.72585e+01,-2.09782e+01,-1.45156e+00,7.42056e-01,1.93880e+00
9.30700e+02,3.68185e+01,-2.39751e+01,-1.48019e+00,7.33127e-01,1.95023e+00
9.30700e+02,3.63492e+01,-2.69720e+01,-1.50681e+00,7.24093e-01,1.96046e+00
9.30700e+02,3.58475e+01,-2.99689e+01,-1.53123e+00,7.14963e-01,1.96931e+00
9.30700e+02,3.53068e+01,-3.29658e+01,-1.55297e+00,7.05750e-01,1.97635e+00
9.30700e+02,3.47261e+01,-3.59627e+01,-1.57198e+00,6.96466e-01,1.98149e+00
9.30700e+02,3.40887e+01,-3.89596e+01,-1.58711e+00,6.87127e-01,1.98377e+00
9.30700e+02,3.33962e+01,-4.19565e+01,-1.59846e+00,6.77752e-01,1.98321e+00
9.30700e+02,3.26376e+01,-4.49533e+01,-1.60530e+00,6.68354e-01,1.97916e+00
9.30700e+02,3.17897e+01,-4.79502e+01,-1.60603e+00,6.58965e-01,1.97029e+00
9.30700e+02,3.08797e+01,-5.09471e+01,-1.60250e+00,6.49594e-01,1.95804e+00
9.30700e+02,2.98297e+01,-5.39440e+01,-1.58941e+00,6.40290e-01,1.93807e+00
9.30700e+02,2.87218e+01,-5.69409e+01,-1.57234e+00,6.31075e-01,1.91495e+00
9.30700e+02,2.74524e+01,-5.99378e+01,-1.54423e+00,6.21972e-01,1.88287e+00
9.30700e+02,2.60534e+01,-6.29347e+01,-1.50726e+00,6.13058e-01,1.84374e+00
9.30700e+02,2.45228e+01,-6.59316e+01,-1.46128e+00,6.04347e-01,1.79751e+00
9.30700e+02,2.27710e+01,-6.89285e+01,-1.40017e+00,5.95872e-01,1.73944e+00
9.30700e+02,2.07631e+01,-7.19254e+01,-1.32154e+00,5.87735e-01,1.66816e+00
9.30700e+02,1.84656e+01,-7.49222e+01,-1.22310e+00,5.80034e-01,1.58281e+00
9.30700e+02,1.57483e+01,-7.79191e+01,-1.09593e+00,5.72835e-01,1.47834e+00
9.30700e+02,1.22603e+01,-8.09160e+01,-9.16042e-01,5.66488e-01,1.34233e+00
9.30700e+02,7.54299e+00,-8.39129e+01,-6.52052e-01,5.62612e-01,1.17251e+00
9.30700e+02,-3.05636e+00,-8.69098e+01,1.43429e-02,5.64152e-01,9.77245e-01
9.30700e+02,-3.82132e+00,-8.69168e+01,6.65394e-02,5.68927e-01,9.87655e-01
9.30700e+02,-1.07906e+01,-8.38126e+01,6.04165e-01,5.77982e-01,1.16927e+00
9.30700e+02,-1.16345e+01,-8.07084e+01,7.22729e-01,5.84670e-01,1.24413e+00
9.30700e+02,-1.19256e+01,-7.76042e+01,8.03485e-01,5.91709e-01,1.30229e+00
9.30700e+02,-1.19698e+01,-7.45001e+01,8.67344e-01,5.99073e-01,1.35239e+00
9.30700e+02,-1.18279e+01,-7.13959e+01,9.18472e-01,6.06706e-01,1.39566e+00
9.30700e+02,-1.15692e+01,-6.82917e+01,9.61612e-01,6.14562e-01,1.43449e+00
9.30700e+02,-1.11933e+01,-6.51876e+01,9.96729e-01,6.22596e-01,1.46845e+00
9.30700e+02,-1.07458e+01,-6.20834e+01,1.02695e+00,6.30768e-01,1.49941e+00
9.30700e+02,-1.02569e+01,-5.89792e+01,1.05434e+00,6.39058e-01,1.52866e+00
9.30700e+02,-9.70544e+00,-5.58751e+01,1.07745e+00,6.47442e-01,1.55513e+00
9.30700e+02,-9.11493e+00,-5.27709e+01,1.09789e+00,6.55898e-01,1.57986e+00
9.30700e+02,-8.48637e+00,-4.96667e+01,1.11572e+00,6.64410e-01,1.60286e+00
9.30700e+02,-7.81993e+00,-4.65625e+01,1.13097e+00,6.72958e-01,1.62410e+00
9.30700e+02,-7.12973e+00,-4.34584e+01,1.14458e+00,6.81529e-01,1.64424e+00
9.30700e+02,-6.40909e+00,-4.03542e+01,1.15612e+00,6.90109e-01,1.66294e+00
9.30700e+02,-5.66897e+00,-3.72500e+01,1.16632e+00,6.98686e-01,1.68071e+00
9.30700e+02,-4.91137e+00,-3.41459e+01,1.17533e+00,7.07250e-01,1.69765e+00
9.30700e+02,-4.13818e+00,-3.10417e+01,1.18327e+00,7.15792e-01,1.71383e+00
9.30700e+02,-3.35837e+00,-2.79375e+01,1.19076e+00,7.24305e-01,1.72967e+00
9.30700e+02,-2.56834e+00,-2.48334e+01,1.19754e+00,7.32785e-01,1.74500e+00
9.30700e+02,-1.77660e+00,-2.17292e+01,1.20422e+00,7.41227e-01,1.76022e+00
9.30700e+02,-9.78745e-01,-1.86250e+01,1.21047e+00,7.49631e-01,1.77513e+00
9.30700e+02,-1.80973e-01,-1.55208e+01,1.21673e+00,7.57992e-01,1.79000e+00
9.30700e+02,6.13784e-01,-1.24167e+01,1.22319e+00,7.66312e-01,1.80497e+00
9.30700e+02,1.40854e+00,-9.31251e+00,1.22966e+00,7.74587e-01,1.81989e+00
9.30700e+02,2.18448e+00,-6.20834e+00,1.23741e+00,7.82822e-01,1.83565e+00
9.30700e+02,2.95691e+00,-3.10417e+00,1.24540e+00,7.91021e-01,1.85153e+00
1.02500e+03,3.90671e+01,0.00000e+00,-9.75214e-01,7.11555e-01,1.57162e+00
1.02500e+03,3.88704e+01,-2.96869e+00,-1.01247e+00,7.04573e-01,1.58567e+00
1.02500e+03,3.86086e+01,-5.93738e+00,-1.04604e+00,6.97421e-01,1.59793e+00
1.02500e+03,3.83443e+01,-8.90607e+00,-1.07947e+00,6.90107e-01,1.61059e+00
1.02500e+03,3.80226e+01,-1.18748e+01,-1.10964e+00,6.82645e-01,1.62152e+00
1.02500e+03,3.76875e+01,-1.48435e+01,-1.13906e+00,6.75044e-01,1.63234e+00
1.02500e+03,3.73084e+01,-1.78121e+01,-1.16599e+00,6.67316e-01,1.64179e+00
1.02500e+03,3.69079e+01,-2.07808e+01,-1.19171e+00,6.59472e-01,1.65072e+00
1.02500e+03,3.64721e+01,-2.37495e+01,-1.21542e+00,6.51523e-01,1.65852e+00
1.02500e+03,3.60071e+01,-2.67182e+01,-1.23748e+00,6.43479e-01,1.66540e+00
1.02500e+03,3.55102e+01,-2.96869e+01,-1.25774e+00,6.35350e-01,1.67120e+00
1.02500e+03,3.49746e+01,-3.26556e+01,-1.27580e+00,6.27148e-01,1.67559e+00
1.02500e+03,3.43994e+01,-3.56243e+01,-1.29161e+00,6.18882e-01,1.67849e+00
1.02500e+03,3.37680e+01,-3.85930e+01,-1.30425e+00,6.10567e-01,1.67912e+00
1.02500e+03,3.30819e+01,-4.15617e+01,-1.31379e+00,6.02220e-01,1.67752e+00
1.02500e+03,3.23305e+01,-4.45304e+01,-1.31963e+00,5.93852e-01,1.67315e+00
1.02500e+03,3.14906e+01,-4.74990e+01,-1.32046e+00,5.85493e-01,1.66494e+00
1.02500e+03,3.05891e+01,-5.04677e+01,-1.31780e+00,5.77150e-01,1.65406e+00
1.02500e+03,2.95491e+01,-5.34364e+01,-1.30729e+00,5.68866e-01,1.63702e+00
1.02500e+03,2.84516e+01,-5.64051e+01,-1.29353e+00,5.60662e-01,1.61748e+00
1.02500e+03,2.71940e+01,-5.93738e+01,-1.27070e+00,5.52557e-01,1.59080e+00
1.02500e+03,2.58083e+01,-6.23425e+01,-1.24061e+00,5.44620e-01,1.55851e+00
1.02500e+03,2.42920e+01,-6.53112e+01,-1.20313e+00,5.36865e-01,1.52059e+00
1.02500e+03,2.25567e+01,-6.82799e+01,-1.15325e+00,5.29319e-01,1.47327e+00
1.02500e+03,2.05677e+01,-7.12486e+01,-1.08899e+00,5.22075e-01,1.41548e+00
1.02500e+03,1.82919e+01,-7.42173e+01,-1.00849e+00,5.15219e-01,1.34663e+00
1.02500e+03,1.56001e+01,-7.71859e+01,-9.04429e-01,5.08809e-01,1.26279e+00
1.02500e+03,1.21450e+01,-8.01546e+01,-7.57136e-01,5.03158e-01,1.15445e+00
1.02500e+03,7.47201e+00,-8.31233e+01,-5.40867e-01,4.99708e-01,1.02062e+00
1.02500e+03,-3.02760e+00,-8.60920e+01,5.41336e-03,5.01079e-01,8.67911e-01
1.02500e+03,-3.78536e+00,-8.60989e+01,4.82192e-02,5.05330e-01,8.76585e-01
1.02500e+03,-1.06891e+01,-8.30239e+01,4.89365e-01,5.13392e-01,1.01498e+00
1.02500e+03,-1.15250e+01,-7.99490e+01,5.86838e-01,5.19347e-01,1.07403e+00
1.02500e+03,-1.18134e+01,-7.68740e+01,6.53305e-01,5.25614e-01,1.12054e+00
1.02500e+03,-1.18572e+01,-7.37991e+01,7.05914e-01,5.32171e-01,1.16100e+00
1.02500e+03,-1.17166e+01,-7.07241e+01,7.48083e-01,5.38966e-01,1.19628e+00
1.02500e+03,-1.14604e+01,-6.76491e+01,7.83700e-01,5.45961e-01,1.22817e+00
1.02500e+03,-1.10880e+01,-6.45742e+01,8.12738e-01,5.53114e-01,1.25632e+00
1.02500e+03,-1.06447e+01,-6.14992e+01,8.37764e-01,5.60390e-01,1.28217e+00
1.02500e+03,-1.01604e+01,-5.84243e+01,8.60461e-01,5.67771e-01,1.30671e+00
1.02500e+03,-9.61411e+00,-5.53493e+01,8.79653e-01,5.75236e-01,1.32909e+00
1.02500e+03,-9.02916e+00,-5.22743e+01,8.96652e-01,5.82764e-01,1.35012e+00
1.02500e+03,-8.40652e+00,-4.91994e+01,9.11518e-01,5.90342e-01,1.36981e+00
1.02500e+03,-7.74634e+00,-4.61244e+01,9.24257e-01,5.97953e-01,1.38813e+00
1.02500e+03,-7.06264e+00,-4.30495e+01,9.35663e-01,6.05584e-01,1.40558e+00
1.02500e+03,-6.34878e+00,-3.99745e+01,9.45362e-01,6.13223e-01,1.42191e+00
1.02500e+03,-5.61563e+00,-3.68995e+01,9.53968e-01,6.20859e-01,1.43752e+00
1.02500e+03,-4.86516e+00,-3.38246e+01,9.61593e-01,6.28484e-01,1.45246e+00
1.02500e+03,-4.09924e+00,-3.07496e+01,9.68344e-01,6.36089e-01,1.46680e+00
1.02500e+03,-3.32677e+00,-2.76746e+01,9.74723e-01,6.43668e-01,1.48088e+00
1.02500e+03,-2.54417e+00,-2.45997e+01,9.80528e-01,6.51218e-01,1.49455e+00
1.02500e+03,-1.75988e+00,-2.15247e+01,9.86238e-01,6.58735e-01,1.50813e+00
1.02500e+03,-9.69535e-01,-1.84498e+01,9.91605e-01,6.66217e-01,1.52145e+00
1.02500e+03,-1.79270e-01,-1.53748e+01,9.96976e-01,6.73661e-01,1.53474e+00
1.02500e+03,6.08008e-01,-1.22998e+01,1.00252e+00,6.81068e-01,1.54810e+00
1.02500e+03,1.39529e+00,-9.22488e+00,1.00806e+00,6.88435e-01,1.56141e+00
1.02500e+03,2.16392e+00,-6.14992e+00,1.01465e+00,6.95767e-01,1.57537e+00
1.02500e+03,2.92908e+00,-3.07496e+00,1.02145e+00,7.03067e-01,1.58942e+00
1.11650e+03,3.87070e+01,0.00000e+00,-7.88374e-01,6.24849e-01,1.33897e+00
1.11650e+03,3.85121e+01,-2.94133e+00,-8.18695e-01,6.18694e-01,1.34856e+00
1.11650e+03,3.82528e+01,-5.88266e+00,-8.46038e-01,6.12390e-01,1.35678e+00
1.11650e+03,3.79909e+01,-8.82398e+00,-8.73263e-01,6.05942e-01,1.36532e+00
1.11650e+03,3.76721e+01,-1.17653e+01,-8.97859e-01,5.99364e-01,1.37254e+00
1.11650e+03,3.73401e+01,-1.47066e+01,-9.21845e-01,5.92664e-01,1.37969e+00
1.11650e+03,3.69645e+01,-1.76480e+01,-9.43814e-01,5.85852e-01,1.38580e+00
1.11650e+03,3.65678e+01,-2.05893e+01,-9.64803e-01,5.78938e-01,1.39153e+00
1.11650e+03,3.61359e+01,-2.35306e+01,-9.84172e-01,5.71931e-01,1.39639e+00
1.11650e+03,3.56753e+01,-2.64720e+01,-1.00221e+00,5.64840e-01,1.40056e+00
1.11650e+03,3.51829e+01,-2.94133e+01,-1.01878e+00,5.57675e-01,1.40389e+00
1.11650e+03,3.46522e+01,-3.23546e+01,-1.03358e+00,5.50445e-01,1.40615e+00
1.11650e+03,3.40823e+01,-3.52959e+01,-1.04656e+00,5.43158e-01,1.40725e+00
1.11650e+03,3.34567e+01,-3.82373e+01,-1.05698e+00,5.35829e-01,1.40661e+00
1.11650e+03,3.27770e+01,-4.11786e+01,-1.06489e+00,5.28471e-01,1.40422e+00
1.11650e+03,3.20325e+01,-4.41199e+01,-1.06980e+00,5.21095e-01,1.39968e+00
1.11650e+03,3.12004e+01,-4.70612e+01,-1.07066e+00,5.13727e-01,1.39215e+00
1.11650e+03,3.03072e+01,-5.00026e+01,-1.06871e+00,5.06373e-01,1.38252e+00
1.11650e+03,2.92767e+01,-5.29439e+01,-1.06040e+00,4.99071e-01,1.36809e+00
1.11650e+03,2.81893e+01,-5.58852e+01,-1.04946e+00,4.91839e-01,1.35170e+00
1.11650e+03,2.69434e+01,-5.88266e+01,-1.03120e+00,4.84695e-01,1.32972e+00
1.11650e+03,2.55704e+01,-6.17679e+01,-1.00706e+00,4.77699e-01,1.30336e+00
1.11650e+03,2.40681e+01,-6.47092e+01,-9.76942e-01,4.70862e-01,1.27262e+00
1.11650e+03,2.23488e+01,-6.76505e+01,-9.36793e-01,4.64211e-01,1.23453e+00
1.11650e+03,2.03781e+01,-7.05919e+01,-8.85021e-01,4.57825e-01,1.18831e+00
1.11650e+03,1.81233e+01,-7.35332e+01,-8.20113e-01,4.51782e-01,1.13354e+00
1.11650e+03,1.54563e+01,-7.64745e+01,-7.36153e-01,4.46132e-01,1.06725e+00
1.11650e+03,1.20330e+01,-7.94159e+01,-6.17230e-01,4.41151e-01,9.82250e-01
1.11650e+03,7.40314e+00,-8.23572e+01,-4.42527e-01,4.38110e-01,8.78437e-01
1.11650e+03,-2.99970e+00,-8.52985e+01,-9.44121e-04,4.39319e-01,7.60923e-01
1.11650e+03,-3.75047e+00,-8.53053e+01,3.36725e-02,4.43066e-01,7.68152e-01
1.11650e+03,-1.05906e+01,-8.22587e+01,3.90626e-01,4.50173e-01,8.72098e-01
1.11650e+03,-1.14188e+01,-7.92121e+01,4.69652e-01,4.55422e-01,9.18042e-01
1.11650e+03,-1.17045e+01,-7.61655e+01,5.23604e-01,4.60946e-01,9.54765e-01
1.11650e+03,-1.17479e+01,-7.31189e+01,5.66350e-01,4.66726e-01,9.87042e-01
1.11650e+03,-1.16086e+01,-7.00722e+01,6.00651e-01,4.72716e-01,1.01546e+00
1.11650e+03,-1.13547e+01,-6.70256e+01,6.29655e-01,4.78882e-01,1.04137e+00
1.11650e+03,-1.09858e+01,-6.39790e+01,6.53338e-01,4.85187e-01,1.06446e+00
1.11650e+03,-1.05466e+01,-6.09324e+01,6.73776e-01,4.91600e-01,1.08581e+00
1.11650e+03,-1.00667e+01,-5.78858e+01,6.92332e-01,4.98106e-01,1.10619e+00
1.11650e+03,-9.52550e+00,-5.48391e+01,7.08052e-01,5.04686e-01,1.12493e+00
1.11650e+03,-8.94594e+00,-5.17925e+01,7.22000e-01,5.11323e-01,1.14264e+00
1.11650e+03,-8.32904e+00,-4.87459e+01,7.34221e-01,5.18003e-01,1.15934e+00
1.11650e+03,-7.67495e+00,-4.56993e+01,7.44724e-01,5.24711e-01,1.17498e+00
1.11650e+03,-6.99754e+00,-4.26527e+01,7.54148e-01,5.31437e-01,1.18996e+00
1.11650e+03,-6.29027e+00,-3.96060e+01,7.62192e-01,5.38171e-01,1.20409e+00
1.11650e+03,-5.56387e+00,-3.65594e+01,7.69351e-01,5.44902e-01,1.21764e+00
1.11650e+03,-4.82031e+00,-3.35128e+01,7.75718e-01,5.51623e-01,1.23069e+00
1.11650e+03,-4.06146e+00,-3.04662e+01,7.81377e-01,5.58326e-01,1.24328e+00
1.11650e+03,-3.29611e+00,-2.74196e+01,7.86736e-01,5.65007e-01,1.25565e+00
1.11650e+03,-2.52072e+00,-2.43730e+01,7.91631e-01,5.71662e-01,1.26770e+00
1.11650e+03,-1.74366e+00,-2.13263e+01,7.96448e-01,5.78288e-01,1.27968e+00
1.11650e+03,-9.60599e-01,-1.82797e+01,8.00989e-01,5.84883e-01,1.29145e+00
1.11650e+03,-1.77618e-01,-1.52331e+01,8.05532e-01,5.91445e-01,1.30319e+00
1.11650e+03,6.02404e-01,-1.21865e+01,8.10213e-01,5.97974e-01,1.31498e+00
1.11650e+03,1.38243e+00,-9.13986e+00,8.14894e-01,6.04467e-01,1.32672e+00
1.11650e+03,2.14398e+00,-6.09324e+00,8.20428e-01,6.10930e-01,1.33896e+00
1.11650e+03,2.90209e+00,-3.04662e+00,8.26122e-01,6.17364e-01,1.35126e+00
1.20500e+03,3.76912e+01,0.00000e+00,-8.94785e-01,6.04291e-01,1.37701e+00
1.20500e+03,3.75014e+01,-2.86413e+00,-9.27247e-01,5.96745e-01,1.38856e+00
1.20500e+03,3.72488e+01,-5.72827e+00,-9.56319e-01,5.89015e-01,1.39834e+00
1.20500e+03,3.69938e+01,-8.59240e+00,-9.85256e-01,5.81108e-01,1.40847e+00
1.20500e+03,3.66834e+01,-1.14565e+01,-1.01120e+00,5.73040e-01,1.41692e+00
1.20500e+03,3.63602e+01,-1.43207e+01,-1.03645e+00,5.64823e-01,1.42524e+00
1.20500e+03,3.59944e+01,-1.71848e+01,-1.05941e+00,5.56467e-01,1.43224e+00
1.20500e+03,3.56080e+01,-2.00489e+01,-1.08124e+00,5.47986e-01,1.43873e+00
1.20500e+03,3.51875e+01,-2.29131e+01,-1.10124e+00,5.39389e-01,1.44414e+00
1.20500e+03,3.47390e+01,-2.57772e+01,-1.11972e+00,5.30690e-01,1.44868e+00
1.20500e+03,3.42596e+01,-2.86413e+01,-1.13653e+00,5.21899e-01,1.45218e+00
1.20500e+03,3.37428e+01,-3.15055e+01,-1.15132e+00,5.13027e-01,1.45435e+00
1.20500e+03,3.31878e+01,-3.43696e+01,-1.16405e+00,5.04087e-01,1.45510e+00
1.20500e+03,3.25787e+01,-3.72337e+01,-1.17385e+00,4.95093e-01,1.45371e+00
1.20500e+03,3.19168e+01,-4.00979e+01,-1.18080e+00,4.86063e-01,1.45019e+00
1.20500e+03,3.11919e+01,-4.29620e+01,-1.18434e+00,4.77011e-01,1.44405e+00
1.20500e+03,3.03815e+01,-4.58261e+01,-1.18327e+00,4.67968e-01,1.43426e+00
1.20500e+03,2.95118e+01,-4.86903e+01,-1.17899e+00,4.58941e-01,1.42193e+00
1.20500e+03,2.85084e+01,-5.15544e+01,-1.16748e+00,4.49978e-01,1.40373e+00
1.20500e+03,2.74495e+01,-5.44186e+01,-1.15297e+00,4.41101e-01,1.38313e+00
1.20500e+03,2.62363e+01,-5.72827e+01,-1.13013e+00,4.32331e-01,1.35570e+00
1.20500e+03,2.48993e+01,-6.01468e+01,-1.10060e+00,4.23742e-01,1.32287e+00
1.20500e+03,2.34365e+01,-6.30110e+01,-1.06426e+00,4.15348e-01,1.28460e+00
1.20500e+03,2.17623e+01,-6.58751e+01,-1.01650e+00,4.07182e-01,1.23720e+00
1.20500e+03,1.98433e+01,-6.87392e+01,-9.55517e-01,3.99340e-01,1.17959e+00
1.20500e+03,1.76476e+01,-7.16034e+01,-8.79578e-01,3.91919e-01,1.11106e+00
1.20500e+03,1.50506e+01,-7.44675e+01,-7.81950e-01,3.84979e-01,1.02765e+00
1.20500e+03,1.17172e+01,-7.73316e+01,-6.44524e-01,3.78859e-01,9.19790e-01
1.20500e+03,7.20885e+00,-8.01958e+01,-4.43602e-01,3.75116e-01,7.86714e-01
1.20500e+03,-2.92097e+00,-8.30599e+01,6.11163e-02,3.76592e-01,6.55134e-01
1.20500e+03,-3.65204e+00,-8.30665e+01,1.00526e-01,3.81188e-01,6.67846e-01
1.20500e+03,-1.03126e+01,-8.00999e+01,5.04728e-01,3.89906e-01,8.43108e-01
1.20500e+03,-1.11191e+01,-7.71332e+01,5.92559e-01,3.96347e-01,9.06863e-01
1.20500e+03,-1.13974e+01,-7.41666e+01,6.51847e-01,4.03126e-01,9.55216e-01
1.20500e+03,-1.14396e+01,-7.11999e+01,6.98378e-01,4.10220e-01,9.96279e-01
1.20500e+03,-1.13040e+01,-6.82332e+01,7.35297e-01,4.17572e-01,1.03139e+00
1.20500e+03,-1.10567e+01,-6.52666e+01,7.66186e-01,4.25141e-01,1.06267e+00
1.20500e+03,-1.06975e+01,-6.22999e+01,7.91018e-01,4.32881e-01,1.08989e+00
1.20500e+03,-1.02698e+01,-5.93332e+01,8.12156e-01,4.40755e-01,1.11463e+00
1.20500e+03,-9.80253e+00,-5.63666e+01,8.31152e-01,4.48742e-01,1.13795e+00
1.20500e+03,-9.27551e+00,-5.33999e+01,8.46919e-01,4.56822e-01,1.15902e+00
1.20500e+03,-8.71115e+00,-5.04333e+01,8.60669e-01,4.64970e-01,1.17870e+00
1.20500e+03,-8.11045e+00,-4.74666e+01,8.72454e-01,4.73173e-01,1.19702e+00
1.20500e+03,-7.47352e+00,-4.44999e+01,8.82282e-01,4.81412e-01,1.21396e+00
1.20500e+03,-6.81389e+00,-4.15333e+01,8.90884e-01,4.89673e-01,1.23005e+00
1.20500e+03,-6.12518e+00,-3.85666e+01,8.97913e-01,4.97943e-01,1.24503e+00
1.20500e+03,-5.41785e+00,-3.55999e+01,9.03936e-01,5.06211e-01,1.25930e+00
1.20500e+03,-4.69381e+00,-3.26333e+01,9.09056e-01,5.14467e-01,1.27295e+00
1.20500e+03,-3.95486e+00,-2.96666e+01,9.13371e-01,5.22702e-01,1.28604e+00
1.20500e+03,-3.20961e+00,-2.67000e+01,9.17344e-01,5.30910e-01,1.29889e+00
1.20500e+03,-2.45457e+00,-2.37333e+01,9.20789e-01,5.39086e-01,1.31137e+00
1.20500e+03,-1.69790e+00,-2.07666e+01,9.24146e-01,5.47227e-01,1.32379e+00
1.20500e+03,-9.35389e-01,-1.78000e+01,9.27187e-01,5.55331e-01,1.33598e+00
1.20500e+03,-1.72956e-01,-1.48333e+01,9.30233e-01,5.63395e-01,1.34817e+00
1.20500e+03,5.86594e-01,-1.18666e+01,9.33434e-01,5.71419e-01,1.36046e+00
1.20500e+03,1.34615e+00,-8.89999e+00,9.36635e-01,5.79400e-01,1.37273e+00
1.20500e+03,2.08771e+00,-5.93332e+00,9.40808e-01,5.87343e-01,1.38565e+00
1.20500e+03,2.82592e+00,-2.96666e+00,9.45162e-01,5.95253e-01,1.39868e+00
1.29010e+03,3.63234e+01,0.00000e+00,-7.24903e-01,5.41162e-01,1.18493e+00
1.29010e+03,3.61405e+01,-2.76019e+00,-7.51458e-01,5.34589e-01,1.19250e+00
1.29010e+03,3.58971e+01,-5.52039e+00,-7.75267e-01,5.27855e-01,1.19872e+00
1.29010e+03,3.56513e+01,-8.28058e+00,-7.98966e-01,5.20968e-01,1.20523e+00
1.29010e+03,3.53522e+01,-1.10408e+01,-8.20241e-01,5.13941e-01,1.21045e+00
1.29010e+03,3.50407e+01,-1.38010e+01,-8.40953e-01,5.06783e-01,1.21560e+00
1.29010e+03,3.46882e+01,-1.65612e+01,-8.59804e-01,4.99505e-01,1.21975e+00
1.29010e+03,3.43158e+01,-1.93214e+01,-8.77752e-01,4.92118e-01,1.22352e+00
1.29010e+03,3.39106e+01,-2.20816e+01,-8.94205e-01,4.84631e-01,1.22646e+00
1.29010e+03,3.34783e+01,-2.48418e+01,-9.09430e-01,4.77054e-01,1.22874e+00
1.29010e+03,3.30163e+01,-2.76019e+01,-9.23304e-01,4.69396e-01,1.23024e+00
1.29010e+03,3.25183e+01,-3.03621e+01,-9.35543e-01,4.61670e-01,1.23071e+00
1.29010e+03,3.19834e+01,-3.31223e+01,-9.46107e-01,4.53883e-01,1.23010e+00
1.29010e+03,3.13964e+01,-3.58825e+01,-9.54300e-01,4.46049e-01,1.22783e+00
1.29010e+03,3.07585e+01,-3.86427e+01,-9.60184e-01,4.38185e-01,1.22392e+00
1.29010e+03,3.00599e+01,-4.14029e+01,-9.63306e-01,4.30300e-01,1.21796e+00
1.29010e+03,2.92790e+01,-4.41631e+01,-9.62689e-01,4.22424e-01,1.20917e+00
1.29010e+03,2.84408e+01,-4.69233e+01,-9.59470e-01,4.14562e-01,1.19840e+00
1.29010e+03,2.74738e+01,-4.96835e+01,-9.50398e-01,4.06756e-01,1.18305e+00
1.29010e+03,2.64534e+01,-5.24437e+01,-9.38898e-01,3.99025e-01,1.16584e+00
1.29010e+03,2.52842e+01,-5.52039e+01,-9.20639e-01,3.91387e-01,1.14330e+00
1.29010e+03,2.39957e+01,-5.79641e+01,-8.96961e-01,3.83906e-01,1.11655e+00
1.29010e+03,2.25860e+01,-6.07243e+01,-8.67771e-01,3.76596e-01,1.08559e+00
1.29010e+03,2.09725e+01,-6.34845e+01,-8.29326e-01,3.69484e-01,1.04754e+00
1.29010e+03,1.91232e+01,-6.62447e+01,-7.80162e-01,3.62655e-01,1.00160e+00
1.29010e+03,1.70072e+01,-6.90049e+01,-7.18881e-01,3.56192e-01,9.47316e-01
1.29010e+03,1.45045e+01,-7.17651e+01,-6.40027e-01,3.50148e-01,8.81729e-01
1.29010e+03,1.12920e+01,-7.45253e+01,-5.28925e-01,3.44818e-01,7.97785e-01
1.29010e+03,6.94724e+00,-7.72855e+01,-3.66373e-01,3.41560e-01,6.95858e-01
1.29010e+03,-2.81497e+00,-8.00457e+01,4.23398e-02,3.42846e-01,5.95335e-01
1.29010e+03,-3.51951e+00,-8.00521e+01,7.42723e-02,3.46850e-01,6.05335e-01
1.29010e+03,-9.93839e+00,-7.71931e+01,4.02052e-01,3.54443e-01,7.33850e-01
1.29010e+03,-1.07156e+01,-7.43341e+01,4.73480e-01,3.60054e-01,7.83007e-01
1.29010e+03,-1.09838e+01,-7.14751e+01,5.21782e-01,3.65958e-01,8.20994e-01
1.29010e+03,-1.10244e+01,-6.86160e+01,5.59746e-01,3.72136e-01,8.53681e-01
1.29010e+03,-1.08937e+01,-6.57570e+01,5.89922e-01,3.78540e-01,8.81978e-01
1.29010e+03,-1.06555e+01,-6.28980e+01,6.15212e-01,3.85131e-01,9.07449e-01
1.29010e+03,-1.03093e+01,-6.00390e+01,6.35594e-01,3.91872e-01,9.29877e-01
1.29010e+03,-9.89713e+00,-5.71800e+01,6.52983e-01,3.98730e-01,9.50444e-01
1.29010e+03,-9.44680e+00,-5.43210e+01,6.68636e-01,4.05687e-01,9.69958e-01
1.29010e+03,-8.93890e+00,-5.14620e+01,6.81673e-01,4.12723e-01,9.87775e-01
1.29010e+03,-8.39503e+00,-4.86030e+01,6.93075e-01,4.19820e-01,1.00454e+00
1.29010e+03,-7.81612e+00,-4.57440e+01,7.02886e-01,4.26964e-01,1.02027e+00
1.29010e+03,-7.20231e+00,-4.28850e+01,7.11110e-01,4.34139e-01,1.03494e+00
1.29010e+03,-6.56662e+00,-4.00260e+01,7.18341e-01,4.41333e-01,1.04897e+00
1.29010e+03,-5.90290e+00,-3.71670e+01,7.24298e-01,4.48536e-01,1.06215e+00
1.29010e+03,-5.22123e+00,-3.43080e+01,7.29439e-01,4.55736e-01,1.07479e+00
1.29010e+03,-4.52347e+00,-3.14490e+01,7.33849e-01,4.62926e-01,1.08694e+00
1.29010e+03,-3.81134e+00,-2.85900e+01,7.37606e-01,4.70098e-01,1.09865e+00
1.29010e+03,-3.09313e+00,-2.57310e+01,7.41087e-01,4.77246e-01,1.11018e+00
1.29010e+03,-2.36549e+00,-2.28720e+01,7.44139e-01,4.84366e-01,1.12142e+00
1.29010e+03,-1.63628e+00,-2.00130e+01,7.47120e-01,4.91456e-01,1.13260e+00
1.29010e+03,-9.01444e-01,-1.71540e+01,7.49845e-01,4.98513e-01,1.14360e+00
1.29010e+03,-1.66680e-01,-1.42950e+01,7.52574e-01,5.05535e-01,1.15458e+00
1.29010e+03,5.65307e-01,-1.14360e+01,7.55429e-01,5.12523e-01,1.16564e+00
1.29010e+03,1.29729e+00,-8.57701e+00,7.58284e-01,5.19473e-01,1.17667e+00
1.29010e+03,2.01195e+00,-5.71800e+00,7.61926e-01,5.26390e-01,1.18819e+00
1.29010e+03,2.72337e+00,-2.85900e+00,7.65715e-01,5.33278e-01,1.19978e+00
1.37170e+03,3.50118e+01,0.00000e+00,-5.76106e-01,4.78188e-01,1.00891e+00
1.37170e+03,3.48355e+01,-2.66053e+00,-5.97424e-01,4.72531e-01,1.01330e+00
1.37170e+03,3.46009e+01,-5.32106e+00,-6.16560e-01,4.66735e-01,1.01670e+00
1.37170e+03,3.43640e+01,-7.98159e+00,-6.35609e-01,4.60808e-01,1.02031e+00
1.37170e+03,3.40757e+01,-1.06421e+01,-6.52731e-01,4.54760e-01,1.02297e+00
1.37170e+03,3.37754e+01,-1.33027e+01,-6.69406e-01,4.48599e-01,1.02559e+00
1.37170e+03,3.34357e+01,-1.59632e+01,-6.84601e-01,4.42335e-01,1.02745e+00
1.37170e+03,3.30768e+01,-1.86237e+01,-6.99078e-01,4.35977e-01,1.02905e+00
1.37170e+03,3.26861e+01,-2.12842e+01,-7.12367e-01,4.29533e-01,1.03003e+00
1.37170e+03,3.22695e+01,-2.39448e+01,-7.24680e-01,4.23012e-01,1.03052e+00
1.37170e+03,3.18241e+01,-2.66053e+01,-7.35919e-01,4.16422e-01,1.03044e+00
1.37170e+03,3.13441e+01,-2.92658e+01,-7.45858e-01,4.09772e-01,1.02958e+00
1.37170e+03,3.08286e+01,-3.19264e+01,-7.54466e-01,4.03070e-01,1.02792e+00
1.37170e+03,3.02627e+01,-3.45869e+01,-7.61189e-01,3.96328e-01,1.02501e+00
1.37170e+03,2.96479e+01,-3.72474e+01,-7.66077e-01,3.89560e-01,1.02085e+00
1.37170e+03,2.89745e+01,-3.99080e+01,-7.68769e-01,3.82774e-01,1.01516e+00
1.37170e+03,2.82218e+01,-4.25685e+01,-7.68489e-01,3.75996e-01,1.00732e+00
1.37170e+03,2.74139e+01,-4.52290e+01,-7.66142e-01,3.69230e-01,9.97981e-01
1.37170e+03,2.64818e+01,-4.78895e+01,-7.59141e-01,3.62512e-01,9.85160e-01
1.37170e+03,2.54982e+01,-5.05501e+01,-7.50211e-01,3.55858e-01,9.70938e-01
1.37170e+03,2.43712e+01,-5.32106e+01,-7.35907e-01,3.49285e-01,9.52659e-01
1.37170e+03,2.31293e+01,-5.58711e+01,-7.17297e-01,3.42848e-01,9.31208e-01
1.37170e+03,2.17704e+01,-5.85317e+01,-6.94305e-01,3.36557e-01,9.06571e-01
1.37170e+03,2.02153e+01,-6.11922e+01,-6.63957e-01,3.30436e-01,8.76586e-01
1.37170e+03,1.84327e+01,-6.38527e+01,-6.25087e-01,3.24559e-01,8.40684e-01
1.37170e+03,1.63931e+01,-6.65133e+01,-5.76587e-01,3.18997e-01,7.98580e-01
1.37170e+03,1.39807e+01,-6.91738e+01,-5.14118e-01,3.13796e-01,7.48145e-01
1.37170e+03,1.08843e+01,-7.18343e+01,-4.26015e-01,3.09211e-01,6.84341e-01
1.37170e+03,6.69639e+00,-7.44949e+01,-2.97015e-01,3.06407e-01,6.08173e-01
1.37170e+03,-2.71333e+00,-7.71554e+01,2.76543e-02,3.07515e-01,5.33349e-01
1.37170e+03,-3.39243e+00,-7.71616e+01,5.30365e-02,3.10961e-01,5.41205e-01
1.37170e+03,-9.57954e+00,-7.44058e+01,3.13802e-01,3.17496e-01,6.33154e-01
1.37170e+03,-1.03287e+01,-7.16500e+01,3.70798e-01,3.22325e-01,6.70203e-01
1.37170e+03,-1.05872e+01,-6.88942e+01,4.09410e-01,3.27407e-01,6.99430e-01
1.37170e+03,-1.06264e+01,-6.61385e+01,4.39806e-01,3.32724e-01,7.24944e-01
1.37170e+03,-1.05004e+01,-6.33827e+01,4.64011e-01,3.38235e-01,7.47338e-01
1.37170e+03,-1.02708e+01,-6.06269e+01,4.84331e-01,3.43908e-01,7.67720e-01
1.37170e+03,-9.93701e+00,-5.78712e+01,5.00751e-01,3.49709e-01,7.85901e-01
1.37170e+03,-9.53977e+00,-5.51154e+01,5.14792e-01,3.55611e-01,8.02738e-01
1.37170e+03,-9.10569e+00,-5.23596e+01,5.27452e-01,3.61598e-01,8.18819e-01
1.37170e+03,-8.61613e+00,-4.96039e+01,5.38033e-01,3.67653e-01,8.33659e-01
1.37170e+03,-8.09190e+00,-4.68481e+01,5.47315e-01,3.73761e-01,8.47730e-01
1.37170e+03,-7.53389e+00,-4.40923e+01,5.55332e-01,3.79909e-01,8.61037e-01
1.37170e+03,-6.94225e+00,-4.13365e+01,5.62087e-01,3.86083e-01,8.73569e-01
1.37170e+03,-6.32951e+00,-3.85808e+01,5.68053e-01,3.92274e-01,8.85619e-01
1.37170e+03,-5.68976e+00,-3.58250e+01,5.73006e-01,3.98473e-01,8.97038e-01
1.37170e+03,-5.03271e+00,-3.30692e+01,5.77311e-01,4.04669e-01,9.08052e-01
1.37170e+03,-4.36014e+00,-3.03135e+01,5.81035e-01,4.10856e-01,9.18700e-01
1.37170e+03,-3.67372e+00,-2.75577e+01,5.84240e-01,4.17027e-01,9.29016e-01
1.37170e+03,-2.98144e+00,-2.48019e+01,5.87225e-01,4.23178e-01,9.39187e-01
1.37170e+03,-2.28008e+00,-2.20462e+01,5.89869e-01,4.29306e-01,9.49134e-01
1.37170e+03,-1.57720e+00,-1.92904e+01,5.92457e-01,4.35407e-01,9.59032e-01
1.37170e+03,-8.68894e-01,-1.65346e+01,5.94842e-01,4.41479e-01,9.68787e-01
1.37170e+03,-1.60661e-01,-1.37788e+01,5.97229e-01,4.47522e-01,9.78524e-01
1.37170e+03,5.44895e-01,-1.10231e+01,5.99716e-01,4.53535e-01,9.88302e-01
1.37170e+03,1.25045e+00,-8.26731e+00,6.02204e-01,4.59515e-01,9.98054e-01
1.37170e+03,1.93930e+00,-5.51154e+00,6.05317e-01,4.65467e-01,1.00816e+00
1.37170e+03,2.62503e+00,-2.75577e+00,6.08548e-01,4.71394e-01,1.01832e+00
1.44960e+03,3.37597e+01,0.00000e+00,-4.47895e-01,4.17336e-01,8.50363e-01
1.44960e+03,3.35897e+01,-2.56538e+00,-4.64642e-01,4.12522e-01,8.52300e-01
1.44960e+03,3.33635e+01,-5.13077e+00,-4.79692e-01,4.07590e-01,8.53519e-01
1.44960e+03,3.31351e+01,-7.69615e+00,-4.94673e-01,4.02547e-01,8.54888e-01
1.44960e+03,3.28571e+01,-1.02615e+01,-5.08157e-01,3.97401e-01,8.55573e-01
1.44960e+03,3.25675e+01,-1.28269e+01,-5.21292e-01,3.92159e-01,8.56219e-01
1.44960e+03,3.22399e+01,-1.53923e+01,-5.33277e-01,3.86829e-01,8.56326e-01
1.44960e+03,3.18939e+01,-1.79577e+01,-5.44704e-01,3.81419e-01,8.56239e-01
1.44960e+03,3.15172e+01,-2.05231e+01,-5.55207e-01,3.75936e-01,8.55710e-01
1.44960e+03,3.11155e+01,-2.30885e+01,-5.64951e-01,3.70388e-01,8.54829e-01
1.44960e+03,3.06860e+01,-2.56538e+01,-5.73860e-01,3.64781e-01,8.53528e-01
1.44960e+03,3.02232e+01,-2.82192e+01,-5.81758e-01,3.59123e-01,8.51675e-01
1.44960e+03,2.97261e+01,-3.07846e+01,-5.88621e-01,3.53421e-01,8.49231e-01
1.44960e+03,2.91805e+01,-3.33500e+01,-5.94018e-01,3.47685e-01,8.45879e-01
1.44960e+03,2.85877e+01,-3.59154e+01,-5.97988e-01,3.41926e-01,8.41624e-01
1.44960e+03,2.79383e+01,-3.84808e+01,-6.00251e-01,3.36153e-01,8.36241e-01
1.44960e+03,2.72125e+01,-4.10462e+01,-6.00203e-01,3.30387e-01,8.29282e-01
1.44960e+03,2.64335e+01,-4.36115e+01,-5.98547e-01,3.24630e-01,8.21226e-01
1.44960e+03,2.55347e+01,-4.61769e+01,-5.93272e-01,3.18915e-01,8.10611e-01
1.44960e+03,2.45863e+01,-4.87423e+01,-5.86497e-01,3.13253e-01,7.98976e-01
1.44960e+03,2.34997e+01,-5.13077e+01,-5.75544e-01,3.07661e-01,7.84358e-01
1.44960e+03,2.23022e+01,-5.38731e+01,-5.61242e-01,3.02184e-01,7.67424e-01
1.44960e+03,2.09919e+01,-5.64385e+01,-5.43533e-01,2.96832e-01,7.48168e-01
1.44960e+03,1.94923e+01,-5.90039e+01,-5.20103e-01,2.91625e-01,7.25012e-01
1.44960e+03,1.77735e+01,-6.15692e+01,-4.90047e-01,2.86625e-01,6.97574e-01
1.44960e+03,1.58069e+01,-6.41346e+01,-4.52503e-01,2.81894e-01,6.65696e-01
1.44960e+03,1.34808e+01,-6.67000e+01,-4.04096e-01,2.77469e-01,6.27902e-01
1.44960e+03,1.04950e+01,-6.92654e+01,-3.35756e-01,2.73568e-01,5.80733e-01
1.44960e+03,6.45692e+00,-7.18308e+01,-2.35615e-01,2.71184e-01,5.25487e-01
1.44960e+03,-2.61629e+00,-7.43962e+01,1.66789e-02,2.72127e-01,4.71633e-01
1.44960e+03,-3.27111e+00,-7.44021e+01,3.64157e-02,2.75059e-01,4.77806e-01
1.44960e+03,-9.23696e+00,-7.17449e+01,2.39363e-01,2.80620e-01,5.41791e-01
1.44960e+03,-9.95928e+00,-6.90877e+01,2.83859e-01,2.84728e-01,5.69022e-01
1.44960e+03,-1.02085e+01,-6.64305e+01,3.14059e-01,2.89052e-01,5.91004e-01
1.44960e+03,-1.02464e+01,-6.37732e+01,3.37870e-01,2.93576e-01,6.10505e-01
1.44960e+03,-1.01249e+01,-6.11160e+01,3.56867e-01,2.98265e-01,6.27885e-01
1.44960e+03,-9.90345e+00,-5.84588e+01,3.72844e-01,3.03091e-01,6.43898e-01
1.44960e+03,-9.58164e+00,-5.58016e+01,3.85787e-01,3.08027e-01,6.58387e-01
1.44960e+03,-9.19861e+00,-5.31444e+01,3.96881e-01,3.13048e-01,6.71946e-01
1.44960e+03,-8.78006e+00,-5.04872e+01,4.06901e-01,3.18141e-01,6.84989e-01
1.44960e+03,-8.30801e+00,-4.78299e+01,4.15304e-01,3.23293e-01,6.97161e-01
1.44960e+03,-7.80252e+00,-4.51727e+01,4.22697e-01,3.28489e-01,7.08794e-01
1.44960e+03,-7.26447e+00,-4.25155e+01,4.29106e-01,3.33720e-01,7.19888e-01
1.44960e+03,-6.69398e+00,-3.98583e+01,4.34535e-01,3.38973e-01,7.30430e-01
1.44960e+03,-6.10316e+00,-3.72011e+01,4.39349e-01,3.44240e-01,7.40629e-01
1.44960e+03,-5.48628e+00,-3.45438e+01,4.43376e-01,3.49513e-01,7.50374e-01
1.44960e+03,-4.85273e+00,-3.18866e+01,4.46899e-01,3.54784e-01,7.59826e-01
1.44960e+03,-4.20421e+00,-2.92294e+01,4.49970e-01,3.60048e-01,7.69010e-01
1.44960e+03,-3.54234e+00,-2.65722e+01,4.52638e-01,3.65298e-01,7.77952e-01
1.44960e+03,-2.87482e+00,-2.39150e+01,4.55134e-01,3.70531e-01,7.86783e-01
1.44960e+03,-2.19854e+00,-2.12577e+01,4.57366e-01,3.75743e-01,7.95445e-01
1.44960e+03,-1.52080e+00,-1.86005e+01,4.59554e-01,3.80933e-01,8.04065e-01
1.44960e+03,-8.37821e-01,-1.59433e+01,4.61583e-01,3.86100e-01,8.12575e-01
1.44960e+03,-1.54916e-01,-1.32861e+01,4.63615e-01,3.91240e-01,8.21063e-01
1.44960e+03,5.25408e-01,-1.06289e+01,4.65725e-01,3.96355e-01,8.29573e-01
1.44960e+03,1.20573e+00,-7.97166e+00,4.67835e-01,4.01442e-01,8.38056e-01
1.44960e+03,1.86995e+00,-5.31444e+00,4.70431e-01,4.06506e-01,8.46786e-01
1.44960e+03,2.53116e+00,-2.65722e+00,4.73118e-01,4.11547e-01,8.55543e-01
1.52340e+03,3.25736e+01,0.00000e+00,-3.39837e-01,3.57942e-01,7.07005e-01
1.52340e+03,3.24095e+01,-2.47525e+00,-3.52675e-01,3.53912e-01,7.07207e-01
1.52340e+03,3.21913e+01,-4.95049e+00,-3.64226e-01,3.49785e-01,7.06900e-01
1.52340e+03,3.19709e+01,-7.42574e+00,-3.75725e-01,3.45563e-01,7.06690e-01
1.52340e+03,3.17026e+01,-9.90099e+00,-3.86086e-01,3.41256e-01,7.05995e-01
1.52340e+03,3.14232e+01,-1.23762e+01,-3.96184e-01,3.36868e-01,7.05268e-01
1.52340e+03,3.11072e+01,-1.48515e+01,-4.05409e-01,3.32408e-01,7.04160e-01
1.52340e+03,3.07733e+01,-1.73267e+01,-4.14211e-01,3.27880e-01,7.02912e-01
1.52340e+03,3.04098e+01,-1.98020e+01,-4.22311e-01,3.23291e-01,7.01354e-01
1.52340e+03,3.00222e+01,-2.22772e+01,-4.29835e-01,3.18647e-01,6.99547e-01
1.52340e+03,2.96079e+01,-2.47525e+01,-4.36725e-01,3.13954e-01,6.97445e-01
1.52340e+03,2.91613e+01,-2.72277e+01,-4.42849e-01,3.09218e-01,6.94955e-01
1.52340e+03,2.86816e+01,-2.97030e+01,-4.48186e-01,3.04446e-01,6.92050e-01
1.52340e+03,2.81552e+01,-3.21782e+01,-4.52412e-01,2.99645e-01,6.88505e-01
1.52340e+03,2.75832e+01,-3.46535e+01,-4.55555e-01,2.94826e-01,6.84322e-01
1.52340e+03,2.69567e+01,-3.71287e+01,-4.57402e-01,2.89994e-01,6.79343e-01
1.52340e+03,2.62564e+01,-3.96040e+01,-4.57495e-01,2.85168e-01,6.73248e-01
1.52340e+03,2.55047e+01,-4.20792e+01,-4.56368e-01,2.80350e-01,6.66378e-01
1.52340e+03,2.46375e+01,-4.45544e+01,-4.52495e-01,2.75567e-01,6.57695e-01
1.52340e+03,2.37225e+01,-4.70297e+01,-4.47483e-01,2.70829e-01,6.48294e-01
1.52340e+03,2.26740e+01,-4.95049e+01,-4.39301e-01,2.66148e-01,6.36781e-01
1.52340e+03,2.15185e+01,-5.19802e+01,-4.28577e-01,2.61565e-01,6.23640e-01
1.52340e+03,2.02543e+01,-5.44554e+01,-4.15268e-01,2.57086e-01,6.08873e-01
1.52340e+03,1.88075e+01,-5.69307e+01,-3.97617e-01,2.52728e-01,5.91366e-01
1.52340e+03,1.71490e+01,-5.94059e+01,-3.74939e-01,2.48544e-01,5.70877e-01
1.52340e+03,1.52515e+01,-6.18812e+01,-3.46577e-01,2.44584e-01,5.47338e-01
1.52340e+03,1.30071e+01,-6.43564e+01,-3.09972e-01,2.40881e-01,5.19763e-01
1.52340e+03,1.01263e+01,-6.68317e+01,-2.58240e-01,2.37617e-01,4.85874e-01
1.52340e+03,6.23005e+00,-6.93069e+01,-1.82376e-01,2.35622e-01,4.47006e-01
1.52340e+03,-2.52437e+00,-7.17822e+01,8.95398e-03,2.36412e-01,4.09575e-01
1.52340e+03,-3.15618e+00,-7.17879e+01,2.39314e-02,2.38866e-01,4.14420e-01
1.52340e+03,-8.91241e+00,-6.92241e+01,1.78077e-01,2.43520e-01,4.57841e-01
1.52340e+03,-9.60935e+00,-6.66602e+01,2.11978e-01,2.46959e-01,4.77390e-01
1.52340e+03,-9.84985e+00,-6.40963e+01,2.35031e-01,2.50578e-01,4.93565e-01
1.52340e+03,-9.88634e+00,-6.15325e+01,2.53235e-01,2.54364e-01,5.08164e-01
1.52340e+03,-9.76914e+00,-5.89686e+01,2.67786e-01,2.58288e-01,5.21390e-01
1.52340e+03,-9.55548e+00,-5.64048e+01,2.80044e-01,2.62328e-01,5.33734e-01
1.52340e+03,-9.24498e+00,-5.38409e+01,2.90001e-01,2.66458e-01,5.45070e-01
1.52340e+03,-8.87540e+00,-5.12771e+01,2.98554e-01,2.70661e-01,5.55793e-01
1.52340e+03,-8.47156e+00,-4.87132e+01,3.06292e-01,2.74924e-01,5.66184e-01
1.52340e+03,-8.01609e+00,-4.61494e+01,3.12804e-01,2.79235e-01,5.75989e-01
1.52340e+03,-7.52837e+00,-4.35855e+01,3.18549e-01,2.83584e-01,5.85434e-01
1.52340e+03,-7.00922e+00,-4.10217e+01,3.23547e-01,2.87961e-01,5.94514e-01
1.52340e+03,-6.45878e+00,-3.84578e+01,3.27801e-01,2.92357e-01,6.03218e-01
1.52340e+03,-5.88872e+00,-3.58940e+01,3.31589e-01,2.96765e-01,6.11686e-01
1.52340e+03,-5.29352e+00,-3.33301e+01,3.34779e-01,3.01178e-01,6.19841e-01
1.52340e+03,-4.68222e+00,-3.07662e+01,3.37587e-01,3.05590e-01,6.27790e-01
1.52340e+03,-4.05649e+00,-2.82024e+01,3.40052e-01,3.09995e-01,6.35551e-01
1.52340e+03,-3.41788e+00,-2.56385e+01,3.42210e-01,3.14388e-01,6.43139e-01
1.52340e+03,-2.77381e+00,-2.30747e+01,3.44239e-01,3.18767e-01,6.50645e-01
1.52340e+03,-2.12129e+00,-2.05108e+01,3.46068e-01,3.23130e-01,6.58028e-01
1.52340e+03,-1.46736e+00,-1.79470e+01,3.47862e-01,3.27473e-01,6.65375e-01
1.52340e+03,-8.08383e-01,-1.53831e+01,3.49537e-01,3.31796e-01,6.72638e-01
1.52340e+03,-1.49473e-01,-1.28193e+01,3.51213e-01,3.36098e-01,6.79879e-01
1.52340e+03,5.06948e-01,-1.02554e+01,3.52948e-01,3.40378e-01,6.87127e-01
1.52340e+03,1.16337e+00,-7.69156e+00,3.54684e-01,3.44635e-01,6.94349e-01
1.52340e+03,1.80424e+00,-5.12771e+00,3.56788e-01,3.48872e-01,7.01736e-01
1.52340e+03,2.44222e+00,-2.56385e+00,3.58962e-01,3.53091e-01,7.09136e-01
1.59310e+03,3.14533e+01,0.00000e+00,-2.50704e-01,3.01896e-01,5.79893e-01
1.59310e+03,3.12949e+01,-2.39012e+00,-2.60281e-01,2.98585e-01,5.78968e-01
1.59310e+03,3.10841e+01,-4.78023e+00,-2.68906e-01,2.95193e-01,5.77691e-01
1.59310e+03,3.08713e+01,-7.17035e+00,-2.77494e-01,2.91724e-01,5.76465e-01
1.59310e+03,3.06123e+01,-9.56047e+00,-2.85242e-01,2.88184e-01,5.74904e-01
1.59310e+03,3.03425e+01,-1.19506e+01,-2.92796e-01,2.84579e-01,5.73311e-01
1.59310e+03,3.00373e+01,-1.43407e+01,-2.99706e-01,2.80914e-01,5.71455e-01
1.59310e+03,2.97149e+01,-1.67308e+01,-3.06303e-01,2.77193e-01,5.69500e-01
1.59310e+03,2.93640e+01,-1.91209e+01,-3.12383e-01,2.73422e-01,5.67329e-01
1.59310e+03,2.89896e+01,-2.15111e+01,-3.18037e-01,2.69607e-01,5.64988e-01
1.59310e+03,2.85896e+01,-2.39012e+01,-3.23224e-01,2.65751e-01,5.62445e-01
1.59310e+03,2.81583e+01,-2.62913e+01,-3.27845e-01,2.61859e-01,5.59637e-01
1.59310e+03,2.76952e+01,-2.86814e+01,-3.31886e-01,2.57938e-01,5.56547e-01
1.59310e+03,2.71869e+01,-3.10715e+01,-3.35107e-01,2.53994e-01,5.53023e-01
1.59310e+03,2.66345e+01,-3.34616e+01,-3.37529e-01,2.50033e-01,5.49068e-01
1.59310e+03,2.60296e+01,-3.58518e+01,-3.38994e-01,2.46063e-01,5.44572e-01
1.59310e+03,2.53533e+01,-3.82419e+01,-3.39166e-01,2.42098e-01,5.39321e-01
1.59310e+03,2.46276e+01,-4.06320e+01,-3.38437e-01,2.38139e-01,5.33545e-01
1.59310e+03,2.37902e+01,-4.30221e+01,-3.35681e-01,2.34209e-01,5.26539e-01
1.59310e+03,2.29066e+01,-4.54122e+01,-3.32086e-01,2.30316e-01,5.19054e-01
1.59310e+03,2.18941e+01,-4.78023e+01,-3.26151e-01,2.26471e-01,5.10138e-01
1.59310e+03,2.07785e+01,-5.01925e+01,-3.18341e-01,2.22705e-01,5.00133e-01
1.59310e+03,1.95577e+01,-5.25826e+01,-3.08623e-01,2.19024e-01,4.89043e-01
1.59310e+03,1.81606e+01,-5.49727e+01,-2.95701e-01,2.15444e-01,4.76117e-01
1.59310e+03,1.65592e+01,-5.73628e+01,-2.79070e-01,2.12006e-01,4.61215e-01
1.59310e+03,1.47269e+01,-5.97529e+01,-2.58244e-01,2.08753e-01,4.44323e-01
1.59310e+03,1.25597e+01,-6.21430e+01,-2.31337e-01,2.05710e-01,4.24814e-01
1.59310e+03,9.77800e+00,-6.45332e+01,-1.93267e-01,2.03028e-01,4.01265e-01
1.59310e+03,6.01578e+00,-6.69233e+01,-1.37390e-01,2.01390e-01,3.74900e-01
1.59310e+03,-2.43755e+00,-6.93134e+01,3.68749e-03,2.02039e-01,3.49962e-01
1.59310e+03,-3.04763e+00,-6.93189e+01,1.47390e-02,2.04056e-01,3.53743e-01
1.59310e+03,-8.60589e+00,-6.68433e+01,1.28588e-01,2.07881e-01,3.82332e-01
1.59310e+03,-9.27886e+00,-6.43676e+01,1.53709e-01,2.10706e-01,3.96002e-01
1.59310e+03,-9.51109e+00,-6.18919e+01,1.70826e-01,2.13680e-01,4.07625e-01
1.59310e+03,-9.54632e+00,-5.94162e+01,1.84365e-01,2.16791e-01,4.18312e-01
1.59310e+03,-9.43315e+00,-5.69406e+01,1.95208e-01,2.20015e-01,4.28166e-01
1.59310e+03,-9.22684e+00,-5.44649e+01,2.04360e-01,2.23334e-01,4.37490e-01
1.59310e+03,-8.92702e+00,-5.19892e+01,2.11813e-01,2.26728e-01,4.46186e-01
1.59310e+03,-8.57016e+00,-4.95135e+01,2.18231e-01,2.30181e-01,4.54505e-01
1.59310e+03,-8.18020e+00,-4.70379e+01,2.24047e-01,2.33684e-01,4.62625e-01
1.59310e+03,-7.74040e+00,-4.45622e+01,2.28958e-01,2.37227e-01,4.70373e-01
1.59310e+03,-7.26945e+00,-4.20865e+01,2.33303e-01,2.40799e-01,4.77895e-01
1.59310e+03,-6.76816e+00,-3.96108e+01,2.37098e-01,2.44396e-01,4.85184e-01
1.59310e+03,-6.23665e+00,-3.71351e+01,2.40343e-01,2.48008e-01,4.92228e-01
1.59310e+03,-5.68619e+00,-3.46595e+01,2.43245e-01,2.51630e-01,4.99120e-01
1.59310e+03,-5.11146e+00,-3.21838e+01,2.45705e-01,2.55256e-01,5.05803e-01
1.59310e+03,-4.52119e+00,-2.97081e+01,2.47883e-01,2.58880e-01,5.12350e-01
1.59310e+03,-3.91698e+00,-2.72324e+01,2.49808e-01,2.62499e-01,5.18769e-01
1.59310e+03,-3.30033e+00,-2.47568e+01,2.51508e-01,2.66109e-01,5.25069e-01
1.59310e+03,-2.67841e+00,-2.22811e+01,2.53111e-01,2.69707e-01,5.31310e-01
1.59310e+03,-2.04833e+00,-1.98054e+01,2.54566e-01,2.73291e-01,5.37464e-01
1.59310e+03,-1.41689e+00,-1.73297e+01,2.55997e-01,2.76859e-01,5.43587e-01
1.59310e+03,-7.80581e-01,-1.48541e+01,2.57339e-01,2.80411e-01,5.49649e-01
1.59310e+03,-1.44332e-01,-1.23784e+01,2.58682e-01,2.83945e-01,5.55689e-01
1.59310e+03,4.89512e-01,-9.90271e+00,2.60069e-01,2.87461e-01,5.61728e-01
1.59310e+03,1.12336e+00,-7.42703e+00,2.61456e-01,2.90959e-01,5.67742e-01
1.59310e+03,1.74219e+00,-4.95135e+00,2.63115e-01,2.94440e-01,5.73859e-01
1.59310e+03,2.35823e+00,-2.47568e+00,2.64825e-01,2.97906e-01,5.79980e-01
1.65850e+03,3.04021e+01,0.00000e+00,-1.79111e-01,2.48839e-01,4.66736e-01
1.65850e+03,3.02490e+01,-2.31024e+00,-1.86036e-01,2.46169e-01,4.65196e-01
1.65850e+03,3.00453e+01,-4.62048e+00,-1.92281e-01,2.43435e-01,4.63416e-01
1.65850e+03,2.98396e+01,-6.93072e+00,-1.98499e-01,2.40639e-01,4.61653e-01
1.65850e+03,2.95892e+01,-9.24096e+00,-2.04118e-01,2.37786e-01,4.59663e-01
1.65850e+03,2.93285e+01,-1.15512e+01,-2.09597e-01,2.34880e-01,4.57642e-01
1.65850e+03,2.90335e+01,-1.38614e+01,-2.14616e-01,2.31925e-01,4.55442e-01
1.65850e+03,2.87218e+01,-1.61717e+01,-2.19411e-01,2.28926e-01,4.53170e-01
1.65850e+03,2.83826e+01,-1.84819e+01,-2.23837e-01,2.25887e-01,4.50752e-01
1.65850e+03,2.80208e+01,-2.07921e+01,-2.27959e-01,2.22811e-01,4.48218e-01
1.65850e+03,2.76341e+01,-2.31024e+01,-2.31747e-01,2.19703e-01,4.45549e-01
1.65850e+03,2.72173e+01,-2.54126e+01,-2.35130e-01,2.16566e-01,4.42706e-01
1.65850e+03,2.67696e+01,-2.77229e+01,-2.38099e-01,2.13405e-01,4.39678e-01
1.65850e+03,2.62783e+01,-3.00331e+01,-2.40481e-01,2.10226e-01,4.36367e-01
1.65850e+03,2.57444e+01,-3.23433e+01,-2.42293e-01,2.07034e-01,4.32776e-01
1.65850e+03,2.51597e+01,-3.46536e+01,-2.43421e-01,2.03834e-01,4.28834e-01
1.65850e+03,2.45060e+01,-3.69638e+01,-2.43624e-01,2.00638e-01,4.24404e-01
1.65850e+03,2.38045e+01,-3.92741e+01,-2.43184e-01,1.97447e-01,4.19636e-01
1.65850e+03,2.29951e+01,-4.15843e+01,-2.41296e-01,1.94279e-01,4.14073e-01
1.65850e+03,2.21410e+01,-4.38945e+01,-2.38807e-01,1.91141e-01,4.08208e-01
1.65850e+03,2.11624e+01,-4.62048e+01,-2.34647e-01,1.88042e-01,4.01420e-01
1.65850e+03,2.00840e+01,-4.85150e+01,-2.29146e-01,1.85006e-01,3.93941e-01
1.65850e+03,1.89041e+01,-5.08253e+01,-2.22281e-01,1.82040e-01,3.85778e-01
1.65850e+03,1.75537e+01,-5.31355e+01,-2.13128e-01,1.79154e-01,3.76447e-01
1.65850e+03,1.60058e+01,-5.54457e+01,-2.01322e-01,1.76384e-01,3.65875e-01
1.65850e+03,1.42348e+01,-5.77560e+01,-1.86520e-01,1.73761e-01,3.54074e-01
1.65850e+03,1.21400e+01,-6.00662e+01,-1.67371e-01,1.71310e-01,3.40667e-01
1.65850e+03,9.45122e+00,-6.23764e+01,-1.40245e-01,1.69148e-01,3.24810e-01
1.65850e+03,5.81473e+00,-6.46867e+01,-1.00393e-01,1.67828e-01,3.07534e-01
1.65850e+03,-2.35608e+00,-6.69969e+01,3.49453e-04,1.68352e-01,2.91594e-01
1.65850e+03,-2.94577e+00,-6.70023e+01,8.24734e-03,1.69977e-01,2.94525e-01
1.65850e+03,-8.31828e+00,-6.46093e+01,8.96946e-02,1.73060e-01,3.12881e-01
1.65850e+03,-8.96876e+00,-6.22164e+01,1.07732e-01,1.75338e-01,3.22236e-01
1.65850e+03,-9.19322e+00,-5.98235e+01,1.20048e-01,1.77734e-01,3.30424e-01
1.65850e+03,-9.22728e+00,-5.74305e+01,1.29807e-01,1.80242e-01,3.38100e-01
1.65850e+03,-9.11789e+00,-5.50376e+01,1.37640e-01,1.82841e-01,3.45308e-01
1.65850e+03,-8.91848e+00,-5.26447e+01,1.44265e-01,1.85516e-01,3.52223e-01
1.65850e+03,-8.62868e+00,-5.02517e+01,1.49675e-01,1.88252e-01,3.58775e-01
1.65850e+03,-8.28374e+00,-4.78588e+01,1.54345e-01,1.91035e-01,3.65111e-01
1.65850e+03,-7.90682e+00,-4.54658e+01,1.58585e-01,1.93858e-01,3.71339e-01
1.65850e+03,-7.48171e+00,-4.30729e+01,1.62179e-01,1.96714e-01,3.77347e-01
1.65850e+03,-7.02650e+00,-4.06800e+01,1.65368e-01,1.99594e-01,3.83223e-01
1.65850e+03,-6.54196e+00,-3.82870e+01,1.68163e-01,2.02492e-01,3.88958e-01
1.65850e+03,-6.02822e+00,-3.58941e+01,1.70567e-01,2.05404e-01,3.94544e-01
1.65850e+03,-5.49615e+00,-3.35011e+01,1.72724e-01,2.08323e-01,4.00036e-01
1.65850e+03,-4.94063e+00,-3.11082e+01,1.74566e-01,2.11245e-01,4.05397e-01
1.65850e+03,-4.37009e+00,-2.87153e+01,1.76206e-01,2.14166e-01,4.10671e-01
1.65850e+03,-3.78607e+00,-2.63223e+01,1.77666e-01,2.17083e-01,4.15861e-01
1.65850e+03,-3.19003e+00,-2.39294e+01,1.78964e-01,2.19993e-01,4.20973e-01
1.65850e+03,-2.58890e+00,-2.15364e+01,1.80193e-01,2.22892e-01,4.26043e-01
1.65850e+03,-1.97988e+00,-1.91435e+01,1.81317e-01,2.25781e-01,4.31053e-01
1.65850e+03,-1.36954e+00,-1.67506e+01,1.82423e-01,2.28657e-01,4.36039e-01
1.65850e+03,-7.54494e-01,-1.43576e+01,1.83466e-01,2.31519e-01,4.40980e-01
1.65850e+03,-1.39508e-01,-1.19647e+01,1.84510e-01,2.34368e-01,4.45902e-01
1.65850e+03,4.73153e-01,-9.57176e+00,1.85584e-01,2.37202e-01,4.50816e-01
1.65850e+03,1.08581e+00,-7.17882e+00,1.86659e-01,2.40021e-01,4.55710e-01
1.65850e+03,1.68397e+00,-4.78588e+00,1.87929e-01,2.42826e-01,4.60663e-01
1.65850e+03,2.27942e+00,-2.39294e+00,1.89235e-01,2.45619e-01,4.65614e-01
1.71930e+03,2.94249e+01,0.00000e+00,-1.23417e-01,1.99445e-01,3.66834e-01
1.71930e+03,2.92767e+01,-2.23598e+00,-1.28246e-01,1.97343e-01,3.65076e-01
1.71930e+03,2.90795e+01,-4.47196e+00,-1.32607e-01,1.95190e-01,3.63156e-01
1.71930e+03,2.88804e+01,-6.70794e+00,-1.36950e-01,1.92988e-01,3.61232e-01
1.71930e+03,2.86381e+01,-8.94392e+00,-1.40879e-01,1.90741e-01,3.59157e-01
1.71930e+03,2.83857e+01,-1.11799e+01,-1.44712e-01,1.88453e-01,3.57050e-01
1.71930e+03,2.81002e+01,-1.34159e+01,-1.48228e-01,1.86126e-01,3.54824e-01
1.71930e+03,2.77986e+01,-1.56519e+01,-1.51590e-01,1.83764e-01,3.52544e-01
1.71930e+03,2.74703e+01,-1.78878e+01,-1.54697e-01,1.81371e-01,3.50167e-01
1.71930e+03,2.71201e+01,-2.01238e+01,-1.57594e-01,1.78949e-01,3.47712e-01
1.71930e+03,2.67458e+01,-2.23598e+01,-1.60261e-01,1.76501e-01,3.45168e-01
1.71930e+03,2.63424e+01,-2.45958e+01,-1.62650e-01,1.74031e-01,3.42513e-01
1.71930e+03,2.59091e+01,-2.68317e+01,-1.64752e-01,1.71542e-01,3.39740e-01
1.71930e+03,2.54336e+01,-2.90677e+01,-1.66451e-01,1.69038e-01,3.36790e-01
1.71930e+03,2.49169e+01,-3.13037e+01,-1.67756e-01,1.66525e-01,3.33666e-01
1.71930e+03,2.43509e+01,-3.35397e+01,-1.68590e-01,1.64005e-01,3.30326e-01
1.71930e+03,2.37183e+01,-3.57757e+01,-1.68786e-01,1.61488e-01,3.26686e-01
1.71930e+03,2.30393e+01,-3.80116e+01,-1.68539e-01,1.58975e-01,3.22839e-01
1.71930e+03,2.22560e+01,-4.02476e+01,-1.67294e-01,1.56481e-01,3.18506e-01
1.71930e+03,2.14293e+01,-4.24836e+01,-1.65635e-01,1.54010e-01,3.13994e-01
1.71930e+03,2.04822e+01,-4.47196e+01,-1.62824e-01,1.51569e-01,3.08919e-01
1.71930e+03,1.94385e+01,-4.69556e+01,-1.59089e-01,1.49179e-01,3.03434e-01
1.71930e+03,1.82964e+01,-4.91915e+01,-1.54414e-01,1.46843e-01,2.97544e-01
1.71930e+03,1.69894e+01,-5.14275e+01,-1.48161e-01,1.44571e-01,2.90953e-01
1.71930e+03,1.54913e+01,-5.36635e+01,-1.40080e-01,1.42389e-01,2.83630e-01
1.71930e+03,1.37772e+01,-5.58995e+01,-1.29933e-01,1.40324e-01,2.75600e-01
1.71930e+03,1.17498e+01,-5.81355e+01,-1.16791e-01,1.38394e-01,2.66643e-01
1.71930e+03,9.14742e+00,-6.03714e+01,-9.81498e-02,1.36692e-01,2.56295e-01
1.71930e+03,5.62782e+00,-6.26074e+01,-7.07368e-02,1.35652e-01,2.45374e-01
1.71930e+03,-2.28035e+00,-6.48434e+01,-1.35402e-03,1.36065e-01,2.35676e-01
1.71930e+03,-2.85109e+00,-6.48486e+01,4.08968e-03,1.37345e-01,2.37924e-01
1.71930e+03,-8.05090e+00,-6.25326e+01,6.02878e-02,1.39773e-01,2.49488e-01
1.71930e+03,-8.68047e+00,-6.02165e+01,7.27787e-02,1.41567e-01,2.55774e-01
1.71930e+03,-8.89772e+00,-5.79005e+01,8.13264e-02,1.43454e-01,2.61441e-01
1.71930e+03,-8.93068e+00,-5.55845e+01,8.81118e-02,1.45429e-01,2.66857e-01
1.71930e+03,-8.82481e+00,-5.32685e+01,9.35693e-02,1.47476e-01,2.72034e-01
1.71930e+03,-8.63181e+00,-5.09525e+01,9.81936e-02,1.49582e-01,2.77068e-01
1.71930e+03,-8.35132e+00,-4.86364e+01,1.01981e-01,1.51737e-01,2.81908e-01
1.71930e+03,-8.01747e+00,-4.63204e+01,1.05259e-01,1.53928e-01,2.86637e-01
1.71930e+03,-7.65266e+00,-4.40044e+01,1.08240e-01,1.56151e-01,2.91317e-01
1.71930e+03,-7.24122e+00,-4.16884e+01,1.10775e-01,1.58400e-01,2.95876e-01
1.71930e+03,-6.80064e+00,-3.93724e+01,1.13032e-01,1.60667e-01,3.00364e-01
1.71930e+03,-6.33168e+00,-3.70563e+01,1.15017e-01,1.62950e-01,3.04774e-01
1.71930e+03,-5.83445e+00,-3.47403e+01,1.16732e-01,1.65242e-01,3.09098e-01
1.71930e+03,-5.31949e+00,-3.24243e+01,1.18277e-01,1.67541e-01,3.13368e-01
1.71930e+03,-4.78182e+00,-3.01083e+01,1.19605e-01,1.69842e-01,3.17560e-01
1.71930e+03,-4.22962e+00,-2.77922e+01,1.20794e-01,1.72142e-01,3.21699e-01
1.71930e+03,-3.66437e+00,-2.54762e+01,1.21859e-01,1.74439e-01,3.25786e-01
1.71930e+03,-3.08749e+00,-2.31602e+01,1.22812e-01,1.76730e-01,3.29823e-01
1.71930e+03,-2.50568e+00,-2.08442e+01,1.23718e-01,1.79013e-01,3.33831e-01
1.71930e+03,-1.91624e+00,-1.85282e+01,1.24551e-01,1.81288e-01,3.37800e-01
1.71930e+03,-1.32552e+00,-1.62121e+01,1.25371e-01,1.83552e-01,3.41749e-01
1.71930e+03,-7.30242e-01,-1.38961e+01,1.26149e-01,1.85806e-01,3.45666e-01
1.71930e+03,-1.35024e-01,-1.15801e+01,1.26926e-01,1.88049e-01,3.49567e-01
1.71930e+03,4.57944e-01,-9.26408e+00,1.27726e-01,1.90280e-01,3.53460e-01
1.71930e+03,1.05091e+00,-6.94806e+00,1.28525e-01,1.92500e-01,3.57334e-01
1.71930e+03,1.62984e+00,-4.63204e+00,1.29458e-01,1.94709e-01,3.61240e-01
1.71930e+03,2.20615e+00,-2.31602e+00,1.30417e-01,1.96908e-01,3.65140e-01
1.77540e+03,2.77303e+01,0.00000e+00,-1.45351e-01,1.87162e-01,3.55268e-01
1.77540e+03,2.75906e+01,-2.10721e+00,-1.50578e-01,1.84355e-01,3.53035e-01
1.77540e+03,2.74048e+01,-4.21442e+00,-1.55250e-01,1.81478e-01,3.50579e-01
1.77540e+03,2.72172e+01,-6.32163e+00,-1.59900e-01,1.78536e-01,3.48129e-01
1.77540e+03,2.69888e+01,-8.42884e+00,-1.64060e-01,1.75534e-01,3.45473e-01
1.77540e+03,2.67510e+01,-1.05361e+01,-1.68107e-01,1.72475e-01,3.42786e-01
1.77540e+03,2.64819e+01,-1.26433e+01,-1.71777e-01,1.69364e-01,3.39941e-01
1.77540e+03,2.61977e+01,-1.47505e+01,-1.75264e-01,1.66207e-01,3.37034e-01
1.77540e+03,2.58883e+01,-1.68577e+01,-1.78450e-01,1.63006e-01,3.34002e-01
1.77540e+03,2.55583e+01,-1.89649e+01,-1.81387e-01,1.59767e-01,3.30874e-01
1.77540e+03,2.52056e+01,-2.10721e+01,-1.84051e-01,1.56493e-01,3.27635e-01
1.77540e+03,2.48254e+01,-2.31793e+01,-1.86384e-01,1.53189e-01,3.24253e-01
1.77540e+03,2.44171e+01,-2.52865e+01,-1.88380e-01,1.49859e-01,3.20718e-01
1.77540e+03,2.39689e+01,-2.73937e+01,-1.89896e-01,1.46509e-01,3.16946e-01
1.77540e+03,2.34819e+01,-2.95009e+01,-1.90945e-01,1.43145e-01,3.12940e-01
1.77540e+03,2.29486e+01,-3.16082e+01,-1.91436e-01,1.39772e-01,3.08637e-01
1.77540e+03,2.23524e+01,-3.37154e+01,-1.91171e-01,1.36403e-01,3.03914e-01
1.77540e+03,2.17125e+01,-3.58226e+01,-1.90380e-01,1.33040e-01,2.98903e-01
1.77540e+03,2.09743e+01,-3.79298e+01,-1.88406e-01,1.29700e-01,2.93194e-01
1.77540e+03,2.01952e+01,-4.00370e+01,-1.85942e-01,1.26391e-01,2.87226e-01
1.77540e+03,1.93026e+01,-4.21442e+01,-1.82111e-01,1.23123e-01,2.80432e-01
1.77540e+03,1.83190e+01,-4.42514e+01,-1.77186e-01,1.19921e-01,2.73016e-01
1.77540e+03,1.72428e+01,-4.63586e+01,-1.71145e-01,1.16792e-01,2.64975e-01
1.77540e+03,1.60110e+01,-4.84658e+01,-1.63235e-01,1.13747e-01,2.55853e-01
1.77540e+03,1.45992e+01,-5.05731e+01,-1.53158e-01,1.10823e-01,2.45566e-01
1.77540e+03,1.29838e+01,-5.26803e+01,-1.40631e-01,1.08056e-01,2.34105e-01
1.77540e+03,1.10731e+01,-5.47875e+01,-1.24553e-01,1.05467e-01,2.21095e-01
1.77540e+03,8.62063e+00,-5.68947e+01,-1.01957e-01,1.03183e-01,2.05755e-01
1.77540e+03,5.30372e+00,-5.90019e+01,-6.89621e-02,1.01781e-01,1.89299e-01
1.77540e+03,-2.14903e+00,-6.11091e+01,1.37872e-02,1.02327e-01,1.77771e-01
1.77540e+03,-2.68689e+00,-6.11140e+01,2.02417e-02,1.04037e-01,1.81331e-01
1.77540e+03,-7.58725e+00,-5.89314e+01,8.63475e-02,1.07282e-01,2.04901e-01
1.77540e+03,-8.18057e+00,-5.67487e+01,1.00640e-01,1.09681e-01,2.14984e-01
1.77540e+03,-8.38530e+00,-5.45661e+01,1.10257e-01,1.12206e-01,2.23444e-01
1.77540e+03,-8.41637e+00,-5.23834e+01,1.17785e-01,1.14849e-01,2.31180e-01
1.77540e+03,-8.31659e+00,-5.02008e+01,1.23740e-01,1.17588e-01,2.38312e-01
1.77540e+03,-8.13471e+00,-4.80181e+01,1.28706e-01,1.20408e-01,2.45071e-01
1.77540e+03,-7.87037e+00,-4.58355e+01,1.32681e-01,1.23293e-01,2.51411e-01
1.77540e+03,-7.55575e+00,-4.36529e+01,1.36050e-01,1.26227e-01,2.57506e-01
1.77540e+03,-7.21195e+00,-4.14702e+01,1.39069e-01,1.29205e-01,2.63480e-01
1.77540e+03,-6.82421e+00,-3.92876e+01,1.41559e-01,1.32216e-01,2.69225e-01
1.77540e+03,-6.40900e+00,-3.71049e+01,1.43718e-01,1.35254e-01,2.74838e-01
1.77540e+03,-5.96704e+00,-3.49223e+01,1.45556e-01,1.38313e-01,2.80317e-01
1.77540e+03,-5.49844e+00,-3.27396e+01,1.47073e-01,1.41384e-01,2.85656e-01
1.77540e+03,-5.01314e+00,-3.05570e+01,1.48390e-01,1.44465e-01,2.90912e-01
1.77540e+03,-4.50644e+00,-2.83744e+01,1.49449e-01,1.47550e-01,2.96053e-01
1.77540e+03,-3.98604e+00,-2.61917e+01,1.50343e-01,1.50633e-01,3.01121e-01
1.77540e+03,-3.45334e+00,-2.40091e+01,1.51089e-01,1.53713e-01,3.06122e-01
1.77540e+03,-2.90969e+00,-2.18264e+01,1.51703e-01,1.56785e-01,3.11060e-01
1.77540e+03,-2.36138e+00,-1.96438e+01,1.52262e-01,1.59848e-01,3.15970e-01
1.77540e+03,-1.80588e+00,-1.74611e+01,1.52733e-01,1.62898e-01,3.20835e-01
1.77540e+03,-1.24918e+00,-1.52785e+01,1.53191e-01,1.65937e-01,3.25687e-01
1.77540e+03,-6.88187e-01,-1.30959e+01,1.53597e-01,1.68961e-01,3.30508e-01
1.77540e+03,-1.27248e-01,-1.09132e+01,1.54003e-01,1.71971e-01,3.35319e-01
1.77540e+03,4.31571e-01,-8.73057e+00,1.54435e-01,1.74966e-01,3.40132e-01
1.77540e+03,9.90390e-01,-6.54793e+00,1.54867e-01,1.77946e-01,3.44932e-01
1.77540e+03,1.53598e+00,-4.36529e+00,1.55458e-01,1.80912e-01,3.49792e-01
1.77540e+03,2.07910e+00,-2.18264e+00,1.56079e-01,1.83865e-01,3.54655e-01
1.82660e+03,2.53092e+01,0.00000e+00,-9.90952e-02,1.53001e-01,2.82927e-01
1.82660e+03,2.51817e+01,-1.92323e+00,-1.02726e-01,1.50864e-01,2.80771e-01
1.82660e+03,2.50121e+01,-3.84646e+00,-1.05978e-01,1.48674e-01,2.78466e-01
1.82660e+03,2.48409e+01,-5.76969e+00,-1.09216e-01,1.46434e-01,2.76147e-01
1.82660e+03,2.46324e+01,-7.69292e+00,-1.12119e-01,1.44149e-01,2.73692e-01
1.82660e+03,2.44154e+01,-9.61614e+00,-1.14944e-01,1.41820e-01,2.71203e-01
1.82660e+03,2.41698e+01,-1.15394e+01,-1.17513e-01,1.39453e-01,2.68609e-01
1.82660e+03,2.39103e+01,-1.34626e+01,-1.19958e-01,1.37049e-01,2.65965e-01
1.82660e+03,2.36280e+01,-1.53858e+01,-1.22197e-01,1.34613e-01,2.63238e-01
1.82660e+03,2.33268e+01,-1.73091e+01,-1.24266e-01,1.32148e-01,2.60444e-01
1.82660e+03,2.30049e+01,-1.92323e+01,-1.26149e-01,1.29656e-01,2.57576e-01
1.82660e+03,2.26579e+01,-2.11555e+01,-1.27807e-01,1.27141e-01,2.54616e-01
1.82660e+03,2.22852e+01,-2.30787e+01,-1.29234e-01,1.24607e-01,2.51559e-01
1.82660e+03,2.18762e+01,-2.50020e+01,-1.30334e-01,1.22057e-01,2.48356e-01
1.82660e+03,2.14317e+01,-2.69252e+01,-1.31116e-01,1.19497e-01,2.45010e-01
1.82660e+03,2.09449e+01,-2.88484e+01,-1.31517e-01,1.16930e-01,2.41485e-01
1.82660e+03,2.04008e+01,-3.07717e+01,-1.31403e-01,1.14366e-01,2.37709e-01
1.82660e+03,1.98168e+01,-3.26949e+01,-1.30931e-01,1.11807e-01,2.33763e-01
1.82660e+03,1.91430e+01,-3.46181e+01,-1.29652e-01,1.09265e-01,2.29404e-01
1.82660e+03,1.84320e+01,-3.65413e+01,-1.28038e-01,1.06747e-01,2.24897e-01
1.82660e+03,1.76173e+01,-3.84646e+01,-1.25493e-01,1.04260e-01,2.19906e-01
1.82660e+03,1.67196e+01,-4.03878e+01,-1.22201e-01,1.01824e-01,2.14563e-01
1.82660e+03,1.57373e+01,-4.23110e+01,-1.18149e-01,9.94430e-02,2.08868e-01
1.82660e+03,1.46131e+01,-4.42343e+01,-1.12821e-01,9.71263e-02,2.02557e-01
1.82660e+03,1.33245e+01,-4.61575e+01,-1.06017e-01,9.49016e-02,1.95598e-01
1.82660e+03,1.18502e+01,-4.80807e+01,-9.75424e-02,9.27958e-02,1.88010e-01
1.82660e+03,1.01063e+01,-5.00040e+01,-8.66461e-02,9.08261e-02,1.79599e-01
1.82660e+03,7.86795e+00,-5.19272e+01,-7.13054e-02,8.90887e-02,1.69985e-01
1.82660e+03,4.84065e+00,-5.38504e+01,-4.88741e-02,8.80237e-02,1.60104e-01
1.82660e+03,-1.96139e+00,-5.57736e+01,7.48240e-03,8.84398e-02,1.53365e-01
1.82660e+03,-2.45230e+00,-5.57781e+01,1.18833e-02,8.97414e-02,1.55890e-01
1.82660e+03,-6.92480e+00,-5.37860e+01,5.70269e-02,9.22117e-02,1.69591e-01
1.82660e+03,-7.46632e+00,-5.17940e+01,6.68410e-02,9.40375e-02,1.76059e-01
1.82660e+03,-7.65318e+00,-4.98019e+01,7.34678e-02,9.59592e-02,1.81720e-01
1.82660e+03,-7.68153e+00,-4.78098e+01,7.86699e-02,9.79703e-02,1.87039e-01
1.82660e+03,-7.59047e+00,-4.58177e+01,8.27988e-02,1.00055e-01,1.92064e-01
1.82660e+03,-7.42446e+00,-4.38257e+01,8.62542e-02,1.02201e-01,1.96913e-01
1.82660e+03,-7.18321e+00,-4.18336e+01,8.90333e-02,1.04396e-01,2.01550e-01
1.82660e+03,-6.89605e+00,-3.98415e+01,9.13998e-02,1.06629e-01,2.06066e-01
1.82660e+03,-6.58227e+00,-3.78494e+01,9.35271e-02,1.08895e-01,2.10526e-01
1.82660e+03,-6.22838e+00,-3.58574e+01,9.52938e-02,1.11186e-01,2.14867e-01
1.82660e+03,-5.84943e+00,-3.38653e+01,9.68354e-02,1.13498e-01,2.19140e-01
1.82660e+03,-5.44606e+00,-3.18732e+01,9.81574e-02,1.15825e-01,2.23340e-01
1.82660e+03,-5.01837e+00,-2.98811e+01,9.92610e-02,1.18162e-01,2.27463e-01
1.82660e+03,-4.57544e+00,-2.78891e+01,1.00228e-01,1.20506e-01,2.31539e-01
1.82660e+03,-4.11298e+00,-2.58970e+01,1.01019e-01,1.22853e-01,2.35548e-01
1.82660e+03,-3.63801e+00,-2.39049e+01,1.01697e-01,1.25199e-01,2.39513e-01
1.82660e+03,-3.15183e+00,-2.19128e+01,1.02275e-01,1.27542e-01,2.43435e-01
1.82660e+03,-2.65564e+00,-1.99208e+01,1.02763e-01,1.29879e-01,2.47317e-01
1.82660e+03,-2.15521e+00,-1.79287e+01,1.03213e-01,1.32208e-01,2.51177e-01
1.82660e+03,-1.64821e+00,-1.59366e+01,1.03603e-01,1.34529e-01,2.55006e-01
1.82660e+03,-1.14012e+00,-1.39445e+01,1.03984e-01,1.36840e-01,2.58821e-01
1.82660e+03,-6.28101e-01,-1.19525e+01,1.04330e-01,1.39141e-01,2.62612e-01
1.82660e+03,-1.16138e-01,-9.96038e+00,1.04676e-01,1.41430e-01,2.66392e-01
1.82660e+03,3.93890e-01,-7.96830e+00,1.05039e-01,1.43709e-01,2.70166e-01
1.82660e+03,9.03919e-01,-5.97623e+00,1.05403e-01,1.45975e-01,2.73927e-01
1.82660e+03,1.40187e+00,-3.98415e+00,1.05875e-01,1.48231e-01,2.77717e-01
1.82660e+03,1.89757e+00,-1.99208e+00,1.06367e-01,1.50477e-01,2.81503e-01
1.87280e+03,2.31244e+01,0.00000e+00,-6.34979e-02,1.21751e-01,2.20232e-01
1.87280e+03,2.30080e+01,-1.75721e+00,-6.58898e-02,1.20182e-01,2.18340e-01
1.87280e+03,2.28531e+01,-3.51443e+00,-6.80389e-02,1.18574e-01,2.16353e-01
1.87280e+03,2.26966e+01,-5.27164e+00,-7.01783e-02,1.16929e-01,2.14342e-01
1.87280e+03,2.25061e+01,-7.02886e+00,-7.21033e-02,1.15251e-01,2.12244e-01
1.87280e+03,2.23078e+01,-8.78607e+00,-7.39786e-02,1.13542e-01,2.10114e-01
1.87280e+03,2.20834e+01,-1.05433e+01,-7.56894e-02,1.11803e-01,2.07916e-01
1.87280e+03,2.18464e+01,-1.23005e+01,-7.73204e-02,1.10039e-01,2.05680e-01
1.87280e+03,2.15884e+01,-1.40577e+01,-7.88191e-02,1.08250e-01,2.03389e-01
1.87280e+03,2.13132e+01,-1.58149e+01,-8.02093e-02,1.06440e-01,2.01053e-01
1.87280e+03,2.10191e+01,-1.75721e+01,-8.14801e-02,1.04611e-01,1.98669e-01
1.87280e+03,2.07020e+01,-1.93294e+01,-8.26063e-02,1.02765e-01,1.96229e-01
1.87280e+03,2.03615e+01,-2.10866e+01,-8.35845e-02,1.00905e-01,1.93731e-01
1.87280e+03,1.99878e+01,-2.28438e+01,-8.43530e-02,9.90329e-02,1.91149e-01
1.87280e+03,1.95817e+01,-2.46010e+01,-8.49174e-02,9.71538e-02,1.88487e-01
1.87280e+03,1.91369e+01,-2.63582e+01,-8.52377e-02,9.52698e-02,1.85727e-01
1.87280e+03,1.86398e+01,-2.81154e+01,-8.52273e-02,9.33877e-02,1.82832e-01
1.87280e+03,1.81062e+01,-2.98726e+01,-8.49870e-02,9.15089e-02,1.79846e-01
1.87280e+03,1.74905e+01,-3.16299e+01,-8.42291e-02,8.96433e-02,1.76642e-01
1.87280e+03,1.68409e+01,-3.33871e+01,-8.32567e-02,8.77954e-02,1.73366e-01
1.87280e+03,1.60966e+01,-3.51443e+01,-8.16866e-02,8.59698e-02,1.69839e-01
1.87280e+03,1.52763e+01,-3.69015e+01,-7.96376e-02,8.41818e-02,1.66138e-01
1.87280e+03,1.43788e+01,-3.86587e+01,-7.71012e-02,8.24345e-02,1.62268e-01
1.87280e+03,1.33517e+01,-4.04159e+01,-7.37467e-02,8.07342e-02,1.58090e-01
1.87280e+03,1.21743e+01,-4.21731e+01,-6.94444e-02,7.91015e-02,1.53602e-01
1.87280e+03,1.08272e+01,-4.39304e+01,-6.40710e-02,7.75561e-02,1.48829e-01
1.87280e+03,9.23393e+00,-4.56876e+01,-5.71440e-02,7.61108e-02,1.43680e-01
1.87280e+03,7.18879e+00,-4.74448e+01,-4.73659e-02,7.48360e-02,1.38003e-01
1.87280e+03,4.42280e+00,-4.92020e+01,-3.30395e-02,7.40551e-02,1.32454e-01
1.87280e+03,-1.79208e+00,-5.09592e+01,3.04939e-03,7.43611e-02,1.28833e-01
1.87280e+03,-2.24062e+00,-5.09633e+01,5.87233e-03,7.53169e-02,1.30585e-01
1.87280e+03,-6.32705e+00,-4.91432e+01,3.48961e-02,7.71305e-02,1.38076e-01
1.87280e+03,-6.82182e+00,-4.73231e+01,4.12567e-02,7.84708e-02,1.42039e-01
1.87280e+03,-6.99255e+00,-4.55029e+01,4.55727e-02,7.98815e-02,1.45671e-01
1.87280e+03,-7.01846e+00,-4.36828e+01,4.89748e-02,8.13577e-02,1.49184e-01
1.87280e+03,-6.93525e+00,-4.18627e+01,5.16884e-02,8.28879e-02,1.52587e-01
1.87280e+03,-6.78358e+00,-4.00426e+01,5.39699e-02,8.44630e-02,1.55932e-01
1.87280e+03,-6.56315e+00,-3.82225e+01,5.58177e-02,8.60741e-02,1.59191e-01
1.87280e+03,-6.30078e+00,-3.64024e+01,5.74008e-02,8.77131e-02,1.62406e-01
1.87280e+03,-6.01408e+00,-3.45822e+01,5.88304e-02,8.93758e-02,1.65605e-01
1.87280e+03,-5.69074e+00,-3.27621e+01,6.00288e-02,9.10578e-02,1.68754e-01
1.87280e+03,-5.34450e+00,-3.09420e+01,6.10826e-02,9.27542e-02,1.71875e-01
1.87280e+03,-4.97595e+00,-2.91219e+01,6.19957e-02,9.44620e-02,1.74965e-01
1.87280e+03,-4.58518e+00,-2.73018e+01,6.27686e-02,9.61773e-02,1.78017e-01
1.87280e+03,-4.18049e+00,-2.54816e+01,6.34537e-02,9.78973e-02,1.81047e-01
1.87280e+03,-3.75794e+00,-2.36615e+01,6.40261e-02,9.96195e-02,1.84042e-01
1.87280e+03,-3.32398e+00,-2.18414e+01,6.45264e-02,1.01341e-01,1.87013e-01
1.87280e+03,-2.87976e+00,-2.00213e+01,6.49621e-02,1.03060e-01,1.89959e-01
1.87280e+03,-2.42640e+00,-1.82012e+01,6.53400e-02,1.04775e-01,1.92881e-01
1.87280e+03,-1.96917e+00,-1.63811e+01,6.56936e-02,1.06485e-01,1.95787e-01
1.87280e+03,-1.50594e+00,-1.45609e+01,6.60092e-02,1.08188e-01,1.98673e-01
1.87280e+03,-1.04170e+00,-1.27408e+01,6.63186e-02,1.09883e-01,2.01547e-01
1.87280e+03,-5.73883e-01,-1.09207e+01,6.66053e-02,1.11571e-01,2.04404e-01
1.87280e+03,-1.06113e-01,-9.10059e+00,6.68923e-02,1.13251e-01,2.07249e-01
1.87280e+03,3.59890e-01,-7.28047e+00,6.71905e-02,1.14923e-01,2.10086e-01
1.87280e+03,8.25892e-01,-5.46035e+00,6.74887e-02,1.16586e-01,2.12911e-01
1.87280e+03,1.28086e+00,-3.64024e+00,6.78565e-02,1.18241e-01,2.15747e-01
1.87280e+03,1.73377e+00,-1.82012e+00,6.82373e-02,1.19889e-01,2.18577e-01
1.91380e+03,2.11856e+01,0.00000e+00,-3.76363e-02,9.36136e-02,1.66454e-01
1.91380e+03,2.10789e+01,-1.60989e+00,-3.91087e-02,9.25096e-02,1.64935e-01
1.91380e+03,2.09370e+01,-3.21977e+00,-4.04369e-02,9.13786e-02,1.63356e-01
1.91380e+03,2.07936e+01,-4.82966e+00,-4.17593e-02,9.02218e-02,1.61752e-01
1.91380e+03,2.06192e+01,-6.43954e+00,-4.29544e-02,8.90414e-02,1.60094e-01
1.91380e+03,2.04375e+01,-8.04943e+00,-4.41200e-02,8.78390e-02,1.58410e-01
1.91380e+03,2.02319e+01,-9.65931e+00,-4.51878e-02,8.66164e-02,1.56682e-01
1.91380e+03,2.00147e+01,-1.12692e+01,-4.62082e-02,8.53754e-02,1.54926e-01
1.91380e+03,1.97784e+01,-1.28791e+01,-4.71501e-02,8.41175e-02,1.53135e-01
1.91380e+03,1.95262e+01,-1.44890e+01,-4.80275e-02,8.28445e-02,1.51315e-01
1.91380e+03,1.92568e+01,-1.60989e+01,-4.88340e-02,8.15580e-02,1.49465e-01
1.91380e+03,1.89663e+01,-1.77087e+01,-4.95546e-02,8.02597e-02,1.47582e-01
1.91380e+03,1.86544e+01,-1.93186e+01,-5.01872e-02,7.89513e-02,1.45666e-01
1.91380e+03,1.83120e+01,-2.09285e+01,-5.06954e-02,7.76351e-02,1.43707e-01
1.91380e+03,1.79399e+01,-2.25384e+01,-5.10823e-02,7.63136e-02,1.41706e-01
1.91380e+03,1.75325e+01,-2.41483e+01,-5.13241e-02,7.49887e-02,1.39657e-01
1.91380e+03,1.70770e+01,-2.57582e+01,-5.13696e-02,7.36652e-02,1.37545e-01
1.91380e+03,1.65881e+01,-2.73680e+01,-5.12785e-02,7.23440e-02,1.35390e-01
1.91380e+03,1.60241e+01,-2.89779e+01,-5.08800e-02,7.10322e-02,1.33137e-01
1.91380e+03,1.54289e+01,-3.05878e+01,-5.03540e-02,6.97327e-02,1.30857e-01
1.91380e+03,1.47470e+01,-3.21977e+01,-4.94731e-02,6.84491e-02,1.28466e-01
1.91380e+03,1.39955e+01,-3.38076e+01,-4.83076e-02,6.71918e-02,1.26007e-01
1.91380e+03,1.31733e+01,-3.54175e+01,-4.68527e-02,6.59632e-02,1.23485e-01
1.91380e+03,1.22322e+01,-3.70274e+01,-4.49118e-02,6.47677e-02,1.20837e-01
1.91380e+03,1.11536e+01,-3.86372e+01,-4.24079e-02,6.36198e-02,1.18071e-01
1.91380e+03,9.91946e+00,-4.02471e+01,-3.92678e-02,6.25333e-02,1.15209e-01
1.91380e+03,8.45973e+00,-4.18570e+01,-3.52049e-02,6.15172e-02,1.12216e-01
1.91380e+03,6.58606e+00,-4.34669e+01,-2.94485e-02,6.06210e-02,1.09050e-01
1.91380e+03,4.05198e+00,-4.50768e+01,-2.09903e-02,6.00725e-02,1.06145e-01
1.91380e+03,-1.64183e+00,-4.66867e+01,3.94440e-04,6.02880e-02,1.04423e-01
1.91380e+03,-2.05276e+00,-4.66904e+01,2.07112e-03,6.09603e-02,1.05607e-01
1.91380e+03,-5.79657e+00,-4.50229e+01,1.93644e-02,6.22359e-02,1.09521e-01
1.91380e+03,-6.24986e+00,-4.33554e+01,2.31961e-02,6.31785e-02,1.11860e-01
1.91380e+03,-6.40628e+00,-4.16879e+01,2.58132e-02,6.41706e-02,1.14105e-01
1.91380e+03,-6.43001e+00,-4.00204e+01,2.78875e-02,6.52087e-02,1.16337e-01
1.91380e+03,-6.35378e+00,-3.83528e+01,2.95528e-02,6.62848e-02,1.18551e-01
1.91380e+03,-6.21483e+00,-3.66853e+01,3.09616e-02,6.73924e-02,1.20764e-01
1.91380e+03,-6.01288e+00,-3.50178e+01,3.21126e-02,6.85253e-02,1.22957e-01
1.91380e+03,-5.77251e+00,-3.33503e+01,3.31064e-02,6.96778e-02,1.25144e-01
1.91380e+03,-5.50985e+00,-3.16828e+01,3.40091e-02,7.08469e-02,1.27336e-01
1.91380e+03,-5.21362e+00,-3.00153e+01,3.47744e-02,7.20296e-02,1.29515e-01
1.91380e+03,-4.89640e+00,-2.83477e+01,3.54539e-02,7.32224e-02,1.31687e-01
1.91380e+03,-4.55876e+00,-2.66802e+01,3.60498e-02,7.44231e-02,1.33851e-01
1.91380e+03,-4.20075e+00,-2.50127e+01,3.65624e-02,7.56291e-02,1.36000e-01
1.91380e+03,-3.82998e+00,-2.33452e+01,3.70227e-02,7.68385e-02,1.38142e-01
1.91380e+03,-3.44287e+00,-2.16777e+01,3.74162e-02,7.80492e-02,1.40268e-01
1.91380e+03,-3.04529e+00,-2.00102e+01,3.77669e-02,7.92596e-02,1.42382e-01
1.91380e+03,-2.63832e+00,-1.83427e+01,3.80792e-02,8.04683e-02,1.44484e-01
1.91380e+03,-2.22297e+00,-1.66751e+01,3.83572e-02,8.16740e-02,1.46571e-01
1.91380e+03,-1.80407e+00,-1.50076e+01,3.86207e-02,8.28757e-02,1.48650e-01
1.91380e+03,-1.37967e+00,-1.33401e+01,3.88617e-02,8.40728e-02,1.50715e-01
1.91380e+03,-9.54362e-01,-1.16726e+01,3.90989e-02,8.52649e-02,1.52771e-01
1.91380e+03,-5.25768e-01,-1.00051e+01,3.93227e-02,8.64515e-02,1.54816e-01
1.91380e+03,-9.72161e-02,-8.33757e+00,3.95467e-02,8.76323e-02,1.56851e-01
1.91380e+03,3.29716e-01,-6.67006e+00,3.97773e-02,8.88073e-02,1.58879e-01
1.91380e+03,7.56647e-01,-5.00254e+00,4.00079e-02,8.99760e-02,1.60897e-01
1.91380e+03,1.17347e+00,-3.33503e+00,4.02799e-02,9.11393e-02,1.62916e-01
1.91380e+03,1.58841e+00,-1.66751e+00,4.05596e-02,9.22976e-02,1.64929e-01
1.94970e+03,1.94880e+01,0.00000e+00,-2.00627e-02,6.82862e-02,1.19965e-01
1.94970e+03,1.93899e+01,-1.48088e+00,-2.08885e-02,6.75546e-02,1.18858e-01
1.94970e+03,1.92593e+01,-2.96177e+00,-2.16371e-02,6.68050e-02,1.17715e-01
1.94970e+03,1.91274e+01,-4.44265e+00,-2.23827e-02,6.60384e-02,1.16551e-01
1.94970e+03,1.89669e+01,-5.92353e+00,-2.30602e-02,6.52562e-02,1.15355e-01
1.94970e+03,1.87998e+01,-7.40441e+00,-2.37218e-02,6.44593e-02,1.14139e-01
1.94970e+03,1.86107e+01,-8.88530e+00,-2.43312e-02,6.36492e-02,1.12897e-01
1.94970e+03,1.84109e+01,-1.03662e+01,-2.49152e-02,6.28268e-02,1.11635e-01
1.94970e+03,1.81935e+01,-1.18471e+01,-2.54572e-02,6.19933e-02,1.10352e-01
1.94970e+03,1.79616e+01,-1.33279e+01,-2.59647e-02,6.11498e-02,1.09051e-01
1.94970e+03,1.77137e+01,-1.48088e+01,-2.64343e-02,6.02973e-02,1.07731e-01
1.94970e+03,1.74465e+01,-1.62897e+01,-2.68579e-02,5.94370e-02,1.06394e-01
1.94970e+03,1.71596e+01,-1.77706e+01,-2.72345e-02,5.85701e-02,1.05038e-01
1.94970e+03,1.68446e+01,-1.92515e+01,-2.75445e-02,5.76980e-02,1.03662e-01
1.94970e+03,1.65024e+01,-2.07324e+01,-2.77896e-02,5.68224e-02,1.02267e-01
1.94970e+03,1.61276e+01,-2.22132e+01,-2.79571e-02,5.59446e-02,1.00851e-01
1.94970e+03,1.57086e+01,-2.36941e+01,-2.80196e-02,5.50677e-02,9.94105e-02
1.94970e+03,1.52589e+01,-2.51750e+01,-2.80090e-02,5.41923e-02,9.79537e-02
1.94970e+03,1.47401e+01,-2.66559e+01,-2.78340e-02,5.33232e-02,9.64615e-02
1.94970e+03,1.41926e+01,-2.81368e+01,-2.75907e-02,5.24623e-02,9.49638e-02
1.94970e+03,1.35653e+01,-2.96177e+01,-2.71577e-02,5.16118e-02,9.34285e-02
1.94970e+03,1.28740e+01,-3.10985e+01,-2.65724e-02,5.07789e-02,9.18781e-02
1.94970e+03,1.21177e+01,-3.25794e+01,-2.58322e-02,4.99650e-02,9.03150e-02
1.94970e+03,1.12521e+01,-3.40603e+01,-2.48321e-02,4.91730e-02,8.87163e-02
1.94970e+03,1.02599e+01,-3.55412e+01,-2.35308e-02,4.84126e-02,8.70921e-02
1.94970e+03,9.12460e+00,-3.70221e+01,-2.18892e-02,4.76928e-02,8.54573e-02
1.94970e+03,7.78184e+00,-3.85029e+01,-1.97539e-02,4.70198e-02,8.38021e-02
1.94970e+03,6.05831e+00,-3.99838e+01,-1.67128e-02,4.64262e-02,8.21310e-02
1.94970e+03,3.72729e+00,-4.14647e+01,-1.22264e-02,4.60631e-02,8.07150e-02
1.94970e+03,-1.51027e+00,-4.29456e+01,-8.25027e-04,4.62061e-02,8.00356e-02
1.94970e+03,-1.88827e+00,-4.29490e+01,7.18028e-05,4.66517e-02,8.08031e-02
1.94970e+03,-5.33209e+00,-4.14151e+01,9.36215e-03,4.74970e-02,8.27982e-02
1.94970e+03,-5.74905e+00,-3.98812e+01,1.14513e-02,4.81216e-02,8.41320e-02
1.94970e+03,-5.89293e+00,-3.83473e+01,1.28909e-02,4.87789e-02,8.54653e-02
1.94970e+03,-5.91477e+00,-3.68135e+01,1.40400e-02,4.94667e-02,8.68216e-02
1.94970e+03,-5.84465e+00,-3.52796e+01,1.49704e-02,5.01797e-02,8.81936e-02
1.94970e+03,-5.71682e+00,-3.37457e+01,1.57635e-02,5.09136e-02,8.95827e-02
1.94970e+03,-5.53106e+00,-3.22118e+01,1.64187e-02,5.16641e-02,9.09787e-02
1.94970e+03,-5.30995e+00,-3.06779e+01,1.69899e-02,5.24276e-02,9.23831e-02
1.94970e+03,-5.06834e+00,-2.91440e+01,1.75122e-02,5.32022e-02,9.37982e-02
1.94970e+03,-4.79584e+00,-2.76101e+01,1.79612e-02,5.39857e-02,9.52154e-02
1.94970e+03,-4.50405e+00,-2.60762e+01,1.83641e-02,5.47759e-02,9.66356e-02
1.94970e+03,-4.19345e+00,-2.45423e+01,1.87224e-02,5.55714e-02,9.80564e-02
1.94970e+03,-3.86414e+00,-2.30084e+01,1.90361e-02,5.63703e-02,9.94747e-02
1.94970e+03,-3.52308e+00,-2.14745e+01,1.93219e-02,5.71714e-02,1.00891e-01
1.94970e+03,-3.16699e+00,-1.99406e+01,1.95719e-02,5.79735e-02,1.02303e-01
1.94970e+03,-2.80126e+00,-1.84067e+01,1.97991e-02,5.87752e-02,1.03709e-01
1.94970e+03,-2.42690e+00,-1.68728e+01,2.00056e-02,5.95759e-02,1.05110e-01
1.94970e+03,-2.04484e+00,-1.53389e+01,2.01938e-02,6.03745e-02,1.06504e-01
1.94970e+03,-1.65951e+00,-1.38050e+01,2.03743e-02,6.11705e-02,1.07892e-01
1.94970e+03,-1.26912e+00,-1.22712e+01,2.05427e-02,6.19634e-02,1.09272e-01
1.94970e+03,-8.77888e-01,-1.07373e+01,2.07092e-02,6.27530e-02,1.10647e-01
1.94970e+03,-4.83637e-01,-9.20336e+00,2.08684e-02,6.35389e-02,1.12014e-01
1.94970e+03,-8.94260e-02,-7.66947e+00,2.10277e-02,6.43210e-02,1.13374e-01
1.94970e+03,3.03295e-01,-6.13558e+00,2.11906e-02,6.50992e-02,1.14729e-01
1.94970e+03,6.96016e-01,-4.60168e+00,2.13535e-02,6.58733e-02,1.16077e-01
1.94970e+03,1.07944e+00,-3.06779e+00,2.15385e-02,6.66437e-02,1.17422e-01
1.94970e+03,1.46113e+00,-1.53389e+00,2.17276e-02,6.74108e-02,1.18763e-01
1.98010e+03,1.80504e+01,0.00000e+00,-9.32012e-03,4.63294e-02,8.07843e-02
1.98010e+03,1.79595e+01,-1.37164e+00,-9.73111e-03,4.58799e-02,8.00599e-02
1.98010e+03,1.78386e+01,-2.74329e+00,-1.01061e-02,4.54195e-02,7.93153e-02
1.98010e+03,1.77165e+01,-4.11493e+00,-1.04796e-02,4.49485e-02,7.85553e-02
1.98010e+03,1.75678e+01,-5.48657e+00,-1.08213e-02,4.44680e-02,7.77773e-02
1.98010e+03,1.74130e+01,-6.85822e+00,-1.11556e-02,4.39785e-02,7.69855e-02
1.98010e+03,1.72378e+01,-8.22986e+00,-1.14655e-02,4.34808e-02,7.61788e-02
1.98010e+03,1.70528e+01,-9.60150e+00,-1.17636e-02,4.29757e-02,7.53599e-02
1.98010e+03,1.68514e+01,-1.09731e+01,-1.20420e-02,4.24637e-02,7.45285e-02
1.98010e+03,1.66366e+01,-1.23448e+01,-1.23043e-02,4.19456e-02,7.36864e-02
1.98010e+03,1.64070e+01,-1.37164e+01,-1.25489e-02,4.14219e-02,7.28341e-02
1.98010e+03,1.61595e+01,-1.50881e+01,-1.27720e-02,4.08936e-02,7.19721e-02
1.98010e+03,1.58938e+01,-1.64597e+01,-1.29732e-02,4.03611e-02,7.11010e-02
1.98010e+03,1.56020e+01,-1.78314e+01,-1.31433e-02,3.98254e-02,7.02206e-02
1.98010e+03,1.52851e+01,-1.92030e+01,-1.32830e-02,3.92876e-02,6.93325e-02
1.98010e+03,1.49379e+01,-2.05747e+01,-1.33865e-02,3.87485e-02,6.84363e-02
1.98010e+03,1.45498e+01,-2.19463e+01,-1.34409e-02,3.82099e-02,6.75326e-02
1.98010e+03,1.41333e+01,-2.33179e+01,-1.34612e-02,3.76723e-02,6.66244e-02
1.98010e+03,1.36527e+01,-2.46896e+01,-1.34047e-02,3.71385e-02,6.57076e-02
1.98010e+03,1.31457e+01,-2.60612e+01,-1.33163e-02,3.66098e-02,6.47932e-02
1.98010e+03,1.25646e+01,-2.74329e+01,-1.31392e-02,3.60875e-02,6.38714e-02
1.98010e+03,1.19244e+01,-2.88045e+01,-1.28911e-02,3.55760e-02,6.29534e-02
1.98010e+03,1.12238e+01,-3.01762e+01,-1.25705e-02,3.50761e-02,6.20404e-02
1.98010e+03,1.04220e+01,-3.15478e+01,-1.21286e-02,3.45897e-02,6.11265e-02
1.98010e+03,9.50303e+00,-3.29194e+01,-1.15459e-02,3.41227e-02,6.02195e-02
1.98010e+03,8.45151e+00,-3.42911e+01,-1.08043e-02,3.36808e-02,5.93289e-02
1.98010e+03,7.20780e+00,-3.56627e+01,-9.83209e-03,3.32675e-02,5.84538e-02
1.98010e+03,5.61141e+00,-3.70344e+01,-8.43669e-03,3.29030e-02,5.76108e-02
1.98010e+03,3.45234e+00,-3.84060e+01,-6.36613e-03,3.26802e-02,5.69606e-02
1.98010e+03,-1.39886e+00,-3.97777e+01,-1.06534e-03,3.27681e-02,5.67661e-02
1.98010e+03,-1.74898e+00,-3.97808e+01,-6.46451e-04,3.30419e-02,5.72339e-02
1.98010e+03,-4.93876e+00,-3.83601e+01,3.71959e-03,3.35611e-02,5.82484e-02
1.98010e+03,-5.32496e+00,-3.69394e+01,4.72168e-03,3.39448e-02,5.89833e-02
1.98010e+03,-5.45823e+00,-3.55186e+01,5.42028e-03,3.43485e-02,5.97397e-02
1.98010e+03,-5.47846e+00,-3.40979e+01,5.98323e-03,3.47710e-02,6.05216e-02
1.98010e+03,-5.41351e+00,-3.26771e+01,6.44399e-03,3.52089e-02,6.13230e-02
1.98010e+03,-5.29511e+00,-3.12564e+01,6.84062e-03,3.56596e-02,6.21419e-02
1.98010e+03,-5.12305e+00,-2.98356e+01,7.17285e-03,3.61205e-02,6.29725e-02
1.98010e+03,-4.91825e+00,-2.84149e+01,7.46581e-03,3.65895e-02,6.38131e-02
1.98010e+03,-4.69446e+00,-2.69941e+01,7.73598e-03,3.70652e-02,6.46632e-02
1.98010e+03,-4.44207e+00,-2.55734e+01,7.97182e-03,3.75463e-02,6.55189e-02
1.98010e+03,-4.17180e+00,-2.41527e+01,8.18622e-03,3.80316e-02,6.63794e-02
1.98010e+03,-3.88412e+00,-2.27319e+01,8.37972e-03,3.85201e-02,6.72430e-02
1.98010e+03,-3.57909e+00,-2.13112e+01,8.55242e-03,3.90108e-02,6.81077e-02
1.98010e+03,-3.26320e+00,-1.98904e+01,8.71207e-03,3.95027e-02,6.89731e-02
1.98010e+03,-2.93337e+00,-1.84697e+01,8.85500e-03,3.99952e-02,6.98374e-02
1.98010e+03,-2.59462e+00,-1.70489e+01,8.98724e-03,4.04876e-02,7.07001e-02
1.98010e+03,-2.24788e+00,-1.56282e+01,9.10987e-03,4.09792e-02,7.15604e-02
1.98010e+03,-1.89400e+00,-1.42074e+01,9.22395e-03,4.14696e-02,7.24173e-02
1.98010e+03,-1.53709e+00,-1.27867e+01,9.33439e-03,4.19584e-02,7.32711e-02
1.98010e+03,-1.17550e+00,-1.13660e+01,9.43921e-03,4.24453e-02,7.41209e-02
1.98010e+03,-8.13129e-01,-9.94521e+00,9.54310e-03,4.29301e-02,7.49670e-02
1.98010e+03,-4.47961e-01,-8.52447e+00,9.64363e-03,4.34127e-02,7.58089e-02
1.98010e+03,-8.28294e-02,-7.10372e+00,9.74420e-03,4.38929e-02,7.66466e-02
1.98010e+03,2.80922e-01,-5.68298e+00,9.84643e-03,4.43707e-02,7.74805e-02
1.98010e+03,6.44673e-01,-4.26223e+00,9.94866e-03,4.48459e-02,7.83100e-02
1.98010e+03,9.99811e-01,-2.84149e+00,1.00612e-02,4.53189e-02,7.91369e-02
1.98010e+03,1.35334e+00,-1.42074e+00,1.01757e-02,4.57899e-02,7.99606e-02
2.00520e+03,1.68635e+01,0.00000e+00,-3.52572e-03,2.81968e-02,4.89653e-02
2.00520e+03,1.67786e+01,-1.28145e+00,-3.69653e-03,2.79507e-02,4.85530e-02
2.00520e+03,1.66656e+01,-2.56290e+00,-3.85358e-03,2.76987e-02,4.81300e-02
2.00520e+03,1.65515e+01,-3.84435e+00,-4.01009e-03,2.74409e-02,4.76978e-02
2.00520e+03,1.64126e+01,-5.12580e+00,-4.15446e-03,2.71778e-02,4.72563e-02
2.00520e+03,1.62680e+01,-6.40725e+00,-4.29601e-03,2.69099e-02,4.68068e-02
2.00520e+03,1.61044e+01,-7.68870e+00,-4.42824e-03,2.66375e-02,4.63494e-02
2.00520e+03,1.59315e+01,-8.97015e+00,-4.55595e-03,2.63609e-02,4.58852e-02
2.00520e+03,1.57433e+01,-1.02516e+01,-4.67617e-03,2.60807e-02,4.54145e-02
2.00520e+03,1.55427e+01,-1.15330e+01,-4.79024e-03,2.57971e-02,4.49379e-02
2.00520e+03,1.53282e+01,-1.28145e+01,-4.89754e-03,2.55105e-02,4.44560e-02
2.00520e+03,1.50970e+01,-1.40959e+01,-4.99666e-03,2.52213e-02,4.39693e-02
2.00520e+03,1.48486e+01,-1.53774e+01,-5.08740e-03,2.49298e-02,4.34784e-02
2.00520e+03,1.45761e+01,-1.66588e+01,-5.16626e-03,2.46366e-02,4.29835e-02
2.00520e+03,1.42800e+01,-1.79403e+01,-5.23355e-03,2.43423e-02,4.24856e-02
2.00520e+03,1.39556e+01,-1.92217e+01,-5.28702e-03,2.40472e-02,4.19852e-02
2.00520e+03,1.35931e+01,-2.05032e+01,-5.32176e-03,2.37524e-02,4.14832e-02
2.00520e+03,1.32039e+01,-2.17846e+01,-5.34348e-03,2.34582e-02,4.09806e-02
2.00520e+03,1.27550e+01,-2.30661e+01,-5.33588e-03,2.31660e-02,4.04779e-02
2.00520e+03,1.22812e+01,-2.43475e+01,-5.31613e-03,2.28766e-02,3.99785e-02
2.00520e+03,1.17384e+01,-2.56290e+01,-5.26253e-03,2.25908e-02,3.94807e-02
2.00520e+03,1.11403e+01,-2.69104e+01,-5.18179e-03,2.23108e-02,3.89894e-02
2.00520e+03,1.04858e+01,-2.81919e+01,-5.07345e-03,2.20373e-02,3.85054e-02
2.00520e+03,9.73672e+00,-2.94733e+01,-4.91877e-03,2.17711e-02,3.80281e-02
2.00520e+03,8.87814e+00,-3.07548e+01,-4.71041e-03,2.15155e-02,3.75625e-02
2.00520e+03,7.89577e+00,-3.20362e+01,-4.44138e-03,2.12737e-02,3.71138e-02
2.00520e+03,6.73385e+00,-3.33177e+01,-4.08435e-03,2.10475e-02,3.66834e-02
2.00520e+03,5.24243e+00,-3.45991e+01,-3.56584e-03,2.08481e-02,3.62856e-02
2.00520e+03,3.22533e+00,-3.58806e+01,-2.78969e-03,2.07262e-02,3.60071e-02
2.00520e+03,-1.30688e+00,-3.71620e+01,-7.80878e-04,2.07744e-02,3.59908e-02
2.00520e+03,-1.63397e+00,-3.71650e+01,-6.21063e-04,2.09243e-02,3.62472e-02
2.00520e+03,-4.61400e+00,-3.58377e+01,1.05949e-03,2.12085e-02,3.67494e-02
2.00520e+03,-4.97481e+00,-3.45104e+01,1.45636e-03,2.14185e-02,3.71265e-02
2.00520e+03,-5.09932e+00,-3.31830e+01,1.73741e-03,2.16395e-02,3.75209e-02
2.00520e+03,-5.11821e+00,-3.18557e+01,1.96671e-03,2.18707e-02,3.79322e-02
2.00520e+03,-5.05754e+00,-3.05284e+01,2.15700e-03,2.21104e-02,3.83570e-02
2.00520e+03,-4.94693e+00,-2.92011e+01,2.32283e-03,2.23571e-02,3.87932e-02
2.00520e+03,-4.78618e+00,-2.78738e+01,2.46408e-03,2.26093e-02,3.92380e-02
2.00520e+03,-4.59485e+00,-2.65464e+01,2.59034e-03,2.28660e-02,3.96897e-02
2.00520e+03,-4.38577e+00,-2.52191e+01,2.70791e-03,2.31263e-02,4.01474e-02
2.00520e+03,-4.14998e+00,-2.38918e+01,2.81238e-03,2.33897e-02,4.06096e-02
2.00520e+03,-3.89748e+00,-2.25645e+01,2.90867e-03,2.36553e-02,4.10752e-02
2.00520e+03,-3.62871e+00,-2.12371e+01,2.99698e-03,2.39226e-02,4.15434e-02
2.00520e+03,-3.34375e+00,-1.99098e+01,3.07735e-03,2.41911e-02,4.20131e-02
2.00520e+03,-3.04862e+00,-1.85825e+01,3.15275e-03,2.44603e-02,4.24837e-02
2.00520e+03,-2.74048e+00,-1.72552e+01,3.22176e-03,2.47299e-02,4.29544e-02
2.00520e+03,-2.42401e+00,-1.59279e+01,3.28669e-03,2.49993e-02,4.34246e-02
2.00520e+03,-2.10007e+00,-1.46005e+01,3.34796e-03,2.52684e-02,4.38940e-02
2.00520e+03,-1.76946e+00,-1.32732e+01,3.40597e-03,2.55367e-02,4.43618e-02
2.00520e+03,-1.43602e+00,-1.19459e+01,3.46258e-03,2.58042e-02,4.48281e-02
2.00520e+03,-1.09820e+00,-1.06186e+01,3.51705e-03,2.60706e-02,4.52924e-02
2.00520e+03,-7.59661e-01,-9.29125e+00,3.57117e-03,2.63359e-02,4.57547e-02
2.00520e+03,-4.18505e-01,-7.96393e+00,3.62400e-03,2.66000e-02,4.62148e-02
2.00520e+03,-7.73829e-02,-6.63661e+00,3.67685e-03,2.68627e-02,4.66727e-02
2.00520e+03,2.62450e-01,-5.30929e+00,3.73034e-03,2.71242e-02,4.71283e-02
2.00520e+03,6.02282e-01,-3.98196e+00,3.78382e-03,2.73842e-02,4.75816e-02
2.00520e+03,9.34067e-01,-2.65464e+00,3.84125e-03,2.76430e-02,4.80330e-02
2.00520e+03,1.26435e+00,-1.32732e+00,3.89941e-03,2.79007e-02,4.84826e-02
2.02480e+03,1.59367e+01,0.00000e+00,-9.76849e-04,1.45174e-02,2.51639e-02
2.02480e+03,1.58564e+01,-1.21102e+00,-1.03093e-03,1.44049e-02,2.49713e-02
2.02480e+03,1.57496e+01,-2.42204e+00,-1.08114e-03,1.42897e-02,2.47741e-02
2.02480e+03,1.56418e+01,-3.63306e+00,-1.13120e-03,1.41718e-02,2.45723e-02
2.02480e+03,1.55106e+01,-4.84408e+00,-1.17784e-03,1.40515e-02,2.43665e-02
2.02480e+03,1.53739e+01,-6.05509e+00,-1.22370e-03,1.39291e-02,2.41568e-02
2.02480e+03,1.52192e+01,-7.26611e+00,-1.26693e-03,1.38045e-02,2.39437e-02
2.02480e+03,1.50559e+01,-8.47713e+00,-1.30890e-03,1.36781e-02,2.37273e-02
2.02480e+03,1.48781e+01,-9.68815e+00,-1.34876e-03,1.35500e-02,2.35080e-02
2.02480e+03,1.46884e+01,-1.08992e+01,-1.38689e-03,1.34203e-02,2.32860e-02
2.02480e+03,1.44857e+01,-1.21102e+01,-1.42312e-03,1.32893e-02,2.30617e-02
2.02480e+03,1.42672e+01,-1.33212e+01,-1.45704e-03,1.31571e-02,2.28353e-02
2.02480e+03,1.40325e+01,-1.45322e+01,-1.48862e-03,1.30238e-02,2.26070e-02
2.02480e+03,1.37750e+01,-1.57432e+01,-1.51685e-03,1.28898e-02,2.23773e-02
2.02480e+03,1.34951e+01,-1.69543e+01,-1.54183e-03,1.27552e-02,2.21465e-02
2.02480e+03,1.31886e+01,-1.81653e+01,-1.56293e-03,1.26203e-02,2.19149e-02
2.02480e+03,1.28460e+01,-1.93763e+01,-1.57876e-03,1.24856e-02,2.16832e-02
2.02480e+03,1.24782e+01,-2.05873e+01,-1.59093e-03,1.23511e-02,2.14518e-02
2.02480e+03,1.20540e+01,-2.17983e+01,-1.59486e-03,1.22175e-02,2.12214e-02
2.02480e+03,1.16063e+01,-2.30094e+01,-1.59538e-03,1.20853e-02,2.09930e-02
2.02480e+03,1.10933e+01,-2.42204e+01,-1.58638e-03,1.19546e-02,2.07666e-02
2.02480e+03,1.05280e+01,-2.54314e+01,-1.56975e-03,1.18266e-02,2.05444e-02
2.02480e+03,9.90946e+00,-2.66424e+01,-1.54537e-03,1.17016e-02,2.03266e-02
2.02480e+03,9.20158e+00,-2.78534e+01,-1.50796e-03,1.15799e-02,2.01136e-02
2.02480e+03,8.39019e+00,-2.90645e+01,-1.45546e-03,1.14631e-02,1.99079e-02
2.02480e+03,7.46181e+00,-3.02755e+01,-1.38591e-03,1.13525e-02,1.97119e-02
2.02480e+03,6.36374e+00,-3.14865e+01,-1.29162e-03,1.12492e-02,1.95269e-02
2.02480e+03,4.95429e+00,-3.26975e+01,-1.15194e-03,1.11580e-02,1.93606e-02
2.02480e+03,3.04806e+00,-3.39085e+01,-9.39851e-04,1.11023e-02,1.92528e-02
2.02480e+03,-1.23505e+00,-3.51195e+01,-3.81280e-04,1.11244e-02,1.92718e-02
2.02480e+03,-1.54416e+00,-3.51224e+01,-3.36374e-04,1.11929e-02,1.93896e-02
2.02480e+03,-4.36041e+00,-3.38680e+01,1.42282e-04,1.13228e-02,1.96123e-02
2.02480e+03,-4.70139e+00,-3.26136e+01,2.60119e-04,1.14188e-02,1.97797e-02
2.02480e+03,-4.81905e+00,-3.13592e+01,3.45403e-04,1.15199e-02,1.99560e-02
2.02480e+03,-4.83691e+00,-3.01049e+01,4.16138e-04,1.16256e-02,2.01404e-02
2.02480e+03,-4.77957e+00,-2.88505e+01,4.75911e-04,1.17351e-02,2.03314e-02
2.02480e+03,-4.67504e+00,-2.75961e+01,5.28806e-04,1.18479e-02,2.05280e-02
2.02480e+03,-4.52312e+00,-2.63418e+01,5.74793e-04,1.19632e-02,2.07289e-02
2.02480e+03,-4.34231e+00,-2.50874e+01,6.16568e-04,1.20806e-02,2.09332e-02
2.02480e+03,-4.14473e+00,-2.38330e+01,6.55899e-04,1.21996e-02,2.11405e-02
2.02480e+03,-3.92189e+00,-2.25787e+01,6.91548e-04,1.23200e-02,2.13500e-02
2.02480e+03,-3.68327e+00,-2.13243e+01,7.24897e-04,1.24414e-02,2.15612e-02
2.02480e+03,-3.42927e+00,-2.00699e+01,7.56004e-04,1.25636e-02,2.17739e-02
2.02480e+03,-3.15997e+00,-1.88155e+01,7.84880e-04,1.26863e-02,2.19873e-02
2.02480e+03,-2.88106e+00,-1.75612e+01,8.12356e-04,1.28094e-02,2.22013e-02
2.02480e+03,-2.58986e+00,-1.63068e+01,8.38040e-04,1.29326e-02,2.24155e-02
2.02480e+03,-2.29078e+00,-1.50524e+01,8.62575e-04,1.30557e-02,2.26296e-02
2.02480e+03,-1.98465e+00,-1.37981e+01,8.86082e-04,1.31787e-02,2.28434e-02
2.02480e+03,-1.67220e+00,-1.25437e+01,9.08669e-04,1.33013e-02,2.30565e-02
2.02480e+03,-1.35709e+00,-1.12893e+01,9.30868e-04,1.34236e-02,2.32690e-02
2.02480e+03,-1.03784e+00,-1.00350e+01,9.52463e-04,1.35454e-02,2.34806e-02
2.02480e+03,-7.17909e-01,-8.78059e+00,9.73958e-04,1.36666e-02,2.36913e-02
2.02480e+03,-3.95503e-01,-7.52622e+00,9.95094e-04,1.37873e-02,2.39011e-02
2.02480e+03,-7.31298e-02,-6.27185e+00,1.01623e-03,1.39074e-02,2.41098e-02
2.02480e+03,2.48025e-01,-5.01748e+00,1.03755e-03,1.40269e-02,2.43175e-02
2.02480e+03,5.69180e-01,-3.76311e+00,1.05887e-03,1.41458e-02,2.45240e-02
2.02480e+03,8.82730e-01,-2.50874e+00,1.08129e-03,1.42640e-02,2.47297e-02
2.02480e+03,1.19486e+00,-1.25437e+00,1.10393e-03,1.43818e-02,2.49345e-02
2.03880e+03,1.52746e+01,0.00000e+00,-1.63275e-04,5.62393e-03,9.74230e-03
2.03880e+03,1.51977e+01,-1.16071e+00,-1.74458e-04,5.58679e-03,9.67817e-03
2.03880e+03,1.50954e+01,-2.32142e+00,-1.84976e-04,5.54874e-03,9.61248e-03
2.03880e+03,1.49920e+01,-3.48213e+00,-1.95468e-04,5.50983e-03,9.54530e-03
2.03880e+03,1.48662e+01,-4.64285e+00,-2.05374e-04,5.47012e-03,9.47676e-03
2.03880e+03,1.47352e+01,-5.80356e+00,-2.15143e-04,5.42968e-03,9.40695e-03
2.03880e+03,1.45870e+01,-6.96427e+00,-2.24462e-04,5.38857e-03,9.33597e-03
2.03880e+03,1.44304e+01,-8.12498e+00,-2.33562e-04,5.34683e-03,9.26393e-03
2.03880e+03,1.42600e+01,-9.28569e+00,-2.42301e-04,5.30453e-03,9.19092e-03
2.03880e+03,1.40782e+01,-1.04464e+01,-2.50743e-04,5.26173e-03,9.11704e-03
2.03880e+03,1.38839e+01,-1.16071e+01,-2.58858e-04,5.21848e-03,9.04237e-03
2.03880e+03,1.36745e+01,-1.27678e+01,-2.66577e-04,5.17483e-03,8.96703e-03
2.03880e+03,1.34496e+01,-1.39285e+01,-2.73891e-04,5.13085e-03,8.89110e-03
2.03880e+03,1.32028e+01,-1.50892e+01,-2.80631e-04,5.08660e-03,8.81471e-03
2.03880e+03,1.29345e+01,-1.62500e+01,-2.86813e-04,5.04218e-03,8.73802e-03
2.03880e+03,1.26407e+01,-1.74107e+01,-2.92326e-04,4.99765e-03,8.66111e-03
2.03880e+03,1.23123e+01,-1.85714e+01,-2.96935e-04,4.95316e-03,8.58427e-03
2.03880e+03,1.19599e+01,-1.97321e+01,-3.00915e-04,4.90876e-03,8.50755e-03
2.03880e+03,1.15532e+01,-2.08928e+01,-3.03478e-04,4.86468e-03,8.43133e-03
2.03880e+03,1.11241e+01,-2.20535e+01,-3.05454e-04,4.82101e-03,8.35582e-03
2.03880e+03,1.06324e+01,-2.32142e+01,-3.05794e-04,4.77788e-03,8.28117e-03
2.03880e+03,1.00906e+01,-2.43749e+01,-3.04824e-04,4.73563e-03,8.20802e-03
2.03880e+03,9.49781e+00,-2.55357e+01,-3.02519e-04,4.69436e-03,8.13649e-03
2.03880e+03,8.81933e+00,-2.66964e+01,-2.97976e-04,4.65419e-03,8.06680e-03
2.03880e+03,8.04165e+00,-2.78571e+01,-2.90839e-04,4.61563e-03,7.99980e-03
2.03880e+03,7.15183e+00,-2.90178e+01,-2.80771e-04,4.57914e-03,7.93627e-03
2.03880e+03,6.09938e+00,-3.01785e+01,-2.66451e-04,4.54502e-03,7.87671e-03
2.03880e+03,4.74849e+00,-3.13392e+01,-2.44329e-04,4.51494e-03,7.82392e-03
2.03880e+03,2.92144e+00,-3.24999e+01,-2.09759e-04,4.49656e-03,7.79109e-03
2.03880e+03,-1.18374e+00,-3.36606e+01,-1.15632e-04,4.50385e-03,7.80175e-03
2.03880e+03,-1.48002e+00,-3.36633e+01,-1.07917e-04,4.52647e-03,7.84082e-03
2.03880e+03,-4.17927e+00,-3.24611e+01,-2.36853e-05,4.56937e-03,7.91441e-03
2.03880e+03,-4.50609e+00,-3.12588e+01,-1.47519e-06,4.60106e-03,7.96927e-03
2.03880e+03,-4.61886e+00,-3.00565e+01,1.51393e-05,4.63441e-03,8.02705e-03
2.03880e+03,-4.63598e+00,-2.88543e+01,2.92529e-05,4.66931e-03,8.08753e-03
2.03880e+03,-4.58102e+00,-2.76520e+01,4.14824e-05,4.70548e-03,8.15023e-03
2.03880e+03,-4.48083e+00,-2.64498e+01,5.25294e-05,4.74270e-03,8.21477e-03
2.03880e+03,-4.33523e+00,-2.52475e+01,6.23892e-05,4.78078e-03,8.28078e-03
2.03880e+03,-4.16192e+00,-2.40452e+01,7.15248e-05,4.81950e-03,8.34793e-03
2.03880e+03,-3.97255e+00,-2.28430e+01,8.02403e-05,4.85879e-03,8.41605e-03
2.03880e+03,-3.75897e+00,-2.16407e+01,8.83229e-05,4.89853e-03,8.48495e-03
2.03880e+03,-3.53026e+00,-2.04384e+01,9.60102e-05,4.93860e-03,8.55445e-03
2.03880e+03,-3.28682e+00,-1.92362e+01,1.03312e-04,4.97894e-03,8.62440e-03
2.03880e+03,-3.02870e+00,-1.80339e+01,1.10230e-04,5.01945e-03,8.69465e-03
2.03880e+03,-2.76138e+00,-1.68317e+01,1.16908e-04,5.06008e-03,8.76509e-03
2.03880e+03,-2.48228e+00,-1.56294e+01,1.23278e-04,5.10074e-03,8.83561e-03
2.03880e+03,-2.19562e+00,-1.44271e+01,1.29450e-04,5.14140e-03,8.90610e-03
2.03880e+03,-1.90220e+00,-1.32249e+01,1.35446e-04,5.18199e-03,8.97649e-03
2.03880e+03,-1.60274e+00,-1.20226e+01,1.41283e-04,5.22248e-03,9.04670e-03
2.03880e+03,-1.30072e+00,-1.08204e+01,1.47054e-04,5.26283e-03,9.11667e-03
2.03880e+03,-9.94731e-01,-9.61809e+00,1.52721e-04,5.30303e-03,9.18638e-03
2.03880e+03,-6.88086e-01,-8.41583e+00,1.58370e-04,5.34305e-03,9.25578e-03
2.03880e+03,-3.79073e-01,-7.21357e+00,1.63958e-04,5.38288e-03,9.32487e-03
2.03880e+03,-7.00919e-02,-6.01131e+00,1.69547e-04,5.42252e-03,9.39361e-03
2.03880e+03,2.37722e-01,-4.80905e+00,1.75166e-04,5.46196e-03,9.46202e-03
2.03880e+03,5.45535e-01,-3.60678e+00,1.80785e-04,5.50119e-03,9.53006e-03
2.03880e+03,8.46060e-01,-2.40452e+00,1.86595e-04,5.54023e-03,9.59778e-03
2.03880e+03,1.14523e+00,-1.20226e+00,1.92440e-04,5.57911e-03,9.66521e-03
2.04720e+03,1.48774e+01,0.00000e+00,-1.86116e-05,1.10465e-03,1.91340e-03
2.04720e+03,1.48025e+01,-1.13053e+00,-2.03658e-05,1.09923e-03,1.90404e-03
2.04720e+03,1.47028e+01,-2.26105e+00,-2.20402e-05,1.09369e-03,1.89445e-03
2.04720e+03,1.46021e+01,-3.39158e+00,-2.37113e-05,1.08801e-03,1.88464e-03
2.04720e+03,1.44796e+01,-4.52211e+00,-2.53119e-05,1.08223e-03,1.87464e-03
2.04720e+03,1.43520e+01,-5.65264e+00,-2.68961e-05,1.07633e-03,1.86445e-03
2.04720e+03,1.42077e+01,-6.78316e+00,-2.84262e-05,1.07034e-03,1.85409e-03
2.04720e+03,1.40552e+01,-7.91369e+00,-2.99299e-05,1.06425e-03,1.84358e-03
2.04720e+03,1.38892e+01,-9.04422e+00,-3.13902e-05,1.05809e-03,1.83293e-03
2.04720e+03,1.37121e+01,-1.01747e+01,-3.28147e-05,1.05185e-03,1.82214e-03
2.04720e+03,1.35229e+01,-1.13053e+01,-3.41998e-05,1.04554e-03,1.81125e-03
2.04720e+03,1.33189e+01,-1.24358e+01,-3.55374e-05,1.03918e-03,1.80026e-03
2.04720e+03,1.30998e+01,-1.35663e+01,-3.68262e-05,1.03276e-03,1.78918e-03
2.04720e+03,1.28594e+01,-1.46969e+01,-3.80460e-05,1.02631e-03,1.77803e-03
2.04720e+03,1.25982e+01,-1.58274e+01,-3.91986e-05,1.01984e-03,1.76685e-03
2.04720e+03,1.23120e+01,-1.69579e+01,-4.02708e-05,1.01335e-03,1.75563e-03
2.04720e+03,1.19922e+01,-1.80884e+01,-4.12342e-05,1.00686e-03,1.74442e-03
2.04720e+03,1.16489e+01,-1.92190e+01,-4.21219e-05,1.00039e-03,1.73324e-03
2.04720e+03,1.12528e+01,-2.03495e+01,-4.28391e-05,9.93962e-04,1.72212e-03
2.04720e+03,1.08348e+01,-2.14800e+01,-4.34857e-05,9.87596e-04,1.71112e-03
2.04720e+03,1.03559e+01,-2.26105e+01,-4.39355e-05,9.81308e-04,1.70024e-03
2.04720e+03,9.82823e+00,-2.37411e+01,-4.42277e-05,9.75150e-04,1.68959e-03
2.04720e+03,9.25081e+00,-2.48716e+01,-4.43593e-05,9.69132e-04,1.67917e-03
2.04720e+03,8.58998e+00,-2.60021e+01,-4.42216e-05,9.63278e-04,1.66903e-03
2.04720e+03,7.83252e+00,-2.71326e+01,-4.37719e-05,9.57657e-04,1.65929e-03
2.04720e+03,6.96585e+00,-2.82632e+01,-4.29695e-05,9.52337e-04,1.65006e-03
2.04720e+03,5.94077e+00,-2.93937e+01,-4.16556e-05,9.47363e-04,1.64141e-03
2.04720e+03,4.62500e+00,-3.05242e+01,-3.94030e-05,9.42978e-04,1.63376e-03
2.04720e+03,2.84547e+00,-3.16548e+01,-3.56528e-05,9.40300e-04,1.62904e-03
2.04720e+03,-1.15296e+00,-3.27853e+01,-2.47375e-05,9.41362e-04,1.63068e-03
2.04720e+03,-1.44153e+00,-3.27879e+01,-2.38103e-05,9.44660e-04,1.63637e-03
2.04720e+03,-4.07059e+00,-3.16169e+01,-1.32529e-05,9.50915e-04,1.64709e-03
2.04720e+03,-4.38891e+00,-3.04459e+01,-1.01573e-05,9.55535e-04,1.65507e-03
2.04720e+03,-4.49875e+00,-2.92749e+01,-7.73495e-06,9.60397e-04,1.66347e-03
2.04720e+03,-4.51542e+00,-2.81039e+01,-5.61344e-06,9.65484e-04,1.67228e-03
2.04720e+03,-4.46189e+00,-2.69329e+01,-3.71862e-06,9.70757e-04,1.68140e-03
2.04720e+03,-4.36430e+00,-2.57619e+01,-1.96604e-06,9.76184e-04,1.69080e-03
2.04720e+03,-4.22249e+00,-2.45909e+01,-3.56302e-07,9.81734e-04,1.70041e-03
2.04720e+03,-4.05369e+00,-2.34199e+01,1.16631e-06,9.87380e-04,1.71019e-03
2.04720e+03,-3.86924e+00,-2.22489e+01,2.63838e-06,9.93107e-04,1.72011e-03
2.04720e+03,-3.66121e+00,-2.10779e+01,4.03432e-06,9.98900e-04,1.73015e-03
2.04720e+03,-3.43845e+00,-1.99069e+01,5.38268e-06,1.00474e-03,1.74027e-03
2.04720e+03,-3.20134e+00,-1.87359e+01,6.68469e-06,1.01062e-03,1.75046e-03
2.04720e+03,-2.94994e+00,-1.75649e+01,7.94055e-06,1.01653e-03,1.76070e-03
2.04720e+03,-2.68957e+00,-1.63940e+01,9.16747e-06,1.02245e-03,1.77096e-03
2.04720e+03,-2.41772e+00,-1.52230e+01,1.03573e-05,1.02838e-03,1.78123e-03
2.04720e+03,-2.13852e+00,-1.40520e+01,1.15234e-05,1.03430e-03,1.79151e-03
2.04720e+03,-1.85273e+00,-1.28810e+01,1.26682e-05,1.04022e-03,1.80176e-03
2.04720e+03,-1.56106e+00,-1.17100e+01,1.37941e-05,1.04612e-03,1.81199e-03
2.04720e+03,-1.26689e+00,-1.05390e+01,1.49118e-05,1.05201e-03,1.82219e-03
2.04720e+03,-9.68863e-01,-9.36797e+00,1.60171e-05,1.05787e-03,1.83235e-03
2.04720e+03,-6.70192e-01,-8.19698e+00,1.71204e-05,1.06370e-03,1.84246e-03
2.04720e+03,-3.69215e-01,-7.02598e+00,1.82162e-05,1.06951e-03,1.85253e-03
2.04720e+03,-6.82691e-02,-5.85498e+00,1.93120e-05,1.07528e-03,1.86255e-03
2.04720e+03,2.31540e-01,-4.68399e+00,2.04116e-05,1.08103e-03,1.87252e-03
2.04720e+03,5.31348e-01,-3.51299e+00,2.15112e-05,1.08675e-03,1.88243e-03
2.04720e+03,8.24058e-01,-2.34199e+00,2.26336e-05,1.09244e-03,1.89230e-03
2.04720e+03,1.11544e+00,-1.17100e+00,2.37604e-05,1.09811e-03,1.90213e-03
2.05000e+03,1.47450e+01,0.00000e+00,0.00000e+00,0.00000e+00,0.00000e+00
2.05000e+03,1.46708e+01,-1.12047e+00,0.00000e+00,0.00000e+00,0.00000e+00
2.05000e+03,1.45720e+01,-2.24093e+00,0.00000e+00,0.00000e+00,0.00000e+00
2.05000e+03,1.44722e+01,-3.36140e+00,0.00000e+00,0.00000e+00,0.00000e+00
2.05000e+03,1.43508e+01,-4.48186e+00,0.00000e+00,0.00000e+00,0.00000e+00
2.05000e+03,1.42243e+01,-5.60233e+00,0.00000e+00,0.00000e+00,0.00000e+00
2.05000e+03,1.40812e+01,-6.72279e+00,0.00000e+00,0.00000e+00,0.00000e+00
2.05000e+03,1.39301e+01,-7.84326e+00,0.00000e+00,0.00000e+00,0.00000e+00
2.05000e+03,1.37656e+01,-8.96372e+00,0.00000e+00,0.00000e+00,0.00000e+00
2.05000e+03,1.35901e+01,-1.00842e+01,0.00000e+00,0.00000e+00,0.00000e+00
2.05000e+03,1.34025e+01,-1.12047e+01,0.00000e+00,0.00000e+00,0.00000e+00
2.05000e+03,1.32004e+01,-1.23251e+01,0.00000e+00,0.00000e+00,0.00000e+00
2.05000e+03,1.29833e+01,-1.34456e+01,0.00000e+00,0.00000e+00,0.00000e+00
2.05000e+03,1.27450e+01,-1.45661e+01,0.00000e+00,0.00000e+00,0.00000e+00
2.05000e+03,1.24860e+01,-1.56865e+01,0.00000e+00,0.00000e+00,0.00000e+00
2.05000e+03,1.22024e+01,-1.68070e+01,0.00000e+00,0.00000e+00,0.00000e+00
2.05000e+03,1.18854e+01,-1.79274e+01,0.00000e+00,0.00000e+00,0.00000e+00
2.05000e+03,1.15452e+01,-1.90479e+01,0.00000e+00,0.00000e+00,0.00000e+00
2.05000e+03,1.11526e+01,-2.01684e+01,0.00000e+00,0.00000e+00,0.00000e+00
2.05000e+03,1.07384e+01,-2.12888e+01,0.00000e+00,0.00000e+00,0.00000e+00
2.05000e+03,1.02638e+01,-2.24093e+01,0.00000e+00,0.00000e+00,0.00000e+00
2.05000e+03,9.74076e+00,-2.35298e+01,0.00000e+00,0.00000e+00,0.00000e+00
2.05000e+03,9.16848e+00,-2.46502e+01,0.00000e+00,0.00000e+00,0.00000e+00
2.05000e+03,8.51353e+00,-2.57707e+01,0.00000e+00,0.00000e+00,0.00000e+00
2.05000e+03,7.76281e+00,-2.68912e+01,0.00000e+00,0.00000e+00,0.00000e+00
2.05000e+03,6.90385e+00,-2.80116e+01,0.00000e+00,0.00000e+00,0.00000e+00
2.05000e+03,5.88790e+00,-2.91321e+01,0.00000e+00,0.00000e+00,0.00000e+00
2.05000e+03,4.58384e+00,-3.02526e+01,0.00000e+00,0.00000e+00,0.00000e+00
2.05000e+03,2.82014e+00,-3.13730e+01,0.00000e+00,0.00000e+00,0.00000e+00
2.05000e+03,-1.14270e+00,-3.24935e+01,0.00000e+00,0.00000e+00,0.00000e+00
2.05000e+03,-1.42870e+00,-3.24961e+01,0.00000e+00,0.00000e+00,0.00000e+00
2.05000e+03,-4.03436e+00,-3.13355e+01,0.00000e+00,0.00000e+00,0.00000e+00
2.05000e+03,-4.34985e+00,-3.01749e+01,0.00000e+00,0.00000e+00,0.00000e+00
2.05000e+03,-4.45871e+00,-2.90144e+01,0.00000e+00,0.00000e+00,0.00000e+00
2.05000e+03,-4.47523e+00,-2.78538e+01,0.00000e+00,0.00000e+00,0.00000e+00
2.05000e+03,-4.42218e+00,-2.66932e+01,0.00000e+00,0.00000e+00,0.00000e+00
2.05000e+03,-4.32546e+00,-2.55327e+01,0.00000e+00,0.00000e+00,0.00000e+00
2.05000e+03,-4.18491e+00,-2.43721e+01,0.00000e+00,0.00000e+00,0.00000e+00
2.05000e+03,-4.01761e+00,-2.32115e+01,0.00000e+00,0.00000e+00,0.00000e+00
2.05000e+03,-3.83480e+00,-2.20509e+01,0.00000e+00,0.00000e+00,0.00000e+00
2.05000e+03,-3.62863e+00,-2.08903e+01,0.00000e+00,0.00000e+00,0.00000e+00
2.05000e+03,-3.40785e+00,-1.97298e+01,0.00000e+00,0.00000e+00,0.00000e+00
2.05000e+03,-3.17285e+00,-1.85692e+01,0.00000e+00,0.00000e+00,0.00000e+00
2.05000e+03,-2.92368e+00,-1.74086e+01,0.00000e+00,0.00000e+00,0.00000e+00
2.05000e+03,-2.66563e+00,-1.62480e+01,0.00000e+00,0.00000e+00,0.00000e+00
2.05000e+03,-2.39621e+00,-1.50875e+01,0.00000e+00,0.00000e+00,0.00000e+00
2.05000e+03,-2.11949e+00,-1.39269e+01,0.00000e+00,0.00000e+00,0.00000e+00
2.05000e+03,-1.83624e+00,-1.27663e+01,0.00000e+00,0.00000e+00,0.00000e+00
2.05000e+03,-1.54717e+00,-1.16057e+01,0.00000e+00,0.00000e+00,0.00000e+00
2.05000e+03,-1.25562e+00,-1.04452e+01,0.00000e+00,0.00000e+00,0.00000e+00
2.05000e+03,-9.60241e-01,-9.28460e+00,0.00000e+00,0.00000e+00,0.00000e+00
2.05000e+03,-6.64227e-01,-8.12402e+00,0.00000e+00,0.00000e+00,0.00000e+00
2.05000e+03,-3.65929e-01,-6.96345e+00,0.00000e+00,0.00000e+00,0.00000e+00
2.05000e+03,-6.76615e-02,-5.80287e+00,0.00000e+00,0.00000e+00,0.00000e+00
2.05000e+03,2.29479e-01,-4.64230e+00,0.00000e+00,0.00000e+00,0.00000e+00
2.05000e+03,5.26620e-01,-3.48173e+00,0.00000e+00,0.00000e+00,0.00000e+00
2.05000e+03,8.16724e-01,-2.32115e+00,0.00000e+00,0.00000e+00,0.00000e+00
2.05000e+03,1.10552e+00,-1.16058e+00,0.00000e+00,0.00000e+00,0.00000e+00
--------------------------------------------------------------------------------------------------------------------------------------------------------------------------------------------------------------------------------------------------------------------------------------------------------------------------------------------------------------------------------

LAMINADO 
--------------------------------------------------------------------------------------------------------------------------------------------------------------------------------------------------------------------------------------------------------------------------------------------------------------------------------------------------------------------------------
X,Y,Z,Sigma,Tau,Von Mises
0.00000e+00,4.31008e+01,0.00000e+00,0.00000e+00,0.00000e+00,0.00000e+00
0.00000e+00,4.28837e+01,-3.27521e+00,0.00000e+00,0.00000e+00,0.00000e+00
0.00000e+00,4.25950e+01,-6.55041e+00,0.00000e+00,0.00000e+00,0.00000e+00
0.00000e+00,4.23033e+01,-9.82562e+00,0.00000e+00,0.00000e+00,0.00000e+00
0.00000e+00,4.19484e+01,-1.31008e+01,0.00000e+00,0.00000e+00,0.00000e+00
0.00000e+00,4.15787e+01,-1.63760e+01,0.00000e+00,0.00000e+00,0.00000e+00
0.00000e+00,4.11605e+01,-1.96512e+01,0.00000e+00,0.00000e+00,0.00000e+00
0.00000e+00,4.07187e+01,-2.29264e+01,0.00000e+00,0.00000e+00,0.00000e+00
0.00000e+00,4.02378e+01,-2.62017e+01,0.00000e+00,0.00000e+00,0.00000e+00
0.00000e+00,3.97249e+01,-2.94769e+01,0.00000e+00,0.00000e+00,0.00000e+00
0.00000e+00,3.91766e+01,-3.27521e+01,0.00000e+00,0.00000e+00,0.00000e+00
0.00000e+00,3.85857e+01,-3.60273e+01,0.00000e+00,0.00000e+00,0.00000e+00
0.00000e+00,3.79511e+01,-3.93025e+01,0.00000e+00,0.00000e+00,0.00000e+00
0.00000e+00,3.72545e+01,-4.25777e+01,0.00000e+00,0.00000e+00,0.00000e+00
0.00000e+00,3.64976e+01,-4.58529e+01,0.00000e+00,0.00000e+00,0.00000e+00
0.00000e+00,3.56687e+01,-4.91281e+01,0.00000e+00,0.00000e+00,0.00000e+00
0.00000e+00,3.47420e+01,-5.24033e+01,0.00000e+00,0.00000e+00,0.00000e+00
0.00000e+00,3.37474e+01,-5.56785e+01,0.00000e+00,0.00000e+00,0.00000e+00
0.00000e+00,3.26000e+01,-5.89537e+01,0.00000e+00,0.00000e+00,0.00000e+00
0.00000e+00,3.13892e+01,-6.22289e+01,0.00000e+00,0.00000e+00,0.00000e+00
0.00000e+00,3.00018e+01,-6.55041e+01,0.00000e+00,0.00000e+00,0.00000e+00
0.00000e+00,2.84730e+01,-6.87793e+01,0.00000e+00,0.00000e+00,0.00000e+00
0.00000e+00,2.68002e+01,-7.20546e+01,0.00000e+00,0.00000e+00,0.00000e+00
0.00000e+00,2.48857e+01,-7.53298e+01,0.00000e+00,0.00000e+00,0.00000e+00
0.00000e+00,2.26913e+01,-7.86050e+01,0.00000e+00,0.00000e+00,0.00000e+00
0.00000e+00,2.01805e+01,-8.18802e+01,0.00000e+00,0.00000e+00,0.00000e+00
0.00000e+00,1.72108e+01,-8.51554e+01,0.00000e+00,0.00000e+00,0.00000e+00
0.00000e+00,1.33989e+01,-8.84306e+01,0.00000e+00,0.00000e+00,0.00000e+00
0.00000e+00,8.24350e+00,-9.17058e+01,0.00000e+00,0.00000e+00,0.00000e+00
0.00000e+00,-3.34020e+00,-9.49810e+01,0.00000e+00,0.00000e+00,0.00000e+00
0.00000e+00,-4.17620e+00,-9.49886e+01,0.00000e+00,0.00000e+00,0.00000e+00
0.00000e+00,-1.17928e+01,-9.15961e+01,0.00000e+00,0.00000e+00,0.00000e+00
0.00000e+00,-1.27149e+01,-8.82037e+01,0.00000e+00,0.00000e+00,0.00000e+00
0.00000e+00,-1.30332e+01,-8.48113e+01,0.00000e+00,0.00000e+00,0.00000e+00
0.00000e+00,-1.30814e+01,-8.14188e+01,0.00000e+00,0.00000e+00,0.00000e+00
0.00000e+00,-1.29264e+01,-7.80264e+01,0.00000e+00,0.00000e+00,0.00000e+00
0.00000e+00,-1.26437e+01,-7.46339e+01,0.00000e+00,0.00000e+00,0.00000e+00
0.00000e+00,-1.22328e+01,-7.12415e+01,0.00000e+00,0.00000e+00,0.00000e+00
0.00000e+00,-1.17438e+01,-6.78490e+01,0.00000e+00,0.00000e+00,0.00000e+00
0.00000e+00,-1.12094e+01,-6.44565e+01,0.00000e+00,0.00000e+00,0.00000e+00
0.00000e+00,-1.06068e+01,-6.10641e+01,0.00000e+00,0.00000e+00,0.00000e+00
0.00000e+00,-9.96142e+00,-5.76716e+01,0.00000e+00,0.00000e+00,0.00000e+00
0.00000e+00,-9.27449e+00,-5.42792e+01,0.00000e+00,0.00000e+00,0.00000e+00
0.00000e+00,-8.54615e+00,-5.08867e+01,0.00000e+00,0.00000e+00,0.00000e+00
0.00000e+00,-7.79185e+00,-4.74943e+01,0.00000e+00,0.00000e+00,0.00000e+00
0.00000e+00,-7.00429e+00,-4.41018e+01,0.00000e+00,0.00000e+00,0.00000e+00
0.00000e+00,-6.19544e+00,-4.07094e+01,0.00000e+00,0.00000e+00,0.00000e+00
0.00000e+00,-5.36748e+00,-3.73169e+01,0.00000e+00,0.00000e+00,0.00000e+00
0.00000e+00,-4.52248e+00,-3.39245e+01,0.00000e+00,0.00000e+00,0.00000e+00
0.00000e+00,-3.67026e+00,-3.05320e+01,0.00000e+00,0.00000e+00,0.00000e+00
0.00000e+00,-2.80686e+00,-2.71396e+01,0.00000e+00,0.00000e+00,0.00000e+00
0.00000e+00,-1.94159e+00,-2.37472e+01,0.00000e+00,0.00000e+00,0.00000e+00
0.00000e+00,-1.06964e+00,-2.03547e+01,0.00000e+00,0.00000e+00,0.00000e+00
0.00000e+00,-1.97780e-01,-1.69622e+01,0.00000e+00,0.00000e+00,0.00000e+00
0.00000e+00,6.70785e-01,-1.35698e+01,0.00000e+00,0.00000e+00,0.00000e+00
0.00000e+00,1.53935e+00,-1.01774e+01,0.00000e+00,0.00000e+00,0.00000e+00
0.00000e+00,2.38735e+00,-6.78490e+00,0.00000e+00,0.00000e+00,0.00000e+00
0.00000e+00,3.23151e+00,-3.39245e+00,0.00000e+00,0.00000e+00,0.00000e+00
1.07300e+02,4.26785e+01,0.00000e+00,0.00000e+00,0.00000e+00,0.00000e+00
1.07300e+02,4.24636e+01,-3.24312e+00,0.00000e+00,0.00000e+00,0.00000e+00
1.07300e+02,4.21777e+01,-6.48624e+00,0.00000e+00,0.00000e+00,0.00000e+00
1.07300e+02,4.18889e+01,-9.72936e+00,0.00000e+00,0.00000e+00,0.00000e+00
1.07300e+02,4.15374e+01,-1.29725e+01,0.00000e+00,0.00000e+00,0.00000e+00
1.07300e+02,4.11714e+01,-1.62156e+01,0.00000e+00,0.00000e+00,0.00000e+00
1.07300e+02,4.07572e+01,-1.94587e+01,0.00000e+00,0.00000e+00,0.00000e+00
1.07300e+02,4.03197e+01,-2.27018e+01,0.00000e+00,0.00000e+00,0.00000e+00
1.07300e+02,3.98436e+01,-2.59450e+01,0.00000e+00,0.00000e+00,0.00000e+00
1.07300e+02,3.93357e+01,-2.91881e+01,0.00000e+00,0.00000e+00,0.00000e+00
1.07300e+02,3.87928e+01,-3.24312e+01,0.00000e+00,0.00000e+00,0.00000e+00
1.07300e+02,3.82077e+01,-3.56743e+01,0.00000e+00,0.00000e+00,0.00000e+00
1.07300e+02,3.75793e+01,-3.89174e+01,0.00000e+00,0.00000e+00,0.00000e+00
1.07300e+02,3.68895e+01,-4.21606e+01,0.00000e+00,0.00000e+00,0.00000e+00
1.07300e+02,3.61401e+01,-4.54037e+01,0.00000e+00,0.00000e+00,0.00000e+00
1.07300e+02,3.53192e+01,-4.86468e+01,0.00000e+00,0.00000e+00,0.00000e+00
1.07300e+02,3.44016e+01,-5.18899e+01,0.00000e+00,0.00000e+00,0.00000e+00
1.07300e+02,3.34168e+01,-5.51330e+01,0.00000e+00,0.00000e+00,0.00000e+00
1.07300e+02,3.22806e+01,-5.83762e+01,0.00000e+00,0.00000e+00,0.00000e+00
1.07300e+02,3.10816e+01,-6.16193e+01,0.00000e+00,0.00000e+00,0.00000e+00
1.07300e+02,2.97079e+01,-6.48624e+01,0.00000e+00,0.00000e+00,0.00000e+00
1.07300e+02,2.81940e+01,-6.81055e+01,0.00000e+00,0.00000e+00,0.00000e+00
1.07300e+02,2.65376e+01,-7.13486e+01,0.00000e+00,0.00000e+00,0.00000e+00
1.07300e+02,2.46419e+01,-7.45918e+01,0.00000e+00,0.00000e+00,0.00000e+00
1.07300e+02,2.24690e+01,-7.78349e+01,0.00000e+00,0.00000e+00,0.00000e+00
1.07300e+02,1.99828e+01,-8.10780e+01,0.00000e+00,0.00000e+00,0.00000e+00
1.07300e+02,1.70422e+01,-8.43211e+01,0.00000e+00,0.00000e+00,0.00000e+00
1.07300e+02,1.32676e+01,-8.75642e+01,0.00000e+00,0.00000e+00,0.00000e+00
1.07300e+02,8.16273e+00,-9.08074e+01,0.00000e+00,0.00000e+00,0.00000e+00
1.07300e+02,-3.30748e+00,-9.40505e+01,0.00000e+00,0.00000e+00,0.00000e+00
1.07300e+02,-4.13529e+00,-9.40580e+01,0.00000e+00,0.00000e+00,0.00000e+00
1.07300e+02,-1.16772e+01,-9.06988e+01,0.00000e+00,0.00000e+00,0.00000e+00
1.07300e+02,-1.25904e+01,-8.73396e+01,0.00000e+00,0.00000e+00,0.00000e+00
1.07300e+02,-1.29055e+01,-8.39804e+01,0.00000e+00,0.00000e+00,0.00000e+00
1.07300e+02,-1.29533e+01,-8.06211e+01,0.00000e+00,0.00000e+00,0.00000e+00
1.07300e+02,-1.27997e+01,-7.72619e+01,0.00000e+00,0.00000e+00,0.00000e+00
1.07300e+02,-1.25198e+01,-7.39027e+01,0.00000e+00,0.00000e+00,0.00000e+00
1.07300e+02,-1.21130e+01,-7.05435e+01,0.00000e+00,0.00000e+00,0.00000e+00
1.07300e+02,-1.16287e+01,-6.71843e+01,0.00000e+00,0.00000e+00,0.00000e+00
1.07300e+02,-1.10996e+01,-6.38251e+01,0.00000e+00,0.00000e+00,0.00000e+00
1.07300e+02,-1.05029e+01,-6.04659e+01,0.00000e+00,0.00000e+00,0.00000e+00
1.07300e+02,-9.86382e+00,-5.71066e+01,0.00000e+00,0.00000e+00,0.00000e+00
1.07300e+02,-9.18363e+00,-5.37474e+01,0.00000e+00,0.00000e+00,0.00000e+00
1.07300e+02,-8.46243e+00,-5.03882e+01,0.00000e+00,0.00000e+00,0.00000e+00
1.07300e+02,-7.71552e+00,-4.70290e+01,0.00000e+00,0.00000e+00,0.00000e+00
1.07300e+02,-6.93567e+00,-4.36698e+01,0.00000e+00,0.00000e+00,0.00000e+00
1.07300e+02,-6.13474e+00,-4.03106e+01,0.00000e+00,0.00000e+00,0.00000e+00
1.07300e+02,-5.31490e+00,-3.69514e+01,0.00000e+00,0.00000e+00,0.00000e+00
1.07300e+02,-4.47818e+00,-3.35921e+01,0.00000e+00,0.00000e+00,0.00000e+00
1.07300e+02,-3.63431e+00,-3.02329e+01,0.00000e+00,0.00000e+00,0.00000e+00
1.07300e+02,-2.77936e+00,-2.68737e+01,0.00000e+00,0.00000e+00,0.00000e+00
1.07300e+02,-1.92257e+00,-2.35145e+01,0.00000e+00,0.00000e+00,0.00000e+00
1.07300e+02,-1.05916e+00,-2.01553e+01,0.00000e+00,0.00000e+00,0.00000e+00
1.07300e+02,-1.95842e-01,-1.67961e+01,0.00000e+00,0.00000e+00,0.00000e+00
1.07300e+02,6.64213e-01,-1.34369e+01,0.00000e+00,0.00000e+00,0.00000e+00
1.07300e+02,1.52427e+00,-1.00776e+01,0.00000e+00,0.00000e+00,0.00000e+00
1.07300e+02,2.36396e+00,-6.71843e+00,0.00000e+00,0.00000e+00,0.00000e+00
1.07300e+02,3.19985e+00,-3.35921e+00,0.00000e+00,0.00000e+00,0.00000e+00
2.14300e+02,4.22575e+01,0.00000e+00,0.00000e+00,0.00000e+00,0.00000e+00
2.14300e+02,4.20447e+01,-3.21112e+00,0.00000e+00,0.00000e+00,0.00000e+00
2.14300e+02,4.17615e+01,-6.42224e+00,0.00000e+00,0.00000e+00,0.00000e+00
2.14300e+02,4.14756e+01,-9.63337e+00,0.00000e+00,0.00000e+00,0.00000e+00
2.14300e+02,4.11276e+01,-1.28445e+01,0.00000e+00,0.00000e+00,0.00000e+00
2.14300e+02,4.07652e+01,-1.60556e+01,0.00000e+00,0.00000e+00,0.00000e+00
2.14300e+02,4.03551e+01,-1.92667e+01,0.00000e+00,0.00000e+00,0.00000e+00
2.14300e+02,3.99219e+01,-2.24779e+01,0.00000e+00,0.00000e+00,0.00000e+00
2.14300e+02,3.94505e+01,-2.56890e+01,0.00000e+00,0.00000e+00,0.00000e+00
2.14300e+02,3.89476e+01,-2.89001e+01,0.00000e+00,0.00000e+00,0.00000e+00
2.14300e+02,3.84101e+01,-3.21112e+01,0.00000e+00,0.00000e+00,0.00000e+00
2.14300e+02,3.78307e+01,-3.53223e+01,0.00000e+00,0.00000e+00,0.00000e+00
2.14300e+02,3.72085e+01,-3.85335e+01,0.00000e+00,0.00000e+00,0.00000e+00
2.14300e+02,3.65256e+01,-4.17446e+01,0.00000e+00,0.00000e+00,0.00000e+00
2.14300e+02,3.57835e+01,-4.49557e+01,0.00000e+00,0.00000e+00,0.00000e+00
2.14300e+02,3.49707e+01,-4.81668e+01,0.00000e+00,0.00000e+00,0.00000e+00
2.14300e+02,3.40622e+01,-5.13780e+01,0.00000e+00,0.00000e+00,0.00000e+00
2.14300e+02,3.30871e+01,-5.45891e+01,0.00000e+00,0.00000e+00,0.00000e+00
2.14300e+02,3.19621e+01,-5.78002e+01,0.00000e+00,0.00000e+00,0.00000e+00
2.14300e+02,3.07750e+01,-6.10113e+01,0.00000e+00,0.00000e+00,0.00000e+00
2.14300e+02,2.94148e+01,-6.42224e+01,0.00000e+00,0.00000e+00,0.00000e+00
2.14300e+02,2.79159e+01,-6.74336e+01,0.00000e+00,0.00000e+00,0.00000e+00
2.14300e+02,2.62758e+01,-7.06447e+01,0.00000e+00,0.00000e+00,0.00000e+00
2.14300e+02,2.43988e+01,-7.38558e+01,0.00000e+00,0.00000e+00,0.00000e+00
2.14300e+02,2.22473e+01,-7.70669e+01,0.00000e+00,0.00000e+00,0.00000e+00
2.14300e+02,1.97856e+01,-8.02781e+01,0.00000e+00,0.00000e+00,0.00000e+00
2.14300e+02,1.68740e+01,-8.34892e+01,0.00000e+00,0.00000e+00,0.00000e+00
2.14300e+02,1.31367e+01,-8.67003e+01,0.00000e+00,0.00000e+00,0.00000e+00
2.14300e+02,8.08220e+00,-8.99114e+01,0.00000e+00,0.00000e+00,0.00000e+00
2.14300e+02,-3.27484e+00,-9.31226e+01,0.00000e+00,0.00000e+00,0.00000e+00
2.14300e+02,-4.09449e+00,-9.31300e+01,0.00000e+00,0.00000e+00,0.00000e+00
2.14300e+02,-1.15620e+01,-8.98039e+01,0.00000e+00,0.00000e+00,0.00000e+00
2.14300e+02,-1.24661e+01,-8.64779e+01,0.00000e+00,0.00000e+00,0.00000e+00
2.14300e+02,-1.27781e+01,-8.31518e+01,0.00000e+00,0.00000e+00,0.00000e+00
2.14300e+02,-1.28255e+01,-7.98257e+01,0.00000e+00,0.00000e+00,0.00000e+00
2.14300e+02,-1.26734e+01,-7.64996e+01,0.00000e+00,0.00000e+00,0.00000e+00
2.14300e+02,-1.23963e+01,-7.31736e+01,0.00000e+00,0.00000e+00,0.00000e+00
2.14300e+02,-1.19935e+01,-6.98475e+01,0.00000e+00,0.00000e+00,0.00000e+00
2.14300e+02,-1.15140e+01,-6.65214e+01,0.00000e+00,0.00000e+00,0.00000e+00
2.14300e+02,-1.09901e+01,-6.31954e+01,0.00000e+00,0.00000e+00,0.00000e+00
2.14300e+02,-1.03992e+01,-5.98693e+01,0.00000e+00,0.00000e+00,0.00000e+00
2.14300e+02,-9.76651e+00,-5.65432e+01,0.00000e+00,0.00000e+00,0.00000e+00
2.14300e+02,-9.09302e+00,-5.32171e+01,0.00000e+00,0.00000e+00,0.00000e+00
2.14300e+02,-8.37893e+00,-4.98911e+01,0.00000e+00,0.00000e+00,0.00000e+00
2.14300e+02,-7.63939e+00,-4.65650e+01,0.00000e+00,0.00000e+00,0.00000e+00
2.14300e+02,-6.86724e+00,-4.32389e+01,0.00000e+00,0.00000e+00,0.00000e+00
2.14300e+02,-6.07421e+00,-3.99129e+01,0.00000e+00,0.00000e+00,0.00000e+00
2.14300e+02,-5.26246e+00,-3.65868e+01,0.00000e+00,0.00000e+00,0.00000e+00
2.14300e+02,-4.43399e+00,-3.32607e+01,0.00000e+00,0.00000e+00,0.00000e+00
2.14300e+02,-3.59845e+00,-2.99346e+01,0.00000e+00,0.00000e+00,0.00000e+00
2.14300e+02,-2.75194e+00,-2.66086e+01,0.00000e+00,0.00000e+00,0.00000e+00
2.14300e+02,-1.90360e+00,-2.32825e+01,0.00000e+00,0.00000e+00,0.00000e+00
2.14300e+02,-1.04871e+00,-1.99564e+01,0.00000e+00,0.00000e+00,0.00000e+00
2.14300e+02,-1.93910e-01,-1.66304e+01,0.00000e+00,0.00000e+00,0.00000e+00
2.14300e+02,6.57660e-01,-1.33043e+01,0.00000e+00,0.00000e+00,0.00000e+00
2.14300e+02,1.50923e+00,-9.97821e+00,0.00000e+00,0.00000e+00,0.00000e+00
2.14300e+02,2.34063e+00,-6.65214e+00,0.00000e+00,0.00000e+00,0.00000e+00
2.14300e+02,3.16828e+00,-3.32607e+00,0.00000e+00,0.00000e+00,0.00000e+00
3.20700e+02,4.18388e+01,0.00000e+00,0.00000e+00,0.00000e+00,0.00000e+00
3.20700e+02,4.16280e+01,-3.17930e+00,0.00000e+00,0.00000e+00,0.00000e+00
3.20700e+02,4.13477e+01,-6.35861e+00,0.00000e+00,0.00000e+00,0.00000e+00
3.20700e+02,4.10646e+01,-9.53791e+00,0.00000e+00,0.00000e+00,0.00000e+00
3.20700e+02,4.07201e+01,-1.27172e+01,0.00000e+00,0.00000e+00,0.00000e+00
3.20700e+02,4.03613e+01,-1.58965e+01,0.00000e+00,0.00000e+00,0.00000e+00
3.20700e+02,3.99553e+01,-1.90758e+01,0.00000e+00,0.00000e+00,0.00000e+00
3.20700e+02,3.95264e+01,-2.22551e+01,0.00000e+00,0.00000e+00,0.00000e+00
3.20700e+02,3.90596e+01,-2.54344e+01,0.00000e+00,0.00000e+00,0.00000e+00
3.20700e+02,3.85617e+01,-2.86137e+01,0.00000e+00,0.00000e+00,0.00000e+00
3.20700e+02,3.80295e+01,-3.17930e+01,0.00000e+00,0.00000e+00,0.00000e+00
3.20700e+02,3.74559e+01,-3.49724e+01,0.00000e+00,0.00000e+00,0.00000e+00
3.20700e+02,3.68398e+01,-3.81517e+01,0.00000e+00,0.00000e+00,0.00000e+00
3.20700e+02,3.61637e+01,-4.13310e+01,0.00000e+00,0.00000e+00,0.00000e+00
3.20700e+02,3.54289e+01,-4.45103e+01,0.00000e+00,0.00000e+00,0.00000e+00
3.20700e+02,3.46242e+01,-4.76896e+01,0.00000e+00,0.00000e+00,0.00000e+00
3.20700e+02,3.37247e+01,-5.08689e+01,0.00000e+00,0.00000e+00,0.00000e+00
3.20700e+02,3.27593e+01,-5.40482e+01,0.00000e+00,0.00000e+00,0.00000e+00
3.20700e+02,3.16454e+01,-5.72275e+01,0.00000e+00,0.00000e+00,0.00000e+00
3.20700e+02,3.04701e+01,-6.04068e+01,0.00000e+00,0.00000e+00,0.00000e+00
3.20700e+02,2.91233e+01,-6.35861e+01,0.00000e+00,0.00000e+00,0.00000e+00
3.20700e+02,2.76393e+01,-6.67654e+01,0.00000e+00,0.00000e+00,0.00000e+00
3.20700e+02,2.60154e+01,-6.99447e+01,0.00000e+00,0.00000e+00,0.00000e+00
3.20700e+02,2.41570e+01,-7.31240e+01,0.00000e+00,0.00000e+00,0.00000e+00
3.20700e+02,2.20269e+01,-7.63033e+01,0.00000e+00,0.00000e+00,0.00000e+00
3.20700e+02,1.95896e+01,-7.94826e+01,0.00000e+00,0.00000e+00,0.00000e+00
3.20700e+02,1.67068e+01,-8.26619e+01,0.00000e+00,0.00000e+00,0.00000e+00
3.20700e+02,1.30066e+01,-8.58412e+01,0.00000e+00,0.00000e+00,0.00000e+00
3.20700e+02,8.00212e+00,-8.90205e+01,0.00000e+00,0.00000e+00,0.00000e+00
3.20700e+02,-3.24239e+00,-9.21998e+01,0.00000e+00,0.00000e+00,0.00000e+00
3.20700e+02,-4.05392e+00,-9.22072e+01,0.00000e+00,0.00000e+00,0.00000e+00
3.20700e+02,-1.14474e+01,-8.89141e+01,0.00000e+00,0.00000e+00,0.00000e+00
3.20700e+02,-1.23426e+01,-8.56210e+01,0.00000e+00,0.00000e+00,0.00000e+00
3.20700e+02,-1.26515e+01,-8.23279e+01,0.00000e+00,0.00000e+00,0.00000e+00
3.20700e+02,-1.26984e+01,-7.90348e+01,0.00000e+00,0.00000e+00,0.00000e+00
3.20700e+02,-1.25479e+01,-7.57416e+01,0.00000e+00,0.00000e+00,0.00000e+00
3.20700e+02,-1.22734e+01,-7.24485e+01,0.00000e+00,0.00000e+00,0.00000e+00
3.20700e+02,-1.18746e+01,-6.91554e+01,0.00000e+00,0.00000e+00,0.00000e+00
3.20700e+02,-1.13999e+01,-6.58623e+01,0.00000e+00,0.00000e+00,0.00000e+00
3.20700e+02,-1.08812e+01,-6.25692e+01,0.00000e+00,0.00000e+00,0.00000e+00
3.20700e+02,-1.02962e+01,-5.92761e+01,0.00000e+00,0.00000e+00,0.00000e+00
3.20700e+02,-9.66973e+00,-5.59829e+01,0.00000e+00,0.00000e+00,0.00000e+00
3.20700e+02,-9.00292e+00,-5.26898e+01,0.00000e+00,0.00000e+00,0.00000e+00
3.20700e+02,-8.29591e+00,-4.93967e+01,0.00000e+00,0.00000e+00,0.00000e+00
3.20700e+02,-7.56370e+00,-4.61036e+01,0.00000e+00,0.00000e+00,0.00000e+00
3.20700e+02,-6.79920e+00,-4.28105e+01,0.00000e+00,0.00000e+00,0.00000e+00
3.20700e+02,-6.01403e+00,-3.95174e+01,0.00000e+00,0.00000e+00,0.00000e+00
3.20700e+02,-5.21032e+00,-3.62243e+01,0.00000e+00,0.00000e+00,0.00000e+00
3.20700e+02,-4.39006e+00,-3.29311e+01,0.00000e+00,0.00000e+00,0.00000e+00
3.20700e+02,-3.56279e+00,-2.96380e+01,0.00000e+00,0.00000e+00,0.00000e+00
3.20700e+02,-2.72467e+00,-2.63449e+01,0.00000e+00,0.00000e+00,0.00000e+00
3.20700e+02,-1.88474e+00,-2.30518e+01,0.00000e+00,0.00000e+00,0.00000e+00
3.20700e+02,-1.03832e+00,-1.97587e+01,0.00000e+00,0.00000e+00,0.00000e+00
3.20700e+02,-1.91989e-01,-1.64656e+01,0.00000e+00,0.00000e+00,0.00000e+00
3.20700e+02,6.51143e-01,-1.31725e+01,0.00000e+00,0.00000e+00,0.00000e+00
3.20700e+02,1.49428e+00,-9.87934e+00,0.00000e+00,0.00000e+00,0.00000e+00
3.20700e+02,2.31744e+00,-6.58623e+00,0.00000e+00,0.00000e+00,0.00000e+00
3.20700e+02,3.13689e+00,-3.29311e+00,0.00000e+00,0.00000e+00,0.00000e+00
4.26200e+02,4.14236e+01,0.00000e+00,0.00000e+00,0.00000e+00,0.00000e+00
4.26200e+02,4.12150e+01,-3.14776e+00,0.00000e+00,0.00000e+00,0.00000e+00
4.26200e+02,4.09374e+01,-6.29551e+00,0.00000e+00,0.00000e+00,0.00000e+00
4.26200e+02,4.06571e+01,-9.44327e+00,0.00000e+00,0.00000e+00,0.00000e+00
4.26200e+02,4.03160e+01,-1.25910e+01,0.00000e+00,0.00000e+00,0.00000e+00
4.26200e+02,3.99607e+01,-1.57388e+01,0.00000e+00,0.00000e+00,0.00000e+00
4.26200e+02,3.95588e+01,-1.88865e+01,0.00000e+00,0.00000e+00,0.00000e+00
4.26200e+02,3.91341e+01,-2.20343e+01,0.00000e+00,0.00000e+00,0.00000e+00
4.26200e+02,3.86720e+01,-2.51820e+01,0.00000e+00,0.00000e+00,0.00000e+00
4.26200e+02,3.81790e+01,-2.83298e+01,0.00000e+00,0.00000e+00,0.00000e+00
4.26200e+02,3.76521e+01,-3.14776e+01,0.00000e+00,0.00000e+00,0.00000e+00
4.26200e+02,3.70842e+01,-3.46253e+01,0.00000e+00,0.00000e+00,0.00000e+00
4.26200e+02,3.64743e+01,-3.77731e+01,0.00000e+00,0.00000e+00,0.00000e+00
4.26200e+02,3.58048e+01,-4.09208e+01,0.00000e+00,0.00000e+00,0.00000e+00
4.26200e+02,3.50774e+01,-4.40686e+01,0.00000e+00,0.00000e+00,0.00000e+00
4.26200e+02,3.42806e+01,-4.72163e+01,0.00000e+00,0.00000e+00,0.00000e+00
4.26200e+02,3.33901e+01,-5.03641e+01,0.00000e+00,0.00000e+00,0.00000e+00
4.26200e+02,3.24342e+01,-5.35118e+01,0.00000e+00,0.00000e+00,0.00000e+00
4.26200e+02,3.13314e+01,-5.66596e+01,0.00000e+00,0.00000e+00,0.00000e+00
4.26200e+02,3.01677e+01,-5.98074e+01,0.00000e+00,0.00000e+00,0.00000e+00
4.26200e+02,2.88343e+01,-6.29551e+01,0.00000e+00,0.00000e+00,0.00000e+00
4.26200e+02,2.73650e+01,-6.61029e+01,0.00000e+00,0.00000e+00,0.00000e+00
4.26200e+02,2.57573e+01,-6.92506e+01,0.00000e+00,0.00000e+00,0.00000e+00
4.26200e+02,2.39173e+01,-7.23984e+01,0.00000e+00,0.00000e+00,0.00000e+00
4.26200e+02,2.18083e+01,-7.55461e+01,0.00000e+00,0.00000e+00,0.00000e+00
4.26200e+02,1.93952e+01,-7.86939e+01,0.00000e+00,0.00000e+00,0.00000e+00
4.26200e+02,1.65410e+01,-8.18417e+01,0.00000e+00,0.00000e+00,0.00000e+00
4.26200e+02,1.28775e+01,-8.49894e+01,0.00000e+00,0.00000e+00,0.00000e+00
4.26200e+02,7.92271e+00,-8.81372e+01,0.00000e+00,0.00000e+00,0.00000e+00
4.26200e+02,-3.21022e+00,-9.12849e+01,0.00000e+00,0.00000e+00,0.00000e+00
4.26200e+02,-4.01369e+00,-9.12922e+01,0.00000e+00,0.00000e+00,0.00000e+00
4.26200e+02,-1.13339e+01,-8.80318e+01,0.00000e+00,0.00000e+00,0.00000e+00
4.26200e+02,-1.22201e+01,-8.47713e+01,0.00000e+00,0.00000e+00,0.00000e+00
4.26200e+02,-1.25260e+01,-8.15109e+01,0.00000e+00,0.00000e+00,0.00000e+00
4.26200e+02,-1.25724e+01,-7.82505e+01,0.00000e+00,0.00000e+00,0.00000e+00
4.26200e+02,-1.24233e+01,-7.49900e+01,0.00000e+00,0.00000e+00,0.00000e+00
4.26200e+02,-1.21516e+01,-7.17296e+01,0.00000e+00,0.00000e+00,0.00000e+00
4.26200e+02,-1.17568e+01,-6.84692e+01,0.00000e+00,0.00000e+00,0.00000e+00
4.26200e+02,-1.12868e+01,-6.52087e+01,0.00000e+00,0.00000e+00,0.00000e+00
4.26200e+02,-1.07732e+01,-6.19483e+01,0.00000e+00,0.00000e+00,0.00000e+00
4.26200e+02,-1.01940e+01,-5.86879e+01,0.00000e+00,0.00000e+00,0.00000e+00
4.26200e+02,-9.57378e+00,-5.54274e+01,0.00000e+00,0.00000e+00,0.00000e+00
4.26200e+02,-8.91358e+00,-5.21670e+01,0.00000e+00,0.00000e+00,0.00000e+00
4.26200e+02,-8.21359e+00,-4.89065e+01,0.00000e+00,0.00000e+00,0.00000e+00
4.26200e+02,-7.48864e+00,-4.56461e+01,0.00000e+00,0.00000e+00,0.00000e+00
4.26200e+02,-6.73173e+00,-4.23857e+01,0.00000e+00,0.00000e+00,0.00000e+00
4.26200e+02,-5.95435e+00,-3.91252e+01,0.00000e+00,0.00000e+00,0.00000e+00
4.26200e+02,-5.15861e+00,-3.58648e+01,0.00000e+00,0.00000e+00,0.00000e+00
4.26200e+02,-4.34650e+00,-3.26044e+01,0.00000e+00,0.00000e+00,0.00000e+00
4.26200e+02,-3.52744e+00,-2.93439e+01,0.00000e+00,0.00000e+00,0.00000e+00
4.26200e+02,-2.69763e+00,-2.60835e+01,0.00000e+00,0.00000e+00,0.00000e+00
4.26200e+02,-1.86603e+00,-2.28231e+01,0.00000e+00,0.00000e+00,0.00000e+00
4.26200e+02,-1.02802e+00,-1.95626e+01,0.00000e+00,0.00000e+00,0.00000e+00
4.26200e+02,-1.90083e-01,-1.63022e+01,0.00000e+00,0.00000e+00,0.00000e+00
4.26200e+02,6.44682e-01,-1.30417e+01,0.00000e+00,0.00000e+00,0.00000e+00
4.26200e+02,1.47945e+00,-9.78131e+00,0.00000e+00,0.00000e+00,0.00000e+00
4.26200e+02,2.29445e+00,-6.52087e+00,0.00000e+00,0.00000e+00,0.00000e+00
4.26200e+02,3.10576e+00,-3.26044e+00,0.00000e+00,0.00000e+00,0.00000e+00
5.30600e+02,4.10127e+01,0.00000e+00,0.00000e+00,0.00000e+00,0.00000e+00
5.30600e+02,4.08062e+01,-3.11654e+00,0.00000e+00,0.00000e+00,0.00000e+00
5.30600e+02,4.05314e+01,-6.23307e+00,0.00000e+00,0.00000e+00,0.00000e+00
5.30600e+02,4.02539e+01,-9.34961e+00,0.00000e+00,0.00000e+00,0.00000e+00
5.30600e+02,3.99161e+01,-1.24661e+01,0.00000e+00,0.00000e+00,0.00000e+00
5.30600e+02,3.95644e+01,-1.55827e+01,0.00000e+00,0.00000e+00,0.00000e+00
5.30600e+02,3.91664e+01,-1.86992e+01,0.00000e+00,0.00000e+00,0.00000e+00
5.30600e+02,3.87460e+01,-2.18158e+01,0.00000e+00,0.00000e+00,0.00000e+00
5.30600e+02,3.82884e+01,-2.49323e+01,0.00000e+00,0.00000e+00,0.00000e+00
5.30600e+02,3.78003e+01,-2.80488e+01,0.00000e+00,0.00000e+00,0.00000e+00
5.30600e+02,3.72787e+01,-3.11654e+01,0.00000e+00,0.00000e+00,0.00000e+00
5.30600e+02,3.67164e+01,-3.42819e+01,0.00000e+00,0.00000e+00,0.00000e+00
5.30600e+02,3.61125e+01,-3.73984e+01,0.00000e+00,0.00000e+00,0.00000e+00
5.30600e+02,3.54497e+01,-4.05150e+01,0.00000e+00,0.00000e+00,0.00000e+00
5.30600e+02,3.47295e+01,-4.36315e+01,0.00000e+00,0.00000e+00,0.00000e+00
5.30600e+02,3.39406e+01,-4.67480e+01,0.00000e+00,0.00000e+00,0.00000e+00
5.30600e+02,3.30589e+01,-4.98646e+01,0.00000e+00,0.00000e+00,0.00000e+00
5.30600e+02,3.21125e+01,-5.29811e+01,0.00000e+00,0.00000e+00,0.00000e+00
5.30600e+02,3.10206e+01,-5.60976e+01,0.00000e+00,0.00000e+00,0.00000e+00
5.30600e+02,2.98685e+01,-5.92142e+01,0.00000e+00,0.00000e+00,0.00000e+00
5.30600e+02,2.85484e+01,-6.23307e+01,0.00000e+00,0.00000e+00,0.00000e+00
5.30600e+02,2.70936e+01,-6.54473e+01,0.00000e+00,0.00000e+00,0.00000e+00
5.30600e+02,2.55018e+01,-6.85638e+01,0.00000e+00,0.00000e+00,0.00000e+00
5.30600e+02,2.36801e+01,-7.16803e+01,0.00000e+00,0.00000e+00,0.00000e+00
5.30600e+02,2.15920e+01,-7.47969e+01,0.00000e+00,0.00000e+00,0.00000e+00
5.30600e+02,1.92028e+01,-7.79134e+01,0.00000e+00,0.00000e+00,0.00000e+00
5.30600e+02,1.63770e+01,-8.10299e+01,0.00000e+00,0.00000e+00,0.00000e+00
5.30600e+02,1.27498e+01,-8.41465e+01,0.00000e+00,0.00000e+00,0.00000e+00
5.30600e+02,7.84413e+00,-8.72630e+01,0.00000e+00,0.00000e+00,0.00000e+00
5.30600e+02,-3.17838e+00,-9.03795e+01,0.00000e+00,0.00000e+00,0.00000e+00
5.30600e+02,-3.97388e+00,-9.03868e+01,0.00000e+00,0.00000e+00,0.00000e+00
5.30600e+02,-1.12214e+01,-8.71587e+01,0.00000e+00,0.00000e+00,0.00000e+00
5.30600e+02,-1.20989e+01,-8.39306e+01,0.00000e+00,0.00000e+00,0.00000e+00
5.30600e+02,-1.24018e+01,-8.07025e+01,0.00000e+00,0.00000e+00,0.00000e+00
5.30600e+02,-1.24477e+01,-7.74744e+01,0.00000e+00,0.00000e+00,0.00000e+00
5.30600e+02,-1.23001e+01,-7.42463e+01,0.00000e+00,0.00000e+00,0.00000e+00
5.30600e+02,-1.20311e+01,-7.10182e+01,0.00000e+00,0.00000e+00,0.00000e+00
5.30600e+02,-1.16402e+01,-6.77901e+01,0.00000e+00,0.00000e+00,0.00000e+00
5.30600e+02,-1.11748e+01,-6.45620e+01,0.00000e+00,0.00000e+00,0.00000e+00
5.30600e+02,-1.06664e+01,-6.13339e+01,0.00000e+00,0.00000e+00,0.00000e+00
5.30600e+02,-1.00929e+01,-5.81058e+01,0.00000e+00,0.00000e+00,0.00000e+00
5.30600e+02,-9.47882e+00,-5.48777e+01,0.00000e+00,0.00000e+00,0.00000e+00
5.30600e+02,-8.82518e+00,-5.16496e+01,0.00000e+00,0.00000e+00,0.00000e+00
5.30600e+02,-8.13212e+00,-4.84215e+01,0.00000e+00,0.00000e+00,0.00000e+00
5.30600e+02,-7.41437e+00,-4.51934e+01,0.00000e+00,0.00000e+00,0.00000e+00
5.30600e+02,-6.66496e+00,-4.19653e+01,0.00000e+00,0.00000e+00,0.00000e+00
5.30600e+02,-5.89529e+00,-3.87372e+01,0.00000e+00,0.00000e+00,0.00000e+00
5.30600e+02,-5.10745e+00,-3.55091e+01,0.00000e+00,0.00000e+00,0.00000e+00
5.30600e+02,-4.30339e+00,-3.22810e+01,0.00000e+00,0.00000e+00,0.00000e+00
5.30600e+02,-3.49245e+00,-2.90529e+01,0.00000e+00,0.00000e+00,0.00000e+00
5.30600e+02,-2.67088e+00,-2.58248e+01,0.00000e+00,0.00000e+00,0.00000e+00
5.30600e+02,-1.84753e+00,-2.25967e+01,0.00000e+00,0.00000e+00,0.00000e+00
5.30600e+02,-1.01782e+00,-1.93686e+01,0.00000e+00,0.00000e+00,0.00000e+00
5.30600e+02,-1.88198e-01,-1.61405e+01,0.00000e+00,0.00000e+00,0.00000e+00
5.30600e+02,6.38288e-01,-1.29124e+01,0.00000e+00,0.00000e+00,0.00000e+00
5.30600e+02,1.46477e+00,-9.68430e+00,0.00000e+00,0.00000e+00,0.00000e+00
5.30600e+02,2.27169e+00,-6.45620e+00,0.00000e+00,0.00000e+00,0.00000e+00
5.30600e+02,3.07496e+00,-3.22810e+00,0.00000e+00,0.00000e+00,0.00000e+00
6.33500e+02,4.06078e+01,0.00000e+00,0.00000e+00,0.00000e+00,0.00000e+00
6.33500e+02,4.04033e+01,-3.08576e+00,0.00000e+00,0.00000e+00,0.00000e+00
6.33500e+02,4.01312e+01,-6.17153e+00,0.00000e+00,0.00000e+00,0.00000e+00
6.33500e+02,3.98564e+01,-9.25729e+00,0.00000e+00,0.00000e+00,0.00000e+00
6.33500e+02,3.95220e+01,-1.23431e+01,0.00000e+00,0.00000e+00,0.00000e+00
6.33500e+02,3.91738e+01,-1.54288e+01,0.00000e+00,0.00000e+00,0.00000e+00
6.33500e+02,3.87797e+01,-1.85146e+01,0.00000e+00,0.00000e+00,0.00000e+00
6.33500e+02,3.83634e+01,-2.16004e+01,0.00000e+00,0.00000e+00,0.00000e+00
6.33500e+02,3.79104e+01,-2.46861e+01,0.00000e+00,0.00000e+00,0.00000e+00
6.33500e+02,3.74271e+01,-2.77719e+01,0.00000e+00,0.00000e+00,0.00000e+00
6.33500e+02,3.69106e+01,-3.08576e+01,0.00000e+00,0.00000e+00,0.00000e+00
6.33500e+02,3.63539e+01,-3.39434e+01,0.00000e+00,0.00000e+00,0.00000e+00
6.33500e+02,3.57559e+01,-3.70292e+01,0.00000e+00,0.00000e+00,0.00000e+00
6.33500e+02,3.50997e+01,-4.01149e+01,0.00000e+00,0.00000e+00,0.00000e+00
6.33500e+02,3.43866e+01,-4.32007e+01,0.00000e+00,0.00000e+00,0.00000e+00
6.33500e+02,3.36055e+01,-4.62865e+01,0.00000e+00,0.00000e+00,0.00000e+00
6.33500e+02,3.27325e+01,-4.93722e+01,0.00000e+00,0.00000e+00,0.00000e+00
6.33500e+02,3.17954e+01,-5.24580e+01,0.00000e+00,0.00000e+00,0.00000e+00
6.33500e+02,3.07144e+01,-5.55438e+01,0.00000e+00,0.00000e+00,0.00000e+00
6.33500e+02,2.95736e+01,-5.86295e+01,0.00000e+00,0.00000e+00,0.00000e+00
6.33500e+02,2.82665e+01,-6.17153e+01,0.00000e+00,0.00000e+00,0.00000e+00
6.33500e+02,2.68261e+01,-6.48011e+01,0.00000e+00,0.00000e+00,0.00000e+00
6.33500e+02,2.52500e+01,-6.78868e+01,0.00000e+00,0.00000e+00,0.00000e+00
6.33500e+02,2.34463e+01,-7.09726e+01,0.00000e+00,0.00000e+00,0.00000e+00
6.33500e+02,2.13788e+01,-7.40584e+01,0.00000e+00,0.00000e+00,0.00000e+00
6.33500e+02,1.90132e+01,-7.71441e+01,0.00000e+00,0.00000e+00,0.00000e+00
6.33500e+02,1.62153e+01,-8.02299e+01,0.00000e+00,0.00000e+00,0.00000e+00
6.33500e+02,1.26239e+01,-8.33156e+01,0.00000e+00,0.00000e+00,0.00000e+00
6.33500e+02,7.76668e+00,-8.64014e+01,0.00000e+00,0.00000e+00,0.00000e+00
6.33500e+02,-3.14700e+00,-8.94872e+01,0.00000e+00,0.00000e+00,0.00000e+00
6.33500e+02,-3.93464e+00,-8.94943e+01,0.00000e+00,0.00000e+00,0.00000e+00
6.33500e+02,-1.11106e+01,-8.62981e+01,0.00000e+00,0.00000e+00,0.00000e+00
6.33500e+02,-1.19795e+01,-8.31019e+01,0.00000e+00,0.00000e+00,0.00000e+00
6.33500e+02,-1.22793e+01,-7.99057e+01,0.00000e+00,0.00000e+00,0.00000e+00
6.33500e+02,-1.23248e+01,-7.67094e+01,0.00000e+00,0.00000e+00,0.00000e+00
6.33500e+02,-1.21787e+01,-7.35132e+01,0.00000e+00,0.00000e+00,0.00000e+00
6.33500e+02,-1.19123e+01,-7.03170e+01,0.00000e+00,0.00000e+00,0.00000e+00
6.33500e+02,-1.15252e+01,-6.71208e+01,0.00000e+00,0.00000e+00,0.00000e+00
6.33500e+02,-1.10645e+01,-6.39245e+01,0.00000e+00,0.00000e+00,0.00000e+00
6.33500e+02,-1.05611e+01,-6.07283e+01,0.00000e+00,0.00000e+00,0.00000e+00
6.33500e+02,-9.99326e+00,-5.75321e+01,0.00000e+00,0.00000e+00,0.00000e+00
6.33500e+02,-9.38524e+00,-5.43358e+01,0.00000e+00,0.00000e+00,0.00000e+00
6.33500e+02,-8.73804e+00,-5.11396e+01,0.00000e+00,0.00000e+00,0.00000e+00
6.33500e+02,-8.05183e+00,-4.79434e+01,0.00000e+00,0.00000e+00,0.00000e+00
6.33500e+02,-7.34116e+00,-4.47472e+01,0.00000e+00,0.00000e+00,0.00000e+00
6.33500e+02,-6.59916e+00,-4.15509e+01,0.00000e+00,0.00000e+00,0.00000e+00
6.33500e+02,-5.83709e+00,-3.83547e+01,0.00000e+00,0.00000e+00,0.00000e+00
6.33500e+02,-5.05702e+00,-3.51585e+01,0.00000e+00,0.00000e+00,0.00000e+00
6.33500e+02,-4.26090e+00,-3.19623e+01,0.00000e+00,0.00000e+00,0.00000e+00
6.33500e+02,-3.45797e+00,-2.87660e+01,0.00000e+00,0.00000e+00,0.00000e+00
6.33500e+02,-2.64450e+00,-2.55698e+01,0.00000e+00,0.00000e+00,0.00000e+00
6.33500e+02,-1.82928e+00,-2.23736e+01,0.00000e+00,0.00000e+00,0.00000e+00
6.33500e+02,-1.00777e+00,-1.91774e+01,0.00000e+00,0.00000e+00,0.00000e+00
6.33500e+02,-1.86340e-01,-1.59811e+01,0.00000e+00,0.00000e+00,0.00000e+00
6.33500e+02,6.31986e-01,-1.27849e+01,0.00000e+00,0.00000e+00,0.00000e+00
6.33500e+02,1.45031e+00,-9.58868e+00,0.00000e+00,0.00000e+00,0.00000e+00
6.33500e+02,2.24926e+00,-6.39245e+00,0.00000e+00,0.00000e+00,0.00000e+00
6.33500e+02,3.04460e+00,-3.19623e+00,0.00000e+00,0.00000e+00,0.00000e+00
7.34700e+02,4.02095e+01,0.00000e+00,0.00000e+00,0.00000e+00,0.00000e+00
7.34700e+02,4.00070e+01,-3.05550e+00,0.00000e+00,0.00000e+00,0.00000e+00
7.34700e+02,3.97376e+01,-6.11100e+00,0.00000e+00,0.00000e+00,0.00000e+00
7.34700e+02,3.94656e+01,-9.16651e+00,0.00000e+00,0.00000e+00,0.00000e+00
7.34700e+02,3.91344e+01,-1.22220e+01,0.00000e+00,0.00000e+00,0.00000e+00
7.34700e+02,3.87896e+01,-1.52775e+01,0.00000e+00,0.00000e+00,0.00000e+00
7.34700e+02,3.83994e+01,-1.83330e+01,0.00000e+00,0.00000e+00,0.00000e+00
7.34700e+02,3.79872e+01,-2.13885e+01,0.00000e+00,0.00000e+00,0.00000e+00
7.34700e+02,3.75386e+01,-2.44440e+01,0.00000e+00,0.00000e+00,0.00000e+00
7.34700e+02,3.70601e+01,-2.74995e+01,0.00000e+00,0.00000e+00,0.00000e+00
7.34700e+02,3.65486e+01,-3.05550e+01,0.00000e+00,0.00000e+00,0.00000e+00
7.34700e+02,3.59973e+01,-3.36105e+01,0.00000e+00,0.00000e+00,0.00000e+00
7.34700e+02,3.54053e+01,-3.66660e+01,0.00000e+00,0.00000e+00,0.00000e+00
7.34700e+02,3.47554e+01,-3.97215e+01,0.00000e+00,0.00000e+00,0.00000e+00
7.34700e+02,3.40493e+01,-4.27770e+01,0.00000e+00,0.00000e+00,0.00000e+00
7.34700e+02,3.32760e+01,-4.58325e+01,0.00000e+00,0.00000e+00,0.00000e+00
7.34700e+02,3.24115e+01,-4.88880e+01,0.00000e+00,0.00000e+00,0.00000e+00
7.34700e+02,3.14836e+01,-5.19435e+01,0.00000e+00,0.00000e+00,0.00000e+00
7.34700e+02,3.04131e+01,-5.49990e+01,0.00000e+00,0.00000e+00,0.00000e+00
7.34700e+02,2.92835e+01,-5.80545e+01,0.00000e+00,0.00000e+00,0.00000e+00
7.34700e+02,2.79893e+01,-6.11100e+01,0.00000e+00,0.00000e+00,0.00000e+00
7.34700e+02,2.65630e+01,-6.41655e+01,0.00000e+00,0.00000e+00,0.00000e+00
7.34700e+02,2.50024e+01,-6.72210e+01,0.00000e+00,0.00000e+00,0.00000e+00
7.34700e+02,2.32164e+01,-7.02765e+01,0.00000e+00,0.00000e+00,0.00000e+00
7.34700e+02,2.11691e+01,-7.33320e+01,0.00000e+00,0.00000e+00,0.00000e+00
7.34700e+02,1.88268e+01,-7.63875e+01,0.00000e+00,0.00000e+00,0.00000e+00
7.34700e+02,1.60563e+01,-7.94430e+01,0.00000e+00,0.00000e+00,0.00000e+00
7.34700e+02,1.25001e+01,-8.24985e+01,0.00000e+00,0.00000e+00,0.00000e+00
7.34700e+02,7.69051e+00,-8.55540e+01,0.00000e+00,0.00000e+00,0.00000e+00
7.34700e+02,-3.11614e+00,-8.86096e+01,0.00000e+00,0.00000e+00,0.00000e+00
7.34700e+02,-3.89606e+00,-8.86166e+01,0.00000e+00,0.00000e+00,0.00000e+00
7.34700e+02,-1.10017e+01,-8.54518e+01,0.00000e+00,0.00000e+00,0.00000e+00
7.34700e+02,-1.18620e+01,-8.22869e+01,0.00000e+00,0.00000e+00,0.00000e+00
7.34700e+02,-1.21589e+01,-7.91220e+01,0.00000e+00,0.00000e+00,0.00000e+00
7.34700e+02,-1.22039e+01,-7.59571e+01,0.00000e+00,0.00000e+00,0.00000e+00
7.34700e+02,-1.20592e+01,-7.27922e+01,0.00000e+00,0.00000e+00,0.00000e+00
7.34700e+02,-1.17955e+01,-6.96274e+01,0.00000e+00,0.00000e+00,0.00000e+00
7.34700e+02,-1.14122e+01,-6.64625e+01,0.00000e+00,0.00000e+00,0.00000e+00
7.34700e+02,-1.09560e+01,-6.32976e+01,0.00000e+00,0.00000e+00,0.00000e+00
7.34700e+02,-1.04575e+01,-6.01327e+01,0.00000e+00,0.00000e+00,0.00000e+00
7.34700e+02,-9.89525e+00,-5.69678e+01,0.00000e+00,0.00000e+00,0.00000e+00
7.34700e+02,-9.29319e+00,-5.38030e+01,0.00000e+00,0.00000e+00,0.00000e+00
7.34700e+02,-8.65235e+00,-5.06381e+01,0.00000e+00,0.00000e+00,0.00000e+00
7.34700e+02,-7.97287e+00,-4.74732e+01,0.00000e+00,0.00000e+00,0.00000e+00
7.34700e+02,-7.26917e+00,-4.43083e+01,0.00000e+00,0.00000e+00,0.00000e+00
7.34700e+02,-6.53444e+00,-4.11434e+01,0.00000e+00,0.00000e+00,0.00000e+00
7.34700e+02,-5.77984e+00,-3.79786e+01,0.00000e+00,0.00000e+00,0.00000e+00
7.34700e+02,-5.00742e+00,-3.48137e+01,0.00000e+00,0.00000e+00,0.00000e+00
7.34700e+02,-4.21911e+00,-3.16488e+01,0.00000e+00,0.00000e+00,0.00000e+00
7.34700e+02,-3.42406e+00,-2.84839e+01,0.00000e+00,0.00000e+00,0.00000e+00
7.34700e+02,-2.61857e+00,-2.53190e+01,0.00000e+00,0.00000e+00,0.00000e+00
7.34700e+02,-1.81134e+00,-2.21542e+01,0.00000e+00,0.00000e+00,0.00000e+00
7.34700e+02,-9.97887e-01,-1.89893e+01,0.00000e+00,0.00000e+00,0.00000e+00
7.34700e+02,-1.84513e-01,-1.58244e+01,0.00000e+00,0.00000e+00,0.00000e+00
7.34700e+02,6.25788e-01,-1.26595e+01,0.00000e+00,0.00000e+00,0.00000e+00
7.34700e+02,1.43609e+00,-9.49464e+00,0.00000e+00,0.00000e+00,0.00000e+00
7.34700e+02,2.22720e+00,-6.32976e+00,0.00000e+00,0.00000e+00,0.00000e+00
7.34700e+02,3.01474e+00,-3.16488e+00,0.00000e+00,0.00000e+00,0.00000e+00
8.33800e+02,3.98196e+01,0.00000e+00,0.00000e+00,0.00000e+00,0.00000e+00
8.33800e+02,3.96190e+01,-3.02587e+00,0.00000e+00,0.00000e+00,0.00000e+00
8.33800e+02,3.93522e+01,-6.05173e+00,0.00000e+00,0.00000e+00,0.00000e+00
8.33800e+02,3.90828e+01,-9.07760e+00,0.00000e+00,0.00000e+00,0.00000e+00
8.33800e+02,3.87549e+01,-1.21035e+01,0.00000e+00,0.00000e+00,0.00000e+00
8.33800e+02,3.84134e+01,-1.51293e+01,0.00000e+00,0.00000e+00,0.00000e+00
8.33800e+02,3.80270e+01,-1.81552e+01,0.00000e+00,0.00000e+00,0.00000e+00
8.33800e+02,3.76188e+01,-2.11811e+01,0.00000e+00,0.00000e+00,0.00000e+00
8.33800e+02,3.71745e+01,-2.42069e+01,0.00000e+00,0.00000e+00,0.00000e+00
8.33800e+02,3.67006e+01,-2.72328e+01,0.00000e+00,0.00000e+00,0.00000e+00
8.33800e+02,3.61941e+01,-3.02587e+01,0.00000e+00,0.00000e+00,0.00000e+00
8.33800e+02,3.56482e+01,-3.32845e+01,0.00000e+00,0.00000e+00,0.00000e+00
8.33800e+02,3.50619e+01,-3.63104e+01,0.00000e+00,0.00000e+00,0.00000e+00
8.33800e+02,3.44183e+01,-3.93363e+01,0.00000e+00,0.00000e+00,0.00000e+00
8.33800e+02,3.37191e+01,-4.23621e+01,0.00000e+00,0.00000e+00,0.00000e+00
8.33800e+02,3.29532e+01,-4.53880e+01,0.00000e+00,0.00000e+00,0.00000e+00
8.33800e+02,3.20971e+01,-4.84139e+01,0.00000e+00,0.00000e+00,0.00000e+00
8.33800e+02,3.11783e+01,-5.14397e+01,0.00000e+00,0.00000e+00,0.00000e+00
8.33800e+02,3.01182e+01,-5.44656e+01,0.00000e+00,0.00000e+00,0.00000e+00
8.33800e+02,2.89995e+01,-5.74915e+01,0.00000e+00,0.00000e+00,0.00000e+00
8.33800e+02,2.77178e+01,-6.05173e+01,0.00000e+00,0.00000e+00,0.00000e+00
8.33800e+02,2.63054e+01,-6.35432e+01,0.00000e+00,0.00000e+00,0.00000e+00
8.33800e+02,2.47599e+01,-6.65691e+01,0.00000e+00,0.00000e+00,0.00000e+00
8.33800e+02,2.29912e+01,-6.95949e+01,0.00000e+00,0.00000e+00,0.00000e+00
8.33800e+02,2.09638e+01,-7.26208e+01,0.00000e+00,0.00000e+00,0.00000e+00
8.33800e+02,1.86442e+01,-7.56467e+01,0.00000e+00,0.00000e+00,0.00000e+00
8.33800e+02,1.59005e+01,-7.86725e+01,0.00000e+00,0.00000e+00,0.00000e+00
8.33800e+02,1.23789e+01,-8.16984e+01,0.00000e+00,0.00000e+00,0.00000e+00
8.33800e+02,7.61592e+00,-8.47243e+01,0.00000e+00,0.00000e+00,0.00000e+00
8.33800e+02,-3.08591e+00,-8.77501e+01,0.00000e+00,0.00000e+00,0.00000e+00
8.33800e+02,-3.85827e+00,-8.77572e+01,0.00000e+00,0.00000e+00,0.00000e+00
8.33800e+02,-1.08950e+01,-8.46230e+01,0.00000e+00,0.00000e+00,0.00000e+00
8.33800e+02,-1.17470e+01,-8.14888e+01,0.00000e+00,0.00000e+00,0.00000e+00
8.33800e+02,-1.20409e+01,-7.83546e+01,0.00000e+00,0.00000e+00,0.00000e+00
8.33800e+02,-1.20856e+01,-7.52204e+01,0.00000e+00,0.00000e+00,0.00000e+00
8.33800e+02,-1.19423e+01,-7.20862e+01,0.00000e+00,0.00000e+00,0.00000e+00
8.33800e+02,-1.16811e+01,-6.89521e+01,0.00000e+00,0.00000e+00,0.00000e+00
8.33800e+02,-1.13015e+01,-6.58179e+01,0.00000e+00,0.00000e+00,0.00000e+00
8.33800e+02,-1.08497e+01,-6.26837e+01,0.00000e+00,0.00000e+00,0.00000e+00
8.33800e+02,-1.03561e+01,-5.95495e+01,0.00000e+00,0.00000e+00,0.00000e+00
8.33800e+02,-9.79928e+00,-5.64153e+01,0.00000e+00,0.00000e+00,0.00000e+00
8.33800e+02,-9.20306e+00,-5.32811e+01,0.00000e+00,0.00000e+00,0.00000e+00
8.33800e+02,-8.56843e+00,-5.01469e+01,0.00000e+00,0.00000e+00,0.00000e+00
8.33800e+02,-7.89554e+00,-4.70128e+01,0.00000e+00,0.00000e+00,0.00000e+00
8.33800e+02,-7.19866e+00,-4.38786e+01,0.00000e+00,0.00000e+00,0.00000e+00
8.33800e+02,-6.47106e+00,-4.07444e+01,0.00000e+00,0.00000e+00,0.00000e+00
8.33800e+02,-5.72378e+00,-3.76102e+01,0.00000e+00,0.00000e+00,0.00000e+00
8.33800e+02,-4.95886e+00,-3.44760e+01,0.00000e+00,0.00000e+00,0.00000e+00
8.33800e+02,-4.17819e+00,-3.13418e+01,0.00000e+00,0.00000e+00,0.00000e+00
8.33800e+02,-3.39085e+00,-2.82077e+01,0.00000e+00,0.00000e+00,0.00000e+00
8.33800e+02,-2.59317e+00,-2.50735e+01,0.00000e+00,0.00000e+00,0.00000e+00
8.33800e+02,-1.79378e+00,-2.19393e+01,0.00000e+00,0.00000e+00,0.00000e+00
8.33800e+02,-9.88209e-01,-1.88051e+01,0.00000e+00,0.00000e+00,0.00000e+00
8.33800e+02,-1.82723e-01,-1.56709e+01,0.00000e+00,0.00000e+00,0.00000e+00
8.33800e+02,6.19718e-01,-1.25367e+01,0.00000e+00,0.00000e+00,0.00000e+00
8.33800e+02,1.42216e+00,-9.40255e+00,0.00000e+00,0.00000e+00,0.00000e+00
8.33800e+02,2.20560e+00,-6.26837e+00,0.00000e+00,0.00000e+00,0.00000e+00
8.33800e+02,2.98550e+00,-3.13418e+00,0.00000e+00,0.00000e+00,0.00000e+00
9.30700e+02,3.94382e+01,0.00000e+00,0.00000e+00,0.00000e+00,0.00000e+00
9.30700e+02,3.92396e+01,-2.99689e+00,0.00000e+00,0.00000e+00,0.00000e+00
9.30700e+02,3.89754e+01,-5.99378e+00,0.00000e+00,0.00000e+00,0.00000e+00
9.30700e+02,3.87085e+01,-8.99067e+00,0.00000e+00,0.00000e+00,0.00000e+00
9.30700e+02,3.83837e+01,-1.19876e+01,0.00000e+00,0.00000e+00,0.00000e+00
9.30700e+02,3.80455e+01,-1.49844e+01,0.00000e+00,0.00000e+00,0.00000e+00
9.30700e+02,3.76628e+01,-1.79813e+01,0.00000e+00,0.00000e+00,0.00000e+00
9.30700e+02,3.72585e+01,-2.09782e+01,0.00000e+00,0.00000e+00,0.00000e+00
9.30700e+02,3.68185e+01,-2.39751e+01,0.00000e+00,0.00000e+00,0.00000e+00
9.30700e+02,3.63492e+01,-2.69720e+01,0.00000e+00,0.00000e+00,0.00000e+00
9.30700e+02,3.58475e+01,-2.99689e+01,0.00000e+00,0.00000e+00,0.00000e+00
9.30700e+02,3.53068e+01,-3.29658e+01,0.00000e+00,0.00000e+00,0.00000e+00
9.30700e+02,3.47261e+01,-3.59627e+01,0.00000e+00,0.00000e+00,0.00000e+00
9.30700e+02,3.40887e+01,-3.89596e+01,0.00000e+00,0.00000e+00,0.00000e+00
9.30700e+02,3.33962e+01,-4.19565e+01,0.00000e+00,0.00000e+00,0.00000e+00
9.30700e+02,3.26376e+01,-4.49533e+01,0.00000e+00,0.00000e+00,0.00000e+00
9.30700e+02,3.17897e+01,-4.79502e+01,0.00000e+00,0.00000e+00,0.00000e+00
9.30700e+02,3.08797e+01,-5.09471e+01,0.00000e+00,0.00000e+00,0.00000e+00
9.30700e+02,2.98297e+01,-5.39440e+01,0.00000e+00,0.00000e+00,0.00000e+00
9.30700e+02,2.87218e+01,-5.69409e+01,0.00000e+00,0.00000e+00,0.00000e+00
9.30700e+02,2.74524e+01,-5.99378e+01,0.00000e+00,0.00000e+00,0.00000e+00
9.30700e+02,2.60534e+01,-6.29347e+01,0.00000e+00,0.00000e+00,0.00000e+00
9.30700e+02,2.45228e+01,-6.59316e+01,0.00000e+00,0.00000e+00,0.00000e+00
9.30700e+02,2.27710e+01,-6.89285e+01,0.00000e+00,0.00000e+00,0.00000e+00
9.30700e+02,2.07631e+01,-7.19254e+01,0.00000e+00,0.00000e+00,0.00000e+00
9.30700e+02,1.84656e+01,-7.49222e+01,0.00000e+00,0.00000e+00,0.00000e+00
9.30700e+02,1.57483e+01,-7.79191e+01,0.00000e+00,0.00000e+00,0.00000e+00
9.30700e+02,1.22603e+01,-8.09160e+01,0.00000e+00,0.00000e+00,0.00000e+00
9.30700e+02,7.54299e+00,-8.39129e+01,0.00000e+00,0.00000e+00,0.00000e+00
9.30700e+02,-3.05636e+00,-8.69098e+01,0.00000e+00,0.00000e+00,0.00000e+00
9.30700e+02,-3.82132e+00,-8.69168e+01,0.00000e+00,0.00000e+00,0.00000e+00
9.30700e+02,-1.07906e+01,-8.38126e+01,0.00000e+00,0.00000e+00,0.00000e+00
9.30700e+02,-1.16345e+01,-8.07084e+01,0.00000e+00,0.00000e+00,0.00000e+00
9.30700e+02,-1.19256e+01,-7.76042e+01,0.00000e+00,0.00000e+00,0.00000e+00
9.30700e+02,-1.19698e+01,-7.45001e+01,0.00000e+00,0.00000e+00,0.00000e+00
9.30700e+02,-1.18279e+01,-7.13959e+01,0.00000e+00,0.00000e+00,0.00000e+00
9.30700e+02,-1.15692e+01,-6.82917e+01,0.00000e+00,0.00000e+00,0.00000e+00
9.30700e+02,-1.11933e+01,-6.51876e+01,0.00000e+00,0.00000e+00,0.00000e+00
9.30700e+02,-1.07458e+01,-6.20834e+01,0.00000e+00,0.00000e+00,0.00000e+00
9.30700e+02,-1.02569e+01,-5.89792e+01,0.00000e+00,0.00000e+00,0.00000e+00
9.30700e+02,-9.70544e+00,-5.58751e+01,0.00000e+00,0.00000e+00,0.00000e+00
9.30700e+02,-9.11493e+00,-5.27709e+01,0.00000e+00,0.00000e+00,0.00000e+00
9.30700e+02,-8.48637e+00,-4.96667e+01,0.00000e+00,0.00000e+00,0.00000e+00
9.30700e+02,-7.81993e+00,-4.65625e+01,0.00000e+00,0.00000e+00,0.00000e+00
9.30700e+02,-7.12973e+00,-4.34584e+01,0.00000e+00,0.00000e+00,0.00000e+00
9.30700e+02,-6.40909e+00,-4.03542e+01,0.00000e+00,0.00000e+00,0.00000e+00
9.30700e+02,-5.66897e+00,-3.72500e+01,0.00000e+00,0.00000e+00,0.00000e+00
9.30700e+02,-4.91137e+00,-3.41459e+01,0.00000e+00,0.00000e+00,0.00000e+00
9.30700e+02,-4.13818e+00,-3.10417e+01,0.00000e+00,0.00000e+00,0.00000e+00
9.30700e+02,-3.35837e+00,-2.79375e+01,0.00000e+00,0.00000e+00,0.00000e+00
9.30700e+02,-2.56834e+00,-2.48334e+01,0.00000e+00,0.00000e+00,0.00000e+00
9.30700e+02,-1.77660e+00,-2.17292e+01,0.00000e+00,0.00000e+00,0.00000e+00
9.30700e+02,-9.78745e-01,-1.86250e+01,0.00000e+00,0.00000e+00,0.00000e+00
9.30700e+02,-1.80973e-01,-1.55208e+01,0.00000e+00,0.00000e+00,0.00000e+00
9.30700e+02,6.13784e-01,-1.24167e+01,0.00000e+00,0.00000e+00,0.00000e+00
9.30700e+02,1.40854e+00,-9.31251e+00,0.00000e+00,0.00000e+00,0.00000e+00
9.30700e+02,2.18448e+00,-6.20834e+00,0.00000e+00,0.00000e+00,0.00000e+00
9.30700e+02,2.95691e+00,-3.10417e+00,0.00000e+00,0.00000e+00,0.00000e+00
1.02500e+03,3.90671e+01,0.00000e+00,0.00000e+00,0.00000e+00,0.00000e+00
1.02500e+03,3.88704e+01,-2.96869e+00,0.00000e+00,0.00000e+00,0.00000e+00
1.02500e+03,3.86086e+01,-5.93738e+00,0.00000e+00,0.00000e+00,0.00000e+00
1.02500e+03,3.83443e+01,-8.90607e+00,0.00000e+00,0.00000e+00,0.00000e+00
1.02500e+03,3.80226e+01,-1.18748e+01,0.00000e+00,0.00000e+00,0.00000e+00
1.02500e+03,3.76875e+01,-1.48435e+01,0.00000e+00,0.00000e+00,0.00000e+00
1.02500e+03,3.73084e+01,-1.78121e+01,0.00000e+00,0.00000e+00,0.00000e+00
1.02500e+03,3.69079e+01,-2.07808e+01,0.00000e+00,0.00000e+00,0.00000e+00
1.02500e+03,3.64721e+01,-2.37495e+01,0.00000e+00,0.00000e+00,0.00000e+00
1.02500e+03,3.60071e+01,-2.67182e+01,0.00000e+00,0.00000e+00,0.00000e+00
1.02500e+03,3.55102e+01,-2.96869e+01,0.00000e+00,0.00000e+00,0.00000e+00
1.02500e+03,3.49746e+01,-3.26556e+01,0.00000e+00,0.00000e+00,0.00000e+00
1.02500e+03,3.43994e+01,-3.56243e+01,0.00000e+00,0.00000e+00,0.00000e+00
1.02500e+03,3.37680e+01,-3.85930e+01,0.00000e+00,0.00000e+00,0.00000e+00
1.02500e+03,3.30819e+01,-4.15617e+01,0.00000e+00,0.00000e+00,0.00000e+00
1.02500e+03,3.23305e+01,-4.45304e+01,0.00000e+00,0.00000e+00,0.00000e+00
1.02500e+03,3.14906e+01,-4.74990e+01,0.00000e+00,0.00000e+00,0.00000e+00
1.02500e+03,3.05891e+01,-5.04677e+01,0.00000e+00,0.00000e+00,0.00000e+00
1.02500e+03,2.95491e+01,-5.34364e+01,0.00000e+00,0.00000e+00,0.00000e+00
1.02500e+03,2.84516e+01,-5.64051e+01,0.00000e+00,0.00000e+00,0.00000e+00
1.02500e+03,2.71940e+01,-5.93738e+01,0.00000e+00,0.00000e+00,0.00000e+00
1.02500e+03,2.58083e+01,-6.23425e+01,0.00000e+00,0.00000e+00,0.00000e+00
1.02500e+03,2.42920e+01,-6.53112e+01,0.00000e+00,0.00000e+00,0.00000e+00
1.02500e+03,2.25567e+01,-6.82799e+01,0.00000e+00,0.00000e+00,0.00000e+00
1.02500e+03,2.05677e+01,-7.12486e+01,0.00000e+00,0.00000e+00,0.00000e+00
1.02500e+03,1.82919e+01,-7.42173e+01,0.00000e+00,0.00000e+00,0.00000e+00
1.02500e+03,1.56001e+01,-7.71859e+01,0.00000e+00,0.00000e+00,0.00000e+00
1.02500e+03,1.21450e+01,-8.01546e+01,0.00000e+00,0.00000e+00,0.00000e+00
1.02500e+03,7.47201e+00,-8.31233e+01,0.00000e+00,0.00000e+00,0.00000e+00
1.02500e+03,-3.02760e+00,-8.60920e+01,0.00000e+00,0.00000e+00,0.00000e+00
1.02500e+03,-3.78536e+00,-8.60989e+01,0.00000e+00,0.00000e+00,0.00000e+00
1.02500e+03,-1.06891e+01,-8.30239e+01,0.00000e+00,0.00000e+00,0.00000e+00
1.02500e+03,-1.15250e+01,-7.99490e+01,0.00000e+00,0.00000e+00,0.00000e+00
1.02500e+03,-1.18134e+01,-7.68740e+01,0.00000e+00,0.00000e+00,0.00000e+00
1.02500e+03,-1.18572e+01,-7.37991e+01,0.00000e+00,0.00000e+00,0.00000e+00
1.02500e+03,-1.17166e+01,-7.07241e+01,0.00000e+00,0.00000e+00,0.00000e+00
1.02500e+03,-1.14604e+01,-6.76491e+01,0.00000e+00,0.00000e+00,0.00000e+00
1.02500e+03,-1.10880e+01,-6.45742e+01,0.00000e+00,0.00000e+00,0.00000e+00
1.02500e+03,-1.06447e+01,-6.14992e+01,0.00000e+00,0.00000e+00,0.00000e+00
1.02500e+03,-1.01604e+01,-5.84243e+01,0.00000e+00,0.00000e+00,0.00000e+00
1.02500e+03,-9.61411e+00,-5.53493e+01,0.00000e+00,0.00000e+00,0.00000e+00
1.02500e+03,-9.02916e+00,-5.22743e+01,0.00000e+00,0.00000e+00,0.00000e+00
1.02500e+03,-8.40652e+00,-4.91994e+01,0.00000e+00,0.00000e+00,0.00000e+00
1.02500e+03,-7.74634e+00,-4.61244e+01,0.00000e+00,0.00000e+00,0.00000e+00
1.02500e+03,-7.06264e+00,-4.30495e+01,0.00000e+00,0.00000e+00,0.00000e+00
1.02500e+03,-6.34878e+00,-3.99745e+01,0.00000e+00,0.00000e+00,0.00000e+00
1.02500e+03,-5.61563e+00,-3.68995e+01,0.00000e+00,0.00000e+00,0.00000e+00
1.02500e+03,-4.86516e+00,-3.38246e+01,0.00000e+00,0.00000e+00,0.00000e+00
1.02500e+03,-4.09924e+00,-3.07496e+01,0.00000e+00,0.00000e+00,0.00000e+00
1.02500e+03,-3.32677e+00,-2.76746e+01,0.00000e+00,0.00000e+00,0.00000e+00
1.02500e+03,-2.54417e+00,-2.45997e+01,0.00000e+00,0.00000e+00,0.00000e+00
1.02500e+03,-1.75988e+00,-2.15247e+01,0.00000e+00,0.00000e+00,0.00000e+00
1.02500e+03,-9.69535e-01,-1.84498e+01,0.00000e+00,0.00000e+00,0.00000e+00
1.02500e+03,-1.79270e-01,-1.53748e+01,0.00000e+00,0.00000e+00,0.00000e+00
1.02500e+03,6.08008e-01,-1.22998e+01,0.00000e+00,0.00000e+00,0.00000e+00
1.02500e+03,1.39529e+00,-9.22488e+00,0.00000e+00,0.00000e+00,0.00000e+00
1.02500e+03,2.16392e+00,-6.14992e+00,0.00000e+00,0.00000e+00,0.00000e+00
1.02500e+03,2.92908e+00,-3.07496e+00,0.00000e+00,0.00000e+00,0.00000e+00
1.11650e+03,3.87070e+01,0.00000e+00,0.00000e+00,0.00000e+00,0.00000e+00
1.11650e+03,3.85121e+01,-2.94133e+00,0.00000e+00,0.00000e+00,0.00000e+00
1.11650e+03,3.82528e+01,-5.88266e+00,0.00000e+00,0.00000e+00,0.00000e+00
1.11650e+03,3.79909e+01,-8.82398e+00,0.00000e+00,0.00000e+00,0.00000e+00
1.11650e+03,3.76721e+01,-1.17653e+01,0.00000e+00,0.00000e+00,0.00000e+00
1.11650e+03,3.73401e+01,-1.47066e+01,0.00000e+00,0.00000e+00,0.00000e+00
1.11650e+03,3.69645e+01,-1.76480e+01,0.00000e+00,0.00000e+00,0.00000e+00
1.11650e+03,3.65678e+01,-2.05893e+01,0.00000e+00,0.00000e+00,0.00000e+00
1.11650e+03,3.61359e+01,-2.35306e+01,0.00000e+00,0.00000e+00,0.00000e+00
1.11650e+03,3.56753e+01,-2.64720e+01,0.00000e+00,0.00000e+00,0.00000e+00
1.11650e+03,3.51829e+01,-2.94133e+01,0.00000e+00,0.00000e+00,0.00000e+00
1.11650e+03,3.46522e+01,-3.23546e+01,0.00000e+00,0.00000e+00,0.00000e+00
1.11650e+03,3.40823e+01,-3.52959e+01,0.00000e+00,0.00000e+00,0.00000e+00
1.11650e+03,3.34567e+01,-3.82373e+01,0.00000e+00,0.00000e+00,0.00000e+00
1.11650e+03,3.27770e+01,-4.11786e+01,0.00000e+00,0.00000e+00,0.00000e+00
1.11650e+03,3.20325e+01,-4.41199e+01,0.00000e+00,0.00000e+00,0.00000e+00
1.11650e+03,3.12004e+01,-4.70612e+01,0.00000e+00,0.00000e+00,0.00000e+00
1.11650e+03,3.03072e+01,-5.00026e+01,0.00000e+00,0.00000e+00,0.00000e+00
1.11650e+03,2.92767e+01,-5.29439e+01,0.00000e+00,0.00000e+00,0.00000e+00
1.11650e+03,2.81893e+01,-5.58852e+01,0.00000e+00,0.00000e+00,0.00000e+00
1.11650e+03,2.69434e+01,-5.88266e+01,0.00000e+00,0.00000e+00,0.00000e+00
1.11650e+03,2.55704e+01,-6.17679e+01,0.00000e+00,0.00000e+00,0.00000e+00
1.11650e+03,2.40681e+01,-6.47092e+01,0.00000e+00,0.00000e+00,0.00000e+00
1.11650e+03,2.23488e+01,-6.76505e+01,0.00000e+00,0.00000e+00,0.00000e+00
1.11650e+03,2.03781e+01,-7.05919e+01,0.00000e+00,0.00000e+00,0.00000e+00
1.11650e+03,1.81233e+01,-7.35332e+01,0.00000e+00,0.00000e+00,0.00000e+00
1.11650e+03,1.54563e+01,-7.64745e+01,0.00000e+00,0.00000e+00,0.00000e+00
1.11650e+03,1.20330e+01,-7.94159e+01,0.00000e+00,0.00000e+00,0.00000e+00
1.11650e+03,7.40314e+00,-8.23572e+01,0.00000e+00,0.00000e+00,0.00000e+00
1.11650e+03,-2.99970e+00,-8.52985e+01,0.00000e+00,0.00000e+00,0.00000e+00
1.11650e+03,-3.75047e+00,-8.53053e+01,0.00000e+00,0.00000e+00,0.00000e+00
1.11650e+03,-1.05906e+01,-8.22587e+01,0.00000e+00,0.00000e+00,0.00000e+00
1.11650e+03,-1.14188e+01,-7.92121e+01,0.00000e+00,0.00000e+00,0.00000e+00
1.11650e+03,-1.17045e+01,-7.61655e+01,0.00000e+00,0.00000e+00,0.00000e+00
1.11650e+03,-1.17479e+01,-7.31189e+01,0.00000e+00,0.00000e+00,0.00000e+00
1.11650e+03,-1.16086e+01,-7.00722e+01,0.00000e+00,0.00000e+00,0.00000e+00
1.11650e+03,-1.13547e+01,-6.70256e+01,0.00000e+00,0.00000e+00,0.00000e+00
1.11650e+03,-1.09858e+01,-6.39790e+01,0.00000e+00,0.00000e+00,0.00000e+00
1.11650e+03,-1.05466e+01,-6.09324e+01,0.00000e+00,0.00000e+00,0.00000e+00
1.11650e+03,-1.00667e+01,-5.78858e+01,0.00000e+00,0.00000e+00,0.00000e+00
1.11650e+03,-9.52550e+00,-5.48391e+01,0.00000e+00,0.00000e+00,0.00000e+00
1.11650e+03,-8.94594e+00,-5.17925e+01,0.00000e+00,0.00000e+00,0.00000e+00
1.11650e+03,-8.32904e+00,-4.87459e+01,0.00000e+00,0.00000e+00,0.00000e+00
1.11650e+03,-7.67495e+00,-4.56993e+01,0.00000e+00,0.00000e+00,0.00000e+00
1.11650e+03,-6.99754e+00,-4.26527e+01,0.00000e+00,0.00000e+00,0.00000e+00
1.11650e+03,-6.29027e+00,-3.96060e+01,0.00000e+00,0.00000e+00,0.00000e+00
1.11650e+03,-5.56387e+00,-3.65594e+01,0.00000e+00,0.00000e+00,0.00000e+00
1.11650e+03,-4.82031e+00,-3.35128e+01,0.00000e+00,0.00000e+00,0.00000e+00
1.11650e+03,-4.06146e+00,-3.04662e+01,0.00000e+00,0.00000e+00,0.00000e+00
1.11650e+03,-3.29611e+00,-2.74196e+01,0.00000e+00,0.00000e+00,0.00000e+00
1.11650e+03,-2.52072e+00,-2.43730e+01,0.00000e+00,0.00000e+00,0.00000e+00
1.11650e+03,-1.74366e+00,-2.13263e+01,0.00000e+00,0.00000e+00,0.00000e+00
1.11650e+03,-9.60599e-01,-1.82797e+01,0.00000e+00,0.00000e+00,0.00000e+00
1.11650e+03,-1.77618e-01,-1.52331e+01,0.00000e+00,0.00000e+00,0.00000e+00
1.11650e+03,6.02404e-01,-1.21865e+01,0.00000e+00,0.00000e+00,0.00000e+00
1.11650e+03,1.38243e+00,-9.13986e+00,0.00000e+00,0.00000e+00,0.00000e+00
1.11650e+03,2.14398e+00,-6.09324e+00,0.00000e+00,0.00000e+00,0.00000e+00
1.11650e+03,2.90209e+00,-3.04662e+00,0.00000e+00,0.00000e+00,0.00000e+00
1.20500e+03,3.76912e+01,0.00000e+00,0.00000e+00,0.00000e+00,0.00000e+00
1.20500e+03,3.75014e+01,-2.86413e+00,0.00000e+00,0.00000e+00,0.00000e+00
1.20500e+03,3.72488e+01,-5.72827e+00,0.00000e+00,0.00000e+00,0.00000e+00
1.20500e+03,3.69938e+01,-8.59240e+00,0.00000e+00,0.00000e+00,0.00000e+00
1.20500e+03,3.66834e+01,-1.14565e+01,0.00000e+00,0.00000e+00,0.00000e+00
1.20500e+03,3.63602e+01,-1.43207e+01,0.00000e+00,0.00000e+00,0.00000e+00
1.20500e+03,3.59944e+01,-1.71848e+01,0.00000e+00,0.00000e+00,0.00000e+00
1.20500e+03,3.56080e+01,-2.00489e+01,0.00000e+00,0.00000e+00,0.00000e+00
1.20500e+03,3.51875e+01,-2.29131e+01,0.00000e+00,0.00000e+00,0.00000e+00
1.20500e+03,3.47390e+01,-2.57772e+01,0.00000e+00,0.00000e+00,0.00000e+00
1.20500e+03,3.42596e+01,-2.86413e+01,0.00000e+00,0.00000e+00,0.00000e+00
1.20500e+03,3.37428e+01,-3.15055e+01,0.00000e+00,0.00000e+00,0.00000e+00
1.20500e+03,3.31878e+01,-3.43696e+01,0.00000e+00,0.00000e+00,0.00000e+00
1.20500e+03,3.25787e+01,-3.72337e+01,0.00000e+00,0.00000e+00,0.00000e+00
1.20500e+03,3.19168e+01,-4.00979e+01,0.00000e+00,0.00000e+00,0.00000e+00
1.20500e+03,3.11919e+01,-4.29620e+01,0.00000e+00,0.00000e+00,0.00000e+00
1.20500e+03,3.03815e+01,-4.58261e+01,0.00000e+00,0.00000e+00,0.00000e+00
1.20500e+03,2.95118e+01,-4.86903e+01,0.00000e+00,0.00000e+00,0.00000e+00
1.20500e+03,2.85084e+01,-5.15544e+01,0.00000e+00,0.00000e+00,0.00000e+00
1.20500e+03,2.74495e+01,-5.44186e+01,0.00000e+00,0.00000e+00,0.00000e+00
1.20500e+03,2.62363e+01,-5.72827e+01,0.00000e+00,0.00000e+00,0.00000e+00
1.20500e+03,2.48993e+01,-6.01468e+01,0.00000e+00,0.00000e+00,0.00000e+00
1.20500e+03,2.34365e+01,-6.30110e+01,0.00000e+00,0.00000e+00,0.00000e+00
1.20500e+03,2.17623e+01,-6.58751e+01,0.00000e+00,0.00000e+00,0.00000e+00
1.20500e+03,1.98433e+01,-6.87392e+01,0.00000e+00,0.00000e+00,0.00000e+00
1.20500e+03,1.76476e+01,-7.16034e+01,0.00000e+00,0.00000e+00,0.00000e+00
1.20500e+03,1.50506e+01,-7.44675e+01,0.00000e+00,0.00000e+00,0.00000e+00
1.20500e+03,1.17172e+01,-7.73316e+01,0.00000e+00,0.00000e+00,0.00000e+00
1.20500e+03,7.20885e+00,-8.01958e+01,0.00000e+00,0.00000e+00,0.00000e+00
1.20500e+03,-2.92097e+00,-8.30599e+01,0.00000e+00,0.00000e+00,0.00000e+00
1.20500e+03,-3.65204e+00,-8.30665e+01,0.00000e+00,0.00000e+00,0.00000e+00
1.20500e+03,-1.03126e+01,-8.00999e+01,0.00000e+00,0.00000e+00,0.00000e+00
1.20500e+03,-1.11191e+01,-7.71332e+01,0.00000e+00,0.00000e+00,0.00000e+00
1.20500e+03,-1.13974e+01,-7.41666e+01,0.00000e+00,0.00000e+00,0.00000e+00
1.20500e+03,-1.14396e+01,-7.11999e+01,0.00000e+00,0.00000e+00,0.00000e+00
1.20500e+03,-1.13040e+01,-6.82332e+01,0.00000e+00,0.00000e+00,0.00000e+00
1.20500e+03,-1.10567e+01,-6.52666e+01,0.00000e+00,0.00000e+00,0.00000e+00
1.20500e+03,-1.06975e+01,-6.22999e+01,0.00000e+00,0.00000e+00,0.00000e+00
1.20500e+03,-1.02698e+01,-5.93332e+01,0.00000e+00,0.00000e+00,0.00000e+00
1.20500e+03,-9.80253e+00,-5.63666e+01,0.00000e+00,0.00000e+00,0.00000e+00
1.20500e+03,-9.27551e+00,-5.33999e+01,0.00000e+00,0.00000e+00,0.00000e+00
1.20500e+03,-8.71115e+00,-5.04333e+01,0.00000e+00,0.00000e+00,0.00000e+00
1.20500e+03,-8.11045e+00,-4.74666e+01,0.00000e+00,0.00000e+00,0.00000e+00
1.20500e+03,-7.47352e+00,-4.44999e+01,0.00000e+00,0.00000e+00,0.00000e+00
1.20500e+03,-6.81389e+00,-4.15333e+01,0.00000e+00,0.00000e+00,0.00000e+00
1.20500e+03,-6.12518e+00,-3.85666e+01,0.00000e+00,0.00000e+00,0.00000e+00
1.20500e+03,-5.41785e+00,-3.55999e+01,0.00000e+00,0.00000e+00,0.00000e+00
1.20500e+03,-4.69381e+00,-3.26333e+01,0.00000e+00,0.00000e+00,0.00000e+00
1.20500e+03,-3.95486e+00,-2.96666e+01,0.00000e+00,0.00000e+00,0.00000e+00
1.20500e+03,-3.20961e+00,-2.67000e+01,0.00000e+00,0.00000e+00,0.00000e+00
1.20500e+03,-2.45457e+00,-2.37333e+01,0.00000e+00,0.00000e+00,0.00000e+00
1.20500e+03,-1.69790e+00,-2.07666e+01,0.00000e+00,0.00000e+00,0.00000e+00
1.20500e+03,-9.35389e-01,-1.78000e+01,0.00000e+00,0.00000e+00,0.00000e+00
1.20500e+03,-1.72956e-01,-1.48333e+01,0.00000e+00,0.00000e+00,0.00000e+00
1.20500e+03,5.86594e-01,-1.18666e+01,0.00000e+00,0.00000e+00,0.00000e+00
1.20500e+03,1.34615e+00,-8.89999e+00,0.00000e+00,0.00000e+00,0.00000e+00
1.20500e+03,2.08771e+00,-5.93332e+00,0.00000e+00,0.00000e+00,0.00000e+00
1.20500e+03,2.82592e+00,-2.96666e+00,0.00000e+00,0.00000e+00,0.00000e+00
1.29010e+03,3.63234e+01,0.00000e+00,0.00000e+00,0.00000e+00,0.00000e+00
1.29010e+03,3.61405e+01,-2.76019e+00,0.00000e+00,0.00000e+00,0.00000e+00
1.29010e+03,3.58971e+01,-5.52039e+00,0.00000e+00,0.00000e+00,0.00000e+00
1.29010e+03,3.56513e+01,-8.28058e+00,0.00000e+00,0.00000e+00,0.00000e+00
1.29010e+03,3.53522e+01,-1.10408e+01,0.00000e+00,0.00000e+00,0.00000e+00
1.29010e+03,3.50407e+01,-1.38010e+01,0.00000e+00,0.00000e+00,0.00000e+00
1.29010e+03,3.46882e+01,-1.65612e+01,0.00000e+00,0.00000e+00,0.00000e+00
1.29010e+03,3.43158e+01,-1.93214e+01,0.00000e+00,0.00000e+00,0.00000e+00
1.29010e+03,3.39106e+01,-2.20816e+01,0.00000e+00,0.00000e+00,0.00000e+00
1.29010e+03,3.34783e+01,-2.48418e+01,0.00000e+00,0.00000e+00,0.00000e+00
1.29010e+03,3.30163e+01,-2.76019e+01,0.00000e+00,0.00000e+00,0.00000e+00
1.29010e+03,3.25183e+01,-3.03621e+01,0.00000e+00,0.00000e+00,0.00000e+00
1.29010e+03,3.19834e+01,-3.31223e+01,0.00000e+00,0.00000e+00,0.00000e+00
1.29010e+03,3.13964e+01,-3.58825e+01,0.00000e+00,0.00000e+00,0.00000e+00
1.29010e+03,3.07585e+01,-3.86427e+01,0.00000e+00,0.00000e+00,0.00000e+00
1.29010e+03,3.00599e+01,-4.14029e+01,0.00000e+00,0.00000e+00,0.00000e+00
1.29010e+03,2.92790e+01,-4.41631e+01,0.00000e+00,0.00000e+00,0.00000e+00
1.29010e+03,2.84408e+01,-4.69233e+01,0.00000e+00,0.00000e+00,0.00000e+00
1.29010e+03,2.74738e+01,-4.96835e+01,0.00000e+00,0.00000e+00,0.00000e+00
1.29010e+03,2.64534e+01,-5.24437e+01,0.00000e+00,0.00000e+00,0.00000e+00
1.29010e+03,2.52842e+01,-5.52039e+01,0.00000e+00,0.00000e+00,0.00000e+00
1.29010e+03,2.39957e+01,-5.79641e+01,0.00000e+00,0.00000e+00,0.00000e+00
1.29010e+03,2.25860e+01,-6.07243e+01,0.00000e+00,0.00000e+00,0.00000e+00
1.29010e+03,2.09725e+01,-6.34845e+01,0.00000e+00,0.00000e+00,0.00000e+00
1.29010e+03,1.91232e+01,-6.62447e+01,0.00000e+00,0.00000e+00,0.00000e+00
1.29010e+03,1.70072e+01,-6.90049e+01,0.00000e+00,0.00000e+00,0.00000e+00
1.29010e+03,1.45045e+01,-7.17651e+01,0.00000e+00,0.00000e+00,0.00000e+00
1.29010e+03,1.12920e+01,-7.45253e+01,0.00000e+00,0.00000e+00,0.00000e+00
1.29010e+03,6.94724e+00,-7.72855e+01,0.00000e+00,0.00000e+00,0.00000e+00
1.29010e+03,-2.81497e+00,-8.00457e+01,0.00000e+00,0.00000e+00,0.00000e+00
1.29010e+03,-3.51951e+00,-8.00521e+01,0.00000e+00,0.00000e+00,0.00000e+00
1.29010e+03,-9.93839e+00,-7.71931e+01,0.00000e+00,0.00000e+00,0.00000e+00
1.29010e+03,-1.07156e+01,-7.43341e+01,0.00000e+00,0.00000e+00,0.00000e+00
1.29010e+03,-1.09838e+01,-7.14751e+01,0.00000e+00,0.00000e+00,0.00000e+00
1.29010e+03,-1.10244e+01,-6.86160e+01,0.00000e+00,0.00000e+00,0.00000e+00
1.29010e+03,-1.08937e+01,-6.57570e+01,0.00000e+00,0.00000e+00,0.00000e+00
1.29010e+03,-1.06555e+01,-6.28980e+01,0.00000e+00,0.00000e+00,0.00000e+00
1.29010e+03,-1.03093e+01,-6.00390e+01,0.00000e+00,0.00000e+00,0.00000e+00
1.29010e+03,-9.89713e+00,-5.71800e+01,0.00000e+00,0.00000e+00,0.00000e+00
1.29010e+03,-9.44680e+00,-5.43210e+01,0.00000e+00,0.00000e+00,0.00000e+00
1.29010e+03,-8.93890e+00,-5.14620e+01,0.00000e+00,0.00000e+00,0.00000e+00
1.29010e+03,-8.39503e+00,-4.86030e+01,0.00000e+00,0.00000e+00,0.00000e+00
1.29010e+03,-7.81612e+00,-4.57440e+01,0.00000e+00,0.00000e+00,0.00000e+00
1.29010e+03,-7.20231e+00,-4.28850e+01,0.00000e+00,0.00000e+00,0.00000e+00
1.29010e+03,-6.56662e+00,-4.00260e+01,0.00000e+00,0.00000e+00,0.00000e+00
1.29010e+03,-5.90290e+00,-3.71670e+01,0.00000e+00,0.00000e+00,0.00000e+00
1.29010e+03,-5.22123e+00,-3.43080e+01,0.00000e+00,0.00000e+00,0.00000e+00
1.29010e+03,-4.52347e+00,-3.14490e+01,0.00000e+00,0.00000e+00,0.00000e+00
1.29010e+03,-3.81134e+00,-2.85900e+01,0.00000e+00,0.00000e+00,0.00000e+00
1.29010e+03,-3.09313e+00,-2.57310e+01,0.00000e+00,0.00000e+00,0.00000e+00
1.29010e+03,-2.36549e+00,-2.28720e+01,0.00000e+00,0.00000e+00,0.00000e+00
1.29010e+03,-1.63628e+00,-2.00130e+01,0.00000e+00,0.00000e+00,0.00000e+00
1.29010e+03,-9.01444e-01,-1.71540e+01,0.00000e+00,0.00000e+00,0.00000e+00
1.29010e+03,-1.66680e-01,-1.42950e+01,0.00000e+00,0.00000e+00,0.00000e+00
1.29010e+03,5.65307e-01,-1.14360e+01,0.00000e+00,0.00000e+00,0.00000e+00
1.29010e+03,1.29729e+00,-8.57701e+00,0.00000e+00,0.00000e+00,0.00000e+00
1.29010e+03,2.01195e+00,-5.71800e+00,0.00000e+00,0.00000e+00,0.00000e+00
1.29010e+03,2.72337e+00,-2.85900e+00,0.00000e+00,0.00000e+00,0.00000e+00
1.37170e+03,3.50118e+01,0.00000e+00,0.00000e+00,0.00000e+00,0.00000e+00
1.37170e+03,3.48355e+01,-2.66053e+00,0.00000e+00,0.00000e+00,0.00000e+00
1.37170e+03,3.46009e+01,-5.32106e+00,0.00000e+00,0.00000e+00,0.00000e+00
1.37170e+03,3.43640e+01,-7.98159e+00,0.00000e+00,0.00000e+00,0.00000e+00
1.37170e+03,3.40757e+01,-1.06421e+01,0.00000e+00,0.00000e+00,0.00000e+00
1.37170e+03,3.37754e+01,-1.33027e+01,0.00000e+00,0.00000e+00,0.00000e+00
1.37170e+03,3.34357e+01,-1.59632e+01,0.00000e+00,0.00000e+00,0.00000e+00
1.37170e+03,3.30768e+01,-1.86237e+01,0.00000e+00,0.00000e+00,0.00000e+00
1.37170e+03,3.26861e+01,-2.12842e+01,0.00000e+00,0.00000e+00,0.00000e+00
1.37170e+03,3.22695e+01,-2.39448e+01,0.00000e+00,0.00000e+00,0.00000e+00
1.37170e+03,3.18241e+01,-2.66053e+01,0.00000e+00,0.00000e+00,0.00000e+00
1.37170e+03,3.13441e+01,-2.92658e+01,0.00000e+00,0.00000e+00,0.00000e+00
1.37170e+03,3.08286e+01,-3.19264e+01,0.00000e+00,0.00000e+00,0.00000e+00
1.37170e+03,3.02627e+01,-3.45869e+01,0.00000e+00,0.00000e+00,0.00000e+00
1.37170e+03,2.96479e+01,-3.72474e+01,0.00000e+00,0.00000e+00,0.00000e+00
1.37170e+03,2.89745e+01,-3.99080e+01,0.00000e+00,0.00000e+00,0.00000e+00
1.37170e+03,2.82218e+01,-4.25685e+01,0.00000e+00,0.00000e+00,0.00000e+00
1.37170e+03,2.74139e+01,-4.52290e+01,0.00000e+00,0.00000e+00,0.00000e+00
1.37170e+03,2.64818e+01,-4.78895e+01,0.00000e+00,0.00000e+00,0.00000e+00
1.37170e+03,2.54982e+01,-5.05501e+01,0.00000e+00,0.00000e+00,0.00000e+00
1.37170e+03,2.43712e+01,-5.32106e+01,0.00000e+00,0.00000e+00,0.00000e+00
1.37170e+03,2.31293e+01,-5.58711e+01,0.00000e+00,0.00000e+00,0.00000e+00
1.37170e+03,2.17704e+01,-5.85317e+01,0.00000e+00,0.00000e+00,0.00000e+00
1.37170e+03,2.02153e+01,-6.11922e+01,0.00000e+00,0.00000e+00,0.00000e+00
1.37170e+03,1.84327e+01,-6.38527e+01,0.00000e+00,0.00000e+00,0.00000e+00
1.37170e+03,1.63931e+01,-6.65133e+01,0.00000e+00,0.00000e+00,0.00000e+00
1.37170e+03,1.39807e+01,-6.91738e+01,0.00000e+00,0.00000e+00,0.00000e+00
1.37170e+03,1.08843e+01,-7.18343e+01,0.00000e+00,0.00000e+00,0.00000e+00
1.37170e+03,6.69639e+00,-7.44949e+01,0.00000e+00,0.00000e+00,0.00000e+00
1.37170e+03,-2.71333e+00,-7.71554e+01,0.00000e+00,0.00000e+00,0.00000e+00
1.37170e+03,-3.39243e+00,-7.71616e+01,0.00000e+00,0.00000e+00,0.00000e+00
1.37170e+03,-9.57954e+00,-7.44058e+01,0.00000e+00,0.00000e+00,0.00000e+00
1.37170e+03,-1.03287e+01,-7.16500e+01,0.00000e+00,0.00000e+00,0.00000e+00
1.37170e+03,-1.05872e+01,-6.88942e+01,0.00000e+00,0.00000e+00,0.00000e+00
1.37170e+03,-1.06264e+01,-6.61385e+01,0.00000e+00,0.00000e+00,0.00000e+00
1.37170e+03,-1.05004e+01,-6.33827e+01,0.00000e+00,0.00000e+00,0.00000e+00
1.37170e+03,-1.02708e+01,-6.06269e+01,0.00000e+00,0.00000e+00,0.00000e+00
1.37170e+03,-9.93701e+00,-5.78712e+01,0.00000e+00,0.00000e+00,0.00000e+00
1.37170e+03,-9.53977e+00,-5.51154e+01,0.00000e+00,0.00000e+00,0.00000e+00
1.37170e+03,-9.10569e+00,-5.23596e+01,0.00000e+00,0.00000e+00,0.00000e+00
1.37170e+03,-8.61613e+00,-4.96039e+01,0.00000e+00,0.00000e+00,0.00000e+00
1.37170e+03,-8.09190e+00,-4.68481e+01,0.00000e+00,0.00000e+00,0.00000e+00
1.37170e+03,-7.53389e+00,-4.40923e+01,0.00000e+00,0.00000e+00,0.00000e+00
1.37170e+03,-6.94225e+00,-4.13365e+01,0.00000e+00,0.00000e+00,0.00000e+00
1.37170e+03,-6.32951e+00,-3.85808e+01,0.00000e+00,0.00000e+00,0.00000e+00
1.37170e+03,-5.68976e+00,-3.58250e+01,0.00000e+00,0.00000e+00,0.00000e+00
1.37170e+03,-5.03271e+00,-3.30692e+01,0.00000e+00,0.00000e+00,0.00000e+00
1.37170e+03,-4.36014e+00,-3.03135e+01,0.00000e+00,0.00000e+00,0.00000e+00
1.37170e+03,-3.67372e+00,-2.75577e+01,0.00000e+00,0.00000e+00,0.00000e+00
1.37170e+03,-2.98144e+00,-2.48019e+01,0.00000e+00,0.00000e+00,0.00000e+00
1.37170e+03,-2.28008e+00,-2.20462e+01,0.00000e+00,0.00000e+00,0.00000e+00
1.37170e+03,-1.57720e+00,-1.92904e+01,0.00000e+00,0.00000e+00,0.00000e+00
1.37170e+03,-8.68894e-01,-1.65346e+01,0.00000e+00,0.00000e+00,0.00000e+00
1.37170e+03,-1.60661e-01,-1.37788e+01,0.00000e+00,0.00000e+00,0.00000e+00
1.37170e+03,5.44895e-01,-1.10231e+01,0.00000e+00,0.00000e+00,0.00000e+00
1.37170e+03,1.25045e+00,-8.26731e+00,0.00000e+00,0.00000e+00,0.00000e+00
1.37170e+03,1.93930e+00,-5.51154e+00,0.00000e+00,0.00000e+00,0.00000e+00
1.37170e+03,2.62503e+00,-2.75577e+00,0.00000e+00,0.00000e+00,0.00000e+00
1.44960e+03,3.37597e+01,0.00000e+00,0.00000e+00,0.00000e+00,0.00000e+00
1.44960e+03,3.35897e+01,-2.56538e+00,0.00000e+00,0.00000e+00,0.00000e+00
1.44960e+03,3.33635e+01,-5.13077e+00,0.00000e+00,0.00000e+00,0.00000e+00
1.44960e+03,3.31351e+01,-7.69615e+00,0.00000e+00,0.00000e+00,0.00000e+00
1.44960e+03,3.28571e+01,-1.02615e+01,0.00000e+00,0.00000e+00,0.00000e+00
1.44960e+03,3.25675e+01,-1.28269e+01,0.00000e+00,0.00000e+00,0.00000e+00
1.44960e+03,3.22399e+01,-1.53923e+01,0.00000e+00,0.00000e+00,0.00000e+00
1.44960e+03,3.18939e+01,-1.79577e+01,0.00000e+00,0.00000e+00,0.00000e+00
1.44960e+03,3.15172e+01,-2.05231e+01,0.00000e+00,0.00000e+00,0.00000e+00
1.44960e+03,3.11155e+01,-2.30885e+01,0.00000e+00,0.00000e+00,0.00000e+00
1.44960e+03,3.06860e+01,-2.56538e+01,0.00000e+00,0.00000e+00,0.00000e+00
1.44960e+03,3.02232e+01,-2.82192e+01,0.00000e+00,0.00000e+00,0.00000e+00
1.44960e+03,2.97261e+01,-3.07846e+01,0.00000e+00,0.00000e+00,0.00000e+00
1.44960e+03,2.91805e+01,-3.33500e+01,0.00000e+00,0.00000e+00,0.00000e+00
1.44960e+03,2.85877e+01,-3.59154e+01,0.00000e+00,0.00000e+00,0.00000e+00
1.44960e+03,2.79383e+01,-3.84808e+01,0.00000e+00,0.00000e+00,0.00000e+00
1.44960e+03,2.72125e+01,-4.10462e+01,0.00000e+00,0.00000e+00,0.00000e+00
1.44960e+03,2.64335e+01,-4.36115e+01,0.00000e+00,0.00000e+00,0.00000e+00
1.44960e+03,2.55347e+01,-4.61769e+01,0.00000e+00,0.00000e+00,0.00000e+00
1.44960e+03,2.45863e+01,-4.87423e+01,0.00000e+00,0.00000e+00,0.00000e+00
1.44960e+03,2.34997e+01,-5.13077e+01,0.00000e+00,0.00000e+00,0.00000e+00
1.44960e+03,2.23022e+01,-5.38731e+01,0.00000e+00,0.00000e+00,0.00000e+00
1.44960e+03,2.09919e+01,-5.64385e+01,0.00000e+00,0.00000e+00,0.00000e+00
1.44960e+03,1.94923e+01,-5.90039e+01,0.00000e+00,0.00000e+00,0.00000e+00
1.44960e+03,1.77735e+01,-6.15692e+01,0.00000e+00,0.00000e+00,0.00000e+00
1.44960e+03,1.58069e+01,-6.41346e+01,0.00000e+00,0.00000e+00,0.00000e+00
1.44960e+03,1.34808e+01,-6.67000e+01,0.00000e+00,0.00000e+00,0.00000e+00
1.44960e+03,1.04950e+01,-6.92654e+01,0.00000e+00,0.00000e+00,0.00000e+00
1.44960e+03,6.45692e+00,-7.18308e+01,0.00000e+00,0.00000e+00,0.00000e+00
1.44960e+03,-2.61629e+00,-7.43962e+01,0.00000e+00,0.00000e+00,0.00000e+00
1.44960e+03,-3.27111e+00,-7.44021e+01,0.00000e+00,0.00000e+00,0.00000e+00
1.44960e+03,-9.23696e+00,-7.17449e+01,0.00000e+00,0.00000e+00,0.00000e+00
1.44960e+03,-9.95928e+00,-6.90877e+01,0.00000e+00,0.00000e+00,0.00000e+00
1.44960e+03,-1.02085e+01,-6.64305e+01,0.00000e+00,0.00000e+00,0.00000e+00
1.44960e+03,-1.02464e+01,-6.37732e+01,0.00000e+00,0.00000e+00,0.00000e+00
1.44960e+03,-1.01249e+01,-6.11160e+01,0.00000e+00,0.00000e+00,0.00000e+00
1.44960e+03,-9.90345e+00,-5.84588e+01,0.00000e+00,0.00000e+00,0.00000e+00
1.44960e+03,-9.58164e+00,-5.58016e+01,0.00000e+00,0.00000e+00,0.00000e+00
1.44960e+03,-9.19861e+00,-5.31444e+01,0.00000e+00,0.00000e+00,0.00000e+00
1.44960e+03,-8.78006e+00,-5.04872e+01,0.00000e+00,0.00000e+00,0.00000e+00
1.44960e+03,-8.30801e+00,-4.78299e+01,0.00000e+00,0.00000e+00,0.00000e+00
1.44960e+03,-7.80252e+00,-4.51727e+01,0.00000e+00,0.00000e+00,0.00000e+00
1.44960e+03,-7.26447e+00,-4.25155e+01,0.00000e+00,0.00000e+00,0.00000e+00
1.44960e+03,-6.69398e+00,-3.98583e+01,0.00000e+00,0.00000e+00,0.00000e+00
1.44960e+03,-6.10316e+00,-3.72011e+01,0.00000e+00,0.00000e+00,0.00000e+00
1.44960e+03,-5.48628e+00,-3.45438e+01,0.00000e+00,0.00000e+00,0.00000e+00
1.44960e+03,-4.85273e+00,-3.18866e+01,0.00000e+00,0.00000e+00,0.00000e+00
1.44960e+03,-4.20421e+00,-2.92294e+01,0.00000e+00,0.00000e+00,0.00000e+00
1.44960e+03,-3.54234e+00,-2.65722e+01,0.00000e+00,0.00000e+00,0.00000e+00
1.44960e+03,-2.87482e+00,-2.39150e+01,0.00000e+00,0.00000e+00,0.00000e+00
1.44960e+03,-2.19854e+00,-2.12577e+01,0.00000e+00,0.00000e+00,0.00000e+00
1.44960e+03,-1.52080e+00,-1.86005e+01,0.00000e+00,0.00000e+00,0.00000e+00
1.44960e+03,-8.37821e-01,-1.59433e+01,0.00000e+00,0.00000e+00,0.00000e+00
1.44960e+03,-1.54916e-01,-1.32861e+01,0.00000e+00,0.00000e+00,0.00000e+00
1.44960e+03,5.25408e-01,-1.06289e+01,0.00000e+00,0.00000e+00,0.00000e+00
1.44960e+03,1.20573e+00,-7.97166e+00,0.00000e+00,0.00000e+00,0.00000e+00
1.44960e+03,1.86995e+00,-5.31444e+00,0.00000e+00,0.00000e+00,0.00000e+00
1.44960e+03,2.53116e+00,-2.65722e+00,0.00000e+00,0.00000e+00,0.00000e+00
1.52340e+03,3.25736e+01,0.00000e+00,0.00000e+00,0.00000e+00,0.00000e+00
1.52340e+03,3.24095e+01,-2.47525e+00,0.00000e+00,0.00000e+00,0.00000e+00
1.52340e+03,3.21913e+01,-4.95049e+00,0.00000e+00,0.00000e+00,0.00000e+00
1.52340e+03,3.19709e+01,-7.42574e+00,0.00000e+00,0.00000e+00,0.00000e+00
1.52340e+03,3.17026e+01,-9.90099e+00,0.00000e+00,0.00000e+00,0.00000e+00
1.52340e+03,3.14232e+01,-1.23762e+01,0.00000e+00,0.00000e+00,0.00000e+00
1.52340e+03,3.11072e+01,-1.48515e+01,0.00000e+00,0.00000e+00,0.00000e+00
1.52340e+03,3.07733e+01,-1.73267e+01,0.00000e+00,0.00000e+00,0.00000e+00
1.52340e+03,3.04098e+01,-1.98020e+01,0.00000e+00,0.00000e+00,0.00000e+00
1.52340e+03,3.00222e+01,-2.22772e+01,0.00000e+00,0.00000e+00,0.00000e+00
1.52340e+03,2.96079e+01,-2.47525e+01,0.00000e+00,0.00000e+00,0.00000e+00
1.52340e+03,2.91613e+01,-2.72277e+01,0.00000e+00,0.00000e+00,0.00000e+00
1.52340e+03,2.86816e+01,-2.97030e+01,0.00000e+00,0.00000e+00,0.00000e+00
1.52340e+03,2.81552e+01,-3.21782e+01,0.00000e+00,0.00000e+00,0.00000e+00
1.52340e+03,2.75832e+01,-3.46535e+01,0.00000e+00,0.00000e+00,0.00000e+00
1.52340e+03,2.69567e+01,-3.71287e+01,0.00000e+00,0.00000e+00,0.00000e+00
1.52340e+03,2.62564e+01,-3.96040e+01,0.00000e+00,0.00000e+00,0.00000e+00
1.52340e+03,2.55047e+01,-4.20792e+01,0.00000e+00,0.00000e+00,0.00000e+00
1.52340e+03,2.46375e+01,-4.45544e+01,0.00000e+00,0.00000e+00,0.00000e+00
1.52340e+03,2.37225e+01,-4.70297e+01,0.00000e+00,0.00000e+00,0.00000e+00
1.52340e+03,2.26740e+01,-4.95049e+01,0.00000e+00,0.00000e+00,0.00000e+00
1.52340e+03,2.15185e+01,-5.19802e+01,0.00000e+00,0.00000e+00,0.00000e+00
1.52340e+03,2.02543e+01,-5.44554e+01,0.00000e+00,0.00000e+00,0.00000e+00
1.52340e+03,1.88075e+01,-5.69307e+01,0.00000e+00,0.00000e+00,0.00000e+00
1.52340e+03,1.71490e+01,-5.94059e+01,0.00000e+00,0.00000e+00,0.00000e+00
1.52340e+03,1.52515e+01,-6.18812e+01,0.00000e+00,0.00000e+00,0.00000e+00
1.52340e+03,1.30071e+01,-6.43564e+01,0.00000e+00,0.00000e+00,0.00000e+00
1.52340e+03,1.01263e+01,-6.68317e+01,0.00000e+00,0.00000e+00,0.00000e+00
1.52340e+03,6.23005e+00,-6.93069e+01,0.00000e+00,0.00000e+00,0.00000e+00
1.52340e+03,-2.52437e+00,-7.17822e+01,0.00000e+00,0.00000e+00,0.00000e+00
1.52340e+03,-3.15618e+00,-7.17879e+01,0.00000e+00,0.00000e+00,0.00000e+00
1.52340e+03,-8.91241e+00,-6.92241e+01,0.00000e+00,0.00000e+00,0.00000e+00
1.52340e+03,-9.60935e+00,-6.66602e+01,0.00000e+00,0.00000e+00,0.00000e+00
1.52340e+03,-9.84985e+00,-6.40963e+01,0.00000e+00,0.00000e+00,0.00000e+00
1.52340e+03,-9.88634e+00,-6.15325e+01,0.00000e+00,0.00000e+00,0.00000e+00
1.52340e+03,-9.76914e+00,-5.89686e+01,0.00000e+00,0.00000e+00,0.00000e+00
1.52340e+03,-9.55548e+00,-5.64048e+01,0.00000e+00,0.00000e+00,0.00000e+00
1.52340e+03,-9.24498e+00,-5.38409e+01,0.00000e+00,0.00000e+00,0.00000e+00
1.52340e+03,-8.87540e+00,-5.12771e+01,0.00000e+00,0.00000e+00,0.00000e+00
1.52340e+03,-8.47156e+00,-4.87132e+01,0.00000e+00,0.00000e+00,0.00000e+00
1.52340e+03,-8.01609e+00,-4.61494e+01,0.00000e+00,0.00000e+00,0.00000e+00
1.52340e+03,-7.52837e+00,-4.35855e+01,0.00000e+00,0.00000e+00,0.00000e+00
1.52340e+03,-7.00922e+00,-4.10217e+01,0.00000e+00,0.00000e+00,0.00000e+00
1.52340e+03,-6.45878e+00,-3.84578e+01,0.00000e+00,0.00000e+00,0.00000e+00
1.52340e+03,-5.88872e+00,-3.58940e+01,0.00000e+00,0.00000e+00,0.00000e+00
1.52340e+03,-5.29352e+00,-3.33301e+01,0.00000e+00,0.00000e+00,0.00000e+00
1.52340e+03,-4.68222e+00,-3.07662e+01,0.00000e+00,0.00000e+00,0.00000e+00
1.52340e+03,-4.05649e+00,-2.82024e+01,0.00000e+00,0.00000e+00,0.00000e+00
1.52340e+03,-3.41788e+00,-2.56385e+01,0.00000e+00,0.00000e+00,0.00000e+00
1.52340e+03,-2.77381e+00,-2.30747e+01,0.00000e+00,0.00000e+00,0.00000e+00
1.52340e+03,-2.12129e+00,-2.05108e+01,0.00000e+00,0.00000e+00,0.00000e+00
1.52340e+03,-1.46736e+00,-1.79470e+01,0.00000e+00,0.00000e+00,0.00000e+00
1.52340e+03,-8.08383e-01,-1.53831e+01,0.00000e+00,0.00000e+00,0.00000e+00
1.52340e+03,-1.49473e-01,-1.28193e+01,0.00000e+00,0.00000e+00,0.00000e+00
1.52340e+03,5.06948e-01,-1.02554e+01,0.00000e+00,0.00000e+00,0.00000e+00
1.52340e+03,1.16337e+00,-7.69156e+00,0.00000e+00,0.00000e+00,0.00000e+00
1.52340e+03,1.80424e+00,-5.12771e+00,0.00000e+00,0.00000e+00,0.00000e+00
1.52340e+03,2.44222e+00,-2.56385e+00,0.00000e+00,0.00000e+00,0.00000e+00
1.59310e+03,3.14533e+01,0.00000e+00,0.00000e+00,0.00000e+00,0.00000e+00
1.59310e+03,3.12949e+01,-2.39012e+00,0.00000e+00,0.00000e+00,0.00000e+00
1.59310e+03,3.10841e+01,-4.78023e+00,0.00000e+00,0.00000e+00,0.00000e+00
1.59310e+03,3.08713e+01,-7.17035e+00,0.00000e+00,0.00000e+00,0.00000e+00
1.59310e+03,3.06123e+01,-9.56047e+00,0.00000e+00,0.00000e+00,0.00000e+00
1.59310e+03,3.03425e+01,-1.19506e+01,0.00000e+00,0.00000e+00,0.00000e+00
1.59310e+03,3.00373e+01,-1.43407e+01,0.00000e+00,0.00000e+00,0.00000e+00
1.59310e+03,2.97149e+01,-1.67308e+01,0.00000e+00,0.00000e+00,0.00000e+00
1.59310e+03,2.93640e+01,-1.91209e+01,0.00000e+00,0.00000e+00,0.00000e+00
1.59310e+03,2.89896e+01,-2.15111e+01,0.00000e+00,0.00000e+00,0.00000e+00
1.59310e+03,2.85896e+01,-2.39012e+01,0.00000e+00,0.00000e+00,0.00000e+00
1.59310e+03,2.81583e+01,-2.62913e+01,0.00000e+00,0.00000e+00,0.00000e+00
1.59310e+03,2.76952e+01,-2.86814e+01,0.00000e+00,0.00000e+00,0.00000e+00
1.59310e+03,2.71869e+01,-3.10715e+01,0.00000e+00,0.00000e+00,0.00000e+00
1.59310e+03,2.66345e+01,-3.34616e+01,0.00000e+00,0.00000e+00,0.00000e+00
1.59310e+03,2.60296e+01,-3.58518e+01,0.00000e+00,0.00000e+00,0.00000e+00
1.59310e+03,2.53533e+01,-3.82419e+01,0.00000e+00,0.00000e+00,0.00000e+00
1.59310e+03,2.46276e+01,-4.06320e+01,0.00000e+00,0.00000e+00,0.00000e+00
1.59310e+03,2.37902e+01,-4.30221e+01,0.00000e+00,0.00000e+00,0.00000e+00
1.59310e+03,2.29066e+01,-4.54122e+01,0.00000e+00,0.00000e+00,0.00000e+00
1.59310e+03,2.18941e+01,-4.78023e+01,0.00000e+00,0.00000e+00,0.00000e+00
1.59310e+03,2.07785e+01,-5.01925e+01,0.00000e+00,0.00000e+00,0.00000e+00
1.59310e+03,1.95577e+01,-5.25826e+01,0.00000e+00,0.00000e+00,0.00000e+00
1.59310e+03,1.81606e+01,-5.49727e+01,0.00000e+00,0.00000e+00,0.00000e+00
1.59310e+03,1.65592e+01,-5.73628e+01,0.00000e+00,0.00000e+00,0.00000e+00
1.59310e+03,1.47269e+01,-5.97529e+01,0.00000e+00,0.00000e+00,0.00000e+00
1.59310e+03,1.25597e+01,-6.21430e+01,0.00000e+00,0.00000e+00,0.00000e+00
1.59310e+03,9.77800e+00,-6.45332e+01,0.00000e+00,0.00000e+00,0.00000e+00
1.59310e+03,6.01578e+00,-6.69233e+01,0.00000e+00,0.00000e+00,0.00000e+00
1.59310e+03,-2.43755e+00,-6.93134e+01,0.00000e+00,0.00000e+00,0.00000e+00
1.59310e+03,-3.04763e+00,-6.93189e+01,0.00000e+00,0.00000e+00,0.00000e+00
1.59310e+03,-8.60589e+00,-6.68433e+01,0.00000e+00,0.00000e+00,0.00000e+00
1.59310e+03,-9.27886e+00,-6.43676e+01,0.00000e+00,0.00000e+00,0.00000e+00
1.59310e+03,-9.51109e+00,-6.18919e+01,0.00000e+00,0.00000e+00,0.00000e+00
1.59310e+03,-9.54632e+00,-5.94162e+01,0.00000e+00,0.00000e+00,0.00000e+00
1.59310e+03,-9.43315e+00,-5.69406e+01,0.00000e+00,0.00000e+00,0.00000e+00
1.59310e+03,-9.22684e+00,-5.44649e+01,0.00000e+00,0.00000e+00,0.00000e+00
1.59310e+03,-8.92702e+00,-5.19892e+01,0.00000e+00,0.00000e+00,0.00000e+00
1.59310e+03,-8.57016e+00,-4.95135e+01,0.00000e+00,0.00000e+00,0.00000e+00
1.59310e+03,-8.18020e+00,-4.70379e+01,0.00000e+00,0.00000e+00,0.00000e+00
1.59310e+03,-7.74040e+00,-4.45622e+01,0.00000e+00,0.00000e+00,0.00000e+00
1.59310e+03,-7.26945e+00,-4.20865e+01,0.00000e+00,0.00000e+00,0.00000e+00
1.59310e+03,-6.76816e+00,-3.96108e+01,0.00000e+00,0.00000e+00,0.00000e+00
1.59310e+03,-6.23665e+00,-3.71351e+01,0.00000e+00,0.00000e+00,0.00000e+00
1.59310e+03,-5.68619e+00,-3.46595e+01,0.00000e+00,0.00000e+00,0.00000e+00
1.59310e+03,-5.11146e+00,-3.21838e+01,0.00000e+00,0.00000e+00,0.00000e+00
1.59310e+03,-4.52119e+00,-2.97081e+01,0.00000e+00,0.00000e+00,0.00000e+00
1.59310e+03,-3.91698e+00,-2.72324e+01,0.00000e+00,0.00000e+00,0.00000e+00
1.59310e+03,-3.30033e+00,-2.47568e+01,0.00000e+00,0.00000e+00,0.00000e+00
1.59310e+03,-2.67841e+00,-2.22811e+01,0.00000e+00,0.00000e+00,0.00000e+00
1.59310e+03,-2.04833e+00,-1.98054e+01,0.00000e+00,0.00000e+00,0.00000e+00
1.59310e+03,-1.41689e+00,-1.73297e+01,0.00000e+00,0.00000e+00,0.00000e+00
1.59310e+03,-7.80581e-01,-1.48541e+01,0.00000e+00,0.00000e+00,0.00000e+00
1.59310e+03,-1.44332e-01,-1.23784e+01,0.00000e+00,0.00000e+00,0.00000e+00
1.59310e+03,4.89512e-01,-9.90271e+00,0.00000e+00,0.00000e+00,0.00000e+00
1.59310e+03,1.12336e+00,-7.42703e+00,0.00000e+00,0.00000e+00,0.00000e+00
1.59310e+03,1.74219e+00,-4.95135e+00,0.00000e+00,0.00000e+00,0.00000e+00
1.59310e+03,2.35823e+00,-2.47568e+00,0.00000e+00,0.00000e+00,0.00000e+00
1.65850e+03,3.04021e+01,0.00000e+00,0.00000e+00,0.00000e+00,0.00000e+00
1.65850e+03,3.02490e+01,-2.31024e+00,0.00000e+00,0.00000e+00,0.00000e+00
1.65850e+03,3.00453e+01,-4.62048e+00,0.00000e+00,0.00000e+00,0.00000e+00
1.65850e+03,2.98396e+01,-6.93072e+00,0.00000e+00,0.00000e+00,0.00000e+00
1.65850e+03,2.95892e+01,-9.24096e+00,0.00000e+00,0.00000e+00,0.00000e+00
1.65850e+03,2.93285e+01,-1.15512e+01,0.00000e+00,0.00000e+00,0.00000e+00
1.65850e+03,2.90335e+01,-1.38614e+01,0.00000e+00,0.00000e+00,0.00000e+00
1.65850e+03,2.87218e+01,-1.61717e+01,0.00000e+00,0.00000e+00,0.00000e+00
1.65850e+03,2.83826e+01,-1.84819e+01,0.00000e+00,0.00000e+00,0.00000e+00
1.65850e+03,2.80208e+01,-2.07921e+01,0.00000e+00,0.00000e+00,0.00000e+00
1.65850e+03,2.76341e+01,-2.31024e+01,0.00000e+00,0.00000e+00,0.00000e+00
1.65850e+03,2.72173e+01,-2.54126e+01,0.00000e+00,0.00000e+00,0.00000e+00
1.65850e+03,2.67696e+01,-2.77229e+01,0.00000e+00,0.00000e+00,0.00000e+00
1.65850e+03,2.62783e+01,-3.00331e+01,0.00000e+00,0.00000e+00,0.00000e+00
1.65850e+03,2.57444e+01,-3.23433e+01,0.00000e+00,0.00000e+00,0.00000e+00
1.65850e+03,2.51597e+01,-3.46536e+01,0.00000e+00,0.00000e+00,0.00000e+00
1.65850e+03,2.45060e+01,-3.69638e+01,0.00000e+00,0.00000e+00,0.00000e+00
1.65850e+03,2.38045e+01,-3.92741e+01,0.00000e+00,0.00000e+00,0.00000e+00
1.65850e+03,2.29951e+01,-4.15843e+01,0.00000e+00,0.00000e+00,0.00000e+00
1.65850e+03,2.21410e+01,-4.38945e+01,0.00000e+00,0.00000e+00,0.00000e+00
1.65850e+03,2.11624e+01,-4.62048e+01,0.00000e+00,0.00000e+00,0.00000e+00
1.65850e+03,2.00840e+01,-4.85150e+01,0.00000e+00,0.00000e+00,0.00000e+00
1.65850e+03,1.89041e+01,-5.08253e+01,0.00000e+00,0.00000e+00,0.00000e+00
1.65850e+03,1.75537e+01,-5.31355e+01,0.00000e+00,0.00000e+00,0.00000e+00
1.65850e+03,1.60058e+01,-5.54457e+01,0.00000e+00,0.00000e+00,0.00000e+00
1.65850e+03,1.42348e+01,-5.77560e+01,0.00000e+00,0.00000e+00,0.00000e+00
1.65850e+03,1.21400e+01,-6.00662e+01,0.00000e+00,0.00000e+00,0.00000e+00
1.65850e+03,9.45122e+00,-6.23764e+01,0.00000e+00,0.00000e+00,0.00000e+00
1.65850e+03,5.81473e+00,-6.46867e+01,0.00000e+00,0.00000e+00,0.00000e+00
1.65850e+03,-2.35608e+00,-6.69969e+01,0.00000e+00,0.00000e+00,0.00000e+00
1.65850e+03,-2.94577e+00,-6.70023e+01,0.00000e+00,0.00000e+00,0.00000e+00
1.65850e+03,-8.31828e+00,-6.46093e+01,0.00000e+00,0.00000e+00,0.00000e+00
1.65850e+03,-8.96876e+00,-6.22164e+01,0.00000e+00,0.00000e+00,0.00000e+00
1.65850e+03,-9.19322e+00,-5.98235e+01,0.00000e+00,0.00000e+00,0.00000e+00
1.65850e+03,-9.22728e+00,-5.74305e+01,0.00000e+00,0.00000e+00,0.00000e+00
1.65850e+03,-9.11789e+00,-5.50376e+01,0.00000e+00,0.00000e+00,0.00000e+00
1.65850e+03,-8.91848e+00,-5.26447e+01,0.00000e+00,0.00000e+00,0.00000e+00
1.65850e+03,-8.62868e+00,-5.02517e+01,0.00000e+00,0.00000e+00,0.00000e+00
1.65850e+03,-8.28374e+00,-4.78588e+01,0.00000e+00,0.00000e+00,0.00000e+00
1.65850e+03,-7.90682e+00,-4.54658e+01,0.00000e+00,0.00000e+00,0.00000e+00
1.65850e+03,-7.48171e+00,-4.30729e+01,0.00000e+00,0.00000e+00,0.00000e+00
1.65850e+03,-7.02650e+00,-4.06800e+01,0.00000e+00,0.00000e+00,0.00000e+00
1.65850e+03,-6.54196e+00,-3.82870e+01,0.00000e+00,0.00000e+00,0.00000e+00
1.65850e+03,-6.02822e+00,-3.58941e+01,0.00000e+00,0.00000e+00,0.00000e+00
1.65850e+03,-5.49615e+00,-3.35011e+01,0.00000e+00,0.00000e+00,0.00000e+00
1.65850e+03,-4.94063e+00,-3.11082e+01,0.00000e+00,0.00000e+00,0.00000e+00
1.65850e+03,-4.37009e+00,-2.87153e+01,0.00000e+00,0.00000e+00,0.00000e+00
1.65850e+03,-3.78607e+00,-2.63223e+01,0.00000e+00,0.00000e+00,0.00000e+00
1.65850e+03,-3.19003e+00,-2.39294e+01,0.00000e+00,0.00000e+00,0.00000e+00
1.65850e+03,-2.58890e+00,-2.15364e+01,0.00000e+00,0.00000e+00,0.00000e+00
1.65850e+03,-1.97988e+00,-1.91435e+01,0.00000e+00,0.00000e+00,0.00000e+00
1.65850e+03,-1.36954e+00,-1.67506e+01,0.00000e+00,0.00000e+00,0.00000e+00
1.65850e+03,-7.54494e-01,-1.43576e+01,0.00000e+00,0.00000e+00,0.00000e+00
1.65850e+03,-1.39508e-01,-1.19647e+01,0.00000e+00,0.00000e+00,0.00000e+00
1.65850e+03,4.73153e-01,-9.57176e+00,0.00000e+00,0.00000e+00,0.00000e+00
1.65850e+03,1.08581e+00,-7.17882e+00,0.00000e+00,0.00000e+00,0.00000e+00
1.65850e+03,1.68397e+00,-4.78588e+00,0.00000e+00,0.00000e+00,0.00000e+00
1.65850e+03,2.27942e+00,-2.39294e+00,0.00000e+00,0.00000e+00,0.00000e+00
1.71930e+03,2.94249e+01,0.00000e+00,0.00000e+00,0.00000e+00,0.00000e+00
1.71930e+03,2.92767e+01,-2.23598e+00,0.00000e+00,0.00000e+00,0.00000e+00
1.71930e+03,2.90795e+01,-4.47196e+00,0.00000e+00,0.00000e+00,0.00000e+00
1.71930e+03,2.88804e+01,-6.70794e+00,0.00000e+00,0.00000e+00,0.00000e+00
1.71930e+03,2.86381e+01,-8.94392e+00,0.00000e+00,0.00000e+00,0.00000e+00
1.71930e+03,2.83857e+01,-1.11799e+01,0.00000e+00,0.00000e+00,0.00000e+00
1.71930e+03,2.81002e+01,-1.34159e+01,0.00000e+00,0.00000e+00,0.00000e+00
1.71930e+03,2.77986e+01,-1.56519e+01,0.00000e+00,0.00000e+00,0.00000e+00
1.71930e+03,2.74703e+01,-1.78878e+01,0.00000e+00,0.00000e+00,0.00000e+00
1.71930e+03,2.71201e+01,-2.01238e+01,0.00000e+00,0.00000e+00,0.00000e+00
1.71930e+03,2.67458e+01,-2.23598e+01,0.00000e+00,0.00000e+00,0.00000e+00
1.71930e+03,2.63424e+01,-2.45958e+01,0.00000e+00,0.00000e+00,0.00000e+00
1.71930e+03,2.59091e+01,-2.68317e+01,0.00000e+00,0.00000e+00,0.00000e+00
1.71930e+03,2.54336e+01,-2.90677e+01,0.00000e+00,0.00000e+00,0.00000e+00
1.71930e+03,2.49169e+01,-3.13037e+01,0.00000e+00,0.00000e+00,0.00000e+00
1.71930e+03,2.43509e+01,-3.35397e+01,0.00000e+00,0.00000e+00,0.00000e+00
1.71930e+03,2.37183e+01,-3.57757e+01,0.00000e+00,0.00000e+00,0.00000e+00
1.71930e+03,2.30393e+01,-3.80116e+01,0.00000e+00,0.00000e+00,0.00000e+00
1.71930e+03,2.22560e+01,-4.02476e+01,0.00000e+00,0.00000e+00,0.00000e+00
1.71930e+03,2.14293e+01,-4.24836e+01,0.00000e+00,0.00000e+00,0.00000e+00
1.71930e+03,2.04822e+01,-4.47196e+01,0.00000e+00,0.00000e+00,0.00000e+00
1.71930e+03,1.94385e+01,-4.69556e+01,0.00000e+00,0.00000e+00,0.00000e+00
1.71930e+03,1.82964e+01,-4.91915e+01,0.00000e+00,0.00000e+00,0.00000e+00
1.71930e+03,1.69894e+01,-5.14275e+01,0.00000e+00,0.00000e+00,0.00000e+00
1.71930e+03,1.54913e+01,-5.36635e+01,0.00000e+00,0.00000e+00,0.00000e+00
1.71930e+03,1.37772e+01,-5.58995e+01,0.00000e+00,0.00000e+00,0.00000e+00
1.71930e+03,1.17498e+01,-5.81355e+01,0.00000e+00,0.00000e+00,0.00000e+00
1.71930e+03,9.14742e+00,-6.03714e+01,0.00000e+00,0.00000e+00,0.00000e+00
1.71930e+03,5.62782e+00,-6.26074e+01,0.00000e+00,0.00000e+00,0.00000e+00
1.71930e+03,-2.28035e+00,-6.48434e+01,0.00000e+00,0.00000e+00,0.00000e+00
1.71930e+03,-2.85109e+00,-6.48486e+01,0.00000e+00,0.00000e+00,0.00000e+00
1.71930e+03,-8.05090e+00,-6.25326e+01,0.00000e+00,0.00000e+00,0.00000e+00
1.71930e+03,-8.68047e+00,-6.02165e+01,0.00000e+00,0.00000e+00,0.00000e+00
1.71930e+03,-8.89772e+00,-5.79005e+01,0.00000e+00,0.00000e+00,0.00000e+00
1.71930e+03,-8.93068e+00,-5.55845e+01,0.00000e+00,0.00000e+00,0.00000e+00
1.71930e+03,-8.82481e+00,-5.32685e+01,0.00000e+00,0.00000e+00,0.00000e+00
1.71930e+03,-8.63181e+00,-5.09525e+01,0.00000e+00,0.00000e+00,0.00000e+00
1.71930e+03,-8.35132e+00,-4.86364e+01,0.00000e+00,0.00000e+00,0.00000e+00
1.71930e+03,-8.01747e+00,-4.63204e+01,0.00000e+00,0.00000e+00,0.00000e+00
1.71930e+03,-7.65266e+00,-4.40044e+01,0.00000e+00,0.00000e+00,0.00000e+00
1.71930e+03,-7.24122e+00,-4.16884e+01,0.00000e+00,0.00000e+00,0.00000e+00
1.71930e+03,-6.80064e+00,-3.93724e+01,0.00000e+00,0.00000e+00,0.00000e+00
1.71930e+03,-6.33168e+00,-3.70563e+01,0.00000e+00,0.00000e+00,0.00000e+00
1.71930e+03,-5.83445e+00,-3.47403e+01,0.00000e+00,0.00000e+00,0.00000e+00
1.71930e+03,-5.31949e+00,-3.24243e+01,0.00000e+00,0.00000e+00,0.00000e+00
1.71930e+03,-4.78182e+00,-3.01083e+01,0.00000e+00,0.00000e+00,0.00000e+00
1.71930e+03,-4.22962e+00,-2.77922e+01,0.00000e+00,0.00000e+00,0.00000e+00
1.71930e+03,-3.66437e+00,-2.54762e+01,0.00000e+00,0.00000e+00,0.00000e+00
1.71930e+03,-3.08749e+00,-2.31602e+01,0.00000e+00,0.00000e+00,0.00000e+00
1.71930e+03,-2.50568e+00,-2.08442e+01,0.00000e+00,0.00000e+00,0.00000e+00
1.71930e+03,-1.91624e+00,-1.85282e+01,0.00000e+00,0.00000e+00,0.00000e+00
1.71930e+03,-1.32552e+00,-1.62121e+01,0.00000e+00,0.00000e+00,0.00000e+00
1.71930e+03,-7.30242e-01,-1.38961e+01,0.00000e+00,0.00000e+00,0.00000e+00
1.71930e+03,-1.35024e-01,-1.15801e+01,0.00000e+00,0.00000e+00,0.00000e+00
1.71930e+03,4.57944e-01,-9.26408e+00,0.00000e+00,0.00000e+00,0.00000e+00
1.71930e+03,1.05091e+00,-6.94806e+00,0.00000e+00,0.00000e+00,0.00000e+00
1.71930e+03,1.62984e+00,-4.63204e+00,0.00000e+00,0.00000e+00,0.00000e+00
1.71930e+03,2.20615e+00,-2.31602e+00,0.00000e+00,0.00000e+00,0.00000e+00
1.77540e+03,2.77303e+01,0.00000e+00,0.00000e+00,0.00000e+00,0.00000e+00
1.77540e+03,2.75906e+01,-2.10721e+00,0.00000e+00,0.00000e+00,0.00000e+00
1.77540e+03,2.74048e+01,-4.21442e+00,0.00000e+00,0.00000e+00,0.00000e+00
1.77540e+03,2.72172e+01,-6.32163e+00,0.00000e+00,0.00000e+00,0.00000e+00
1.77540e+03,2.69888e+01,-8.42884e+00,0.00000e+00,0.00000e+00,0.00000e+00
1.77540e+03,2.67510e+01,-1.05361e+01,0.00000e+00,0.00000e+00,0.00000e+00
1.77540e+03,2.64819e+01,-1.26433e+01,0.00000e+00,0.00000e+00,0.00000e+00
1.77540e+03,2.61977e+01,-1.47505e+01,0.00000e+00,0.00000e+00,0.00000e+00
1.77540e+03,2.58883e+01,-1.68577e+01,0.00000e+00,0.00000e+00,0.00000e+00
1.77540e+03,2.55583e+01,-1.89649e+01,0.00000e+00,0.00000e+00,0.00000e+00
1.77540e+03,2.52056e+01,-2.10721e+01,0.00000e+00,0.00000e+00,0.00000e+00
1.77540e+03,2.48254e+01,-2.31793e+01,0.00000e+00,0.00000e+00,0.00000e+00
1.77540e+03,2.44171e+01,-2.52865e+01,0.00000e+00,0.00000e+00,0.00000e+00
1.77540e+03,2.39689e+01,-2.73937e+01,0.00000e+00,0.00000e+00,0.00000e+00
1.77540e+03,2.34819e+01,-2.95009e+01,0.00000e+00,0.00000e+00,0.00000e+00
1.77540e+03,2.29486e+01,-3.16082e+01,0.00000e+00,0.00000e+00,0.00000e+00
1.77540e+03,2.23524e+01,-3.37154e+01,0.00000e+00,0.00000e+00,0.00000e+00
1.77540e+03,2.17125e+01,-3.58226e+01,0.00000e+00,0.00000e+00,0.00000e+00
1.77540e+03,2.09743e+01,-3.79298e+01,0.00000e+00,0.00000e+00,0.00000e+00
1.77540e+03,2.01952e+01,-4.00370e+01,0.00000e+00,0.00000e+00,0.00000e+00
1.77540e+03,1.93026e+01,-4.21442e+01,0.00000e+00,0.00000e+00,0.00000e+00
1.77540e+03,1.83190e+01,-4.42514e+01,0.00000e+00,0.00000e+00,0.00000e+00
1.77540e+03,1.72428e+01,-4.63586e+01,0.00000e+00,0.00000e+00,0.00000e+00
1.77540e+03,1.60110e+01,-4.84658e+01,0.00000e+00,0.00000e+00,0.00000e+00
1.77540e+03,1.45992e+01,-5.05731e+01,0.00000e+00,0.00000e+00,0.00000e+00
1.77540e+03,1.29838e+01,-5.26803e+01,0.00000e+00,0.00000e+00,0.00000e+00
1.77540e+03,1.10731e+01,-5.47875e+01,0.00000e+00,0.00000e+00,0.00000e+00
1.77540e+03,8.62063e+00,-5.68947e+01,0.00000e+00,0.00000e+00,0.00000e+00
1.77540e+03,5.30372e+00,-5.90019e+01,0.00000e+00,0.00000e+00,0.00000e+00
1.77540e+03,-2.14903e+00,-6.11091e+01,0.00000e+00,0.00000e+00,0.00000e+00
1.77540e+03,-2.68689e+00,-6.11140e+01,0.00000e+00,0.00000e+00,0.00000e+00
1.77540e+03,-7.58725e+00,-5.89314e+01,0.00000e+00,0.00000e+00,0.00000e+00
1.77540e+03,-8.18057e+00,-5.67487e+01,0.00000e+00,0.00000e+00,0.00000e+00
1.77540e+03,-8.38530e+00,-5.45661e+01,0.00000e+00,0.00000e+00,0.00000e+00
1.77540e+03,-8.41637e+00,-5.23834e+01,0.00000e+00,0.00000e+00,0.00000e+00
1.77540e+03,-8.31659e+00,-5.02008e+01,0.00000e+00,0.00000e+00,0.00000e+00
1.77540e+03,-8.13471e+00,-4.80181e+01,0.00000e+00,0.00000e+00,0.00000e+00
1.77540e+03,-7.87037e+00,-4.58355e+01,0.00000e+00,0.00000e+00,0.00000e+00
1.77540e+03,-7.55575e+00,-4.36529e+01,0.00000e+00,0.00000e+00,0.00000e+00
1.77540e+03,-7.21195e+00,-4.14702e+01,0.00000e+00,0.00000e+00,0.00000e+00
1.77540e+03,-6.82421e+00,-3.92876e+01,0.00000e+00,0.00000e+00,0.00000e+00
1.77540e+03,-6.40900e+00,-3.71049e+01,0.00000e+00,0.00000e+00,0.00000e+00
1.77540e+03,-5.96704e+00,-3.49223e+01,0.00000e+00,0.00000e+00,0.00000e+00
1.77540e+03,-5.49844e+00,-3.27396e+01,0.00000e+00,0.00000e+00,0.00000e+00
1.77540e+03,-5.01314e+00,-3.05570e+01,0.00000e+00,0.00000e+00,0.00000e+00
1.77540e+03,-4.50644e+00,-2.83744e+01,0.00000e+00,0.00000e+00,0.00000e+00
1.77540e+03,-3.98604e+00,-2.61917e+01,0.00000e+00,0.00000e+00,0.00000e+00
1.77540e+03,-3.45334e+00,-2.40091e+01,0.00000e+00,0.00000e+00,0.00000e+00
1.77540e+03,-2.90969e+00,-2.18264e+01,0.00000e+00,0.00000e+00,0.00000e+00
1.77540e+03,-2.36138e+00,-1.96438e+01,0.00000e+00,0.00000e+00,0.00000e+00
1.77540e+03,-1.80588e+00,-1.74611e+01,0.00000e+00,0.00000e+00,0.00000e+00
1.77540e+03,-1.24918e+00,-1.52785e+01,0.00000e+00,0.00000e+00,0.00000e+00
1.77540e+03,-6.88187e-01,-1.30959e+01,0.00000e+00,0.00000e+00,0.00000e+00
1.77540e+03,-1.27248e-01,-1.09132e+01,0.00000e+00,0.00000e+00,0.00000e+00
1.77540e+03,4.31571e-01,-8.73057e+00,0.00000e+00,0.00000e+00,0.00000e+00
1.77540e+03,9.90390e-01,-6.54793e+00,0.00000e+00,0.00000e+00,0.00000e+00
1.77540e+03,1.53598e+00,-4.36529e+00,0.00000e+00,0.00000e+00,0.00000e+00
1.77540e+03,2.07910e+00,-2.18264e+00,0.00000e+00,0.00000e+00,0.00000e+00
1.82660e+03,2.53092e+01,0.00000e+00,0.00000e+00,0.00000e+00,0.00000e+00
1.82660e+03,2.51817e+01,-1.92323e+00,0.00000e+00,0.00000e+00,0.00000e+00
1.82660e+03,2.50121e+01,-3.84646e+00,0.00000e+00,0.00000e+00,0.00000e+00
1.82660e+03,2.48409e+01,-5.76969e+00,0.00000e+00,0.00000e+00,0.00000e+00
1.82660e+03,2.46324e+01,-7.69292e+00,0.00000e+00,0.00000e+00,0.00000e+00
1.82660e+03,2.44154e+01,-9.61614e+00,0.00000e+00,0.00000e+00,0.00000e+00
1.82660e+03,2.41698e+01,-1.15394e+01,0.00000e+00,0.00000e+00,0.00000e+00
1.82660e+03,2.39103e+01,-1.34626e+01,0.00000e+00,0.00000e+00,0.00000e+00
1.82660e+03,2.36280e+01,-1.53858e+01,0.00000e+00,0.00000e+00,0.00000e+00
1.82660e+03,2.33268e+01,-1.73091e+01,0.00000e+00,0.00000e+00,0.00000e+00
1.82660e+03,2.30049e+01,-1.92323e+01,0.00000e+00,0.00000e+00,0.00000e+00
1.82660e+03,2.26579e+01,-2.11555e+01,0.00000e+00,0.00000e+00,0.00000e+00
1.82660e+03,2.22852e+01,-2.30787e+01,0.00000e+00,0.00000e+00,0.00000e+00
1.82660e+03,2.18762e+01,-2.50020e+01,0.00000e+00,0.00000e+00,0.00000e+00
1.82660e+03,2.14317e+01,-2.69252e+01,0.00000e+00,0.00000e+00,0.00000e+00
1.82660e+03,2.09449e+01,-2.88484e+01,0.00000e+00,0.00000e+00,0.00000e+00
1.82660e+03,2.04008e+01,-3.07717e+01,0.00000e+00,0.00000e+00,0.00000e+00
1.82660e+03,1.98168e+01,-3.26949e+01,0.00000e+00,0.00000e+00,0.00000e+00
1.82660e+03,1.91430e+01,-3.46181e+01,0.00000e+00,0.00000e+00,0.00000e+00
1.82660e+03,1.84320e+01,-3.65413e+01,0.00000e+00,0.00000e+00,0.00000e+00
1.82660e+03,1.76173e+01,-3.84646e+01,0.00000e+00,0.00000e+00,0.00000e+00
1.82660e+03,1.67196e+01,-4.03878e+01,0.00000e+00,0.00000e+00,0.00000e+00
1.82660e+03,1.57373e+01,-4.23110e+01,0.00000e+00,0.00000e+00,0.00000e+00
1.82660e+03,1.46131e+01,-4.42343e+01,0.00000e+00,0.00000e+00,0.00000e+00
1.82660e+03,1.33245e+01,-4.61575e+01,0.00000e+00,0.00000e+00,0.00000e+00
1.82660e+03,1.18502e+01,-4.80807e+01,0.00000e+00,0.00000e+00,0.00000e+00
1.82660e+03,1.01063e+01,-5.00040e+01,0.00000e+00,0.00000e+00,0.00000e+00
1.82660e+03,7.86795e+00,-5.19272e+01,0.00000e+00,0.00000e+00,0.00000e+00
1.82660e+03,4.84065e+00,-5.38504e+01,0.00000e+00,0.00000e+00,0.00000e+00
1.82660e+03,-1.96139e+00,-5.57736e+01,0.00000e+00,0.00000e+00,0.00000e+00
1.82660e+03,-2.45230e+00,-5.57781e+01,0.00000e+00,0.00000e+00,0.00000e+00
1.82660e+03,-6.92480e+00,-5.37860e+01,0.00000e+00,0.00000e+00,0.00000e+00
1.82660e+03,-7.46632e+00,-5.17940e+01,0.00000e+00,0.00000e+00,0.00000e+00
1.82660e+03,-7.65318e+00,-4.98019e+01,0.00000e+00,0.00000e+00,0.00000e+00
1.82660e+03,-7.68153e+00,-4.78098e+01,0.00000e+00,0.00000e+00,0.00000e+00
1.82660e+03,-7.59047e+00,-4.58177e+01,0.00000e+00,0.00000e+00,0.00000e+00
1.82660e+03,-7.42446e+00,-4.38257e+01,0.00000e+00,0.00000e+00,0.00000e+00
1.82660e+03,-7.18321e+00,-4.18336e+01,0.00000e+00,0.00000e+00,0.00000e+00
1.82660e+03,-6.89605e+00,-3.98415e+01,0.00000e+00,0.00000e+00,0.00000e+00
1.82660e+03,-6.58227e+00,-3.78494e+01,0.00000e+00,0.00000e+00,0.00000e+00
1.82660e+03,-6.22838e+00,-3.58574e+01,0.00000e+00,0.00000e+00,0.00000e+00
1.82660e+03,-5.84943e+00,-3.38653e+01,0.00000e+00,0.00000e+00,0.00000e+00
1.82660e+03,-5.44606e+00,-3.18732e+01,0.00000e+00,0.00000e+00,0.00000e+00
1.82660e+03,-5.01837e+00,-2.98811e+01,0.00000e+00,0.00000e+00,0.00000e+00
1.82660e+03,-4.57544e+00,-2.78891e+01,0.00000e+00,0.00000e+00,0.00000e+00
1.82660e+03,-4.11298e+00,-2.58970e+01,0.00000e+00,0.00000e+00,0.00000e+00
1.82660e+03,-3.63801e+00,-2.39049e+01,0.00000e+00,0.00000e+00,0.00000e+00
1.82660e+03,-3.15183e+00,-2.19128e+01,0.00000e+00,0.00000e+00,0.00000e+00
1.82660e+03,-2.65564e+00,-1.99208e+01,0.00000e+00,0.00000e+00,0.00000e+00
1.82660e+03,-2.15521e+00,-1.79287e+01,0.00000e+00,0.00000e+00,0.00000e+00
1.82660e+03,-1.64821e+00,-1.59366e+01,0.00000e+00,0.00000e+00,0.00000e+00
1.82660e+03,-1.14012e+00,-1.39445e+01,0.00000e+00,0.00000e+00,0.00000e+00
1.82660e+03,-6.28101e-01,-1.19525e+01,0.00000e+00,0.00000e+00,0.00000e+00
1.82660e+03,-1.16138e-01,-9.96038e+00,0.00000e+00,0.00000e+00,0.00000e+00
1.82660e+03,3.93890e-01,-7.96830e+00,0.00000e+00,0.00000e+00,0.00000e+00
1.82660e+03,9.03919e-01,-5.97623e+00,0.00000e+00,0.00000e+00,0.00000e+00
1.82660e+03,1.40187e+00,-3.98415e+00,0.00000e+00,0.00000e+00,0.00000e+00
1.82660e+03,1.89757e+00,-1.99208e+00,0.00000e+00,0.00000e+00,0.00000e+00
1.87280e+03,2.31244e+01,0.00000e+00,0.00000e+00,0.00000e+00,0.00000e+00
1.87280e+03,2.30080e+01,-1.75721e+00,0.00000e+00,0.00000e+00,0.00000e+00
1.87280e+03,2.28531e+01,-3.51443e+00,0.00000e+00,0.00000e+00,0.00000e+00
1.87280e+03,2.26966e+01,-5.27164e+00,0.00000e+00,0.00000e+00,0.00000e+00
1.87280e+03,2.25061e+01,-7.02886e+00,0.00000e+00,0.00000e+00,0.00000e+00
1.87280e+03,2.23078e+01,-8.78607e+00,0.00000e+00,0.00000e+00,0.00000e+00
1.87280e+03,2.20834e+01,-1.05433e+01,0.00000e+00,0.00000e+00,0.00000e+00
1.87280e+03,2.18464e+01,-1.23005e+01,0.00000e+00,0.00000e+00,0.00000e+00
1.87280e+03,2.15884e+01,-1.40577e+01,0.00000e+00,0.00000e+00,0.00000e+00
1.87280e+03,2.13132e+01,-1.58149e+01,0.00000e+00,0.00000e+00,0.00000e+00
1.87280e+03,2.10191e+01,-1.75721e+01,0.00000e+00,0.00000e+00,0.00000e+00
1.87280e+03,2.07020e+01,-1.93294e+01,0.00000e+00,0.00000e+00,0.00000e+00
1.87280e+03,2.03615e+01,-2.10866e+01,0.00000e+00,0.00000e+00,0.00000e+00
1.87280e+03,1.99878e+01,-2.28438e+01,0.00000e+00,0.00000e+00,0.00000e+00
1.87280e+03,1.95817e+01,-2.46010e+01,0.00000e+00,0.00000e+00,0.00000e+00
1.87280e+03,1.91369e+01,-2.63582e+01,0.00000e+00,0.00000e+00,0.00000e+00
1.87280e+03,1.86398e+01,-2.81154e+01,0.00000e+00,0.00000e+00,0.00000e+00
1.87280e+03,1.81062e+01,-2.98726e+01,0.00000e+00,0.00000e+00,0.00000e+00
1.87280e+03,1.74905e+01,-3.16299e+01,0.00000e+00,0.00000e+00,0.00000e+00
1.87280e+03,1.68409e+01,-3.33871e+01,0.00000e+00,0.00000e+00,0.00000e+00
1.87280e+03,1.60966e+01,-3.51443e+01,0.00000e+00,0.00000e+00,0.00000e+00
1.87280e+03,1.52763e+01,-3.69015e+01,0.00000e+00,0.00000e+00,0.00000e+00
1.87280e+03,1.43788e+01,-3.86587e+01,0.00000e+00,0.00000e+00,0.00000e+00
1.87280e+03,1.33517e+01,-4.04159e+01,0.00000e+00,0.00000e+00,0.00000e+00
1.87280e+03,1.21743e+01,-4.21731e+01,0.00000e+00,0.00000e+00,0.00000e+00
1.87280e+03,1.08272e+01,-4.39304e+01,0.00000e+00,0.00000e+00,0.00000e+00
1.87280e+03,9.23393e+00,-4.56876e+01,0.00000e+00,0.00000e+00,0.00000e+00
1.87280e+03,7.18879e+00,-4.74448e+01,0.00000e+00,0.00000e+00,0.00000e+00
1.87280e+03,4.42280e+00,-4.92020e+01,0.00000e+00,0.00000e+00,0.00000e+00
1.87280e+03,-1.79208e+00,-5.09592e+01,0.00000e+00,0.00000e+00,0.00000e+00
1.87280e+03,-2.24062e+00,-5.09633e+01,0.00000e+00,0.00000e+00,0.00000e+00
1.87280e+03,-6.32705e+00,-4.91432e+01,0.00000e+00,0.00000e+00,0.00000e+00
1.87280e+03,-6.82182e+00,-4.73231e+01,0.00000e+00,0.00000e+00,0.00000e+00
1.87280e+03,-6.99255e+00,-4.55029e+01,0.00000e+00,0.00000e+00,0.00000e+00
1.87280e+03,-7.01846e+00,-4.36828e+01,0.00000e+00,0.00000e+00,0.00000e+00
1.87280e+03,-6.93525e+00,-4.18627e+01,0.00000e+00,0.00000e+00,0.00000e+00
1.87280e+03,-6.78358e+00,-4.00426e+01,0.00000e+00,0.00000e+00,0.00000e+00
1.87280e+03,-6.56315e+00,-3.82225e+01,0.00000e+00,0.00000e+00,0.00000e+00
1.87280e+03,-6.30078e+00,-3.64024e+01,0.00000e+00,0.00000e+00,0.00000e+00
1.87280e+03,-6.01408e+00,-3.45822e+01,0.00000e+00,0.00000e+00,0.00000e+00
1.87280e+03,-5.69074e+00,-3.27621e+01,0.00000e+00,0.00000e+00,0.00000e+00
1.87280e+03,-5.34450e+00,-3.09420e+01,0.00000e+00,0.00000e+00,0.00000e+00
1.87280e+03,-4.97595e+00,-2.91219e+01,0.00000e+00,0.00000e+00,0.00000e+00
1.87280e+03,-4.58518e+00,-2.73018e+01,0.00000e+00,0.00000e+00,0.00000e+00
1.87280e+03,-4.18049e+00,-2.54816e+01,0.00000e+00,0.00000e+00,0.00000e+00
1.87280e+03,-3.75794e+00,-2.36615e+01,0.00000e+00,0.00000e+00,0.00000e+00
1.87280e+03,-3.32398e+00,-2.18414e+01,0.00000e+00,0.00000e+00,0.00000e+00
1.87280e+03,-2.87976e+00,-2.00213e+01,0.00000e+00,0.00000e+00,0.00000e+00
1.87280e+03,-2.42640e+00,-1.82012e+01,0.00000e+00,0.00000e+00,0.00000e+00
1.87280e+03,-1.96917e+00,-1.63811e+01,0.00000e+00,0.00000e+00,0.00000e+00
1.87280e+03,-1.50594e+00,-1.45609e+01,0.00000e+00,0.00000e+00,0.00000e+00
1.87280e+03,-1.04170e+00,-1.27408e+01,0.00000e+00,0.00000e+00,0.00000e+00
1.87280e+03,-5.73883e-01,-1.09207e+01,0.00000e+00,0.00000e+00,0.00000e+00
1.87280e+03,-1.06113e-01,-9.10059e+00,0.00000e+00,0.00000e+00,0.00000e+00
1.87280e+03,3.59890e-01,-7.28047e+00,0.00000e+00,0.00000e+00,0.00000e+00
1.87280e+03,8.25892e-01,-5.46035e+00,0.00000e+00,0.00000e+00,0.00000e+00
1.87280e+03,1.28086e+00,-3.64024e+00,0.00000e+00,0.00000e+00,0.00000e+00
1.87280e+03,1.73377e+00,-1.82012e+00,0.00000e+00,0.00000e+00,0.00000e+00
1.91380e+03,2.11856e+01,0.00000e+00,0.00000e+00,0.00000e+00,0.00000e+00
1.91380e+03,2.10789e+01,-1.60989e+00,0.00000e+00,0.00000e+00,0.00000e+00
1.91380e+03,2.09370e+01,-3.21977e+00,0.00000e+00,0.00000e+00,0.00000e+00
1.91380e+03,2.07936e+01,-4.82966e+00,0.00000e+00,0.00000e+00,0.00000e+00
1.91380e+03,2.06192e+01,-6.43954e+00,0.00000e+00,0.00000e+00,0.00000e+00
1.91380e+03,2.04375e+01,-8.04943e+00,0.00000e+00,0.00000e+00,0.00000e+00
1.91380e+03,2.02319e+01,-9.65931e+00,0.00000e+00,0.00000e+00,0.00000e+00
1.91380e+03,2.00147e+01,-1.12692e+01,0.00000e+00,0.00000e+00,0.00000e+00
1.91380e+03,1.97784e+01,-1.28791e+01,0.00000e+00,0.00000e+00,0.00000e+00
1.91380e+03,1.95262e+01,-1.44890e+01,0.00000e+00,0.00000e+00,0.00000e+00
1.91380e+03,1.92568e+01,-1.60989e+01,0.00000e+00,0.00000e+00,0.00000e+00
1.91380e+03,1.89663e+01,-1.77087e+01,0.00000e+00,0.00000e+00,0.00000e+00
1.91380e+03,1.86544e+01,-1.93186e+01,0.00000e+00,0.00000e+00,0.00000e+00
1.91380e+03,1.83120e+01,-2.09285e+01,0.00000e+00,0.00000e+00,0.00000e+00
1.91380e+03,1.79399e+01,-2.25384e+01,0.00000e+00,0.00000e+00,0.00000e+00
1.91380e+03,1.75325e+01,-2.41483e+01,0.00000e+00,0.00000e+00,0.00000e+00
1.91380e+03,1.70770e+01,-2.57582e+01,0.00000e+00,0.00000e+00,0.00000e+00
1.91380e+03,1.65881e+01,-2.73680e+01,0.00000e+00,0.00000e+00,0.00000e+00
1.91380e+03,1.60241e+01,-2.89779e+01,0.00000e+00,0.00000e+00,0.00000e+00
1.91380e+03,1.54289e+01,-3.05878e+01,0.00000e+00,0.00000e+00,0.00000e+00
1.91380e+03,1.47470e+01,-3.21977e+01,0.00000e+00,0.00000e+00,0.00000e+00
1.91380e+03,1.39955e+01,-3.38076e+01,0.00000e+00,0.00000e+00,0.00000e+00
1.91380e+03,1.31733e+01,-3.54175e+01,0.00000e+00,0.00000e+00,0.00000e+00
1.91380e+03,1.22322e+01,-3.70274e+01,0.00000e+00,0.00000e+00,0.00000e+00
1.91380e+03,1.11536e+01,-3.86372e+01,0.00000e+00,0.00000e+00,0.00000e+00
1.91380e+03,9.91946e+00,-4.02471e+01,0.00000e+00,0.00000e+00,0.00000e+00
1.91380e+03,8.45973e+00,-4.18570e+01,0.00000e+00,0.00000e+00,0.00000e+00
1.91380e+03,6.58606e+00,-4.34669e+01,0.00000e+00,0.00000e+00,0.00000e+00
1.91380e+03,4.05198e+00,-4.50768e+01,0.00000e+00,0.00000e+00,0.00000e+00
1.91380e+03,-1.64183e+00,-4.66867e+01,0.00000e+00,0.00000e+00,0.00000e+00
1.91380e+03,-2.05276e+00,-4.66904e+01,0.00000e+00,0.00000e+00,0.00000e+00
1.91380e+03,-5.79657e+00,-4.50229e+01,0.00000e+00,0.00000e+00,0.00000e+00
1.91380e+03,-6.24986e+00,-4.33554e+01,0.00000e+00,0.00000e+00,0.00000e+00
1.91380e+03,-6.40628e+00,-4.16879e+01,0.00000e+00,0.00000e+00,0.00000e+00
1.91380e+03,-6.43001e+00,-4.00204e+01,0.00000e+00,0.00000e+00,0.00000e+00
1.91380e+03,-6.35378e+00,-3.83528e+01,0.00000e+00,0.00000e+00,0.00000e+00
1.91380e+03,-6.21483e+00,-3.66853e+01,0.00000e+00,0.00000e+00,0.00000e+00
1.91380e+03,-6.01288e+00,-3.50178e+01,0.00000e+00,0.00000e+00,0.00000e+00
1.91380e+03,-5.77251e+00,-3.33503e+01,0.00000e+00,0.00000e+00,0.00000e+00
1.91380e+03,-5.50985e+00,-3.16828e+01,0.00000e+00,0.00000e+00,0.00000e+00
1.91380e+03,-5.21362e+00,-3.00153e+01,0.00000e+00,0.00000e+00,0.00000e+00
1.91380e+03,-4.89640e+00,-2.83477e+01,0.00000e+00,0.00000e+00,0.00000e+00
1.91380e+03,-4.55876e+00,-2.66802e+01,0.00000e+00,0.00000e+00,0.00000e+00
1.91380e+03,-4.20075e+00,-2.50127e+01,0.00000e+00,0.00000e+00,0.00000e+00
1.91380e+03,-3.82998e+00,-2.33452e+01,0.00000e+00,0.00000e+00,0.00000e+00
1.91380e+03,-3.44287e+00,-2.16777e+01,0.00000e+00,0.00000e+00,0.00000e+00
1.91380e+03,-3.04529e+00,-2.00102e+01,0.00000e+00,0.00000e+00,0.00000e+00
1.91380e+03,-2.63832e+00,-1.83427e+01,0.00000e+00,0.00000e+00,0.00000e+00
1.91380e+03,-2.22297e+00,-1.66751e+01,0.00000e+00,0.00000e+00,0.00000e+00
1.91380e+03,-1.80407e+00,-1.50076e+01,0.00000e+00,0.00000e+00,0.00000e+00
1.91380e+03,-1.37967e+00,-1.33401e+01,0.00000e+00,0.00000e+00,0.00000e+00
1.91380e+03,-9.54362e-01,-1.16726e+01,0.00000e+00,0.00000e+00,0.00000e+00
1.91380e+03,-5.25768e-01,-1.00051e+01,0.00000e+00,0.00000e+00,0.00000e+00
1.91380e+03,-9.72161e-02,-8.33757e+00,0.00000e+00,0.00000e+00,0.00000e+00
1.91380e+03,3.29716e-01,-6.67006e+00,0.00000e+00,0.00000e+00,0.00000e+00
1.91380e+03,7.56647e-01,-5.00254e+00,0.00000e+00,0.00000e+00,0.00000e+00
1.91380e+03,1.17347e+00,-3.33503e+00,0.00000e+00,0.00000e+00,0.00000e+00
1.91380e+03,1.58841e+00,-1.66751e+00,0.00000e+00,0.00000e+00,0.00000e+00
1.94970e+03,1.94880e+01,0.00000e+00,0.00000e+00,0.00000e+00,0.00000e+00
1.94970e+03,1.93899e+01,-1.48088e+00,0.00000e+00,0.00000e+00,0.00000e+00
1.94970e+03,1.92593e+01,-2.96177e+00,0.00000e+00,0.00000e+00,0.00000e+00
1.94970e+03,1.91274e+01,-4.44265e+00,0.00000e+00,0.00000e+00,0.00000e+00
1.94970e+03,1.89669e+01,-5.92353e+00,0.00000e+00,0.00000e+00,0.00000e+00
1.94970e+03,1.87998e+01,-7.40441e+00,0.00000e+00,0.00000e+00,0.00000e+00
1.94970e+03,1.86107e+01,-8.88530e+00,0.00000e+00,0.00000e+00,0.00000e+00
1.94970e+03,1.84109e+01,-1.03662e+01,0.00000e+00,0.00000e+00,0.00000e+00
1.94970e+03,1.81935e+01,-1.18471e+01,0.00000e+00,0.00000e+00,0.00000e+00
1.94970e+03,1.79616e+01,-1.33279e+01,0.00000e+00,0.00000e+00,0.00000e+00
1.94970e+03,1.77137e+01,-1.48088e+01,0.00000e+00,0.00000e+00,0.00000e+00
1.94970e+03,1.74465e+01,-1.62897e+01,0.00000e+00,0.00000e+00,0.00000e+00
1.94970e+03,1.71596e+01,-1.77706e+01,0.00000e+00,0.00000e+00,0.00000e+00
1.94970e+03,1.68446e+01,-1.92515e+01,0.00000e+00,0.00000e+00,0.00000e+00
1.94970e+03,1.65024e+01,-2.07324e+01,0.00000e+00,0.00000e+00,0.00000e+00
1.94970e+03,1.61276e+01,-2.22132e+01,0.00000e+00,0.00000e+00,0.00000e+00
1.94970e+03,1.57086e+01,-2.36941e+01,0.00000e+00,0.00000e+00,0.00000e+00
1.94970e+03,1.52589e+01,-2.51750e+01,0.00000e+00,0.00000e+00,0.00000e+00
1.94970e+03,1.47401e+01,-2.66559e+01,0.00000e+00,0.00000e+00,0.00000e+00
1.94970e+03,1.41926e+01,-2.81368e+01,0.00000e+00,0.00000e+00,0.00000e+00
1.94970e+03,1.35653e+01,-2.96177e+01,0.00000e+00,0.00000e+00,0.00000e+00
1.94970e+03,1.28740e+01,-3.10985e+01,0.00000e+00,0.00000e+00,0.00000e+00
1.94970e+03,1.21177e+01,-3.25794e+01,0.00000e+00,0.00000e+00,0.00000e+00
1.94970e+03,1.12521e+01,-3.40603e+01,0.00000e+00,0.00000e+00,0.00000e+00
1.94970e+03,1.02599e+01,-3.55412e+01,0.00000e+00,0.00000e+00,0.00000e+00
1.94970e+03,9.12460e+00,-3.70221e+01,0.00000e+00,0.00000e+00,0.00000e+00
1.94970e+03,7.78184e+00,-3.85029e+01,0.00000e+00,0.00000e+00,0.00000e+00
1.94970e+03,6.05831e+00,-3.99838e+01,0.00000e+00,0.00000e+00,0.00000e+00
1.94970e+03,3.72729e+00,-4.14647e+01,0.00000e+00,0.00000e+00,0.00000e+00
1.94970e+03,-1.51027e+00,-4.29456e+01,0.00000e+00,0.00000e+00,0.00000e+00
1.94970e+03,-1.88827e+00,-4.29490e+01,0.00000e+00,0.00000e+00,0.00000e+00
1.94970e+03,-5.33209e+00,-4.14151e+01,0.00000e+00,0.00000e+00,0.00000e+00
1.94970e+03,-5.74905e+00,-3.98812e+01,0.00000e+00,0.00000e+00,0.00000e+00
1.94970e+03,-5.89293e+00,-3.83473e+01,0.00000e+00,0.00000e+00,0.00000e+00
1.94970e+03,-5.91477e+00,-3.68135e+01,0.00000e+00,0.00000e+00,0.00000e+00
1.94970e+03,-5.84465e+00,-3.52796e+01,0.00000e+00,0.00000e+00,0.00000e+00
1.94970e+03,-5.71682e+00,-3.37457e+01,0.00000e+00,0.00000e+00,0.00000e+00
1.94970e+03,-5.53106e+00,-3.22118e+01,0.00000e+00,0.00000e+00,0.00000e+00
1.94970e+03,-5.30995e+00,-3.06779e+01,0.00000e+00,0.00000e+00,0.00000e+00
1.94970e+03,-5.06834e+00,-2.91440e+01,0.00000e+00,0.00000e+00,0.00000e+00
1.94970e+03,-4.79584e+00,-2.76101e+01,0.00000e+00,0.00000e+00,0.00000e+00
1.94970e+03,-4.50405e+00,-2.60762e+01,0.00000e+00,0.00000e+00,0.00000e+00
1.94970e+03,-4.19345e+00,-2.45423e+01,0.00000e+00,0.00000e+00,0.00000e+00
1.94970e+03,-3.86414e+00,-2.30084e+01,0.00000e+00,0.00000e+00,0.00000e+00
1.94970e+03,-3.52308e+00,-2.14745e+01,0.00000e+00,0.00000e+00,0.00000e+00
1.94970e+03,-3.16699e+00,-1.99406e+01,0.00000e+00,0.00000e+00,0.00000e+00
1.94970e+03,-2.80126e+00,-1.84067e+01,0.00000e+00,0.00000e+00,0.00000e+00
1.94970e+03,-2.42690e+00,-1.68728e+01,0.00000e+00,0.00000e+00,0.00000e+00
1.94970e+03,-2.04484e+00,-1.53389e+01,0.00000e+00,0.00000e+00,0.00000e+00
1.94970e+03,-1.65951e+00,-1.38050e+01,0.00000e+00,0.00000e+00,0.00000e+00
1.94970e+03,-1.26912e+00,-1.22712e+01,0.00000e+00,0.00000e+00,0.00000e+00
1.94970e+03,-8.77888e-01,-1.07373e+01,0.00000e+00,0.00000e+00,0.00000e+00
1.94970e+03,-4.83637e-01,-9.20336e+00,0.00000e+00,0.00000e+00,0.00000e+00
1.94970e+03,-8.94260e-02,-7.66947e+00,0.00000e+00,0.00000e+00,0.00000e+00
1.94970e+03,3.03295e-01,-6.13558e+00,0.00000e+00,0.00000e+00,0.00000e+00
1.94970e+03,6.96016e-01,-4.60168e+00,0.00000e+00,0.00000e+00,0.00000e+00
1.94970e+03,1.07944e+00,-3.06779e+00,0.00000e+00,0.00000e+00,0.00000e+00
1.94970e+03,1.46113e+00,-1.53389e+00,0.00000e+00,0.00000e+00,0.00000e+00
1.98010e+03,1.80504e+01,0.00000e+00,0.00000e+00,0.00000e+00,0.00000e+00
1.98010e+03,1.79595e+01,-1.37164e+00,0.00000e+00,0.00000e+00,0.00000e+00
1.98010e+03,1.78386e+01,-2.74329e+00,0.00000e+00,0.00000e+00,0.00000e+00
1.98010e+03,1.77165e+01,-4.11493e+00,0.00000e+00,0.00000e+00,0.00000e+00
1.98010e+03,1.75678e+01,-5.48657e+00,0.00000e+00,0.00000e+00,0.00000e+00
1.98010e+03,1.74130e+01,-6.85822e+00,0.00000e+00,0.00000e+00,0.00000e+00
1.98010e+03,1.72378e+01,-8.22986e+00,0.00000e+00,0.00000e+00,0.00000e+00
1.98010e+03,1.70528e+01,-9.60150e+00,0.00000e+00,0.00000e+00,0.00000e+00
1.98010e+03,1.68514e+01,-1.09731e+01,0.00000e+00,0.00000e+00,0.00000e+00
1.98010e+03,1.66366e+01,-1.23448e+01,0.00000e+00,0.00000e+00,0.00000e+00
1.98010e+03,1.64070e+01,-1.37164e+01,0.00000e+00,0.00000e+00,0.00000e+00
1.98010e+03,1.61595e+01,-1.50881e+01,0.00000e+00,0.00000e+00,0.00000e+00
1.98010e+03,1.58938e+01,-1.64597e+01,0.00000e+00,0.00000e+00,0.00000e+00
1.98010e+03,1.56020e+01,-1.78314e+01,0.00000e+00,0.00000e+00,0.00000e+00
1.98010e+03,1.52851e+01,-1.92030e+01,0.00000e+00,0.00000e+00,0.00000e+00
1.98010e+03,1.49379e+01,-2.05747e+01,0.00000e+00,0.00000e+00,0.00000e+00
1.98010e+03,1.45498e+01,-2.19463e+01,0.00000e+00,0.00000e+00,0.00000e+00
1.98010e+03,1.41333e+01,-2.33179e+01,0.00000e+00,0.00000e+00,0.00000e+00
1.98010e+03,1.36527e+01,-2.46896e+01,0.00000e+00,0.00000e+00,0.00000e+00
1.98010e+03,1.31457e+01,-2.60612e+01,0.00000e+00,0.00000e+00,0.00000e+00
1.98010e+03,1.25646e+01,-2.74329e+01,0.00000e+00,0.00000e+00,0.00000e+00
1.98010e+03,1.19244e+01,-2.88045e+01,0.00000e+00,0.00000e+00,0.00000e+00
1.98010e+03,1.12238e+01,-3.01762e+01,0.00000e+00,0.00000e+00,0.00000e+00
1.98010e+03,1.04220e+01,-3.15478e+01,0.00000e+00,0.00000e+00,0.00000e+00
1.98010e+03,9.50303e+00,-3.29194e+01,0.00000e+00,0.00000e+00,0.00000e+00
1.98010e+03,8.45151e+00,-3.42911e+01,0.00000e+00,0.00000e+00,0.00000e+00
1.98010e+03,7.20780e+00,-3.56627e+01,0.00000e+00,0.00000e+00,0.00000e+00
1.98010e+03,5.61141e+00,-3.70344e+01,0.00000e+00,0.00000e+00,0.00000e+00
1.98010e+03,3.45234e+00,-3.84060e+01,0.00000e+00,0.00000e+00,0.00000e+00
1.98010e+03,-1.39886e+00,-3.97777e+01,0.00000e+00,0.00000e+00,0.00000e+00
1.98010e+03,-1.74898e+00,-3.97808e+01,0.00000e+00,0.00000e+00,0.00000e+00
1.98010e+03,-4.93876e+00,-3.83601e+01,0.00000e+00,0.00000e+00,0.00000e+00
1.98010e+03,-5.32496e+00,-3.69394e+01,0.00000e+00,0.00000e+00,0.00000e+00
1.98010e+03,-5.45823e+00,-3.55186e+01,0.00000e+00,0.00000e+00,0.00000e+00
1.98010e+03,-5.47846e+00,-3.40979e+01,0.00000e+00,0.00000e+00,0.00000e+00
1.98010e+03,-5.41351e+00,-3.26771e+01,0.00000e+00,0.00000e+00,0.00000e+00
1.98010e+03,-5.29511e+00,-3.12564e+01,0.00000e+00,0.00000e+00,0.00000e+00
1.98010e+03,-5.12305e+00,-2.98356e+01,0.00000e+00,0.00000e+00,0.00000e+00
1.98010e+03,-4.91825e+00,-2.84149e+01,0.00000e+00,0.00000e+00,0.00000e+00
1.98010e+03,-4.69446e+00,-2.69941e+01,0.00000e+00,0.00000e+00,0.00000e+00
1.98010e+03,-4.44207e+00,-2.55734e+01,0.00000e+00,0.00000e+00,0.00000e+00
1.98010e+03,-4.17180e+00,-2.41527e+01,0.00000e+00,0.00000e+00,0.00000e+00
1.98010e+03,-3.88412e+00,-2.27319e+01,0.00000e+00,0.00000e+00,0.00000e+00
1.98010e+03,-3.57909e+00,-2.13112e+01,0.00000e+00,0.00000e+00,0.00000e+00
1.98010e+03,-3.26320e+00,-1.98904e+01,0.00000e+00,0.00000e+00,0.00000e+00
1.98010e+03,-2.93337e+00,-1.84697e+01,0.00000e+00,0.00000e+00,0.00000e+00
1.98010e+03,-2.59462e+00,-1.70489e+01,0.00000e+00,0.00000e+00,0.00000e+00
1.98010e+03,-2.24788e+00,-1.56282e+01,0.00000e+00,0.00000e+00,0.00000e+00
1.98010e+03,-1.89400e+00,-1.42074e+01,0.00000e+00,0.00000e+00,0.00000e+00
1.98010e+03,-1.53709e+00,-1.27867e+01,0.00000e+00,0.00000e+00,0.00000e+00
1.98010e+03,-1.17550e+00,-1.13660e+01,0.00000e+00,0.00000e+00,0.00000e+00
1.98010e+03,-8.13129e-01,-9.94521e+00,0.00000e+00,0.00000e+00,0.00000e+00
1.98010e+03,-4.47961e-01,-8.52447e+00,0.00000e+00,0.00000e+00,0.00000e+00
1.98010e+03,-8.28294e-02,-7.10372e+00,0.00000e+00,0.00000e+00,0.00000e+00
1.98010e+03,2.80922e-01,-5.68298e+00,0.00000e+00,0.00000e+00,0.00000e+00
1.98010e+03,6.44673e-01,-4.26223e+00,0.00000e+00,0.00000e+00,0.00000e+00
1.98010e+03,9.99811e-01,-2.84149e+00,0.00000e+00,0.00000e+00,0.00000e+00
1.98010e+03,1.35334e+00,-1.42074e+00,0.00000e+00,0.00000e+00,0.00000e+00
2.00520e+03,1.68635e+01,0.00000e+00,0.00000e+00,0.00000e+00,0.00000e+00
2.00520e+03,1.67786e+01,-1.28145e+00,0.00000e+00,0.00000e+00,0.00000e+00
2.00520e+03,1.66656e+01,-2.56290e+00,0.00000e+00,0.00000e+00,0.00000e+00
2.00520e+03,1.65515e+01,-3.84435e+00,0.00000e+00,0.00000e+00,0.00000e+00
2.00520e+03,1.64126e+01,-5.12580e+00,0.00000e+00,0.00000e+00,0.00000e+00
2.00520e+03,1.62680e+01,-6.40725e+00,0.00000e+00,0.00000e+00,0.00000e+00
2.00520e+03,1.61044e+01,-7.68870e+00,0.00000e+00,0.00000e+00,0.00000e+00
2.00520e+03,1.59315e+01,-8.97015e+00,0.00000e+00,0.00000e+00,0.00000e+00
2.00520e+03,1.57433e+01,-1.02516e+01,0.00000e+00,0.00000e+00,0.00000e+00
2.00520e+03,1.55427e+01,-1.15330e+01,0.00000e+00,0.00000e+00,0.00000e+00
2.00520e+03,1.53282e+01,-1.28145e+01,0.00000e+00,0.00000e+00,0.00000e+00
2.00520e+03,1.50970e+01,-1.40959e+01,0.00000e+00,0.00000e+00,0.00000e+00
2.00520e+03,1.48486e+01,-1.53774e+01,0.00000e+00,0.00000e+00,0.00000e+00
2.00520e+03,1.45761e+01,-1.66588e+01,0.00000e+00,0.00000e+00,0.00000e+00
2.00520e+03,1.42800e+01,-1.79403e+01,0.00000e+00,0.00000e+00,0.00000e+00
2.00520e+03,1.39556e+01,-1.92217e+01,0.00000e+00,0.00000e+00,0.00000e+00
2.00520e+03,1.35931e+01,-2.05032e+01,0.00000e+00,0.00000e+00,0.00000e+00
2.00520e+03,1.32039e+01,-2.17846e+01,0.00000e+00,0.00000e+00,0.00000e+00
2.00520e+03,1.27550e+01,-2.30661e+01,0.00000e+00,0.00000e+00,0.00000e+00
2.00520e+03,1.22812e+01,-2.43475e+01,0.00000e+00,0.00000e+00,0.00000e+00
2.00520e+03,1.17384e+01,-2.56290e+01,0.00000e+00,0.00000e+00,0.00000e+00
2.00520e+03,1.11403e+01,-2.69104e+01,0.00000e+00,0.00000e+00,0.00000e+00
2.00520e+03,1.04858e+01,-2.81919e+01,0.00000e+00,0.00000e+00,0.00000e+00
2.00520e+03,9.73672e+00,-2.94733e+01,0.00000e+00,0.00000e+00,0.00000e+00
2.00520e+03,8.87814e+00,-3.07548e+01,0.00000e+00,0.00000e+00,0.00000e+00
2.00520e+03,7.89577e+00,-3.20362e+01,0.00000e+00,0.00000e+00,0.00000e+00
2.00520e+03,6.73385e+00,-3.33177e+01,0.00000e+00,0.00000e+00,0.00000e+00
2.00520e+03,5.24243e+00,-3.45991e+01,0.00000e+00,0.00000e+00,0.00000e+00
2.00520e+03,3.22533e+00,-3.58806e+01,0.00000e+00,0.00000e+00,0.00000e+00
2.00520e+03,-1.30688e+00,-3.71620e+01,0.00000e+00,0.00000e+00,0.00000e+00
2.00520e+03,-1.63397e+00,-3.71650e+01,0.00000e+00,0.00000e+00,0.00000e+00
2.00520e+03,-4.61400e+00,-3.58377e+01,0.00000e+00,0.00000e+00,0.00000e+00
2.00520e+03,-4.97481e+00,-3.45104e+01,0.00000e+00,0.00000e+00,0.00000e+00
2.00520e+03,-5.09932e+00,-3.31830e+01,0.00000e+00,0.00000e+00,0.00000e+00
2.00520e+03,-5.11821e+00,-3.18557e+01,0.00000e+00,0.00000e+00,0.00000e+00
2.00520e+03,-5.05754e+00,-3.05284e+01,0.00000e+00,0.00000e+00,0.00000e+00
2.00520e+03,-4.94693e+00,-2.92011e+01,0.00000e+00,0.00000e+00,0.00000e+00
2.00520e+03,-4.78618e+00,-2.78738e+01,0.00000e+00,0.00000e+00,0.00000e+00
2.00520e+03,-4.59485e+00,-2.65464e+01,0.00000e+00,0.00000e+00,0.00000e+00
2.00520e+03,-4.38577e+00,-2.52191e+01,0.00000e+00,0.00000e+00,0.00000e+00
2.00520e+03,-4.14998e+00,-2.38918e+01,0.00000e+00,0.00000e+00,0.00000e+00
2.00520e+03,-3.89748e+00,-2.25645e+01,0.00000e+00,0.00000e+00,0.00000e+00
2.00520e+03,-3.62871e+00,-2.12371e+01,0.00000e+00,0.00000e+00,0.00000e+00
2.00520e+03,-3.34375e+00,-1.99098e+01,0.00000e+00,0.00000e+00,0.00000e+00
2.00520e+03,-3.04862e+00,-1.85825e+01,0.00000e+00,0.00000e+00,0.00000e+00
2.00520e+03,-2.74048e+00,-1.72552e+01,0.00000e+00,0.00000e+00,0.00000e+00
2.00520e+03,-2.42401e+00,-1.59279e+01,0.00000e+00,0.00000e+00,0.00000e+00
2.00520e+03,-2.10007e+00,-1.46005e+01,0.00000e+00,0.00000e+00,0.00000e+00
2.00520e+03,-1.76946e+00,-1.32732e+01,0.00000e+00,0.00000e+00,0.00000e+00
2.00520e+03,-1.43602e+00,-1.19459e+01,0.00000e+00,0.00000e+00,0.00000e+00
2.00520e+03,-1.09820e+00,-1.06186e+01,0.00000e+00,0.00000e+00,0.00000e+00
2.00520e+03,-7.59661e-01,-9.29125e+00,0.00000e+00,0.00000e+00,0.00000e+00
2.00520e+03,-4.18505e-01,-7.96393e+00,0.00000e+00,0.00000e+00,0.00000e+00
2.00520e+03,-7.73829e-02,-6.63661e+00,0.00000e+00,0.00000e+00,0.00000e+00
2.00520e+03,2.62450e-01,-5.30929e+00,0.00000e+00,0.00000e+00,0.00000e+00
2.00520e+03,6.02282e-01,-3.98196e+00,0.00000e+00,0.00000e+00,0.00000e+00
2.00520e+03,9.34067e-01,-2.65464e+00,0.00000e+00,0.00000e+00,0.00000e+00
2.00520e+03,1.26435e+00,-1.32732e+00,0.00000e+00,0.00000e+00,0.00000e+00
2.02480e+03,1.59367e+01,0.00000e+00,0.00000e+00,0.00000e+00,0.00000e+00
2.02480e+03,1.58564e+01,-1.21102e+00,0.00000e+00,0.00000e+00,0.00000e+00
2.02480e+03,1.57496e+01,-2.42204e+00,0.00000e+00,0.00000e+00,0.00000e+00
2.02480e+03,1.56418e+01,-3.63306e+00,0.00000e+00,0.00000e+00,0.00000e+00
2.02480e+03,1.55106e+01,-4.84408e+00,0.00000e+00,0.00000e+00,0.00000e+00
2.02480e+03,1.53739e+01,-6.05509e+00,0.00000e+00,0.00000e+00,0.00000e+00
2.02480e+03,1.52192e+01,-7.26611e+00,0.00000e+00,0.00000e+00,0.00000e+00
2.02480e+03,1.50559e+01,-8.47713e+00,0.00000e+00,0.00000e+00,0.00000e+00
2.02480e+03,1.48781e+01,-9.68815e+00,0.00000e+00,0.00000e+00,0.00000e+00
2.02480e+03,1.46884e+01,-1.08992e+01,0.00000e+00,0.00000e+00,0.00000e+00
2.02480e+03,1.44857e+01,-1.21102e+01,0.00000e+00,0.00000e+00,0.00000e+00
2.02480e+03,1.42672e+01,-1.33212e+01,0.00000e+00,0.00000e+00,0.00000e+00
2.02480e+03,1.40325e+01,-1.45322e+01,0.00000e+00,0.00000e+00,0.00000e+00
2.02480e+03,1.37750e+01,-1.57432e+01,0.00000e+00,0.00000e+00,0.00000e+00
2.02480e+03,1.34951e+01,-1.69543e+01,0.00000e+00,0.00000e+00,0.00000e+00
2.02480e+03,1.31886e+01,-1.81653e+01,0.00000e+00,0.00000e+00,0.00000e+00
2.02480e+03,1.28460e+01,-1.93763e+01,0.00000e+00,0.00000e+00,0.00000e+00
2.02480e+03,1.24782e+01,-2.05873e+01,0.00000e+00,0.00000e+00,0.00000e+00
2.02480e+03,1.20540e+01,-2.17983e+01,0.00000e+00,0.00000e+00,0.00000e+00
2.02480e+03,1.16063e+01,-2.30094e+01,0.00000e+00,0.00000e+00,0.00000e+00
2.02480e+03,1.10933e+01,-2.42204e+01,0.00000e+00,0.00000e+00,0.00000e+00
2.02480e+03,1.05280e+01,-2.54314e+01,0.00000e+00,0.00000e+00,0.00000e+00
2.02480e+03,9.90946e+00,-2.66424e+01,0.00000e+00,0.00000e+00,0.00000e+00
2.02480e+03,9.20158e+00,-2.78534e+01,0.00000e+00,0.00000e+00,0.00000e+00
2.02480e+03,8.39019e+00,-2.90645e+01,0.00000e+00,0.00000e+00,0.00000e+00
2.02480e+03,7.46181e+00,-3.02755e+01,0.00000e+00,0.00000e+00,0.00000e+00
2.02480e+03,6.36374e+00,-3.14865e+01,0.00000e+00,0.00000e+00,0.00000e+00
2.02480e+03,4.95429e+00,-3.26975e+01,0.00000e+00,0.00000e+00,0.00000e+00
2.02480e+03,3.04806e+00,-3.39085e+01,0.00000e+00,0.00000e+00,0.00000e+00
2.02480e+03,-1.23505e+00,-3.51195e+01,0.00000e+00,0.00000e+00,0.00000e+00
2.02480e+03,-1.54416e+00,-3.51224e+01,0.00000e+00,0.00000e+00,0.00000e+00
2.02480e+03,-4.36041e+00,-3.38680e+01,0.00000e+00,0.00000e+00,0.00000e+00
2.02480e+03,-4.70139e+00,-3.26136e+01,0.00000e+00,0.00000e+00,0.00000e+00
2.02480e+03,-4.81905e+00,-3.13592e+01,0.00000e+00,0.00000e+00,0.00000e+00
2.02480e+03,-4.83691e+00,-3.01049e+01,0.00000e+00,0.00000e+00,0.00000e+00
2.02480e+03,-4.77957e+00,-2.88505e+01,0.00000e+00,0.00000e+00,0.00000e+00
2.02480e+03,-4.67504e+00,-2.75961e+01,0.00000e+00,0.00000e+00,0.00000e+00
2.02480e+03,-4.52312e+00,-2.63418e+01,0.00000e+00,0.00000e+00,0.00000e+00
2.02480e+03,-4.34231e+00,-2.50874e+01,0.00000e+00,0.00000e+00,0.00000e+00
2.02480e+03,-4.14473e+00,-2.38330e+01,0.00000e+00,0.00000e+00,0.00000e+00
2.02480e+03,-3.92189e+00,-2.25787e+01,0.00000e+00,0.00000e+00,0.00000e+00
2.02480e+03,-3.68327e+00,-2.13243e+01,0.00000e+00,0.00000e+00,0.00000e+00
2.02480e+03,-3.42927e+00,-2.00699e+01,0.00000e+00,0.00000e+00,0.00000e+00
2.02480e+03,-3.15997e+00,-1.88155e+01,0.00000e+00,0.00000e+00,0.00000e+00
2.02480e+03,-2.88106e+00,-1.75612e+01,0.00000e+00,0.00000e+00,0.00000e+00
2.02480e+03,-2.58986e+00,-1.63068e+01,0.00000e+00,0.00000e+00,0.00000e+00
2.02480e+03,-2.29078e+00,-1.50524e+01,0.00000e+00,0.00000e+00,0.00000e+00
2.02480e+03,-1.98465e+00,-1.37981e+01,0.00000e+00,0.00000e+00,0.00000e+00
2.02480e+03,-1.67220e+00,-1.25437e+01,0.00000e+00,0.00000e+00,0.00000e+00
2.02480e+03,-1.35709e+00,-1.12893e+01,0.00000e+00,0.00000e+00,0.00000e+00
2.02480e+03,-1.03784e+00,-1.00350e+01,0.00000e+00,0.00000e+00,0.00000e+00
2.02480e+03,-7.17909e-01,-8.78059e+00,0.00000e+00,0.00000e+00,0.00000e+00
2.02480e+03,-3.95503e-01,-7.52622e+00,0.00000e+00,0.00000e+00,0.00000e+00
2.02480e+03,-7.31298e-02,-6.27185e+00,0.00000e+00,0.00000e+00,0.00000e+00
2.02480e+03,2.48025e-01,-5.01748e+00,0.00000e+00,0.00000e+00,0.00000e+00
2.02480e+03,5.69180e-01,-3.76311e+00,0.00000e+00,0.00000e+00,0.00000e+00
2.02480e+03,8.82730e-01,-2.50874e+00,0.00000e+00,0.00000e+00,0.00000e+00
2.02480e+03,1.19486e+00,-1.25437e+00,0.00000e+00,0.00000e+00,0.00000e+00
2.03880e+03,1.52746e+01,0.00000e+00,0.00000e+00,0.00000e+00,0.00000e+00
2.03880e+03,1.51977e+01,-1.16071e+00,0.00000e+00,0.00000e+00,0.00000e+00
2.03880e+03,1.50954e+01,-2.32142e+00,0.00000e+00,0.00000e+00,0.00000e+00
2.03880e+03,1.49920e+01,-3.48213e+00,0.00000e+00,0.00000e+00,0.00000e+00
2.03880e+03,1.48662e+01,-4.64285e+00,0.00000e+00,0.00000e+00,0.00000e+00
2.03880e+03,1.47352e+01,-5.80356e+00,0.00000e+00,0.00000e+00,0.00000e+00
2.03880e+03,1.45870e+01,-6.96427e+00,0.00000e+00,0.00000e+00,0.00000e+00
2.03880e+03,1.44304e+01,-8.12498e+00,0.00000e+00,0.00000e+00,0.00000e+00
2.03880e+03,1.42600e+01,-9.28569e+00,0.00000e+00,0.00000e+00,0.00000e+00
2.03880e+03,1.40782e+01,-1.04464e+01,0.00000e+00,0.00000e+00,0.00000e+00
2.03880e+03,1.38839e+01,-1.16071e+01,0.00000e+00,0.00000e+00,0.00000e+00
2.03880e+03,1.36745e+01,-1.27678e+01,0.00000e+00,0.00000e+00,0.00000e+00
2.03880e+03,1.34496e+01,-1.39285e+01,0.00000e+00,0.00000e+00,0.00000e+00
2.03880e+03,1.32028e+01,-1.50892e+01,0.00000e+00,0.00000e+00,0.00000e+00
2.03880e+03,1.29345e+01,-1.62500e+01,0.00000e+00,0.00000e+00,0.00000e+00
2.03880e+03,1.26407e+01,-1.74107e+01,0.00000e+00,0.00000e+00,0.00000e+00
2.03880e+03,1.23123e+01,-1.85714e+01,0.00000e+00,0.00000e+00,0.00000e+00
2.03880e+03,1.19599e+01,-1.97321e+01,0.00000e+00,0.00000e+00,0.00000e+00
2.03880e+03,1.15532e+01,-2.08928e+01,0.00000e+00,0.00000e+00,0.00000e+00
2.03880e+03,1.11241e+01,-2.20535e+01,0.00000e+00,0.00000e+00,0.00000e+00
2.03880e+03,1.06324e+01,-2.32142e+01,0.00000e+00,0.00000e+00,0.00000e+00
2.03880e+03,1.00906e+01,-2.43749e+01,0.00000e+00,0.00000e+00,0.00000e+00
2.03880e+03,9.49781e+00,-2.55357e+01,0.00000e+00,0.00000e+00,0.00000e+00
2.03880e+03,8.81933e+00,-2.66964e+01,0.00000e+00,0.00000e+00,0.00000e+00
2.03880e+03,8.04165e+00,-2.78571e+01,0.00000e+00,0.00000e+00,0.00000e+00
2.03880e+03,7.15183e+00,-2.90178e+01,0.00000e+00,0.00000e+00,0.00000e+00
2.03880e+03,6.09938e+00,-3.01785e+01,0.00000e+00,0.00000e+00,0.00000e+00
2.03880e+03,4.74849e+00,-3.13392e+01,0.00000e+00,0.00000e+00,0.00000e+00
2.03880e+03,2.92144e+00,-3.24999e+01,0.00000e+00,0.00000e+00,0.00000e+00
2.03880e+03,-1.18374e+00,-3.36606e+01,0.00000e+00,0.00000e+00,0.00000e+00
2.03880e+03,-1.48002e+00,-3.36633e+01,0.00000e+00,0.00000e+00,0.00000e+00
2.03880e+03,-4.17927e+00,-3.24611e+01,0.00000e+00,0.00000e+00,0.00000e+00
2.03880e+03,-4.50609e+00,-3.12588e+01,0.00000e+00,0.00000e+00,0.00000e+00
2.03880e+03,-4.61886e+00,-3.00565e+01,0.00000e+00,0.00000e+00,0.00000e+00
2.03880e+03,-4.63598e+00,-2.88543e+01,0.00000e+00,0.00000e+00,0.00000e+00
2.03880e+03,-4.58102e+00,-2.76520e+01,0.00000e+00,0.00000e+00,0.00000e+00
2.03880e+03,-4.48083e+00,-2.64498e+01,0.00000e+00,0.00000e+00,0.00000e+00
2.03880e+03,-4.33523e+00,-2.52475e+01,0.00000e+00,0.00000e+00,0.00000e+00
2.03880e+03,-4.16192e+00,-2.40452e+01,0.00000e+00,0.00000e+00,0.00000e+00
2.03880e+03,-3.97255e+00,-2.28430e+01,0.00000e+00,0.00000e+00,0.00000e+00
2.03880e+03,-3.75897e+00,-2.16407e+01,0.00000e+00,0.00000e+00,0.00000e+00
2.03880e+03,-3.53026e+00,-2.04384e+01,0.00000e+00,0.00000e+00,0.00000e+00
2.03880e+03,-3.28682e+00,-1.92362e+01,0.00000e+00,0.00000e+00,0.00000e+00
2.03880e+03,-3.02870e+00,-1.80339e+01,0.00000e+00,0.00000e+00,0.00000e+00
2.03880e+03,-2.76138e+00,-1.68317e+01,0.00000e+00,0.00000e+00,0.00000e+00
2.03880e+03,-2.48228e+00,-1.56294e+01,0.00000e+00,0.00000e+00,0.00000e+00
2.03880e+03,-2.19562e+00,-1.44271e+01,0.00000e+00,0.00000e+00,0.00000e+00
2.03880e+03,-1.90220e+00,-1.32249e+01,0.00000e+00,0.00000e+00,0.00000e+00
2.03880e+03,-1.60274e+00,-1.20226e+01,0.00000e+00,0.00000e+00,0.00000e+00
2.03880e+03,-1.30072e+00,-1.08204e+01,0.00000e+00,0.00000e+00,0.00000e+00
2.03880e+03,-9.94731e-01,-9.61809e+00,0.00000e+00,0.00000e+00,0.00000e+00
2.03880e+03,-6.88086e-01,-8.41583e+00,0.00000e+00,0.00000e+00,0.00000e+00
2.03880e+03,-3.79073e-01,-7.21357e+00,0.00000e+00,0.00000e+00,0.00000e+00
2.03880e+03,-7.00919e-02,-6.01131e+00,0.00000e+00,0.00000e+00,0.00000e+00
2.03880e+03,2.37722e-01,-4.80905e+00,0.00000e+00,0.00000e+00,0.00000e+00
2.03880e+03,5.45535e-01,-3.60678e+00,0.00000e+00,0.00000e+00,0.00000e+00
2.03880e+03,8.46060e-01,-2.40452e+00,0.00000e+00,0.00000e+00,0.00000e+00
2.03880e+03,1.14523e+00,-1.20226e+00,0.00000e+00,0.00000e+00,0.00000e+00
2.04720e+03,1.48774e+01,0.00000e+00,0.00000e+00,0.00000e+00,0.00000e+00
2.04720e+03,1.48025e+01,-1.13053e+00,0.00000e+00,0.00000e+00,0.00000e+00
2.04720e+03,1.47028e+01,-2.26105e+00,0.00000e+00,0.00000e+00,0.00000e+00
2.04720e+03,1.46021e+01,-3.39158e+00,0.00000e+00,0.00000e+00,0.00000e+00
2.04720e+03,1.44796e+01,-4.52211e+00,0.00000e+00,0.00000e+00,0.00000e+00
2.04720e+03,1.43520e+01,-5.65264e+00,0.00000e+00,0.00000e+00,0.00000e+00
2.04720e+03,1.42077e+01,-6.78316e+00,0.00000e+00,0.00000e+00,0.00000e+00
2.04720e+03,1.40552e+01,-7.91369e+00,0.00000e+00,0.00000e+00,0.00000e+00
2.04720e+03,1.38892e+01,-9.04422e+00,0.00000e+00,0.00000e+00,0.00000e+00
2.04720e+03,1.37121e+01,-1.01747e+01,0.00000e+00,0.00000e+00,0.00000e+00
2.04720e+03,1.35229e+01,-1.13053e+01,0.00000e+00,0.00000e+00,0.00000e+00
2.04720e+03,1.33189e+01,-1.24358e+01,0.00000e+00,0.00000e+00,0.00000e+00
2.04720e+03,1.30998e+01,-1.35663e+01,0.00000e+00,0.00000e+00,0.00000e+00
2.04720e+03,1.28594e+01,-1.46969e+01,0.00000e+00,0.00000e+00,0.00000e+00
2.04720e+03,1.25982e+01,-1.58274e+01,0.00000e+00,0.00000e+00,0.00000e+00
2.04720e+03,1.23120e+01,-1.69579e+01,0.00000e+00,0.00000e+00,0.00000e+00
2.04720e+03,1.19922e+01,-1.80884e+01,0.00000e+00,0.00000e+00,0.00000e+00
2.04720e+03,1.16489e+01,-1.92190e+01,0.00000e+00,0.00000e+00,0.00000e+00
2.04720e+03,1.12528e+01,-2.03495e+01,0.00000e+00,0.00000e+00,0.00000e+00
2.04720e+03,1.08348e+01,-2.14800e+01,0.00000e+00,0.00000e+00,0.00000e+00
2.04720e+03,1.03559e+01,-2.26105e+01,0.00000e+00,0.00000e+00,0.00000e+00
2.04720e+03,9.82823e+00,-2.37411e+01,0.00000e+00,0.00000e+00,0.00000e+00
2.04720e+03,9.25081e+00,-2.48716e+01,0.00000e+00,0.00000e+00,0.00000e+00
2.04720e+03,8.58998e+00,-2.60021e+01,0.00000e+00,0.00000e+00,0.00000e+00
2.04720e+03,7.83252e+00,-2.71326e+01,0.00000e+00,0.00000e+00,0.00000e+00
2.04720e+03,6.96585e+00,-2.82632e+01,0.00000e+00,0.00000e+00,0.00000e+00
2.04720e+03,5.94077e+00,-2.93937e+01,0.00000e+00,0.00000e+00,0.00000e+00
2.04720e+03,4.62500e+00,-3.05242e+01,0.00000e+00,0.00000e+00,0.00000e+00
2.04720e+03,2.84547e+00,-3.16548e+01,0.00000e+00,0.00000e+00,0.00000e+00
2.04720e+03,-1.15296e+00,-3.27853e+01,0.00000e+00,0.00000e+00,0.00000e+00
2.04720e+03,-1.44153e+00,-3.27879e+01,0.00000e+00,0.00000e+00,0.00000e+00
2.04720e+03,-4.07059e+00,-3.16169e+01,0.00000e+00,0.00000e+00,0.00000e+00
2.04720e+03,-4.38891e+00,-3.04459e+01,0.00000e+00,0.00000e+00,0.00000e+00
2.04720e+03,-4.49875e+00,-2.92749e+01,0.00000e+00,0.00000e+00,0.00000e+00
2.04720e+03,-4.51542e+00,-2.81039e+01,0.00000e+00,0.00000e+00,0.00000e+00
2.04720e+03,-4.46189e+00,-2.69329e+01,0.00000e+00,0.00000e+00,0.00000e+00
2.04720e+03,-4.36430e+00,-2.57619e+01,0.00000e+00,0.00000e+00,0.00000e+00
2.04720e+03,-4.22249e+00,-2.45909e+01,0.00000e+00,0.00000e+00,0.00000e+00
2.04720e+03,-4.05369e+00,-2.34199e+01,0.00000e+00,0.00000e+00,0.00000e+00
2.04720e+03,-3.86924e+00,-2.22489e+01,0.00000e+00,0.00000e+00,0.00000e+00
2.04720e+03,-3.66121e+00,-2.10779e+01,0.00000e+00,0.00000e+00,0.00000e+00
2.04720e+03,-3.43845e+00,-1.99069e+01,0.00000e+00,0.00000e+00,0.00000e+00
2.04720e+03,-3.20134e+00,-1.87359e+01,0.00000e+00,0.00000e+00,0.00000e+00
2.04720e+03,-2.94994e+00,-1.75649e+01,0.00000e+00,0.00000e+00,0.00000e+00
2.04720e+03,-2.68957e+00,-1.63940e+01,0.00000e+00,0.00000e+00,0.00000e+00
2.04720e+03,-2.41772e+00,-1.52230e+01,0.00000e+00,0.00000e+00,0.00000e+00
2.04720e+03,-2.13852e+00,-1.40520e+01,0.00000e+00,0.00000e+00,0.00000e+00
2.04720e+03,-1.85273e+00,-1.28810e+01,0.00000e+00,0.00000e+00,0.00000e+00
2.04720e+03,-1.56106e+00,-1.17100e+01,0.00000e+00,0.00000e+00,0.00000e+00
2.04720e+03,-1.26689e+00,-1.05390e+01,0.00000e+00,0.00000e+00,0.00000e+00
2.04720e+03,-9.68863e-01,-9.36797e+00,0.00000e+00,0.00000e+00,0.00000e+00
2.04720e+03,-6.70192e-01,-8.19698e+00,0.00000e+00,0.00000e+00,0.00000e+00
2.04720e+03,-3.69215e-01,-7.02598e+00,0.00000e+00,0.00000e+00,0.00000e+00
2.04720e+03,-6.82691e-02,-5.85498e+00,0.00000e+00,0.00000e+00,0.00000e+00
2.04720e+03,2.31540e-01,-4.68399e+00,0.00000e+00,0.00000e+00,0.00000e+00
2.04720e+03,5.31348e-01,-3.51299e+00,0.00000e+00,0.00000e+00,0.00000e+00
2.04720e+03,8.24058e-01,-2.34199e+00,0.00000e+00,0.00000e+00,0.00000e+00
2.04720e+03,1.11544e+00,-1.17100e+00,0.00000e+00,0.00000e+00,0.00000e+00
2.05000e+03,1.47450e+01,0.00000e+00,0.00000e+00,0.00000e+00,0.00000e+00
2.05000e+03,1.46708e+01,-1.12047e+00,0.00000e+00,0.00000e+00,0.00000e+00
2.05000e+03,1.45720e+01,-2.24093e+00,0.00000e+00,0.00000e+00,0.00000e+00
2.05000e+03,1.44722e+01,-3.36140e+00,0.00000e+00,0.00000e+00,0.00000e+00
2.05000e+03,1.43508e+01,-4.48186e+00,0.00000e+00,0.00000e+00,0.00000e+00
2.05000e+03,1.42243e+01,-5.60233e+00,0.00000e+00,0.00000e+00,0.00000e+00
2.05000e+03,1.40812e+01,-6.72279e+00,0.00000e+00,0.00000e+00,0.00000e+00
2.05000e+03,1.39301e+01,-7.84326e+00,0.00000e+00,0.00000e+00,0.00000e+00
2.05000e+03,1.37656e+01,-8.96372e+00,0.00000e+00,0.00000e+00,0.00000e+00
2.05000e+03,1.35901e+01,-1.00842e+01,0.00000e+00,0.00000e+00,0.00000e+00
2.05000e+03,1.34025e+01,-1.12047e+01,0.00000e+00,0.00000e+00,0.00000e+00
2.05000e+03,1.32004e+01,-1.23251e+01,0.00000e+00,0.00000e+00,0.00000e+00
2.05000e+03,1.29833e+01,-1.34456e+01,0.00000e+00,0.00000e+00,0.00000e+00
2.05000e+03,1.27450e+01,-1.45661e+01,0.00000e+00,0.00000e+00,0.00000e+00
2.05000e+03,1.24860e+01,-1.56865e+01,0.00000e+00,0.00000e+00,0.00000e+00
2.05000e+03,1.22024e+01,-1.68070e+01,0.00000e+00,0.00000e+00,0.00000e+00
2.05000e+03,1.18854e+01,-1.79274e+01,0.00000e+00,0.00000e+00,0.00000e+00
2.05000e+03,1.15452e+01,-1.90479e+01,0.00000e+00,0.00000e+00,0.00000e+00
2.05000e+03,1.11526e+01,-2.01684e+01,0.00000e+00,0.00000e+00,0.00000e+00
2.05000e+03,1.07384e+01,-2.12888e+01,0.00000e+00,0.00000e+00,0.00000e+00
2.05000e+03,1.02638e+01,-2.24093e+01,0.00000e+00,0.00000e+00,0.00000e+00
2.05000e+03,9.74076e+00,-2.35298e+01,0.00000e+00,0.00000e+00,0.00000e+00
2.05000e+03,9.16848e+00,-2.46502e+01,0.00000e+00,0.00000e+00,0.00000e+00
2.05000e+03,8.51353e+00,-2.57707e+01,0.00000e+00,0.00000e+00,0.00000e+00
2.05000e+03,7.76281e+00,-2.68912e+01,0.00000e+00,0.00000e+00,0.00000e+00
2.05000e+03,6.90385e+00,-2.80116e+01,0.00000e+00,0.00000e+00,0.00000e+00
2.05000e+03,5.88790e+00,-2.91321e+01,0.00000e+00,0.00000e+00,0.00000e+00
2.05000e+03,4.58384e+00,-3.02526e+01,0.00000e+00,0.00000e+00,0.00000e+00
2.05000e+03,2.82014e+00,-3.13730e+01,0.00000e+00,0.00000e+00,0.00000e+00
2.05000e+03,-1.14270e+00,-3.24935e+01,0.00000e+00,0.00000e+00,0.00000e+00
2.05000e+03,-1.42870e+00,-3.24961e+01,0.00000e+00,0.00000e+00,0.00000e+00
2.05000e+03,-4.03436e+00,-3.13355e+01,0.00000e+00,0.00000e+00,0.00000e+00
2.05000e+03,-4.34985e+00,-3.01749e+01,0.00000e+00,0.00000e+00,0.00000e+00
2.05000e+03,-4.45871e+00,-2.90144e+01,0.00000e+00,0.00000e+00,0.00000e+00
2.05000e+03,-4.47523e+00,-2.78538e+01,0.00000e+00,0.00000e+00,0.00000e+00
2.05000e+03,-4.42218e+00,-2.66932e+01,0.00000e+00,0.00000e+00,0.00000e+00
2.05000e+03,-4.32546e+00,-2.55327e+01,0.00000e+00,0.00000e+00,0.00000e+00
2.05000e+03,-4.18491e+00,-2.43721e+01,0.00000e+00,0.00000e+00,0.00000e+00
2.05000e+03,-4.01761e+00,-2.32115e+01,0.00000e+00,0.00000e+00,0.00000e+00
2.05000e+03,-3.83480e+00,-2.20509e+01,0.00000e+00,0.00000e+00,0.00000e+00
2.05000e+03,-3.62863e+00,-2.08903e+01,0.00000e+00,0.00000e+00,0.00000e+00
2.05000e+03,-3.40785e+00,-1.97298e+01,0.00000e+00,0.00000e+00,0.00000e+00
2.05000e+03,-3.17285e+00,-1.85692e+01,0.00000e+00,0.00000e+00,0.00000e+00
2.05000e+03,-2.92368e+00,-1.74086e+01,0.00000e+00,0.00000e+00,0.00000e+00
2.05000e+03,-2.66563e+00,-1.62480e+01,0.00000e+00,0.00000e+00,0.00000e+00
2.05000e+03,-2.39621e+00,-1.50875e+01,0.00000e+00,0.00000e+00,0.00000e+00
2.05000e+03,-2.11949e+00,-1.39269e+01,0.00000e+00,0.00000e+00,0.00000e+00
2.05000e+03,-1.83624e+00,-1.27663e+01,0.00000e+00,0.00000e+00,0.00000e+00
2.05000e+03,-1.54717e+00,-1.16057e+01,0.00000e+00,0.00000e+00,0.00000e+00
2.05000e+03,-1.25562e+00,-1.04452e+01,0.00000e+00,0.00000e+00,0.00000e+00
2.05000e+03,-9.60241e-01,-9.28460e+00,0.00000e+00,0.00000e+00,0.00000e+00
2.05000e+03,-6.64227e-01,-8.12402e+00,0.00000e+00,0.00000e+00,0.00000e+00
2.05000e+03,-3.65929e-01,-6.96345e+00,0.00000e+00,0.00000e+00,0.00000e+00
2.05000e+03,-6.76615e-02,-5.80287e+00,0.00000e+00,0.00000e+00,0.00000e+00
2.05000e+03,2.29479e-01,-4.64230e+00,0.00000e+00,0.00000e+00,0.00000e+00
2.05000e+03,5.26620e-01,-3.48173e+00,0.00000e+00,0.00000e+00,0.00000e+00
2.05000e+03,8.16724e-01,-2.32115e+00,0.00000e+00,0.00000e+00,0.00000e+00
2.05000e+03,1.10552e+00,-1.16058e+00,0.00000e+00,0.00000e+00,0.00000e+00
--------------------------------------------------------------------------------------------------------------------------------------------------------------------------------------------------------------------------------------------------------------------------------------------------------------------------------------------------------------------------------

ALMA 
--------------------------------------------------------------------------------------------------------------------------------------------------------------------------------------------------------------------------------------------------------------------------------------------------------------------------------------------------------------------------------
X,Y,Z,Sigma,Tau,Von Mises
0.00000e+00,4.05613e+00,0.00000e+00,3.27068e-01,1.35419e+00,2.36823e+00
0.00000e+00,1.70710e+01,0.00000e+00,1.14262e-01,1.35575e+00,2.35101e+00
0.00000e+00,3.00859e+01,0.00000e+00,-9.85440e-02,1.35575e+00,2.35030e+00
0.00000e+00,4.31008e+01,0.00000e+00,-3.11350e-01,1.35423e+00,2.36616e+00
1.07300e+02,4.01639e+00,0.00000e+00,2.92122e-01,1.27787e+00,2.23253e+00
1.07300e+02,1.69038e+01,0.00000e+00,1.02077e-01,1.27933e+00,2.21821e+00
1.07300e+02,2.97912e+01,0.00000e+00,-8.79683e-02,1.27933e+00,2.21761e+00
1.07300e+02,4.26785e+01,0.00000e+00,-2.78013e-01,1.27790e+00,2.23078e+00
2.14300e+02,3.97676e+00,0.00000e+00,2.59077e-01,1.20096e+00,2.09620e+00
2.14300e+02,1.67370e+01,0.00000e+00,9.05540e-02,1.20232e+00,2.08445e+00
2.14300e+02,2.94972e+01,0.00000e+00,-7.79687e-02,1.20232e+00,2.08394e+00
2.14300e+02,4.22575e+01,0.00000e+00,-2.46491e-01,1.20099e+00,2.09473e+00
3.20700e+02,3.93736e+00,0.00000e+00,2.28058e-01,1.12294e+00,1.95831e+00
3.20700e+02,1.65712e+01,0.00000e+00,7.97369e-02,1.12420e+00,1.94880e+00
3.20700e+02,2.92050e+01,0.00000e+00,-6.85838e-02,1.12420e+00,1.94837e+00
3.20700e+02,4.18388e+01,0.00000e+00,-2.16905e-01,1.12296e+00,1.95709e+00
4.26200e+02,3.89829e+00,0.00000e+00,1.99174e-01,1.04506e+00,1.82102e+00
4.26200e+02,1.64067e+01,0.00000e+00,6.96629e-02,1.04622e+00,1.81345e+00
4.26200e+02,2.89151e+01,0.00000e+00,-5.98479e-02,1.04622e+00,1.81310e+00
4.26200e+02,4.14236e+01,0.00000e+00,-1.89359e-01,1.04508e+00,1.82002e+00
5.30600e+02,3.85963e+00,0.00000e+00,1.72463e-01,9.67614e-01,1.68481e+00
5.30600e+02,1.62440e+01,0.00000e+00,6.03452e-02,9.68681e-01,1.67889e+00
5.30600e+02,2.86284e+01,0.00000e+00,-5.17728e-02,9.68681e-01,1.67860e+00
5.30600e+02,4.10127e+01,0.00000e+00,-1.63891e-01,9.67636e-01,1.68399e+00
6.33500e+02,3.82152e+00,0.00000e+00,1.47988e-01,8.90927e-01,1.55021e+00
6.33500e+02,1.60836e+01,0.00000e+00,5.18050e-02,8.91901e-01,1.54569e+00
6.33500e+02,2.83457e+01,0.00000e+00,-4.43781e-02,8.91901e-01,1.54546e+00
6.33500e+02,4.06078e+01,0.00000e+00,-1.40561e-01,8.90946e-01,1.54955e+00
7.34700e+02,3.78404e+00,0.00000e+00,1.25733e-01,8.15314e-01,1.41775e+00
7.34700e+02,1.59259e+01,0.00000e+00,4.40365e-02,8.16199e-01,1.41438e+00
7.34700e+02,2.80677e+01,0.00000e+00,-3.76602e-02,8.16199e-01,1.41420e+00
7.34700e+02,4.02095e+01,0.00000e+00,-1.19357e-01,8.15331e-01,1.41723e+00
8.33800e+02,3.74734e+00,0.00000e+00,1.05704e-01,7.41256e-01,1.28824e+00
8.33800e+02,1.57714e+01,0.00000e+00,3.70413e-02,7.42054e-01,1.28581e+00
8.33800e+02,2.77955e+01,0.00000e+00,-3.16211e-02,7.42054e-01,1.28566e+00
8.33800e+02,3.98196e+01,0.00000e+00,-1.00284e-01,7.41271e-01,1.28783e+00
9.30700e+02,3.71145e+00,0.00000e+00,8.78233e-02,6.68717e-01,1.16158e+00
9.30700e+02,1.56204e+01,0.00000e+00,3.07929e-02,6.69432e-01,1.15990e+00
9.30700e+02,2.75293e+01,0.00000e+00,-2.62375e-02,6.69432e-01,1.15979e+00
9.30700e+02,3.94382e+01,0.00000e+00,-8.32678e-02,6.68731e-01,1.16126e+00
1.02500e+03,3.67653e+00,0.00000e+00,7.20470e-02,5.98639e-01,1.03937e+00
1.02500e+03,1.54734e+01,0.00000e+00,2.52763e-02,5.99276e-01,1.03828e+00
1.02500e+03,2.72703e+01,0.00000e+00,-2.14943e-02,5.99276e-01,1.03820e+00
1.02500e+03,3.90671e+01,0.00000e+00,-6.82650e-02,5.98651e-01,1.03914e+00
1.11650e+03,3.64264e+00,0.00000e+00,5.82839e-02,5.30128e-01,9.20056e-01
1.11650e+03,1.53308e+01,0.00000e+00,2.04605e-02,5.30689e-01,9.19408e-01
1.11650e+03,2.70189e+01,0.00000e+00,-1.73628e-02,5.30689e-01,9.19344e-01
1.11650e+03,3.87070e+01,0.00000e+00,-5.51862e-02,5.30138e-01,9.19883e-01
1.20500e+03,3.54704e+00,0.00000e+00,6.65308e-02,4.69500e-01,8.15916e-01
1.20500e+03,1.49284e+01,0.00000e+00,2.34755e-02,4.70192e-01,8.14735e-01
1.20500e+03,2.63098e+01,0.00000e+00,-1.95797e-02,4.70192e-01,8.14632e-01
1.20500e+03,3.76912e+01,0.00000e+00,-6.26350e-02,4.69519e-01,8.15639e-01
1.29010e+03,3.41832e+00,0.00000e+00,5.39177e-02,4.22794e-01,7.34282e-01
1.29010e+03,1.43867e+01,0.00000e+00,1.90307e-02,4.23396e-01,7.33590e-01
1.29010e+03,2.53550e+01,0.00000e+00,-1.58563e-02,4.23396e-01,7.33515e-01
1.29010e+03,3.63234e+01,0.00000e+00,-5.07432e-02,4.22809e-01,7.34083e-01
1.37170e+03,3.29489e+00,0.00000e+00,4.28661e-02,3.75973e-01,6.52614e-01
1.37170e+03,1.38672e+01,0.00000e+00,1.51349e-02,3.76491e-01,6.52277e-01
1.37170e+03,2.44395e+01,0.00000e+00,-1.25962e-02,3.76491e-01,6.52223e-01
1.37170e+03,3.50118e+01,0.00000e+00,-4.03274e-02,3.75986e-01,6.52474e-01
1.44960e+03,3.17706e+00,0.00000e+00,3.33388e-02,3.30343e-01,5.73142e-01
1.44960e+03,1.33713e+01,0.00000e+00,1.17750e-02,3.30784e-01,5.73055e-01
1.44960e+03,2.35655e+01,0.00000e+00,-9.78885e-03,3.30784e-01,5.73018e-01
1.44960e+03,3.37597e+01,0.00000e+00,-3.13527e-02,3.30354e-01,5.73048e-01
1.52340e+03,3.06543e+00,0.00000e+00,2.53041e-02,2.85309e-01,4.94817e-01
1.52340e+03,1.29015e+01,0.00000e+00,8.93987e-03,2.85678e-01,4.94889e-01
1.52340e+03,2.27375e+01,0.00000e+00,-7.42435e-03,2.85678e-01,4.94864e-01
1.52340e+03,3.25736e+01,0.00000e+00,-2.37886e-02,2.85318e-01,4.94757e-01
1.59310e+03,2.96000e+00,0.00000e+00,1.86756e-02,2.41959e-01,4.19501e-01
1.59310e+03,1.24578e+01,0.00000e+00,6.60065e-03,2.42262e-01,4.19661e-01
1.59310e+03,2.19555e+01,0.00000e+00,-5.47433e-03,2.42262e-01,4.19645e-01
1.59310e+03,3.14533e+01,0.00000e+00,-1.75493e-02,2.41966e-01,4.19464e-01
1.65850e+03,2.86108e+00,0.00000e+00,1.33508e-02,2.00886e-01,3.48200e-01
1.65850e+03,1.20414e+01,0.00000e+00,4.72128e-03,2.01130e-01,3.48399e-01
1.65850e+03,2.12218e+01,0.00000e+00,-3.90826e-03,2.01130e-01,3.48388e-01
1.65850e+03,3.04021e+01,0.00000e+00,-1.25378e-02,2.00891e-01,3.48179e-01
1.71930e+03,2.76911e+00,0.00000e+00,9.20522e-03,1.62532e-01,2.81665e-01
1.71930e+03,1.16544e+01,0.00000e+00,3.25708e-03,1.62724e-01,2.81865e-01
1.71930e+03,2.05396e+01,0.00000e+00,-2.69106e-03,1.62724e-01,2.81859e-01
1.71930e+03,2.94249e+01,0.00000e+00,-8.63920e-03,1.62536e-01,2.81654e-01
1.77540e+03,2.60964e+00,0.00000e+00,1.09796e-02,2.15191e-01,3.72883e-01
1.77540e+03,1.09832e+01,0.00000e+00,3.92818e-03,2.15450e-01,3.73191e-01
1.77540e+03,1.93567e+01,0.00000e+00,-3.12319e-03,2.15450e-01,3.73184e-01
1.77540e+03,2.77303e+01,0.00000e+00,-1.01746e-02,2.15201e-01,3.72877e-01
1.82660e+03,2.38179e+00,0.00000e+00,7.48738e-03,1.77874e-01,3.08178e-01
1.82660e+03,1.00242e+01,0.00000e+00,2.67936e-03,1.78071e-01,3.08440e-01
1.82660e+03,1.76667e+01,0.00000e+00,-2.12865e-03,1.78071e-01,3.08436e-01
1.82660e+03,2.53092e+01,0.00000e+00,-6.93667e-03,1.77881e-01,3.08178e-01
1.87280e+03,2.17619e+00,0.00000e+00,4.80790e-03,1.42298e-01,2.46513e-01
1.87280e+03,9.15894e+00,0.00000e+00,1.72365e-03,1.42442e-01,2.46723e-01
1.87280e+03,1.61417e+01,0.00000e+00,-1.36060e-03,1.42442e-01,2.46721e-01
1.87280e+03,2.31244e+01,0.00000e+00,-4.44485e-03,1.42302e-01,2.46515e-01
1.91380e+03,1.99374e+00,0.00000e+00,2.86150e-03,1.09291e-01,1.89320e-01
1.91380e+03,8.39104e+00,0.00000e+00,1.02949e-03,1.09393e-01,1.89477e-01
1.91380e+03,1.47883e+01,0.00000e+00,-8.02527e-04,1.09393e-01,1.89476e-01
1.91380e+03,2.11856e+01,0.00000e+00,-2.63454e-03,1.09294e-01,1.89322e-01
1.94970e+03,1.83398e+00,0.00000e+00,1.53564e-03,7.91412e-02,1.37085e-01
1.94970e+03,7.71865e+00,0.00000e+00,5.55632e-04,7.92083e-02,1.37194e-01
1.94970e+03,1.36033e+01,0.00000e+00,-4.24379e-04,7.92083e-02,1.37193e-01
1.94970e+03,1.94880e+01,0.00000e+00,-1.40439e-03,7.91431e-02,1.37087e-01
1.98010e+03,1.69869e+00,0.00000e+00,7.21002e-04,5.29986e-02,9.17990e-02
1.98010e+03,7.14927e+00,0.00000e+00,2.63199e-04,5.30397e-02,9.18679e-02
1.98010e+03,1.25999e+01,0.00000e+00,-1.94605e-04,5.30397e-02,9.18677e-02
1.98010e+03,1.80504e+01,0.00000e+00,-6.52408e-04,5.29996e-02,9.18004e-02
2.00520e+03,1.58699e+00,0.00000e+00,2.77292e-04,3.15744e-02,5.46892e-02
2.00520e+03,6.67917e+00,0.00000e+00,1.02595e-04,3.15969e-02,5.47276e-02
2.00520e+03,1.17713e+01,0.00000e+00,-7.21029e-05,3.15969e-02,5.47276e-02
2.00520e+03,1.68635e+01,0.00000e+00,-2.46800e-04,3.15750e-02,5.46900e-02
2.02480e+03,1.49977e+00,0.00000e+00,7.89329e-05,1.57115e-02,2.72133e-02
2.02480e+03,6.31207e+00,0.00000e+00,2.98288e-05,1.57218e-02,2.72310e-02
2.02480e+03,1.11244e+01,0.00000e+00,-1.92753e-05,1.57218e-02,2.72310e-02
2.02480e+03,1.59367e+01,0.00000e+00,-6.83795e-05,1.57118e-02,2.72137e-02
2.03880e+03,1.43746e+00,0.00000e+00,1.38926e-05,5.72311e-03,9.91273e-03
2.03880e+03,6.04986e+00,0.00000e+00,5.45202e-06,5.72650e-03,9.91860e-03
2.03880e+03,1.06622e+01,0.00000e+00,-2.98861e-06,5.72650e-03,9.91860e-03
2.03880e+03,1.52746e+01,0.00000e+00,-1.14292e-05,5.72318e-03,9.91285e-03
2.04720e+03,1.40008e+00,0.00000e+00,1.74362e-06,9.88030e-04,1.71132e-03
2.04720e+03,5.89253e+00,0.00000e+00,7.28147e-07,9.88525e-04,1.71218e-03
2.04720e+03,1.03850e+01,0.00000e+00,-2.87331e-07,9.88525e-04,1.71217e-03
2.04720e+03,1.48774e+01,0.00000e+00,-1.30281e-06,9.88041e-04,1.71134e-03
2.05000e+03,1.38762e+00,0.00000e+00,0.00000e+00,0.00000e+00,0.00000e+00
2.05000e+03,5.84009e+00,0.00000e+00,0.00000e+00,0.00000e+00,0.00000e+00
2.05000e+03,1.02925e+01,0.00000e+00,0.00000e+00,0.00000e+00,0.00000e+00
2.05000e+03,1.47450e+01,0.00000e+00,0.00000e+00,0.00000e+00,0.00000e+00
MESA INFERIOR 
--------------------------------------------------------------------------------------------------------------------------------------------------------------------------------------------------------------------------------------------------------------------------------------------------------------------------------------------------------------------------------
X,Y,Z,Sigma,Von Mises
0.00000e+00,4.05613e+00,0.00000e+00,0.00000e+00,0.00000e+00
1.07300e+02,4.01639e+00,0.00000e+00,0.00000e+00,0.00000e+00
2.14300e+02,3.97676e+00,0.00000e+00,0.00000e+00,0.00000e+00
3.20700e+02,3.93736e+00,0.00000e+00,0.00000e+00,0.00000e+00
4.26200e+02,3.89829e+00,0.00000e+00,0.00000e+00,0.00000e+00
5.30600e+02,3.85963e+00,0.00000e+00,0.00000e+00,0.00000e+00
6.33500e+02,3.82152e+00,0.00000e+00,0.00000e+00,0.00000e+00
7.34700e+02,3.78404e+00,0.00000e+00,0.00000e+00,0.00000e+00
8.33800e+02,3.74734e+00,0.00000e+00,0.00000e+00,0.00000e+00
9.30700e+02,3.71145e+00,0.00000e+00,0.00000e+00,0.00000e+00
1.02500e+03,3.67653e+00,0.00000e+00,0.00000e+00,0.00000e+00
1.11650e+03,3.64264e+00,0.00000e+00,0.00000e+00,0.00000e+00
1.20500e+03,3.54704e+00,0.00000e+00,0.00000e+00,0.00000e+00
1.29010e+03,3.41832e+00,0.00000e+00,0.00000e+00,0.00000e+00
1.37170e+03,3.29489e+00,0.00000e+00,0.00000e+00,0.00000e+00
1.44960e+03,3.17706e+00,0.00000e+00,0.00000e+00,0.00000e+00
1.52340e+03,3.06543e+00,0.00000e+00,0.00000e+00,0.00000e+00
1.59310e+03,2.96000e+00,0.00000e+00,0.00000e+00,0.00000e+00
1.65850e+03,2.86108e+00,0.00000e+00,0.00000e+00,0.00000e+00
1.71930e+03,2.76911e+00,0.00000e+00,0.00000e+00,0.00000e+00
1.77540e+03,2.60964e+00,0.00000e+00,0.00000e+00,0.00000e+00
1.82660e+03,2.38179e+00,0.00000e+00,0.00000e+00,0.00000e+00
1.87280e+03,2.17619e+00,0.00000e+00,0.00000e+00,0.00000e+00
1.91380e+03,1.99374e+00,0.00000e+00,0.00000e+00,0.00000e+00
1.94970e+03,1.83398e+00,0.00000e+00,0.00000e+00,0.00000e+00
1.98010e+03,1.69869e+00,0.00000e+00,0.00000e+00,0.00000e+00
2.00520e+03,1.58699e+00,0.00000e+00,0.00000e+00,0.00000e+00
2.02480e+03,1.49977e+00,0.00000e+00,0.00000e+00,0.00000e+00
2.03880e+03,1.43746e+00,0.00000e+00,0.00000e+00,0.00000e+00
2.04720e+03,1.40008e+00,0.00000e+00,0.00000e+00,0.00000e+00
2.05000e+03,1.38762e+00,0.00000e+00,0.00000e+00,0.00000e+00
--------------------------------------------------------------------------------------------------------------------------------------------------------------------------------------------------------------------------------------------------------------------------------------------------------------------------------------------------------------------------------

MESA SUPERIOR 
--------------------------------------------------------------------------------------------------------------------------------------------------------------------------------------------------------------------------------------------------------------------------------------------------------------------------------------------------------------------------------
X,Y,Z,Sigma,Von Mises
0.00000e+00,4.31008e+01,0.00000e+00,0.00000e+00,0.00000e+00
1.07300e+02,4.26785e+01,0.00000e+00,0.00000e+00,0.00000e+00
2.14300e+02,4.22575e+01,0.00000e+00,0.00000e+00,0.00000e+00
3.20700e+02,4.18388e+01,0.00000e+00,0.00000e+00,0.00000e+00
4.26200e+02,4.14236e+01,0.00000e+00,0.00000e+00,0.00000e+00
5.30600e+02,4.10127e+01,0.00000e+00,0.00000e+00,0.00000e+00
6.33500e+02,4.06078e+01,0.00000e+00,0.00000e+00,0.00000e+00
7.34700e+02,4.02095e+01,0.00000e+00,0.00000e+00,0.00000e+00
8.33800e+02,3.98196e+01,0.00000e+00,0.00000e+00,0.00000e+00
9.30700e+02,3.94382e+01,0.00000e+00,0.00000e+00,0.00000e+00
1.02500e+03,3.90671e+01,0.00000e+00,0.00000e+00,0.00000e+00
1.11650e+03,3.87070e+01,0.00000e+00,0.00000e+00,0.00000e+00
1.20500e+03,3.76912e+01,0.00000e+00,0.00000e+00,0.00000e+00
1.29010e+03,3.63234e+01,0.00000e+00,0.00000e+00,0.00000e+00
1.37170e+03,3.50118e+01,0.00000e+00,0.00000e+00,0.00000e+00
1.44960e+03,3.37597e+01,0.00000e+00,0.00000e+00,0.00000e+00
1.52340e+03,3.25736e+01,0.00000e+00,0.00000e+00,0.00000e+00
1.59310e+03,3.14533e+01,0.00000e+00,0.00000e+00,0.00000e+00
1.65850e+03,3.04021e+01,0.00000e+00,0.00000e+00,0.00000e+00
1.71930e+03,2.94249e+01,0.00000e+00,0.00000e+00,0.00000e+00
1.77540e+03,2.77303e+01,0.00000e+00,0.00000e+00,0.00000e+00
1.82660e+03,2.53092e+01,0.00000e+00,0.00000e+00,0.00000e+00
1.87280e+03,2.31244e+01,0.00000e+00,0.00000e+00,0.00000e+00
1.91380e+03,2.11856e+01,0.00000e+00,0.00000e+00,0.00000e+00
1.94970e+03,1.94880e+01,0.00000e+00,0.00000e+00,0.00000e+00
1.98010e+03,1.80504e+01,0.00000e+00,0.00000e+00,0.00000e+00
2.00520e+03,1.68635e+01,0.00000e+00,0.00000e+00,0.00000e+00
2.02480e+03,1.59367e+01,0.00000e+00,0.00000e+00,0.00000e+00
2.03880e+03,1.52746e+01,0.00000e+00,0.00000e+00,0.00000e+00
2.04720e+03,1.48774e+01,0.00000e+00,0.00000e+00,0.00000e+00
2.05000e+03,1.47450e+01,0.00000e+00,0.00000e+00,0.00000e+00
--------------------------------------------------------------------------------------------------------------------------------------------------------------------------------------------------------------------------------------------------------------------------------------------------------------------------------------------------------------------------------

