----------------------------------------------
LOG MATLAB Estruturas Copyright Charles 2020
----------------------------------------------

VISÃO GERAL POR SEÇÃO
--------------------------------------------------------------------------------------------------------------------------------------------------------------------------------------------------------------------------------------------------------------------------------------------------------------------------------------------------------------------------------
SEÇÃO,POSIÇÃO .25c,, ESFORÇOS,,,,,INÉRCIAS,,,,CENTROS GEOMÉTRICOS,,,DEFLEXÇOES,,,,,TENSÕES NORMAIS,,,,,,,,TENSÕES CISALHAMENTO,,,TENSÕES DE VON MISES
NUMERO,X,Y,MFz,MFy,MTx,Vz,Vy,EIzz,EIyy,EIzy,GJ,Zcg,Ycg,Zcc,Z,Y,Z´,Y´,Theta,Sigma_Chap+,Sigma_Chap-,Sigma_Lam+,Sigma_Lam-,Sigma_Mesa+,Sigma_Mesa-,Sigma_Alma+,Sigma_Alma-,  Tau_Alma,  Tau_Chap,  Tau_Lam, Von Mises_Alma,  Von Mises_Chap,  Von Mises_Lam
--------------------------------------------------------------------------------------------------------------------------------------------------------------------------------------------------------------------------------------------------------------------------------------------------------------------------------------------------------------------------------
01,0.00000e+00,0.00000e+00,1.03748e+05,9.01013e+03,-8.98739e+03,9.61874e+00,1.17209e+02,2.43720e+09,3.02407e+09,6.88619e+08,4.35554e+07,8.66395e+01,2.17434e+01,7.43235e+01,0.00000e+00,0.00000e+00,0.00000e+00,0.00000e+00,0.00000e+00,1.38923e+00,-1.79940e+00,0.00000e+00,0.00000e+00,7.83810e+01,-7.36643e+01,9.80533e-02,-9.21528e-02,4.07785e-01,5.14275e-01,0.00000e+00,7.12285e-01,1.94488e+00,0.00000e+00
02,1.07300e+02,0.00000e+00,9.15815e+04,8.00937e+03,-8.30930e+03,9.03474e+00,1.09559e+02,2.38487e+09,2.93941e+09,6.69313e+08,4.22898e+07,8.58583e+01,2.15452e+01,7.36225e+01,-3.91616e-02,2.44086e-01,-7.29946e-04,4.54960e-03,-2.16118e-02,1.24051e+00,-1.60958e+00,0.00000e+00,0.00000e+00,7.00008e+01,-6.57716e+01,8.75698e-02,-8.22791e-02,3.84920e-01,4.84186e-01,0.00000e+00,6.71685e-01,1.75350e+00,0.00000e+00
03,2.14300e+02,0.00000e+00,8.02605e+04,7.07357e+03,-7.64406e+03,8.45686e+00,1.02050e+02,2.33333e+09,2.85653e+09,6.50412e+08,4.10399e+07,8.50782e+01,2.13473e+01,7.29231e+01,-1.52039e-01,9.48989e-01,-1.37991e-03,8.62615e-03,-4.20886e-02,1.09984e+00,-1.42970e+00,0.00000e+00,0.00000e+00,6.20731e+01,-5.83056e+01,7.76524e-02,-7.29393e-02,3.61940e-01,4.53782e-01,0.00000e+00,6.30996e-01,1.57164e+00,0.00000e+00
04,3.20700e+02,0.00000e+00,6.98043e+04,6.20451e+03,-7.00198e+03,7.87878e+00,9.44953e+01,2.28273e+09,2.77562e+09,6.31961e+08,3.98359e+07,8.43013e+01,2.11503e+01,7.22271e+01,-3.29325e-01,2.05918e+00,-1.95254e-03,1.22420e-02,-6.13486e-02,9.67775e-01,-1.26049e+00,0.00000e+00,0.00000e+00,5.46290e+01,-5.12958e+01,6.83399e-02,-6.41701e-02,3.38506e-01,4.23352e-01,0.00000e+00,5.89636e-01,1.40022e+00,0.00000e+00
05,4.26200e+02,0.00000e+00,6.02269e+04,5.40362e+03,-6.38524e+03,7.30410e+00,8.70657e+01,2.23318e+09,2.69686e+09,6.14002e+08,3.86698e+07,8.35299e+01,2.09548e+01,7.15366e+01,-5.61635e-01,3.51810e+00,-2.45144e-03,1.54154e-02,-7.93307e-02,8.44817e-01,-1.10263e+00,0.00000e+00,0.00000e+00,4.76971e+01,-4.47692e+01,5.96683e-02,-5.60056e-02,3.15072e-01,3.93172e-01,0.00000e+00,5.48379e-01,1.23991e+00,0.00000e+00
06,5.30600e+02,0.00000e+00,5.15166e+04,4.67068e+03,-5.79382e+03,6.73673e+00,7.97980e+01,2.18477e+09,2.62035e+09,5.96558e+08,3.75405e+07,8.27655e+01,2.07610e+01,7.08528e+01,-8.40008e-01,5.27136e+00,-2.88137e-03,1.81719e-02,-9.60064e-02,7.31152e-01,-9.56397e-01,0.00000e+00,0.00000e+00,4.12882e+01,-3.87359e+01,5.16508e-02,-4.84579e-02,2.91738e-01,3.63303e-01,0.00000e+00,5.07392e-01,1.09093e+00,0.00000e+00
07,6.33500e+02,0.00000e+00,4.36684e+04,4.00525e+03,-5.22246e+03,6.19691e+00,7.27432e+01,2.13765e+09,2.54632e+09,5.79679e+08,3.64392e+07,8.20110e+01,2.05698e+01,7.01785e+01,-1.15530e+00,7.26285e+00,-3.24685e-03,2.05355e-02,-1.11321e-01,6.27057e-01,-8.22177e-01,0.00000e+00,0.00000e+00,3.54176e+01,-3.32106e+01,4.43068e-02,-4.15459e-02,2.68564e-01,3.33549e-01,0.00000e+00,4.66773e-01,9.53293e-01,0.00000e+00
08,7.34700e+02,0.00000e+00,3.66518e+04,3.40414e+03,-4.67269e+03,5.68269e+00,6.59252e+01,2.09189e+09,2.47483e+09,5.63383e+08,3.53650e+07,8.12680e+01,2.03815e+01,6.95148e+01,-1.49941e+00,9.44241e+00,-3.55367e-03,2.25387e-02,-1.25258e-01,5.32465e-01,-6.99903e-01,0.00000e+00,0.00000e+00,3.00819e+01,-2.81907e+01,3.76319e-02,-3.52661e-02,2.45653e-01,3.04038e-01,0.00000e+00,4.26692e-01,8.26873e-01,0.00000e+00
09,8.33800e+02,0.00000e+00,3.04429e+04,2.86521e+03,-4.14697e+03,5.19388e+00,5.93803e+01,2.04762e+09,2.40610e+09,5.47713e+08,3.43183e+07,8.05393e+01,2.01969e+01,6.88645e+01,-1.86415e+00,1.17589e+01,-3.80734e-03,2.42117e-02,-1.37793e-01,4.47396e-01,-5.89623e-01,0.00000e+00,0.00000e+00,2.52821e+01,-2.36774e+01,3.16274e-02,-2.96200e-02,2.23159e-01,2.74960e-01,0.00000e+00,3.87406e-01,7.11796e-01,0.00000e+00
10,9.30700e+02,0.00000e+00,2.49930e+04,2.38488e+03,-3.64620e+03,4.72004e+00,5.31043e+01,2.00486e+09,2.34009e+09,5.32666e+08,3.32982e+07,7.98259e+01,2.00162e+01,6.82283e+01,-2.24311e+00,1.41718e+01,-4.01429e-03,2.55912e-02,-1.48953e-01,3.71517e-01,-4.90948e-01,0.00000e+00,0.00000e+00,2.09996e+01,-1.96532e+01,2.62701e-02,-2.45859e-02,2.01120e-01,2.46412e-01,0.00000e+00,3.48973e-01,6.07632e-01,0.00000e+00
11,1.02500e+03,0.00000e+00,2.02637e+04,1.96142e+03,-3.17222e+03,4.26100e+00,4.71985e+01,1.96375e+09,2.27699e+09,5.18282e+08,3.22928e+07,7.91308e+01,1.98401e+01,6.76088e+01,-2.62948e+00,1.66378e+01,-4.18016e-03,2.67094e-02,-1.58747e-01,3.04618e-01,-4.03707e-01,0.00000e+00,0.00000e+00,1.72227e+01,-1.61068e+01,2.15454e-02,-2.01494e-02,1.79872e-01,2.18645e-01,0.00000e+00,3.11966e-01,5.13913e-01,0.00000e+00
12,1.11650e+03,0.00000e+00,1.62047e+04,1.59201e+03,-2.72528e+03,3.81362e+00,4.15224e+01,1.92432e+09,2.21681e+09,5.04566e+08,3.13176e+07,7.84554e+01,1.96691e+01,6.70073e+01,-3.01794e+00,1.91225e+01,-4.31087e-03,2.76012e-02,-1.67223e-01,2.46300e-01,-3.27432e-01,0.00000e+00,0.00000e+00,1.39294e+01,-1.30168e+01,1.74254e-02,-1.62838e-02,1.59087e-01,1.91610e-01,0.00000e+00,2.75811e-01,4.30260e-01,0.00000e+00
13,1.20500e+03,0.00000e+00,1.27644e+04,1.27353e+03,-2.30931e+03,3.38353e+00,3.62251e+01,1.32148e+09,1.95268e+09,4.45208e+08,2.85565e+07,7.39632e+01,1.86188e+01,6.42675e+01,-3.40524e+00,2.16024e+01,-4.44157e-03,2.84410e-02,-1.74652e-01,2.82005e-01,-3.59080e-01,0.00000e+00,0.00000e+00,1.59021e+01,-1.47651e+01,1.98932e-02,-1.84709e-02,1.40802e-01,1.84430e-01,0.00000e+00,2.44332e-01,4.41692e-01,0.00000e+00
14,1.29010e+03,0.00000e+00,9.89084e+03,1.00275e+03,-1.93583e+03,2.98047e+00,3.13092e+01,1.21619e+09,1.75686e+09,4.00479e+08,2.56291e+07,7.15330e+01,1.79989e+01,6.20379e+01,-3.78876e+00,2.40568e+01,-4.57204e-03,2.92416e-02,-1.81307e-01,2.28418e-01,-2.92328e-01,0.00000e+00,0.00000e+00,1.28857e+01,-1.19596e+01,1.61197e-02,-1.49612e-02,1.26670e-01,1.64908e-01,0.00000e+00,2.19682e-01,3.73501e-01,0.00000e+00
15,1.37170e+03,0.00000e+00,7.52195e+03,7.74979e+02,-1.60357e+03,2.60204e+00,2.67519e+01,1.12002e+09,1.58132e+09,3.60391e+08,2.30104e+07,6.91884e+01,1.74013e+01,5.98941e+01,-4.16602e+00,2.64690e+01,-4.67445e-03,2.98808e-02,-1.87232e-01,1.81502e-01,-2.33520e-01,0.00000e+00,0.00000e+00,1.02434e+01,-9.50312e+00,1.28144e-02,-1.18882e-02,1.12612e-01,1.45712e-01,0.00000e+00,1.95205e-01,3.12651e-01,0.00000e+00
16,1.44960e+03,0.00000e+00,5.59920e+03,5.85971e+02,-1.31243e+03,2.25055e+00,2.26127e+01,1.03251e+09,1.42458e+09,3.24609e+08,2.06730e+07,6.69366e+01,1.68278e+01,5.78421e+01,-4.53321e+00,2.88161e+01,-4.75277e-03,3.03785e-02,-1.92419e-01,1.41075e-01,-1.82500e-01,0.00000e+00,0.00000e+00,7.96541e+00,-7.38651e+00,9.96460e-03,-9.24040e-03,9.89542e-02,1.27200e-01,0.00000e+00,1.71458e-01,2.59555e-01,0.00000e+00
17,1.52340e+03,0.00000e+00,4.07111e+03,4.32322e+02,-1.05651e+03,1.91336e+00,1.87988e+01,9.53418e+08,1.28561e+09,2.92889e+08,1.86057e+07,6.47909e+01,1.62818e+01,5.58929e+01,-4.88611e+00,3.10719e+01,-4.81079e-03,3.07543e-02,-1.96857e-01,1.06998e-01,-1.39184e-01,0.00000e+00,0.00000e+00,6.04409e+00,-5.60257e+00,7.56105e-03,-7.00872e-03,8.54449e-02,1.09121e-01,0.00000e+00,1.48020e-01,2.15030e-01,0.00000e+00
18,1.59310e+03,0.00000e+00,2.88142e+03,3.11126e+02,-8.36823e+02,1.56429e+00,1.53387e+01,8.82075e+08,1.16263e+09,2.64824e+08,1.67893e+07,6.27531e+01,1.57637e+01,5.40474e+01,-5.22287e+00,3.32250e+01,-4.85247e-03,3.10296e-02,-2.00573e-01,7.89179e-02,-1.03263e-01,0.00000e+00,0.00000e+00,4.46012e+00,-4.13194e+00,5.57953e-03,-5.16899e-03,7.23906e-02,9.19564e-02,0.00000e+00,1.25400e-01,1.75926e-01,0.00000e+00
19,1.65850e+03,0.00000e+00,1.97795e+03,2.17916e+02,-6.50270e+02,1.28617e+00,1.22903e+01,8.18049e+08,1.05434e+09,2.40117e+08,1.51885e+07,6.08309e+01,1.52752e+01,5.23116e+01,-5.54116e+00,3.52607e+01,-4.88125e-03,3.12240e-02,-2.03603e-01,5.63871e-02,-7.42710e-02,0.00000e+00,0.00000e+00,3.18853e+00,-2.95140e+00,3.98880e-03,-3.69216e-03,6.01290e-02,7.59329e-02,0.00000e+00,1.04156e-01,1.41702e-01,0.00000e+00
20,1.71930e+03,0.00000e+00,1.31169e+03,1.47359e+02,-4.91789e+02,1.03481e+00,9.62617e+00,7.61023e+08,9.59670e+08,2.18523e+08,1.37769e+07,5.90349e+01,1.48192e+01,5.06943e+01,-5.83852e+00,3.71632e+01,-4.90022e-03,3.13555e-02,-2.05989e-01,3.88554e-02,-5.15299e-02,0.00000e+00,0.00000e+00,2.19839e+00,-2.03316e+00,2.75015e-03,-2.54344e-03,4.86721e-02,6.09631e-02,0.00000e+00,8.43083e-02,1.11668e-01,0.00000e+00
21,1.77540e+03,0.00000e+00,8.35429e+02,9.59403e+01,-3.58833e+02,7.98286e-01,7.35281e+00,3.98519e+08,7.29057e+08,1.66652e+08,9.79174e+06,5.21005e+01,1.31900e+01,4.07358e+01,-6.11393e+00,3.89254e+01,-4.91817e-03,3.14692e-02,-2.08019e-01,4.65721e-02,-5.77088e-02,0.00000e+00,0.00000e+00,2.62379e+00,-2.39176e+00,3.28231e-03,-2.99205e-03,6.45034e-02,5.70574e-02,0.00000e+00,1.11730e-01,1.07728e-01,0.00000e+00
22,1.82660e+03,0.00000e+00,5.07359e+02,6.03650e+01,-2.52882e+02,5.91372e-01,5.46240e+00,3.22692e+08,5.63581e+08,1.28741e+08,7.54828e+06,4.80842e+01,1.21552e+01,3.73499e+01,-6.36617e+00,4.05392e+01,-4.93511e-03,3.15700e-02,-2.09814e-01,3.17340e-02,-3.97319e-02,0.00000e+00,0.00000e+00,1.78926e+00,-1.63027e+00,2.23834e-03,-2.03944e-03,5.33298e-02,4.67282e-02,0.00000e+00,9.23735e-02,8.60198e-02,0.00000e+00
23,1.87280e+03,0.00000e+00,2.90569e+02,3.66137e+01,-1.74395e+02,4.36822e-01,3.92247e+00,2.62353e+08,4.36581e+08,9.96683e+07,5.85235e+06,4.43938e+01,1.12070e+01,3.42731e+01,-6.59442e+00,4.19993e+01,-4.94579e-03,3.16361e-02,-2.11277e-01,2.03584e-02,-2.58220e-02,0.00000e+00,0.00000e+00,1.14917e+00,-1.04448e+00,1.43759e-03,-1.30662e-03,4.27252e-02,3.73342e-02,0.00000e+00,7.40040e-02,6.73049e-02,0.00000e+00
24,1.91380e+03,0.00000e+00,1.54726e+02,2.10844e+01,-1.16539e+02,3.20706e-01,2.70399e+00,2.14932e+08,3.40501e+08,7.76906e+07,4.57855e+06,4.10625e+01,1.03532e+01,3.15244e+01,-6.79732e+00,4.32972e+01,-4.95187e-03,3.16759e-02,-2.12409e-01,1.21023e-02,-1.56025e-02,0.00000e+00,0.00000e+00,6.84177e-01,-6.18984e-01,8.55894e-04,-7.74338e-04,3.28477e-02,2.87847e-02,0.00000e+00,5.68948e-02,5.10690e-02,0.00000e+00
25,1.94970e+03,0.00000e+00,7.45948e+01,1.12594e+01,-7.42343e+01,2.26651e-01,1.76017e+00,1.77937e+08,2.68420e+08,6.12136e+07,3.62700e+06,3.80992e+01,9.59536e+00,2.91026e+01,-6.97515e+00,4.44347e+01,-4.95492e-03,3.16974e-02,-2.13234e-01,6.48512e-03,-8.54709e-03,0.00000e+00,0.00000e+00,3.67372e-01,-3.29903e-01,4.59576e-04,-4.12703e-04,2.38015e-02,2.10286e-02,0.00000e+00,4.12258e-02,3.68968e-02,0.00000e+00
26,1.98010e+03,0.00000e+00,3.16563e+01,5.46018e+00,-4.46640e+01,1.54874e-01,1.06473e+00,1.49784e+08,2.15653e+08,4.91590e+07,2.93649e+06,3.55543e+01,8.94582e+00,2.70403e+01,-7.12580e+00,4.53985e+01,-4.95618e-03,3.17074e-02,-2.13776e-01,3.03880e-03,-4.12175e-03,0.00000e+00,0.00000e+00,1.72630e-01,-1.53219e-01,2.15957e-04,-1.91674e-04,1.59762e-02,1.43379e-02,0.00000e+00,2.76717e-02,2.49844e-02,0.00000e+00
27,2.00520e+03,0.00000e+00,1.10735e+01,2.27432e+00,-2.44598e+01,9.89797e-02,5.75340e-01,1.28656e+08,1.77484e+08,4.04436e+07,2.44190e+06,3.34272e+01,8.40385e+00,2.53292e+01,-7.25020e+00,4.61944e+01,-4.95658e-03,3.17113e-02,-2.14092e-01,1.16587e-03,-1.64588e-03,0.00000e+00,0.00000e+00,6.65007e-02,-5.79400e-02,8.31912e-05,-7.24820e-05,9.54017e-03,8.76474e-03,0.00000e+00,1.65241e-02,1.52162e-02,0.00000e+00
28,2.02480e+03,0.00000e+00,2.88271e+00,7.48700e-01,-1.15879e+01,5.66956e-02,2.60453e-01,1.13447e+08,1.50904e+08,3.43767e+07,2.10738e+06,3.17493e+01,7.97693e+00,2.39876e+01,-7.34735e+00,4.68159e+01,-4.95666e-03,3.17124e-02,-2.14244e-01,3.30866e-04,-4.97421e-04,0.00000e+00,0.00000e+00,1.89898e-02,-1.60408e-02,2.37559e-05,-2.00667e-05,4.76193e-03,4.53371e-03,0.00000e+00,8.24792e-03,7.85784e-03,0.00000e+00
29,2.03880e+03,0.00000e+00,4.61896e-01,1.68683e-01,-4.28836e+00,2.61639e-02,8.53777e-02,1.03260e+08,1.33576e+08,3.04229e+07,1.91447e+06,3.05414e+01,7.66993e+00,2.30264e+01,-7.41675e+00,4.72599e+01,-4.95667e-03,3.17126e-02,-2.14299e-01,5.78883e-05,-9.68129e-05,0.00000e+00,0.00000e+00,3.35860e-03,-2.67341e-03,4.20155e-06,-3.34439e-06,1.74635e-03,1.77390e-03,0.00000e+00,3.02478e-03,3.07285e-03,0.00000e+00
30,2.04720e+03,0.00000e+00,5.16551e-02,2.93975e-02,-8.45753e-01,6.99941e-03,1.22988e-02,9.74134e+07,1.23821e+08,2.81976e+07,1.86344e+06,2.98129e+01,7.48488e+00,2.24484e+01,-7.45838e+00,4.75263e+01,-4.95667e-03,3.17126e-02,-2.14310e-01,7.16664e-06,-1.43055e-05,0.00000e+00,0.00000e+00,4.23385e-04,-3.02016e-04,5.29647e-07,-3.77817e-07,3.04501e-04,3.53706e-04,0.00000e+00,5.27412e-04,6.12660e-04,0.00000e+00
31,2.05000e+03,0.00000e+00,0.00000e+00,0.00000e+00,0.00000e+00,0.00000e+00,0.00000e+00,5.74754e+07,1.08343e+08,2.47732e+07,NaN,2.74871e+01,6.96602e+00,2.15905e+01,-7.47226e+00,4.76151e+01,-4.95667e-03,3.17126e-02,-2.14311e-01,0.00000e+00,0.00000e+00,0.00000e+00,0.00000e+00,0.00000e+00,0.00000e+00,0.00000e+00,0.00000e+00,0.00000e+00,0.00000e+00,0.00000e+00,0.00000e+00,0.00000e+00,0.00000e+00
--------------------------------------------------------------------------------------------------------------------------------------------------------------------------------------------------------------------------------------------------------------------------------------------------------------------------------------------------------------------------------

CHAPEADO 
--------------------------------------------------------------------------------------------------------------------------------------------------------------------------------------------------------------------------------------------------------------------------------------------------------------------------------------------------------------------------------
X,Y,Z,Sigma,Tau,Von Mises
0.00000e+00,4.31008e+01,0.00000e+00,-1.31647e+00,5.14275e-01,1.58950e+00
0.00000e+00,4.28837e+01,-3.27521e+00,-1.36790e+00,5.09217e-01,1.62759e+00
0.00000e+00,4.25950e+01,-6.55041e+00,-1.41435e+00,5.04036e-01,1.66209e+00
0.00000e+00,4.23033e+01,-9.82562e+00,-1.46059e+00,4.98737e-01,1.69692e+00
0.00000e+00,4.19484e+01,-1.31008e+01,-1.50243e+00,4.93330e-01,1.72841e+00
0.00000e+00,4.15787e+01,-1.63760e+01,-1.54324e+00,4.87823e-01,1.75941e+00
0.00000e+00,4.11605e+01,-1.96512e+01,-1.58068e+00,4.82224e-01,1.78778e+00
0.00000e+00,4.07187e+01,-2.29264e+01,-1.61647e+00,4.76541e-01,1.81501e+00
0.00000e+00,4.02378e+01,-2.62017e+01,-1.64955e+00,4.70781e-01,1.84008e+00
0.00000e+00,3.97249e+01,-2.94769e+01,-1.68039e+00,4.64953e-01,1.86340e+00
0.00000e+00,3.91766e+01,-3.27521e+01,-1.70878e+00,4.59063e-01,1.88471e+00
0.00000e+00,3.85857e+01,-3.60273e+01,-1.73420e+00,4.53119e-01,1.90352e+00
0.00000e+00,3.79511e+01,-3.93025e+01,-1.75657e+00,4.47130e-01,1.91972e+00
0.00000e+00,3.72545e+01,-4.25777e+01,-1.77463e+00,4.41105e-01,1.93211e+00
0.00000e+00,3.64976e+01,-4.58529e+01,-1.78850e+00,4.35056e-01,1.94076e+00
0.00000e+00,3.56687e+01,-4.91281e+01,-1.79735e+00,4.28993e-01,1.94488e+00
0.00000e+00,3.47420e+01,-5.24033e+01,-1.79940e+00,4.22936e-01,1.94280e+00
0.00000e+00,3.37474e+01,-5.56785e+01,-1.79673e+00,4.16890e-01,1.93639e+00
0.00000e+00,3.26000e+01,-5.89537e+01,-1.78341e+00,4.10887e-01,1.92017e+00
0.00000e+00,3.13892e+01,-6.22289e+01,-1.76569e+00,4.04941e-01,1.89989e+00
0.00000e+00,3.00018e+01,-6.55041e+01,-1.73568e+00,3.99068e-01,1.86825e+00
0.00000e+00,2.84730e+01,-6.87793e+01,-1.69583e+00,3.93316e-01,1.82754e+00
0.00000e+00,2.68002e+01,-7.20546e+01,-1.64595e+00,3.87696e-01,1.77766e+00
0.00000e+00,2.48857e+01,-7.53298e+01,-1.57926e+00,3.82227e-01,1.71241e+00
0.00000e+00,2.26913e+01,-7.86050e+01,-1.49308e+00,3.76977e-01,1.62961e+00
0.00000e+00,2.01805e+01,-8.18802e+01,-1.38489e+00,3.72008e-01,1.52744e+00
0.00000e+00,1.72108e+01,-8.51554e+01,-1.24476e+00,3.67362e-01,1.39796e+00
0.00000e+00,1.33989e+01,-8.84306e+01,-1.04602e+00,3.63267e-01,1.22067e+00
0.00000e+00,8.24350e+00,-9.17058e+01,-7.53780e-01,3.60764e-01,9.79100e-01
0.00000e+00,-3.34020e+00,-9.49810e+01,-1.41777e-02,3.61756e-01,6.26741e-01
0.00000e+00,-4.17620e+00,-9.49886e+01,4.38475e-02,3.64837e-01,6.33435e-01
0.00000e+00,-1.17928e+01,-9.15961e+01,6.42828e-01,3.70677e-01,9.08533e-01
0.00000e+00,-1.27149e+01,-8.82037e+01,7.75927e-01,3.74993e-01,1.01189e+00
0.00000e+00,-1.30332e+01,-8.48113e+01,8.66996e-01,3.79533e-01,1.08803e+00
0.00000e+00,-1.30814e+01,-8.14188e+01,9.39278e-01,3.84284e-01,1.15120e+00
0.00000e+00,-1.29264e+01,-7.80264e+01,9.97408e-01,3.89209e-01,1.20386e+00
0.00000e+00,-1.26437e+01,-7.46339e+01,1.04666e+00,3.94277e-01,1.24974e+00
0.00000e+00,-1.22328e+01,-7.12415e+01,1.08699e+00,3.99461e-01,1.28851e+00
0.00000e+00,-1.17438e+01,-6.78490e+01,1.12188e+00,4.04733e-01,1.32289e+00
0.00000e+00,-1.12094e+01,-6.44565e+01,1.15361e+00,4.10082e-01,1.35474e+00
0.00000e+00,-1.06068e+01,-6.10641e+01,1.18059e+00,4.15492e-01,1.38264e+00
0.00000e+00,-9.96142e+00,-5.76716e+01,1.20460e+00,4.20948e-01,1.40807e+00
0.00000e+00,-9.27449e+00,-5.42792e+01,1.22572e+00,4.26440e-01,1.43106e+00
0.00000e+00,-8.54615e+00,-5.08867e+01,1.24396e+00,4.31955e-01,1.45161e+00
0.00000e+00,-7.79185e+00,-4.74943e+01,1.26038e+00,4.37485e-01,1.47063e+00
0.00000e+00,-7.00429e+00,-4.41018e+01,1.27450e+00,4.43022e-01,1.48767e+00
0.00000e+00,-6.19544e+00,-4.07094e+01,1.28713e+00,4.48556e-01,1.50343e+00
0.00000e+00,-5.36748e+00,-3.73169e+01,1.29843e+00,4.54083e-01,1.51806e+00
0.00000e+00,-4.52248e+00,-3.39245e+01,1.30855e+00,4.59594e-01,1.53166e+00
0.00000e+00,-3.67026e+00,-3.05320e+01,1.31816e+00,4.65088e-01,1.54482e+00
0.00000e+00,-2.80686e+00,-2.71396e+01,1.32700e+00,4.70560e-01,1.55731e+00
0.00000e+00,-1.94159e+00,-2.37472e+01,1.33570e+00,4.76008e-01,1.56967e+00
0.00000e+00,-1.06964e+00,-2.03547e+01,1.34394e+00,4.81431e-01,1.58162e+00
0.00000e+00,-1.97780e-01,-1.69622e+01,1.35219e+00,4.86827e-01,1.59356e+00
0.00000e+00,6.70785e-01,-1.35698e+01,1.36067e+00,4.92196e-01,1.60567e+00
0.00000e+00,1.53935e+00,-1.01774e+01,1.36914e+00,4.97536e-01,1.61777e+00
0.00000e+00,2.38735e+00,-6.78490e+00,1.37905e+00,5.02851e-01,1.63106e+00
0.00000e+00,3.23151e+00,-3.39245e+00,1.38923e+00,5.08143e-01,1.64456e+00
1.07300e+02,4.26785e+01,0.00000e+00,-1.17542e+00,4.84186e-01,1.44392e+00
1.07300e+02,4.24636e+01,-3.24312e+00,-1.22153e+00,4.79451e-01,1.47707e+00
1.07300e+02,4.21777e+01,-6.48624e+00,-1.26318e+00,4.74600e-01,1.50711e+00
1.07300e+02,4.18889e+01,-9.72936e+00,-1.30466e+00,4.69639e-01,1.53747e+00
1.07300e+02,4.15374e+01,-1.29725e+01,-1.34220e+00,4.64577e-01,1.56493e+00
1.07300e+02,4.11714e+01,-1.62156e+01,-1.37883e+00,4.59421e-01,1.59198e+00
1.07300e+02,4.07572e+01,-1.94587e+01,-1.41244e+00,4.54180e-01,1.61674e+00
1.07300e+02,4.03197e+01,-2.27018e+01,-1.44459e+00,4.48859e-01,1.64050e+00
1.07300e+02,3.98436e+01,-2.59450e+01,-1.47431e+00,4.43467e-01,1.66240e+00
1.07300e+02,3.93357e+01,-2.91881e+01,-1.50203e+00,4.38010e-01,1.68275e+00
1.07300e+02,3.87928e+01,-3.24312e+01,-1.52756e+00,4.32496e-01,1.70135e+00
1.07300e+02,3.82077e+01,-3.56743e+01,-1.55044e+00,4.26932e-01,1.71775e+00
1.07300e+02,3.75793e+01,-3.89174e+01,-1.57060e+00,4.21325e-01,1.73186e+00
1.07300e+02,3.68895e+01,-4.21606e+01,-1.58692e+00,4.15684e-01,1.74261e+00
1.07300e+02,3.61401e+01,-4.54037e+01,-1.59948e+00,4.10022e-01,1.75006e+00
1.07300e+02,3.53192e+01,-4.86468e+01,-1.60757e+00,4.04345e-01,1.75350e+00
1.07300e+02,3.44016e+01,-5.18899e+01,-1.60958e+00,3.98674e-01,1.75145e+00
1.07300e+02,3.34168e+01,-5.51330e+01,-1.60738e+00,3.93014e-01,1.74558e+00
1.07300e+02,3.22806e+01,-5.83762e+01,-1.59567e+00,3.87394e-01,1.73101e+00
1.07300e+02,3.10816e+01,-6.16193e+01,-1.58002e+00,3.81828e-01,1.71285e+00
1.07300e+02,2.97079e+01,-6.48624e+01,-1.55341e+00,3.76330e-01,1.68462e+00
1.07300e+02,2.81940e+01,-6.81055e+01,-1.51800e+00,3.70945e-01,1.64837e+00
1.07300e+02,2.65376e+01,-7.13486e+01,-1.47365e+00,3.65683e-01,1.60400e+00
1.07300e+02,2.46419e+01,-7.45918e+01,-1.41427e+00,3.60564e-01,1.54602e+00
1.07300e+02,2.24690e+01,-7.78349e+01,-1.33750e+00,3.55649e-01,1.47254e+00
1.07300e+02,1.99828e+01,-8.10780e+01,-1.24107e+00,3.50997e-01,1.38198e+00
1.07300e+02,1.70422e+01,-8.43211e+01,-1.11612e+00,3.46648e-01,1.26737e+00
1.07300e+02,1.32676e+01,-8.75642e+01,-9.38837e-01,3.42813e-01,1.11085e+00
1.07300e+02,8.16273e+00,-9.08074e+01,-6.78057e-01,3.40471e-01,8.98623e-01
1.07300e+02,-3.30748e+00,-9.40505e+01,-1.77949e-02,3.41400e-01,5.91590e-01
1.07300e+02,-4.13529e+00,-9.40580e+01,3.40197e-02,3.44283e-01,5.97286e-01
1.07300e+02,-1.16772e+01,-9.06988e+01,5.69081e-01,3.49752e-01,8.31163e-01
1.07300e+02,-1.25904e+01,-8.73396e+01,6.88125e-01,3.53792e-01,9.21423e-01
1.07300e+02,-1.29055e+01,-8.39804e+01,7.69635e-01,3.58043e-01,9.88394e-01
1.07300e+02,-1.29533e+01,-8.06211e+01,8.34371e-01,3.62491e-01,1.04421e+00
1.07300e+02,-1.27997e+01,-7.72619e+01,8.86468e-01,3.67101e-01,1.09092e+00
1.07300e+02,-1.25198e+01,-7.39027e+01,9.30634e-01,3.71846e-01,1.13176e+00
1.07300e+02,-1.21130e+01,-7.05435e+01,9.66837e-01,3.76698e-01,1.16640e+00
1.07300e+02,-1.16287e+01,-6.71843e+01,9.98182e-01,3.81634e-01,1.19721e+00
1.07300e+02,-1.10996e+01,-6.38251e+01,1.02671e+00,3.86642e-01,1.22581e+00
1.07300e+02,-1.05029e+01,-6.04659e+01,1.05099e+00,3.91706e-01,1.25095e+00
1.07300e+02,-9.86382e+00,-5.71066e+01,1.07262e+00,3.96814e-01,1.27393e+00
1.07300e+02,-9.18363e+00,-5.37474e+01,1.09167e+00,4.01956e-01,1.29477e+00
1.07300e+02,-8.46243e+00,-5.03882e+01,1.10814e+00,4.07119e-01,1.31347e+00
1.07300e+02,-7.71552e+00,-4.70290e+01,1.12300e+00,4.12296e-01,1.33082e+00
1.07300e+02,-6.93567e+00,-4.36698e+01,1.13579e+00,4.17480e-01,1.34644e+00
1.07300e+02,-6.13474e+00,-4.03106e+01,1.14726e+00,4.22661e-01,1.36093e+00
1.07300e+02,-5.31490e+00,-3.69514e+01,1.15754e+00,4.27834e-01,1.37442e+00
1.07300e+02,-4.47818e+00,-3.35921e+01,1.16676e+00,4.32994e-01,1.38701e+00
1.07300e+02,-3.63431e+00,-3.02329e+01,1.17554e+00,4.38137e-01,1.39921e+00
1.07300e+02,-2.77936e+00,-2.68737e+01,1.18362e+00,4.43260e-01,1.41081e+00
1.07300e+02,-1.92257e+00,-2.35145e+01,1.19158e+00,4.48360e-01,1.42230e+00
1.07300e+02,-1.05916e+00,-2.01553e+01,1.19913e+00,4.53437e-01,1.43343e+00
1.07300e+02,-1.95842e-01,-1.67961e+01,1.20668e+00,4.58488e-01,1.44455e+00
1.07300e+02,6.64213e-01,-1.34369e+01,1.21444e+00,4.63515e-01,1.45582e+00
1.07300e+02,1.52427e+00,-1.00776e+01,1.22220e+00,4.68514e-01,1.46707e+00
1.07300e+02,2.36396e+00,-6.71843e+00,1.23123e+00,4.73489e-01,1.47936e+00
1.07300e+02,3.19985e+00,-3.35921e+00,1.24051e+00,4.78443e-01,1.49184e+00
2.14300e+02,4.22575e+01,0.00000e+00,-1.04199e+00,4.53782e-01,1.30518e+00
2.14300e+02,4.20447e+01,-3.21112e+00,-1.08305e+00,4.49364e-01,1.33371e+00
2.14300e+02,4.17615e+01,-6.42224e+00,-1.12015e+00,4.44838e-01,1.35955e+00
2.14300e+02,4.14756e+01,-9.63337e+00,-1.15710e+00,4.40210e-01,1.38573e+00
2.14300e+02,4.11276e+01,-1.28445e+01,-1.19056e+00,4.35488e-01,1.40939e+00
2.14300e+02,4.07652e+01,-1.60556e+01,-1.22321e+00,4.30678e-01,1.43272e+00
2.14300e+02,4.03551e+01,-1.92667e+01,-1.25318e+00,4.25788e-01,1.45408e+00
2.14300e+02,3.99219e+01,-2.24779e+01,-1.28186e+00,4.20824e-01,1.47460e+00
2.14300e+02,3.94505e+01,-2.56890e+01,-1.30838e+00,4.15793e-01,1.49349e+00
2.14300e+02,3.89476e+01,-2.89001e+01,-1.33313e+00,4.10703e-01,1.51105e+00
2.14300e+02,3.84101e+01,-3.21112e+01,-1.35594e+00,4.05559e-01,1.52709e+00
2.14300e+02,3.78307e+01,-3.53223e+01,-1.37640e+00,4.00368e-01,1.54122e+00
2.14300e+02,3.72085e+01,-3.85335e+01,-1.39445e+00,3.95137e-01,1.55335e+00
2.14300e+02,3.65256e+01,-4.17446e+01,-1.40909e+00,3.89874e-01,1.56254e+00
2.14300e+02,3.57835e+01,-4.49557e+01,-1.42040e+00,3.84592e-01,1.56884e+00
2.14300e+02,3.49707e+01,-4.81668e+01,-1.42774e+00,3.79296e-01,1.57164e+00
2.14300e+02,3.40622e+01,-5.13780e+01,-1.42970e+00,3.74006e-01,1.56961e+00
2.14300e+02,3.30871e+01,-5.45891e+01,-1.42792e+00,3.68725e-01,1.56423e+00
2.14300e+02,3.19621e+01,-5.78002e+01,-1.41771e+00,3.63483e-01,1.55121e+00
2.14300e+02,3.07750e+01,-6.10113e+01,-1.40401e+00,3.58290e-01,1.53505e+00
2.14300e+02,2.94148e+01,-6.42224e+01,-1.38059e+00,3.53160e-01,1.51003e+00
2.14300e+02,2.79159e+01,-6.74336e+01,-1.34937e+00,3.48137e-01,1.47797e+00
2.14300e+02,2.62758e+01,-7.06447e+01,-1.31022e+00,3.43228e-01,1.43878e+00
2.14300e+02,2.43988e+01,-7.38558e+01,-1.25775e+00,3.38452e-01,1.38765e+00
2.14300e+02,2.22473e+01,-7.70669e+01,-1.18986e+00,3.33867e-01,1.32294e+00
2.14300e+02,1.97856e+01,-8.02781e+01,-1.10453e+00,3.29527e-01,1.24328e+00
2.14300e+02,1.68740e+01,-8.34892e+01,-9.93922e-01,3.25470e-01,1.14266e+00
2.14300e+02,1.31367e+01,-8.67003e+01,-8.36910e-01,3.21893e-01,1.00562e+00
2.14300e+02,8.08220e+00,-8.99114e+01,-6.05870e-01,3.19708e-01,8.20803e-01
2.14300e+02,-3.27484e+00,-9.31226e+01,-2.06406e-02,3.20575e-01,5.55635e-01
2.14300e+02,-4.09449e+00,-9.31300e+01,2.52989e-02,3.23265e-01,5.60482e-01
2.14300e+02,-1.15620e+01,-8.98039e+01,4.99876e-01,3.28366e-01,7.57198e-01
2.14300e+02,-1.24661e+01,-8.64779e+01,6.05601e-01,3.32135e-01,8.35281e-01
2.14300e+02,-1.27781e+01,-8.31518e+01,6.78050e-01,3.36101e-01,8.93668e-01
2.14300e+02,-1.28255e+01,-7.98257e+01,7.35625e-01,3.40250e-01,9.42579e-01
2.14300e+02,-1.26734e+01,-7.64996e+01,7.81995e-01,3.44551e-01,9.83698e-01
2.14300e+02,-1.23963e+01,-7.31736e+01,8.21333e-01,3.48978e-01,1.01978e+00
2.14300e+02,-1.19935e+01,-6.98475e+01,8.53610e-01,3.53505e-01,1.05050e+00
2.14300e+02,-1.15140e+01,-6.65214e+01,8.81581e-01,3.58110e-01,1.07792e+00
2.14300e+02,-1.09901e+01,-6.31954e+01,9.07053e-01,3.62781e-01,1.10344e+00
2.14300e+02,-1.03992e+01,-5.98693e+01,9.28762e-01,3.67506e-01,1.12596e+00
2.14300e+02,-9.76651e+00,-5.65432e+01,9.48118e-01,3.72271e-01,1.14660e+00
2.14300e+02,-9.09302e+00,-5.32171e+01,9.65184e-01,3.77068e-01,1.16538e+00
2.14300e+02,-8.37893e+00,-4.98911e+01,9.79969e-01,3.81885e-01,1.18231e+00
2.14300e+02,-7.63939e+00,-4.65650e+01,9.93322e-01,3.86715e-01,1.19805e+00
2.14300e+02,-6.86724e+00,-4.32389e+01,1.00484e+00,3.91550e-01,1.21229e+00
2.14300e+02,-6.07421e+00,-3.99129e+01,1.01519e+00,3.96383e-01,1.22555e+00
2.14300e+02,-5.26246e+00,-3.65868e+01,1.02449e+00,4.01210e-01,1.23793e+00
2.14300e+02,-4.43399e+00,-3.32607e+01,1.03284e+00,4.06023e-01,1.24953e+00
2.14300e+02,-3.59845e+00,-2.99346e+01,1.04080e+00,4.10821e-01,1.26079e+00
2.14300e+02,-2.75194e+00,-2.66086e+01,1.04814e+00,4.15600e-01,1.27153e+00
2.14300e+02,-1.90360e+00,-2.32825e+01,1.05538e+00,4.20358e-01,1.28216e+00
2.14300e+02,-1.04871e+00,-1.99564e+01,1.06225e+00,4.25095e-01,1.29248e+00
2.14300e+02,-1.93910e-01,-1.66304e+01,1.06913e+00,4.29807e-01,1.30278e+00
2.14300e+02,6.57660e-01,-1.33043e+01,1.07619e+00,4.34496e-01,1.31322e+00
2.14300e+02,1.50923e+00,-9.97821e+00,1.08325e+00,4.39160e-01,1.32363e+00
2.14300e+02,2.34063e+00,-6.65214e+00,1.09144e+00,4.43801e-01,1.33496e+00
2.14300e+02,3.16828e+00,-3.32607e+00,1.09984e+00,4.48422e-01,1.34644e+00
3.20700e+02,4.18388e+01,0.00000e+00,-9.16716e-01,4.23352e-01,1.17390e+00
3.20700e+02,4.16280e+01,-3.17930e+00,-9.53007e-01,4.19254e-01,1.19814e+00
3.20700e+02,4.13477e+01,-6.35861e+00,-9.85821e-01,4.15057e-01,1.22011e+00
3.20700e+02,4.10646e+01,-9.53791e+00,-1.01850e+00,4.10765e-01,1.24238e+00
3.20700e+02,4.07201e+01,-1.27172e+01,-1.04810e+00,4.06385e-01,1.26252e+00
3.20700e+02,4.03613e+01,-1.58965e+01,-1.07699e+00,4.01925e-01,1.28240e+00
3.20700e+02,3.99553e+01,-1.90758e+01,-1.10353e+00,3.97389e-01,1.30059e+00
3.20700e+02,3.95264e+01,-2.22551e+01,-1.12893e+00,3.92786e-01,1.31807e+00
3.20700e+02,3.90596e+01,-2.54344e+01,-1.15243e+00,3.88120e-01,1.33417e+00
3.20700e+02,3.85617e+01,-2.86137e+01,-1.17437e+00,3.83399e-01,1.34912e+00
3.20700e+02,3.80295e+01,-3.17930e+01,-1.19461e+00,3.78629e-01,1.36278e+00
3.20700e+02,3.74559e+01,-3.49724e+01,-1.21277e+00,3.73814e-01,1.37478e+00
3.20700e+02,3.68398e+01,-3.81517e+01,-1.22882e+00,3.68963e-01,1.38506e+00
3.20700e+02,3.61637e+01,-4.13310e+01,-1.24186e+00,3.64083e-01,1.39280e+00
3.20700e+02,3.54289e+01,-4.45103e+01,-1.25198e+00,3.59184e-01,1.39803e+00
3.20700e+02,3.46242e+01,-4.76896e+01,-1.25860e+00,3.54272e-01,1.40022e+00
3.20700e+02,3.37247e+01,-5.08689e+01,-1.26049e+00,3.49366e-01,1.39822e+00
3.20700e+02,3.27593e+01,-5.40482e+01,-1.25909e+00,3.44469e-01,1.39330e+00
3.20700e+02,3.16454e+01,-5.72275e+01,-1.25027e+00,3.39607e-01,1.38173e+00
3.20700e+02,3.04701e+01,-6.04068e+01,-1.23838e+00,3.34791e-01,1.36742e+00
3.20700e+02,2.91233e+01,-6.35861e+01,-1.21793e+00,3.30034e-01,1.34541e+00
3.20700e+02,2.76393e+01,-6.67654e+01,-1.19062e+00,3.25375e-01,1.31727e+00
3.20700e+02,2.60154e+01,-6.99447e+01,-1.15633e+00,3.20823e-01,1.28292e+00
3.20700e+02,2.41570e+01,-7.31240e+01,-1.11033e+00,3.16394e-01,1.23820e+00
3.20700e+02,2.20269e+01,-7.63033e+01,-1.05075e+00,3.12141e-01,1.18168e+00
3.20700e+02,1.95896e+01,-7.94826e+01,-9.75836e-01,3.08117e-01,1.11223e+00
3.20700e+02,1.67068e+01,-8.26619e+01,-8.78670e-01,3.04354e-01,1.02467e+00
3.20700e+02,1.30066e+01,-8.58412e+01,-7.40674e-01,3.01037e-01,9.05796e-01
3.20700e+02,8.00212e+00,-8.90205e+01,-5.37539e-01,2.99011e-01,7.46438e-01
3.20700e+02,-3.24239e+00,-9.21998e+01,-2.27412e-02,2.99814e-01,5.19791e-01
3.20700e+02,-4.05392e+00,-9.22072e+01,1.76819e-02,3.02309e-01,5.23914e-01
3.20700e+02,-1.14474e+01,-8.89141e+01,4.35445e-01,3.07041e-01,6.87339e-01
3.20700e+02,-1.23426e+01,-8.56210e+01,5.28646e-01,3.10536e-01,7.54164e-01
3.20700e+02,-1.26515e+01,-8.23279e+01,5.92565e-01,3.14214e-01,8.04564e-01
3.20700e+02,-1.26984e+01,-7.90348e+01,6.43396e-01,3.18062e-01,8.47024e-01
3.20700e+02,-1.25479e+01,-7.57416e+01,6.84368e-01,3.22051e-01,8.82898e-01
3.20700e+02,-1.22734e+01,-7.24485e+01,7.19152e-01,3.26156e-01,9.14501e-01
3.20700e+02,-1.18746e+01,-6.91554e+01,7.47723e-01,3.30355e-01,9.41537e-01
3.20700e+02,-1.13999e+01,-6.58623e+01,7.72504e-01,3.34625e-01,9.65756e-01
3.20700e+02,-1.08812e+01,-6.25692e+01,7.95087e-01,3.38958e-01,9.88352e-01
3.20700e+02,-1.02962e+01,-5.92761e+01,8.14359e-01,3.43339e-01,1.00838e+00
3.20700e+02,-9.66973e+00,-5.59829e+01,8.31561e-01,3.47758e-01,1.02679e+00
3.20700e+02,-9.00292e+00,-5.26898e+01,8.46747e-01,3.52207e-01,1.04361e+00
3.20700e+02,-8.29591e+00,-4.93967e+01,8.59925e-01,3.56674e-01,1.05883e+00
3.20700e+02,-7.56370e+00,-4.61036e+01,8.71845e-01,3.61153e-01,1.07304e+00
3.20700e+02,-6.79920e+00,-4.28105e+01,8.82152e-01,3.65637e-01,1.08594e+00
3.20700e+02,-6.01403e+00,-3.95174e+01,8.91427e-01,3.70120e-01,1.09800e+00
3.20700e+02,-5.21032e+00,-3.62243e+01,8.99775e-01,3.74596e-01,1.10931e+00
3.20700e+02,-4.39006e+00,-3.29311e+01,9.07298e-01,3.79060e-01,1.11993e+00
3.20700e+02,-3.56279e+00,-2.96380e+01,9.14470e-01,3.83509e-01,1.13026e+00
3.20700e+02,-2.72467e+00,-2.63449e+01,9.21100e-01,3.87941e-01,1.14014e+00
3.20700e+02,-1.88474e+00,-2.30518e+01,9.27639e-01,3.92354e-01,1.14993e+00
3.20700e+02,-1.03832e+00,-1.97587e+01,9.33855e-01,3.96746e-01,1.15944e+00
3.20700e+02,-1.91989e-01,-1.64656e+01,9.40075e-01,4.01116e-01,1.16894e+00
3.20700e+02,6.51143e-01,-1.31725e+01,9.46455e-01,4.05465e-01,1.17855e+00
3.20700e+02,1.49428e+00,-9.87934e+00,9.52835e-01,4.09790e-01,1.18814e+00
3.20700e+02,2.31744e+00,-6.58623e+00,9.60212e-01,4.14094e-01,1.19851e+00
3.20700e+02,3.13689e+00,-3.29311e+00,9.67775e-01,4.18380e-01,1.20901e+00
4.26200e+02,4.14236e+01,0.00000e+00,-8.00079e-01,3.93172e-01,1.05066e+00
4.26200e+02,4.12150e+01,-3.14776e+00,-8.31912e-01,3.89391e-01,1.07096e+00
4.26200e+02,4.09374e+01,-6.29551e+00,-8.60710e-01,3.85518e-01,1.08935e+00
4.26200e+02,4.06571e+01,-9.44327e+00,-8.89387e-01,3.81557e-01,1.10805e+00
4.26200e+02,4.03160e+01,-1.25910e+01,-9.15385e-01,3.77515e-01,1.12494e+00
4.26200e+02,3.99607e+01,-1.57388e+01,-9.40760e-01,3.73399e-01,1.14163e+00
4.26200e+02,3.95588e+01,-1.88865e+01,-9.64079e-01,3.69213e-01,1.15689e+00
4.26200e+02,3.91341e+01,-2.20343e+01,-9.86399e-01,3.64965e-01,1.17157e+00
4.26200e+02,3.86720e+01,-2.51820e+01,-1.00707e+00,3.60660e-01,1.18508e+00
4.26200e+02,3.81790e+01,-2.83298e+01,-1.02638e+00,3.56304e-01,1.19763e+00
4.26200e+02,3.76521e+01,-3.14776e+01,-1.04420e+00,3.51901e-01,1.20907e+00
4.26200e+02,3.70842e+01,-3.46253e+01,-1.06021e+00,3.47458e-01,1.21911e+00
4.26200e+02,3.64743e+01,-3.77731e+01,-1.07437e+00,3.42982e-01,1.22767e+00
4.26200e+02,3.58048e+01,-4.09208e+01,-1.08591e+00,3.38478e-01,1.23406e+00
4.26200e+02,3.50774e+01,-4.40686e+01,-1.09489e+00,3.33957e-01,1.23829e+00
4.26200e+02,3.42806e+01,-4.72163e+01,-1.10083e+00,3.29425e-01,1.23991e+00
4.26200e+02,3.33901e+01,-5.03641e+01,-1.10263e+00,3.24898e-01,1.23793e+00
4.26200e+02,3.24342e+01,-5.35118e+01,-1.10156e+00,3.20379e-01,1.23343e+00
4.26200e+02,3.13314e+01,-5.66596e+01,-1.09401e+00,3.15892e-01,1.22320e+00
4.26200e+02,3.01677e+01,-5.98074e+01,-1.08379e+00,3.11448e-01,1.21062e+00
4.26200e+02,2.88343e+01,-6.29551e+01,-1.06609e+00,3.07058e-01,1.19139e+00
4.26200e+02,2.73650e+01,-6.61029e+01,-1.04240e+00,3.02759e-01,1.16687e+00
4.26200e+02,2.57573e+01,-6.92506e+01,-1.01263e+00,2.98558e-01,1.13702e+00
4.26200e+02,2.39173e+01,-7.23984e+01,-9.72620e-01,2.94471e-01,1.09824e+00
4.26200e+02,2.18083e+01,-7.55461e+01,-9.20766e-01,2.90547e-01,1.04932e+00
4.26200e+02,1.93952e+01,-7.86939e+01,-8.55521e-01,2.86833e-01,9.89311e-01
4.26200e+02,1.65410e+01,-8.18417e+01,-7.70854e-01,2.83361e-01,9.13836e-01
4.26200e+02,1.28775e+01,-8.49894e+01,-6.50545e-01,2.80300e-01,8.11734e-01
4.26200e+02,7.92271e+00,-8.81372e+01,-4.73372e-01,2.78430e-01,6.75760e-01
4.26200e+02,-3.21022e+00,-9.12849e+01,-2.41366e-02,2.79172e-01,4.84143e-01
4.26200e+02,-4.01369e+00,-9.12922e+01,1.11502e-02,2.81475e-01,4.87656e-01
4.26200e+02,-1.13339e+01,-8.80318e+01,3.75993e-01,2.85841e-01,6.21680e-01
4.26200e+02,-1.22201e+01,-8.47713e+01,4.57511e-01,2.89066e-01,6.78228e-01
4.26200e+02,-1.25260e+01,-8.15109e+01,5.13467e-01,2.92460e-01,7.21282e-01
4.26200e+02,-1.25724e+01,-7.82505e+01,5.57999e-01,2.96011e-01,7.57780e-01
4.26200e+02,-1.24233e+01,-7.49900e+01,5.93924e-01,2.99692e-01,7.88791e-01
4.26200e+02,-1.21516e+01,-7.17296e+01,6.24447e-01,3.03480e-01,8.16232e-01
4.26200e+02,-1.17568e+01,-6.84692e+01,6.49547e-01,3.07355e-01,8.39828e-01
4.26200e+02,-1.12868e+01,-6.52087e+01,6.71338e-01,3.11296e-01,8.61052e-01
4.26200e+02,-1.07732e+01,-6.19483e+01,6.91211e-01,3.15293e-01,8.80910e-01
4.26200e+02,-1.01940e+01,-5.86879e+01,7.08193e-01,3.19337e-01,8.98591e-01
4.26200e+02,-9.57378e+00,-5.54274e+01,7.23368e-01,3.23415e-01,9.14906e-01
4.26200e+02,-8.91358e+00,-5.21670e+01,7.36783e-01,3.27520e-01,9.29869e-01
4.26200e+02,-8.21359e+00,-4.89065e+01,7.48446e-01,3.31642e-01,9.43467e-01
4.26200e+02,-7.48864e+00,-4.56461e+01,7.59010e-01,3.35775e-01,9.56207e-01
4.26200e+02,-6.73173e+00,-4.23857e+01,7.68167e-01,3.39913e-01,9.67834e-01
4.26200e+02,-5.95435e+00,-3.91252e+01,7.76422e-01,3.44050e-01,9.78745e-01
4.26200e+02,-5.15861e+00,-3.58648e+01,7.83869e-01,3.48180e-01,9.89008e-01
4.26200e+02,-4.34650e+00,-3.26044e+01,7.90594e-01,3.52299e-01,9.98691e-01
4.26200e+02,-3.52744e+00,-2.93439e+01,7.97014e-01,3.56405e-01,1.00812e+00
4.26200e+02,-2.69763e+00,-2.60835e+01,8.02960e-01,3.60495e-01,1.01716e+00
4.26200e+02,-1.86603e+00,-2.28231e+01,8.08828e-01,3.64567e-01,1.02612e+00
4.26200e+02,-1.02802e+00,-1.95626e+01,8.14413e-01,3.68620e-01,1.03485e+00
4.26200e+02,-1.90083e-01,-1.63022e+01,8.20001e-01,3.72652e-01,1.04356e+00
4.26200e+02,6.44682e-01,-1.30417e+01,8.25729e-01,3.76665e-01,1.05236e+00
4.26200e+02,1.47945e+00,-9.78131e+00,8.31457e-01,3.80656e-01,1.06114e+00
4.26200e+02,2.29445e+00,-6.52087e+00,8.38056e-01,3.84628e-01,1.07059e+00
4.26200e+02,3.10576e+00,-3.26044e+00,8.44817e-01,3.88582e-01,1.08014e+00
5.30600e+02,4.10127e+01,0.00000e+00,-6.92256e-01,3.63303e-01,9.35513e-01
5.30600e+02,4.08062e+01,-3.11654e+00,-7.19949e-01,3.59832e-01,9.52242e-01
5.30600e+02,4.05314e+01,-6.23307e+00,-7.45016e-01,3.56277e-01,9.67393e-01
5.30600e+02,4.02539e+01,-9.34961e+00,-7.69978e-01,3.52641e-01,9.82819e-01
5.30600e+02,3.99161e+01,-1.24661e+01,-7.92621e-01,3.48931e-01,9.96748e-01
5.30600e+02,3.95644e+01,-1.55827e+01,-8.14726e-01,3.45152e-01,1.01053e+00
5.30600e+02,3.91664e+01,-1.86992e+01,-8.35051e-01,3.41310e-01,1.02313e+00
5.30600e+02,3.87460e+01,-2.18158e+01,-8.54512e-01,3.37411e-01,1.03524e+00
5.30600e+02,3.82884e+01,-2.49323e+01,-8.72543e-01,3.33459e-01,1.04638e+00
5.30600e+02,3.78003e+01,-2.80488e+01,-8.89399e-01,3.29460e-01,1.05672e+00
5.30600e+02,3.72787e+01,-3.11654e+01,-9.04963e-01,3.25419e-01,1.06614e+00
5.30600e+02,3.67164e+01,-3.42819e+01,-9.18963e-01,3.21341e-01,1.07437e+00
5.30600e+02,3.61125e+01,-3.73984e+01,-9.31362e-01,3.17231e-01,1.08136e+00
5.30600e+02,3.54497e+01,-4.05150e+01,-9.41492e-01,3.13098e-01,1.08651e+00
5.30600e+02,3.47295e+01,-4.36315e+01,-9.49414e-01,3.08948e-01,1.08983e+00
5.30600e+02,3.39406e+01,-4.67480e+01,-9.54694e-01,3.04787e-01,1.09093e+00
5.30600e+02,3.30589e+01,-4.98646e+01,-9.56397e-01,3.00632e-01,1.08896e+00
5.30600e+02,3.21125e+01,-5.29811e+01,-9.55612e-01,2.96484e-01,1.08485e+00
5.30600e+02,3.10206e+01,-5.60976e+01,-9.49227e-01,2.92365e-01,1.07586e+00
5.30600e+02,2.98685e+01,-5.92142e+01,-9.40522e-01,2.88286e-01,1.06485e+00
5.30600e+02,2.85484e+01,-6.23307e+01,-9.25350e-01,2.84256e-01,1.04818e+00
5.30600e+02,2.70936e+01,-6.54473e+01,-9.04996e-01,2.80310e-01,1.02701e+00
5.30600e+02,2.55018e+01,-6.85638e+01,-8.79369e-01,2.76454e-01,1.00128e+00
5.30600e+02,2.36801e+01,-7.16803e+01,-8.44890e-01,2.72702e-01,9.67956e-01
5.30600e+02,2.15920e+01,-7.47969e+01,-8.00158e-01,2.69101e-01,9.26012e-01
5.30600e+02,1.92028e+01,-7.79134e+01,-7.43836e-01,2.65692e-01,8.74682e-01
5.30600e+02,1.63770e+01,-8.10299e+01,-6.70706e-01,2.62504e-01,8.10291e-01
5.30600e+02,1.27498e+01,-8.41465e+01,-5.66729e-01,2.59695e-01,7.23537e-01
5.30600e+02,7.84413e+00,-8.72630e+01,-4.13541e-01,2.57979e-01,6.08831e-01
5.30600e+02,-3.17838e+00,-9.03795e+01,-2.48991e-02,2.58660e-01,4.48703e-01
5.30600e+02,-3.97388e+00,-9.03868e+01,5.63916e-03,2.60773e-01,4.51708e-01
5.30600e+02,-1.12214e+01,-8.71587e+01,3.21538e-01,2.64781e-01,5.60101e-01
5.30600e+02,-1.20989e+01,-8.39306e+01,3.92235e-01,2.67742e-01,6.07376e-01
5.30600e+02,-1.24018e+01,-8.07025e+01,4.40811e-01,2.70857e-01,6.43743e-01
5.30600e+02,-1.24477e+01,-7.74744e+01,4.79500e-01,2.74117e-01,6.74789e-01
5.30600e+02,-1.23001e+01,-7.42463e+01,5.10740e-01,2.77496e-01,7.01332e-01
5.30600e+02,-1.20311e+01,-7.10182e+01,5.37305e-01,2.80973e-01,7.24937e-01
5.30600e+02,-1.16402e+01,-6.77901e+01,5.59176e-01,2.84529e-01,7.45352e-01
5.30600e+02,-1.11748e+01,-6.45620e+01,5.78185e-01,2.88147e-01,7.63795e-01
5.30600e+02,-1.06664e+01,-6.13339e+01,5.95532e-01,2.91817e-01,7.81108e-01
5.30600e+02,-1.00929e+01,-5.81058e+01,6.10378e-01,2.95528e-01,7.96600e-01
5.30600e+02,-9.47882e+00,-5.48777e+01,6.23660e-01,2.99271e-01,8.10951e-01
5.30600e+02,-8.82518e+00,-5.16496e+01,6.35420e-01,3.03039e-01,8.24170e-01
5.30600e+02,-8.13212e+00,-4.84215e+01,6.45662e-01,3.06823e-01,8.36242e-01
5.30600e+02,-7.41437e+00,-4.51934e+01,6.54954e-01,3.10617e-01,8.47593e-01
5.30600e+02,-6.66496e+00,-4.19653e+01,6.63028e-01,3.14415e-01,8.58007e-01
5.30600e+02,-5.89529e+00,-3.87372e+01,6.70321e-01,3.18212e-01,8.67817e-01
5.30600e+02,-5.10745e+00,-3.55091e+01,6.76915e-01,3.22003e-01,8.77081e-01
5.30600e+02,-4.30339e+00,-3.22810e+01,6.82884e-01,3.25785e-01,8.85854e-01
5.30600e+02,-3.49245e+00,-2.90529e+01,6.88589e-01,3.29553e-01,8.94411e-01
5.30600e+02,-2.67088e+00,-2.58248e+01,6.93885e-01,3.33307e-01,9.02639e-01
5.30600e+02,-1.84753e+00,-2.25967e+01,6.99112e-01,3.37045e-01,9.10799e-01
5.30600e+02,-1.01782e+00,-1.93686e+01,7.04094e-01,3.40765e-01,9.18755e-01
5.30600e+02,-1.88198e-01,-1.61405e+01,7.09080e-01,3.44467e-01,9.26696e-01
5.30600e+02,6.38288e-01,-1.29124e+01,7.14186e-01,3.48150e-01,9.34712e-01
5.30600e+02,1.46477e+00,-9.68430e+00,7.19293e-01,3.51813e-01,9.42708e-01
5.30600e+02,2.27169e+00,-6.45620e+00,7.25152e-01,3.55459e-01,9.51262e-01
5.30600e+02,3.07496e+00,-3.22810e+00,7.31152e-01,3.59089e-01,9.59905e-01
6.33500e+02,4.06078e+01,0.00000e+00,-5.93513e-01,3.33549e-01,8.28266e-01
6.33500e+02,4.04033e+01,-3.08576e+00,-6.17397e-01,3.30381e-01,8.41803e-01
6.33500e+02,4.01312e+01,-6.17153e+00,-6.39028e-01,3.27135e-01,8.54054e-01
6.33500e+02,3.98564e+01,-9.25729e+00,-6.60568e-01,3.23815e-01,8.66556e-01
6.33500e+02,3.95220e+01,-1.23431e+01,-6.80121e-01,3.20428e-01,8.77831e-01
6.33500e+02,3.91738e+01,-1.54288e+01,-6.99211e-01,3.16978e-01,8.89001e-01
6.33500e+02,3.87797e+01,-1.85146e+01,-7.16775e-01,3.13471e-01,8.99199e-01
6.33500e+02,3.83634e+01,-2.16004e+01,-7.33599e-01,3.09911e-01,9.09011e-01
6.33500e+02,3.79104e+01,-2.46861e+01,-7.49196e-01,3.06303e-01,9.18018e-01
6.33500e+02,3.74271e+01,-2.77719e+01,-7.63785e-01,3.02652e-01,9.26370e-01
6.33500e+02,3.69106e+01,-3.08576e+01,-7.77266e-01,2.98962e-01,9.33958e-01
6.33500e+02,3.63539e+01,-3.39434e+01,-7.89406e-01,2.95239e-01,9.40564e-01
6.33500e+02,3.57559e+01,-3.70292e+01,-8.00173e-01,2.91487e-01,9.46135e-01
6.33500e+02,3.50997e+01,-4.01149e+01,-8.08994e-01,2.87713e-01,9.50162e-01
6.33500e+02,3.43866e+01,-4.32007e+01,-8.15921e-01,2.83924e-01,9.52663e-01
6.33500e+02,3.36055e+01,-4.62865e+01,-8.20583e-01,2.80126e-01,9.53293e-01
6.33500e+02,3.27325e+01,-4.93722e+01,-8.22177e-01,2.76332e-01,9.51343e-01
6.33500e+02,3.17954e+01,-5.24580e+01,-8.21638e-01,2.72545e-01,9.47592e-01
6.33500e+02,3.07144e+01,-5.55438e+01,-8.16296e-01,2.68785e-01,9.39721e-01
6.33500e+02,2.95736e+01,-5.86295e+01,-8.08963e-01,2.65061e-01,9.30158e-01
6.33500e+02,2.82665e+01,-6.17153e+01,-7.96086e-01,2.61382e-01,9.15814e-01
6.33500e+02,2.68261e+01,-6.48011e+01,-7.78764e-01,2.57780e-01,8.97677e-01
6.33500e+02,2.52500e+01,-6.78868e+01,-7.56920e-01,2.54259e-01,8.75712e-01
6.33500e+02,2.34463e+01,-7.09726e+01,-7.27485e-01,2.50834e-01,8.47341e-01
6.33500e+02,2.13788e+01,-7.40584e+01,-6.89256e-01,2.47546e-01,8.11733e-01
6.33500e+02,1.90132e+01,-7.71441e+01,-6.41088e-01,2.44434e-01,7.68269e-01
6.33500e+02,1.62153e+01,-8.02299e+01,-5.78506e-01,2.41524e-01,7.13912e-01
6.33500e+02,1.26239e+01,-8.33156e+01,-4.89470e-01,2.38959e-01,6.41003e-01
6.33500e+02,7.76668e+00,-8.64014e+01,-3.58230e-01,2.37392e-01,5.45338e-01
6.33500e+02,-3.14700e+00,-8.94872e+01,-2.50657e-02,2.38014e-01,4.13014e-01
6.33500e+02,-3.93464e+00,-8.94943e+01,1.12347e-03,2.39944e-01,4.15596e-01
6.33500e+02,-1.11106e+01,-8.62981e+01,2.72175e-01,2.43603e-01,5.02102e-01
6.33500e+02,-1.19795e+01,-8.31019e+01,3.32943e-01,2.46306e-01,5.41157e-01
6.33500e+02,-1.22793e+01,-7.99057e+01,3.74740e-01,2.49150e-01,5.71540e-01
6.33500e+02,-1.23248e+01,-7.67094e+01,4.08058e-01,2.52126e-01,5.97674e-01
6.33500e+02,-1.21787e+01,-7.35132e+01,4.34987e-01,2.55211e-01,6.20170e-01
6.33500e+02,-1.19123e+01,-7.03170e+01,4.57908e-01,2.58385e-01,6.40288e-01
6.33500e+02,-1.15252e+01,-6.71208e+01,4.76803e-01,2.61632e-01,6.57796e-01
6.33500e+02,-1.10645e+01,-6.39245e+01,4.93243e-01,2.64935e-01,6.73691e-01
6.33500e+02,-1.05611e+01,-6.07283e+01,5.08259e-01,2.68285e-01,6.88664e-01
6.33500e+02,-9.99326e+00,-5.75321e+01,5.21129e-01,2.71674e-01,7.02136e-01
6.33500e+02,-9.38524e+00,-5.43358e+01,5.32658e-01,2.75091e-01,7.14667e-01
6.33500e+02,-8.73804e+00,-5.11396e+01,5.42881e-01,2.78531e-01,7.26263e-01
6.33500e+02,-8.05183e+00,-4.79434e+01,5.51803e-01,2.81985e-01,7.36909e-01
6.33500e+02,-7.34116e+00,-4.47472e+01,5.59910e-01,2.85449e-01,7.46956e-01
6.33500e+02,-6.59916e+00,-4.15509e+01,5.66972e-01,2.88917e-01,7.56225e-01
6.33500e+02,-5.83709e+00,-3.83547e+01,5.73366e-01,2.92383e-01,7.64991e-01
6.33500e+02,-5.05702e+00,-3.51585e+01,5.79159e-01,2.95844e-01,7.73302e-01
6.33500e+02,-4.26090e+00,-3.19623e+01,5.84417e-01,2.99296e-01,7.81203e-01
6.33500e+02,-3.45797e+00,-2.87660e+01,5.89448e-01,3.02737e-01,7.88922e-01
6.33500e+02,-2.64450e+00,-2.55698e+01,5.94127e-01,3.06164e-01,7.96365e-01
6.33500e+02,-1.82928e+00,-2.23736e+01,5.98748e-01,3.09576e-01,8.03749e-01
6.33500e+02,-1.00777e+00,-1.91774e+01,6.03160e-01,3.12973e-01,8.10961e-01
6.33500e+02,-1.86340e-01,-1.59811e+01,6.07574e-01,3.16352e-01,8.18157e-01
6.33500e+02,6.31986e-01,-1.27849e+01,6.12091e-01,3.19714e-01,8.25414e-01
6.33500e+02,1.45031e+00,-9.58868e+00,6.16609e-01,3.23059e-01,8.32651e-01
6.33500e+02,2.24926e+00,-6.39245e+00,6.21773e-01,3.26387e-01,8.40349e-01
6.33500e+02,3.04460e+00,-3.19623e+00,6.27057e-01,3.29701e-01,8.48120e-01
7.34700e+02,4.02095e+01,0.00000e+00,-5.03801e-01,3.04038e-01,7.28789e-01
7.34700e+02,4.00070e+01,-3.05550e+00,-5.24202e-01,3.01162e-01,7.39516e-01
7.34700e+02,3.97376e+01,-6.11100e+00,-5.42690e-01,2.98216e-01,7.49207e-01
7.34700e+02,3.94656e+01,-9.16651e+00,-5.61102e-01,2.95203e-01,7.59124e-01
7.34700e+02,3.91344e+01,-1.22220e+01,-5.77825e-01,2.92129e-01,7.68049e-01
7.34700e+02,3.87896e+01,-1.52775e+01,-5.94157e-01,2.88998e-01,7.76905e-01
7.34700e+02,3.83994e+01,-1.83330e+01,-6.09192e-01,2.85814e-01,7.84974e-01
7.34700e+02,3.79872e+01,-2.13885e+01,-6.23598e-01,2.82583e-01,7.92738e-01
7.34700e+02,3.75386e+01,-2.44440e+01,-6.36963e-01,2.79308e-01,7.99850e-01
7.34700e+02,3.70601e+01,-2.74995e+01,-6.49472e-01,2.75994e-01,8.06432e-01
7.34700e+02,3.65486e+01,-3.05550e+01,-6.61040e-01,2.72646e-01,8.12392e-01
7.34700e+02,3.59973e+01,-3.36105e+01,-6.71470e-01,2.69266e-01,8.17548e-01
7.34700e+02,3.54053e+01,-3.66660e+01,-6.80733e-01,2.65861e-01,8.21854e-01
7.34700e+02,3.47554e+01,-3.97215e+01,-6.88345e-01,2.62436e-01,8.24886e-01
7.34700e+02,3.40493e+01,-4.27770e+01,-6.94348e-01,2.58997e-01,8.26654e-01
7.34700e+02,3.32760e+01,-4.58325e+01,-6.98428e-01,2.55550e-01,8.26873e-01
7.34700e+02,3.24115e+01,-4.88880e+01,-6.99903e-01,2.52106e-01,8.24946e-01
7.34700e+02,3.14836e+01,-5.19435e+01,-6.99566e-01,2.48669e-01,8.21524e-01
7.34700e+02,3.04131e+01,-5.49990e+01,-6.95152e-01,2.45256e-01,8.14671e-01
7.34700e+02,2.92835e+01,-5.80545e+01,-6.89047e-01,2.41876e-01,8.06411e-01
7.34700e+02,2.79893e+01,-6.11100e+01,-6.78234e-01,2.38537e-01,7.94168e-01
7.34700e+02,2.65630e+01,-6.41655e+01,-6.63648e-01,2.35268e-01,7.78769e-01
7.34700e+02,2.50024e+01,-6.72210e+01,-6.45221e-01,2.32072e-01,7.60186e-01
7.34700e+02,2.32164e+01,-7.02765e+01,-6.20349e-01,2.28964e-01,7.36278e-01
7.34700e+02,2.11691e+01,-7.33320e+01,-5.88010e-01,2.25979e-01,7.06368e-01
7.34700e+02,1.88268e+01,-7.63875e+01,-5.47232e-01,2.23155e-01,6.69968e-01
7.34700e+02,1.60563e+01,-7.94430e+01,-4.94214e-01,2.20514e-01,6.24601e-01
7.34700e+02,1.25001e+01,-8.24985e+01,-4.18735e-01,2.18186e-01,5.64051e-01
7.34700e+02,7.69051e+00,-8.55540e+01,-3.07420e-01,2.16764e-01,4.85249e-01
7.34700e+02,-3.11614e+00,-8.86096e+01,-2.46497e-02,2.17329e-01,3.77230e-01
7.34700e+02,-3.89606e+00,-8.86166e+01,-2.41265e-03,2.19080e-01,3.79465e-01
7.34700e+02,-1.10017e+01,-8.54518e+01,2.27864e-01,2.22401e-01,4.47559e-01
7.34700e+02,-1.18620e+01,-8.22869e+01,2.79589e-01,2.24854e-01,4.79425e-01
7.34700e+02,-1.21589e+01,-7.91220e+01,3.15204e-01,2.27436e-01,5.04515e-01
7.34700e+02,-1.22039e+01,-7.59571e+01,3.43620e-01,2.30137e-01,5.26274e-01
7.34700e+02,-1.20592e+01,-7.27922e+01,3.66612e-01,2.32937e-01,5.45145e-01
7.34700e+02,-1.17955e+01,-6.96274e+01,3.86200e-01,2.35818e-01,5.62122e-01
7.34700e+02,-1.14122e+01,-6.64625e+01,4.02369e-01,2.38765e-01,5.76999e-01
7.34700e+02,-1.09560e+01,-6.32976e+01,4.16454e-01,2.41762e-01,5.90577e-01
7.34700e+02,-1.04575e+01,-6.01327e+01,4.29330e-01,2.44803e-01,6.03415e-01
7.34700e+02,-9.89525e+00,-5.69678e+01,4.40384e-01,2.47879e-01,6.15036e-01
7.34700e+02,-9.29319e+00,-5.38030e+01,4.50299e-01,2.50980e-01,6.25893e-01
7.34700e+02,-8.65235e+00,-5.06381e+01,4.59105e-01,2.54102e-01,6.35989e-01
7.34700e+02,-7.97287e+00,-4.74732e+01,4.66807e-01,2.57238e-01,6.45308e-01
7.34700e+02,-7.26917e+00,-4.43083e+01,4.73816e-01,2.60381e-01,6.54139e-01
7.34700e+02,-6.53444e+00,-4.11434e+01,4.79939e-01,2.63529e-01,6.62332e-01
7.34700e+02,-5.77984e+00,-3.79786e+01,4.85493e-01,2.66675e-01,6.70112e-01
7.34700e+02,-5.00742e+00,-3.48137e+01,4.90538e-01,2.69816e-01,6.77517e-01
7.34700e+02,-4.21911e+00,-3.16488e+01,4.95128e-01,2.72949e-01,6.84584e-01
7.34700e+02,-3.42406e+00,-2.84839e+01,4.99525e-01,2.76072e-01,6.91500e-01
7.34700e+02,-2.61857e+00,-2.53190e+01,5.03625e-01,2.79182e-01,6.98188e-01
7.34700e+02,-1.81134e+00,-2.21542e+01,5.07674e-01,2.82279e-01,7.04825e-01
7.34700e+02,-9.97887e-01,-1.89893e+01,5.11546e-01,2.85362e-01,7.11318e-01
7.34700e+02,-1.84513e-01,-1.58244e+01,5.15419e-01,2.88429e-01,7.17796e-01
7.34700e+02,6.25788e-01,-1.26595e+01,5.19381e-01,2.91481e-01,7.24320e-01
7.34700e+02,1.43609e+00,-9.49464e+00,5.23343e-01,2.94516e-01,7.30826e-01
7.34700e+02,2.22720e+00,-6.32976e+00,5.27853e-01,2.97537e-01,7.37708e-01
7.34700e+02,3.01474e+00,-3.16488e+00,5.32465e-01,3.00544e-01,7.44647e-01
8.33800e+02,3.98196e+01,0.00000e+00,-4.23143e-01,2.74960e-01,6.37070e-01
8.33800e+02,3.96190e+01,-3.02587e+00,-4.40391e-01,2.72365e-01,6.45362e-01
8.33800e+02,3.93522e+01,-6.05173e+00,-4.56032e-01,2.69708e-01,6.52833e-01
8.33800e+02,3.90828e+01,-9.07760e+00,-4.71608e-01,2.66990e-01,6.60504e-01
8.33800e+02,3.87549e+01,-1.21035e+01,-4.85766e-01,2.64217e-01,6.67383e-01
8.33800e+02,3.84134e+01,-1.51293e+01,-4.99595e-01,2.61392e-01,6.74220e-01
8.33800e+02,3.80270e+01,-1.81552e+01,-5.12335e-01,2.58520e-01,6.80430e-01
8.33800e+02,3.76188e+01,-2.11811e+01,-5.24546e-01,2.55606e-01,6.86405e-01
8.33800e+02,3.71745e+01,-2.42069e+01,-5.35882e-01,2.52652e-01,6.91859e-01
8.33800e+02,3.67006e+01,-2.72328e+01,-5.46500e-01,2.49663e-01,6.96890e-01
8.33800e+02,3.61941e+01,-3.02587e+01,-5.56327e-01,2.46642e-01,7.01424e-01
8.33800e+02,3.56482e+01,-3.32845e+01,-5.65197e-01,2.43594e-01,7.05309e-01
8.33800e+02,3.50619e+01,-3.63104e+01,-5.73087e-01,2.40522e-01,7.08507e-01
8.33800e+02,3.44183e+01,-3.93363e+01,-5.79590e-01,2.37432e-01,7.10666e-01
8.33800e+02,3.37191e+01,-4.23621e+01,-5.84741e-01,2.34331e-01,7.11796e-01
8.33800e+02,3.29532e+01,-4.53880e+01,-5.88276e-01,2.31221e-01,7.11659e-01
8.33800e+02,3.20971e+01,-4.84139e+01,-5.89623e-01,2.28115e-01,7.09763e-01
8.33800e+02,3.11783e+01,-5.14397e+01,-5.89447e-01,2.25014e-01,7.06642e-01
8.33800e+02,3.01182e+01,-5.44656e+01,-5.85846e-01,2.21936e-01,7.00701e-01
8.33800e+02,2.89995e+01,-5.74915e+01,-5.80824e-01,2.18887e-01,6.93608e-01
8.33800e+02,2.77178e+01,-6.05173e+01,-5.71847e-01,2.15875e-01,6.83239e-01
8.33800e+02,2.63054e+01,-6.35432e+01,-5.59699e-01,2.12926e-01,6.70280e-01
8.33800e+02,2.47599e+01,-6.65691e+01,-5.44325e-01,2.10044e-01,6.54710e-01
8.33800e+02,2.29912e+01,-6.95949e+01,-5.23535e-01,2.07240e-01,6.34771e-01
8.33800e+02,2.09638e+01,-7.26208e+01,-4.96472e-01,2.04547e-01,6.09921e-01
8.33800e+02,1.86442e+01,-7.56467e+01,-4.62319e-01,2.02000e-01,5.79785e-01
8.33800e+02,1.59005e+01,-7.86725e+01,-4.17882e-01,1.99618e-01,5.42371e-01
8.33800e+02,1.23789e+01,-8.16984e+01,-3.54573e-01,1.97518e-01,4.92708e-01
8.33800e+02,7.61592e+00,-8.47243e+01,-2.61156e-01,1.96235e-01,4.28634e-01
8.33800e+02,-3.08591e+00,-8.77501e+01,-2.36853e-02,1.96745e-01,3.41594e-01
8.33800e+02,-3.85827e+00,-8.77572e+01,-5.00245e-03,1.98324e-01,3.43544e-01
8.33800e+02,-1.08950e+01,-8.46230e+01,1.88583e-01,2.01320e-01,3.96425e-01
8.33800e+02,-1.17470e+01,-8.14888e+01,2.32152e-01,2.03533e-01,4.22104e-01
8.33800e+02,-1.20409e+01,-7.83546e+01,2.62187e-01,2.05862e-01,4.42583e-01
8.33800e+02,-1.20856e+01,-7.52204e+01,2.86173e-01,2.08298e-01,4.60499e-01
8.33800e+02,-1.19423e+01,-7.20862e+01,3.05601e-01,2.10824e-01,4.76164e-01
8.33800e+02,-1.16811e+01,-6.89521e+01,3.22170e-01,2.13423e-01,4.90348e-01
8.33800e+02,-1.13015e+01,-6.58179e+01,3.35866e-01,2.16081e-01,5.02871e-01
8.33800e+02,-1.08497e+01,-6.26837e+01,3.47812e-01,2.18785e-01,5.14367e-01
8.33800e+02,-1.03561e+01,-5.95495e+01,3.58741e-01,2.21528e-01,5.25279e-01
8.33800e+02,-9.79928e+00,-5.64153e+01,3.68139e-01,2.24302e-01,5.35220e-01
8.33800e+02,-9.20306e+00,-5.32811e+01,3.76581e-01,2.27100e-01,5.44551e-01
8.33800e+02,-8.56843e+00,-5.01469e+01,3.84091e-01,2.29916e-01,5.53272e-01
8.33800e+02,-7.89554e+00,-4.70128e+01,3.90673e-01,2.32744e-01,5.61369e-01
8.33800e+02,-7.19866e+00,-4.38786e+01,3.96674e-01,2.35580e-01,5.69072e-01
8.33800e+02,-6.47106e+00,-4.07444e+01,4.01929e-01,2.38419e-01,5.76261e-01
8.33800e+02,-5.72378e+00,-3.76102e+01,4.06707e-01,2.41256e-01,5.83116e-01
8.33800e+02,-4.95886e+00,-3.44760e+01,4.11056e-01,2.44090e-01,5.89667e-01
8.33800e+02,-4.17819e+00,-3.13418e+01,4.15024e-01,2.46916e-01,5.95943e-01
8.33800e+02,-3.39085e+00,-2.82077e+01,4.18830e-01,2.49733e-01,6.02095e-01
8.33800e+02,-2.59317e+00,-2.50735e+01,4.22386e-01,2.52538e-01,6.08060e-01
8.33800e+02,-1.79378e+00,-2.19393e+01,4.25899e-01,2.55332e-01,6.13981e-01
8.33800e+02,-9.88209e-01,-1.88051e+01,4.29263e-01,2.58112e-01,6.19785e-01
8.33800e+02,-1.82723e-01,-1.56709e+01,4.32629e-01,2.60879e-01,6.25573e-01
8.33800e+02,6.19718e-01,-1.25367e+01,4.36069e-01,2.63631e-01,6.31396e-01
8.33800e+02,1.42216e+00,-9.40255e+00,4.39509e-01,2.66369e-01,6.37202e-01
8.33800e+02,2.20560e+00,-6.26837e+00,4.43409e-01,2.69094e-01,6.43309e-01
8.33800e+02,2.98550e+00,-3.13418e+00,4.47396e-01,2.71807e-01,6.49462e-01
9.30700e+02,3.94382e+01,0.00000e+00,-3.51226e-01,2.46412e-01,5.52736e-01
9.30700e+02,3.92396e+01,-2.99689e+00,-3.65641e-01,2.44089e-01,5.58956e-01
9.30700e+02,3.89754e+01,-5.99378e+00,-3.78721e-01,2.41709e-01,5.64534e-01
9.30700e+02,3.87085e+01,-8.99067e+00,-3.91748e-01,2.39274e-01,5.70284e-01
9.30700e+02,3.83837e+01,-1.19876e+01,-4.03597e-01,2.36791e-01,5.75413e-01
9.30700e+02,3.80455e+01,-1.49844e+01,-4.15172e-01,2.34261e-01,5.80520e-01
9.30700e+02,3.76628e+01,-1.79813e+01,-4.25844e-01,2.31689e-01,5.85135e-01
9.30700e+02,3.72585e+01,-2.09782e+01,-4.36076e-01,2.29079e-01,5.89571e-01
9.30700e+02,3.68185e+01,-2.39751e+01,-4.45582e-01,2.26434e-01,5.93599e-01
9.30700e+02,3.63492e+01,-2.69720e+01,-4.54491e-01,2.23756e-01,5.97296e-01
9.30700e+02,3.58475e+01,-2.99689e+01,-4.62744e-01,2.21051e-01,6.00602e-01
9.30700e+02,3.53068e+01,-3.29658e+01,-4.70202e-01,2.18321e-01,6.03392e-01
9.30700e+02,3.47261e+01,-3.59627e+01,-4.76846e-01,2.15570e-01,6.05635e-01
9.30700e+02,3.40887e+01,-3.89596e+01,-4.82339e-01,2.12803e-01,6.07047e-01
9.30700e+02,3.33962e+01,-4.19565e+01,-4.86709e-01,2.10025e-01,6.07632e-01
9.30700e+02,3.26376e+01,-4.49533e+01,-4.89737e-01,2.07240e-01,6.07197e-01
9.30700e+02,3.17897e+01,-4.79502e+01,-4.90948e-01,2.04459e-01,6.05343e-01
9.30700e+02,3.08797e+01,-5.09471e+01,-4.90896e-01,2.01682e-01,6.02499e-01
9.30700e+02,2.98297e+01,-5.39440e+01,-4.87998e-01,1.98925e-01,5.97374e-01
9.30700e+02,2.87218e+01,-5.69409e+01,-4.83922e-01,1.96194e-01,5.91318e-01
9.30700e+02,2.74524e+01,-5.99378e+01,-4.76560e-01,1.93497e-01,5.82609e-01
9.30700e+02,2.60534e+01,-6.29347e+01,-4.66567e-01,1.90856e-01,5.71806e-01
9.30700e+02,2.45228e+01,-6.59316e+01,-4.53894e-01,1.88274e-01,5.58893e-01
9.30700e+02,2.27710e+01,-6.89285e+01,-4.36724e-01,1.85763e-01,5.42450e-01
9.30700e+02,2.07631e+01,-7.19254e+01,-4.14346e-01,1.83352e-01,5.22050e-01
9.30700e+02,1.84656e+01,-7.49222e+01,-3.86080e-01,1.81071e-01,4.97411e-01
9.30700e+02,1.57483e+01,-7.79191e+01,-3.49275e-01,1.78937e-01,4.66957e-01
9.30700e+02,1.22603e+01,-8.09160e+01,-2.96801e-01,1.77057e-01,4.26776e-01
9.30700e+02,7.54299e+00,-8.39129e+01,-2.19326e-01,1.75908e-01,3.75413e-01
9.30700e+02,-3.05636e+00,-8.69098e+01,-2.22390e-02,1.76364e-01,3.06281e-01
9.30700e+02,-3.82132e+00,-8.69168e+01,-6.72618e-03,1.77779e-01,3.07996e-01
9.30700e+02,-1.07906e+01,-8.38126e+01,1.54111e-01,1.80462e-01,3.48497e-01
9.30700e+02,-1.16345e+01,-8.07084e+01,1.90384e-01,1.82444e-01,3.68923e-01
9.30700e+02,-1.19256e+01,-7.76042e+01,2.15420e-01,1.84530e-01,3.85434e-01
9.30700e+02,-1.19698e+01,-7.45001e+01,2.35432e-01,1.86712e-01,4.00015e-01
9.30700e+02,-1.18279e+01,-7.13959e+01,2.51660e-01,1.88974e-01,4.12875e-01
9.30700e+02,-1.15692e+01,-6.82917e+01,2.65514e-01,1.91301e-01,4.24601e-01
9.30700e+02,-1.11933e+01,-6.51876e+01,2.76983e-01,1.93682e-01,4.35038e-01
9.30700e+02,-1.07458e+01,-6.20834e+01,2.86998e-01,1.96103e-01,4.44677e-01
9.30700e+02,-1.02569e+01,-5.89792e+01,2.96169e-01,1.98560e-01,4.53866e-01
9.30700e+02,-9.70544e+00,-5.58751e+01,3.04070e-01,2.01044e-01,4.62293e-01
9.30700e+02,-9.11493e+00,-5.27709e+01,3.11175e-01,2.03550e-01,4.70242e-01
9.30700e+02,-8.48637e+00,-4.96667e+01,3.17508e-01,2.06072e-01,4.77711e-01
9.30700e+02,-7.81993e+00,-4.65625e+01,3.23069e-01,2.08605e-01,4.84687e-01
9.30700e+02,-7.12973e+00,-4.34584e+01,3.28148e-01,2.11144e-01,4.91352e-01
9.30700e+02,-6.40909e+00,-4.03542e+01,3.32608e-01,2.13687e-01,4.97608e-01
9.30700e+02,-5.66897e+00,-3.72500e+01,3.36671e-01,2.16228e-01,5.03599e-01
9.30700e+02,-4.91137e+00,-3.41459e+01,3.40379e-01,2.18766e-01,5.09346e-01
9.30700e+02,-4.13818e+00,-3.10417e+01,3.43770e-01,2.21297e-01,5.14874e-01
9.30700e+02,-3.35837e+00,-2.79375e+01,3.47027e-01,2.23819e-01,5.20301e-01
9.30700e+02,-2.56834e+00,-2.48334e+01,3.50075e-01,2.26332e-01,5.25577e-01
9.30700e+02,-1.77660e+00,-2.17292e+01,3.53089e-01,2.28834e-01,5.30817e-01
9.30700e+02,-9.78745e-01,-1.86250e+01,3.55979e-01,2.31324e-01,5.35960e-01
9.30700e+02,-1.80973e-01,-1.55208e+01,3.58870e-01,2.33801e-01,5.41089e-01
9.30700e+02,6.13784e-01,-1.24167e+01,3.61822e-01,2.36267e-01,5.46243e-01
9.30700e+02,1.40854e+00,-9.31251e+00,3.64775e-01,2.38718e-01,5.51380e-01
9.30700e+02,2.18448e+00,-6.20834e+00,3.68110e-01,2.41159e-01,5.56756e-01
9.30700e+02,2.95691e+00,-3.10417e+00,3.71517e-01,2.43588e-01,5.62166e-01
1.02500e+03,3.90671e+01,0.00000e+00,-2.87848e-01,2.18645e-01,4.75683e-01
1.02500e+03,3.88704e+01,-2.96869e+00,-2.99746e-01,2.16577e-01,4.80171e-01
1.02500e+03,3.86086e+01,-5.93738e+00,-3.10549e-01,2.14459e-01,4.84168e-01
1.02500e+03,3.83443e+01,-8.90607e+00,-3.21309e-01,2.12292e-01,4.88307e-01
1.02500e+03,3.80226e+01,-1.18748e+01,-3.31102e-01,2.10082e-01,4.91967e-01
1.02500e+03,3.76875e+01,-1.48435e+01,-3.40672e-01,2.07830e-01,4.95619e-01
1.02500e+03,3.73084e+01,-1.78121e+01,-3.49500e-01,2.05541e-01,4.98891e-01
1.02500e+03,3.69079e+01,-2.07808e+01,-3.57969e-01,2.03218e-01,5.02030e-01
1.02500e+03,3.64721e+01,-2.37495e+01,-3.65842e-01,2.00864e-01,5.04855e-01
1.02500e+03,3.60071e+01,-2.67182e+01,-3.73225e-01,1.98481e-01,5.07426e-01
1.02500e+03,3.55102e+01,-2.96869e+01,-3.80070e-01,1.96073e-01,5.09694e-01
1.02500e+03,3.49746e+01,-3.26556e+01,-3.86265e-01,1.93643e-01,5.11560e-01
1.02500e+03,3.43994e+01,-3.56243e+01,-3.91791e-01,1.91195e-01,5.12998e-01
1.02500e+03,3.37680e+01,-3.85930e+01,-3.96374e-01,1.88732e-01,5.13782e-01
1.02500e+03,3.30819e+01,-4.15617e+01,-4.00036e-01,1.86260e-01,5.13913e-01
1.02500e+03,3.23305e+01,-4.45304e+01,-4.02598e-01,1.83781e-01,5.13237e-01
1.02500e+03,3.14906e+01,-4.74990e+01,-4.03671e-01,1.81305e-01,5.11434e-01
1.02500e+03,3.05891e+01,-5.04677e+01,-4.03707e-01,1.78834e-01,5.08846e-01
1.02500e+03,2.95491e+01,-5.34364e+01,-4.01411e-01,1.76380e-01,5.04441e-01
1.02500e+03,2.84516e+01,-5.64051e+01,-3.98148e-01,1.73950e-01,4.99297e-01
1.02500e+03,2.71940e+01,-5.93738e+01,-3.92192e-01,1.71549e-01,4.92039e-01
1.02500e+03,2.58083e+01,-6.23425e+01,-3.84078e-01,1.69198e-01,4.83115e-01
1.02500e+03,2.42920e+01,-6.53112e+01,-3.73767e-01,1.66901e-01,4.72515e-01
1.02500e+03,2.25567e+01,-6.82799e+01,-3.59770e-01,1.64666e-01,4.59107e-01
1.02500e+03,2.05677e+01,-7.12486e+01,-3.41502e-01,1.62520e-01,4.42563e-01
1.02500e+03,1.82919e+01,-7.42173e+01,-3.18408e-01,1.60489e-01,4.22675e-01
1.02500e+03,1.56001e+01,-7.71859e+01,-2.88312e-01,1.58591e-01,3.98217e-01
1.02500e+03,1.21450e+01,-8.01546e+01,-2.45370e-01,1.56917e-01,3.66163e-01
1.02500e+03,7.47201e+00,-8.31233e+01,-1.81931e-01,1.55895e-01,3.25590e-01
1.02500e+03,-3.02760e+00,-8.60920e+01,-2.04265e-02,1.56301e-01,2.71491e-01
1.02500e+03,-3.78536e+00,-8.60989e+01,-7.70836e-03,1.57560e-01,2.73012e-01
1.02500e+03,-1.06891e+01,-8.30239e+01,1.24238e-01,1.59948e-01,3.03621e-01
1.02500e+03,-1.15250e+01,-7.99490e+01,1.54059e-01,1.61712e-01,3.19667e-01
1.02500e+03,-1.18134e+01,-7.68740e+01,1.74667e-01,1.63569e-01,3.32825e-01
1.02500e+03,-1.18572e+01,-7.37991e+01,1.91156e-01,1.65511e-01,3.44561e-01
1.02500e+03,-1.17166e+01,-7.07241e+01,2.04544e-01,1.67524e-01,3.55008e-01
1.02500e+03,-1.14604e+01,-6.76491e+01,2.15984e-01,1.69595e-01,3.64605e-01
1.02500e+03,-1.10880e+01,-6.45742e+01,2.25469e-01,1.71714e-01,3.73221e-01
1.02500e+03,-1.06447e+01,-6.14992e+01,2.33762e-01,1.73869e-01,3.81230e-01
1.02500e+03,-1.01604e+01,-5.84243e+01,2.41363e-01,1.76056e-01,3.88900e-01
1.02500e+03,-9.61411e+00,-5.53493e+01,2.47923e-01,1.78267e-01,3.95983e-01
1.02500e+03,-9.02916e+00,-5.22743e+01,2.53831e-01,1.80497e-01,4.02700e-01
1.02500e+03,-8.40652e+00,-4.91994e+01,2.59105e-01,1.82742e-01,4.09046e-01
1.02500e+03,-7.74634e+00,-4.61244e+01,2.63747e-01,1.84996e-01,4.15009e-01
1.02500e+03,-7.06264e+00,-4.30495e+01,2.67993e-01,1.87256e-01,4.20731e-01
1.02500e+03,-6.34878e+00,-3.99745e+01,2.71731e-01,1.89519e-01,4.26134e-01
1.02500e+03,-5.61563e+00,-3.68995e+01,2.75145e-01,1.91781e-01,4.31328e-01
1.02500e+03,-4.86516e+00,-3.38246e+01,2.78267e-01,1.94039e-01,4.36333e-01
1.02500e+03,-4.09924e+00,-3.07496e+01,2.81130e-01,1.96292e-01,4.41164e-01
1.02500e+03,-3.32677e+00,-2.76746e+01,2.83882e-01,1.98537e-01,4.45914e-01
1.02500e+03,-2.54417e+00,-2.45997e+01,2.86463e-01,2.00773e-01,4.50545e-01
1.02500e+03,-1.75988e+00,-2.15247e+01,2.89016e-01,2.03000e-01,4.55145e-01
1.02500e+03,-9.69535e-01,-1.84498e+01,2.91468e-01,2.05216e-01,4.59667e-01
1.02500e+03,-1.79270e-01,-1.53748e+01,2.93920e-01,2.07421e-01,4.64176e-01
1.02500e+03,6.08008e-01,-1.22998e+01,2.96423e-01,2.09615e-01,4.68702e-01
1.02500e+03,1.39529e+00,-9.22488e+00,2.98926e-01,2.11797e-01,4.73213e-01
1.02500e+03,2.16392e+00,-6.14992e+00,3.01742e-01,2.13969e-01,4.77908e-01
1.02500e+03,2.92908e+00,-3.07496e+00,3.04618e-01,2.16131e-01,4.82628e-01
1.11650e+03,3.87070e+01,0.00000e+00,-2.32626e-01,1.91610e-01,4.05288e-01
1.11650e+03,3.85121e+01,-2.94133e+00,-2.42311e-01,1.89788e-01,4.08379e-01
1.11650e+03,3.82528e+01,-5.88266e+00,-2.51112e-01,1.87922e-01,4.11098e-01
1.11650e+03,3.79909e+01,-8.82398e+00,-2.59878e-01,1.86014e-01,4.13932e-01
1.11650e+03,3.76721e+01,-1.17653e+01,-2.67863e-01,1.84066e-01,4.16403e-01
1.11650e+03,3.73401e+01,-1.47066e+01,-2.75667e-01,1.82083e-01,4.18873e-01
1.11650e+03,3.69645e+01,-1.76480e+01,-2.82871e-01,1.80066e-01,4.21056e-01
1.11650e+03,3.65678e+01,-2.05893e+01,-2.89785e-01,1.78020e-01,4.23141e-01
1.11650e+03,3.61359e+01,-2.35306e+01,-2.96216e-01,1.75945e-01,4.24988e-01
1.11650e+03,3.56753e+01,-2.64720e+01,-3.02253e-01,1.73847e-01,4.26643e-01
1.11650e+03,3.51829e+01,-2.94133e+01,-3.07854e-01,1.71725e-01,4.28069e-01
1.11650e+03,3.46522e+01,-3.23546e+01,-3.12929e-01,1.69585e-01,4.29187e-01
1.11650e+03,3.40823e+01,-3.52959e+01,-3.17464e-01,1.67428e-01,4.29977e-01
1.11650e+03,3.34567e+01,-3.82373e+01,-3.21236e-01,1.65259e-01,4.30260e-01
1.11650e+03,3.27770e+01,-4.11786e+01,-3.24263e-01,1.63081e-01,4.30038e-01
1.11650e+03,3.20325e+01,-4.41199e+01,-3.26402e-01,1.60897e-01,4.29187e-01
1.11650e+03,3.12004e+01,-4.70612e+01,-3.27336e-01,1.58716e-01,4.27459e-01
1.11650e+03,3.03072e+01,-5.00026e+01,-3.27432e-01,1.56539e-01,4.25117e-01
1.11650e+03,2.92767e+01,-5.29439e+01,-3.25642e-01,1.54377e-01,4.21355e-01
1.11650e+03,2.81893e+01,-5.58852e+01,-3.23071e-01,1.52237e-01,4.17017e-01
1.11650e+03,2.69434e+01,-5.88266e+01,-3.18323e-01,1.50122e-01,4.11022e-01
1.11650e+03,2.55704e+01,-6.17679e+01,-3.11830e-01,1.48051e-01,4.03726e-01
1.11650e+03,2.40681e+01,-6.47092e+01,-3.03561e-01,1.46027e-01,3.95121e-01
1.11650e+03,2.23488e+01,-6.76505e+01,-2.92311e-01,1.44058e-01,3.84323e-01
1.11650e+03,2.03781e+01,-7.05919e+01,-2.77609e-01,1.42168e-01,3.71082e-01
1.11650e+03,1.81233e+01,-7.35332e+01,-2.59005e-01,1.40379e-01,3.55249e-01
1.11650e+03,1.54563e+01,-7.64745e+01,-2.34740e-01,1.38706e-01,3.35889e-01
1.11650e+03,1.20330e+01,-7.94159e+01,-2.00089e-01,1.37232e-01,3.10698e-01
1.11650e+03,7.40314e+00,-8.23572e+01,-1.48867e-01,1.36332e-01,2.79142e-01
1.11650e+03,-2.99970e+00,-8.52985e+01,-1.83613e-02,1.36690e-01,2.37464e-01
1.11650e+03,-3.75047e+00,-8.53053e+01,-8.07916e-03,1.37799e-01,2.38812e-01
1.11650e+03,-1.05906e+01,-8.22587e+01,9.86654e-02,1.39903e-01,2.61635e-01
1.11650e+03,-1.14188e+01,-7.92121e+01,1.22845e-01,1.41457e-01,2.74081e-01
1.11650e+03,-1.17045e+01,-7.61655e+01,1.39575e-01,1.43092e-01,2.84441e-01
1.11650e+03,-1.17479e+01,-7.31189e+01,1.52975e-01,1.44803e-01,2.93777e-01
1.11650e+03,-1.16086e+01,-7.00722e+01,1.63868e-01,1.46576e-01,3.02169e-01
1.11650e+03,-1.13547e+01,-6.70256e+01,1.73187e-01,1.48401e-01,3.09939e-01
1.11650e+03,-1.09858e+01,-6.39790e+01,1.80925e-01,1.50267e-01,3.16977e-01
1.11650e+03,-1.05466e+01,-6.09324e+01,1.87699e-01,1.52166e-01,3.23565e-01
1.11650e+03,-1.00667e+01,-5.78858e+01,1.93913e-01,1.54092e-01,3.29902e-01
1.11650e+03,-9.52550e+00,-5.48391e+01,1.99286e-01,1.56040e-01,3.35797e-01
1.11650e+03,-8.94594e+00,-5.17925e+01,2.04131e-01,1.58004e-01,3.41417e-01
1.11650e+03,-8.32904e+00,-4.87459e+01,2.08464e-01,1.59982e-01,3.46756e-01
1.11650e+03,-7.67495e+00,-4.56993e+01,2.12287e-01,1.61967e-01,3.51804e-01
1.11650e+03,-6.99754e+00,-4.26527e+01,2.15789e-01,1.63959e-01,3.56668e-01
1.11650e+03,-6.29027e+00,-3.96060e+01,2.18881e-01,1.65952e-01,3.61288e-01
1.11650e+03,-5.56387e+00,-3.65594e+01,2.21710e-01,1.67944e-01,3.65747e-01
1.11650e+03,-4.82031e+00,-3.35128e+01,2.24303e-01,1.69934e-01,3.70060e-01
1.11650e+03,-4.06146e+00,-3.04662e+01,2.26687e-01,1.71918e-01,3.74239e-01
1.11650e+03,-3.29611e+00,-2.74196e+01,2.28981e-01,1.73896e-01,3.78354e-01
1.11650e+03,-2.52072e+00,-2.43730e+01,2.31138e-01,1.75866e-01,3.82376e-01
1.11650e+03,-1.74366e+00,-2.13263e+01,2.33271e-01,1.77827e-01,3.86372e-01
1.11650e+03,-9.60599e-01,-1.82797e+01,2.35322e-01,1.79780e-01,3.90306e-01
1.11650e+03,-1.77618e-01,-1.52331e+01,2.37374e-01,1.81722e-01,3.94227e-01
1.11650e+03,6.02404e-01,-1.21865e+01,2.39467e-01,1.83655e-01,3.98160e-01
1.11650e+03,1.38243e+00,-9.13986e+00,2.41560e-01,1.85577e-01,4.02079e-01
1.11650e+03,2.14398e+00,-6.09324e+00,2.43906e-01,1.87490e-01,4.06138e-01
1.11650e+03,2.90209e+00,-3.04662e+00,2.46300e-01,1.89395e-01,4.10213e-01
1.20500e+03,3.76912e+01,0.00000e+00,-2.63870e-01,1.84430e-01,4.14331e-01
1.20500e+03,3.75014e+01,-2.86413e+00,-2.74107e-01,1.82197e-01,4.17998e-01
1.20500e+03,3.72488e+01,-5.72827e+00,-2.83337e-01,1.79910e-01,4.21168e-01
1.20500e+03,3.69938e+01,-8.59240e+00,-2.92527e-01,1.77571e-01,4.24460e-01
1.20500e+03,3.66834e+01,-1.14565e+01,-3.00829e-01,1.75184e-01,4.27278e-01
1.20500e+03,3.63602e+01,-1.43207e+01,-3.08924e-01,1.72753e-01,4.30075e-01
1.20500e+03,3.59944e+01,-1.71848e+01,-3.16337e-01,1.70281e-01,4.32499e-01
1.20500e+03,3.56080e+01,-2.00489e+01,-3.23419e-01,1.67772e-01,4.34789e-01
1.20500e+03,3.51875e+01,-2.29131e+01,-3.29953e-01,1.65229e-01,4.36773e-01
1.20500e+03,3.47390e+01,-2.57772e+01,-3.36037e-01,1.62655e-01,4.38509e-01
1.20500e+03,3.42596e+01,-2.86413e+01,-3.41625e-01,1.60054e-01,4.39954e-01
1.20500e+03,3.37428e+01,-3.15055e+01,-3.46614e-01,1.57429e-01,4.41014e-01
1.20500e+03,3.31878e+01,-3.43696e+01,-3.50990e-01,1.54784e-01,4.41665e-01
1.20500e+03,3.25787e+01,-3.72337e+01,-3.54496e-01,1.52123e-01,4.41692e-01
1.20500e+03,3.19168e+01,-4.00979e+01,-3.57156e-01,1.49452e-01,4.41098e-01
1.20500e+03,3.11919e+01,-4.29620e+01,-3.58803e-01,1.46774e-01,4.39736e-01
1.20500e+03,3.03815e+01,-4.58261e+01,-3.59080e-01,1.44098e-01,4.37300e-01
1.20500e+03,2.95118e+01,-4.86903e+01,-3.58403e-01,1.41428e-01,4.34118e-01
1.20500e+03,2.85084e+01,-5.15544e+01,-3.55581e-01,1.38776e-01,4.29202e-01
1.20500e+03,2.74495e+01,-5.44186e+01,-3.51868e-01,1.36150e-01,4.23582e-01
1.20500e+03,2.62363e+01,-5.72827e+01,-3.45678e-01,1.33555e-01,4.15938e-01
1.20500e+03,2.48993e+01,-6.01468e+01,-3.37502e-01,1.31014e-01,4.06696e-01
1.20500e+03,2.34365e+01,-6.30110e+01,-3.27305e-01,1.28531e-01,3.95840e-01
1.20500e+03,2.17623e+01,-6.58751e+01,-3.13716e-01,1.26115e-01,3.82273e-01
1.20500e+03,1.98433e+01,-6.87392e+01,-2.96198e-01,1.23795e-01,3.65662e-01
1.20500e+03,1.76476e+01,-7.16034e+01,-2.74238e-01,1.21599e-01,3.45783e-01
1.20500e+03,1.50506e+01,-7.44675e+01,-2.45837e-01,1.19546e-01,3.21418e-01
1.20500e+03,1.17172e+01,-7.73316e+01,-2.05615e-01,1.17735e-01,2.89590e-01
1.20500e+03,7.20885e+00,-8.01958e+01,-1.46533e-01,1.16628e-01,2.49556e-01
1.20500e+03,-2.92097e+00,-8.30599e+01,2.78011e-03,1.17065e-01,2.02781e-01
1.20500e+03,-3.65204e+00,-8.30665e+01,1.44840e-02,1.18424e-01,2.05628e-01
1.20500e+03,-1.03126e+01,-8.00999e+01,1.35155e-01,1.21004e-01,2.49384e-01
1.20500e+03,-1.11191e+01,-7.71332e+01,1.61858e-01,1.22909e-01,2.67429e-01
1.20500e+03,-1.13974e+01,-7.41666e+01,1.80084e-01,1.24915e-01,2.81499e-01
1.20500e+03,-1.14396e+01,-7.11999e+01,1.94522e-01,1.27014e-01,2.93660e-01
1.20500e+03,-1.13040e+01,-6.82332e+01,2.06104e-01,1.29189e-01,3.04217e-01
1.20500e+03,-1.10567e+01,-6.52666e+01,2.15895e-01,1.31428e-01,3.13736e-01
1.20500e+03,-1.06975e+01,-6.22999e+01,2.23887e-01,1.33718e-01,3.22129e-01
1.20500e+03,-1.02698e+01,-5.93332e+01,2.30782e-01,1.36047e-01,3.29829e-01
1.20500e+03,-9.80253e+00,-5.63666e+01,2.37041e-01,1.38410e-01,3.37136e-01
1.20500e+03,-9.27551e+00,-5.33999e+01,2.42341e-01,1.40801e-01,3.43808e-01
1.20500e+03,-8.71115e+00,-5.04333e+01,2.47042e-01,1.43212e-01,3.50083e-01
1.20500e+03,-8.11045e+00,-4.74666e+01,2.51159e-01,1.45638e-01,3.55967e-01
1.20500e+03,-7.47352e+00,-4.44999e+01,2.54694e-01,1.48076e-01,3.61453e-01
1.20500e+03,-6.81389e+00,-4.15333e+01,2.57866e-01,1.50520e-01,3.66692e-01
1.20500e+03,-6.12518e+00,-3.85666e+01,2.60570e-01,1.52967e-01,3.71609e-01
1.20500e+03,-5.41785e+00,-3.55999e+01,2.62976e-01,1.55413e-01,3.76318e-01
1.20500e+03,-4.69381e+00,-3.26333e+01,2.65114e-01,1.57855e-01,3.80841e-01
1.20500e+03,-3.95486e+00,-2.96666e+01,2.67012e-01,1.60291e-01,3.85195e-01
1.20500e+03,-3.20961e+00,-2.67000e+01,2.68809e-01,1.62720e-01,3.89476e-01
1.20500e+03,-2.45457e+00,-2.37333e+01,2.70449e-01,1.65139e-01,3.93643e-01
1.20500e+03,-1.69790e+00,-2.07666e+01,2.72062e-01,1.67547e-01,3.97787e-01
1.20500e+03,-9.35389e-01,-1.78000e+01,2.73582e-01,1.69945e-01,4.01860e-01
1.20500e+03,-1.72956e-01,-1.48333e+01,2.75104e-01,1.72330e-01,4.05925e-01
1.20500e+03,5.86594e-01,-1.18666e+01,2.76671e-01,1.74704e-01,4.10014e-01
1.20500e+03,1.34615e+00,-8.89999e+00,2.78239e-01,1.77066e-01,4.14094e-01
1.20500e+03,2.08771e+00,-5.93332e+00,2.80095e-01,1.79416e-01,4.18358e-01
1.20500e+03,2.82592e+00,-2.96666e+00,2.82005e-01,1.81756e-01,4.22649e-01
1.29010e+03,3.63234e+01,0.00000e+00,-2.13732e-01,1.64908e-01,3.56743e-01
1.29010e+03,3.61405e+01,-2.76019e+00,-2.22117e-01,1.62964e-01,3.59177e-01
1.29010e+03,3.58971e+01,-5.52039e+00,-2.29686e-01,1.60973e-01,3.61238e-01
1.29010e+03,3.56513e+01,-8.28058e+00,-2.37223e-01,1.58937e-01,3.63397e-01
1.29010e+03,3.53522e+01,-1.10408e+01,-2.44039e-01,1.56859e-01,3.65197e-01
1.29010e+03,3.50407e+01,-1.38010e+01,-2.50689e-01,1.54742e-01,3.66988e-01
1.29010e+03,3.46882e+01,-1.65612e+01,-2.56786e-01,1.52590e-01,3.68497e-01
1.29010e+03,3.43158e+01,-1.93214e+01,-2.62615e-01,1.50405e-01,3.69908e-01
1.29010e+03,3.39106e+01,-2.20816e+01,-2.68000e-01,1.48191e-01,3.71087e-01
1.29010e+03,3.34783e+01,-2.48418e+01,-2.73020e-01,1.45950e-01,3.72081e-01
1.29010e+03,3.30163e+01,-2.76019e+01,-2.77639e-01,1.43686e-01,3.72854e-01
1.29010e+03,3.25183e+01,-3.03621e+01,-2.81772e-01,1.41401e-01,3.73334e-01
1.29010e+03,3.19834e+01,-3.31223e+01,-2.85409e-01,1.39098e-01,3.73501e-01
1.29010e+03,3.13964e+01,-3.58825e+01,-2.88341e-01,1.36781e-01,3.73186e-01
1.29010e+03,3.07585e+01,-3.86427e+01,-2.90587e-01,1.34456e-01,3.72392e-01
1.29010e+03,3.00599e+01,-4.14029e+01,-2.92013e-01,1.32124e-01,3.71001e-01
1.29010e+03,2.92790e+01,-4.41631e+01,-2.92328e-01,1.29795e-01,3.68777e-01
1.29010e+03,2.84408e+01,-4.69233e+01,-2.91871e-01,1.27470e-01,3.65971e-01
1.29010e+03,2.74738e+01,-4.96835e+01,-2.89676e-01,1.25162e-01,3.61813e-01
1.29010e+03,2.64534e+01,-5.24437e+01,-2.86760e-01,1.22875e-01,3.57108e-01
1.29010e+03,2.52842e+01,-5.52039e+01,-2.81836e-01,1.20617e-01,3.50823e-01
1.29010e+03,2.39957e+01,-5.79641e+01,-2.75304e-01,1.18405e-01,3.43294e-01
1.29010e+03,2.25860e+01,-6.07243e+01,-2.67134e-01,1.16243e-01,3.34511e-01
1.29010e+03,2.09725e+01,-6.34845e+01,-2.56216e-01,1.14140e-01,3.23620e-01
1.29010e+03,1.91232e+01,-6.62447e+01,-2.42114e-01,1.12120e-01,3.10374e-01
1.29010e+03,1.70072e+01,-6.90049e+01,-2.24415e-01,1.10209e-01,2.94618e-01
1.29010e+03,1.45045e+01,-7.17651e+01,-2.01497e-01,1.08421e-01,2.75439e-01
1.29010e+03,1.12920e+01,-7.45253e+01,-1.69002e-01,1.06845e-01,2.50618e-01
1.29010e+03,6.94724e+00,-7.72855e+01,-1.21228e-01,1.05882e-01,2.19839e-01
1.29010e+03,-2.81497e+00,-8.00457e+01,-3.52054e-04,1.06262e-01,1.84052e-01
1.29010e+03,-3.51951e+00,-8.00521e+01,9.12970e-03,1.07446e-01,1.86326e-01
1.29010e+03,-9.93839e+00,-7.71931e+01,1.06986e-01,1.09692e-01,2.18043e-01
1.29010e+03,-1.07156e+01,-7.43341e+01,1.28715e-01,1.11351e-01,2.31872e-01
1.29010e+03,-1.09838e+01,-7.14751e+01,1.43576e-01,1.13097e-01,2.42872e-01
1.29010e+03,-1.10244e+01,-6.86160e+01,1.55367e-01,1.14924e-01,2.52510e-01
1.29010e+03,-1.08937e+01,-6.57570e+01,1.64845e-01,1.16818e-01,2.60984e-01
1.29010e+03,-1.06555e+01,-6.28980e+01,1.72872e-01,1.18767e-01,2.68703e-01
1.29010e+03,-1.03093e+01,-6.00390e+01,1.79441e-01,1.20760e-01,2.75587e-01
1.29010e+03,-9.89713e+00,-5.71800e+01,1.85122e-01,1.22788e-01,2.81959e-01
1.29010e+03,-9.44680e+00,-5.43210e+01,1.90287e-01,1.24846e-01,2.88042e-01
1.29010e+03,-8.93890e+00,-5.14620e+01,1.94676e-01,1.26926e-01,2.93649e-01
1.29010e+03,-8.39503e+00,-4.86030e+01,1.98578e-01,1.29025e-01,2.98958e-01
1.29010e+03,-7.81612e+00,-4.57440e+01,2.02009e-01,1.31138e-01,3.03972e-01
1.29010e+03,-7.20231e+00,-4.28850e+01,2.04968e-01,1.33259e-01,3.08684e-01
1.29010e+03,-6.56662e+00,-4.00260e+01,2.07632e-01,1.35387e-01,3.13209e-01
1.29010e+03,-5.90290e+00,-3.71670e+01,2.09917e-01,1.37517e-01,3.17487e-01
1.29010e+03,-5.22123e+00,-3.43080e+01,2.11961e-01,1.39646e-01,3.21606e-01
1.29010e+03,-4.52347e+00,-3.14490e+01,2.13787e-01,1.41772e-01,3.25581e-01
1.29010e+03,-3.81134e+00,-2.85900e+01,2.15420e-01,1.43893e-01,3.29426e-01
1.29010e+03,-3.09313e+00,-2.57310e+01,2.16970e-01,1.46007e-01,3.33212e-01
1.29010e+03,-2.36549e+00,-2.28720e+01,2.18393e-01,1.48113e-01,3.36909e-01
1.29010e+03,-1.63628e+00,-2.00130e+01,2.19795e-01,1.50209e-01,3.40585e-01
1.29010e+03,-9.01444e-01,-1.71540e+01,2.21121e-01,1.52296e-01,3.44205e-01
1.29010e+03,-1.66680e-01,-1.42950e+01,2.22448e-01,1.54373e-01,3.47816e-01
1.29010e+03,5.65307e-01,-1.14360e+01,2.23813e-01,1.56439e-01,3.51442e-01
1.29010e+03,1.29729e+00,-8.57701e+00,2.25177e-01,1.58495e-01,3.55058e-01
1.29010e+03,2.01195e+00,-5.71800e+00,2.26776e-01,1.60540e-01,3.58813e-01
1.29010e+03,2.72337e+00,-2.85900e+00,2.28418e-01,1.62577e-01,3.62586e-01
1.37170e+03,3.50118e+01,0.00000e+00,-1.69832e-01,1.45712e-01,3.04202e-01
1.37170e+03,3.48355e+01,-2.66053e+00,-1.76572e-01,1.44039e-01,3.05646e-01
1.37170e+03,3.46009e+01,-5.32106e+00,-1.82665e-01,1.42326e-01,3.06816e-01
1.37170e+03,3.43640e+01,-7.98159e+00,-1.88731e-01,1.40573e-01,3.08061e-01
1.37170e+03,3.40757e+01,-1.06421e+01,-1.94225e-01,1.38785e-01,3.09042e-01
1.37170e+03,3.37754e+01,-1.33027e+01,-1.99587e-01,1.36963e-01,3.10019e-01
1.37170e+03,3.34357e+01,-1.59632e+01,-2.04509e-01,1.35111e-01,3.10788e-01
1.37170e+03,3.30768e+01,-1.86237e+01,-2.09218e-01,1.33232e-01,3.11487e-01
1.37170e+03,3.26861e+01,-2.12842e+01,-2.13574e-01,1.31326e-01,3.12016e-01
1.37170e+03,3.22695e+01,-2.39448e+01,-2.17640e-01,1.29398e-01,3.12409e-01
1.37170e+03,3.18241e+01,-2.66053e+01,-2.21388e-01,1.27450e-01,3.12639e-01
1.37170e+03,3.13441e+01,-2.92658e+01,-2.24749e-01,1.25484e-01,3.12651e-01
1.37170e+03,3.08286e+01,-3.19264e+01,-2.27715e-01,1.23502e-01,3.12430e-01
1.37170e+03,3.02627e+01,-3.45869e+01,-2.30122e-01,1.21509e-01,3.11849e-01
1.37170e+03,2.96479e+01,-3.72474e+01,-2.31983e-01,1.19508e-01,3.10906e-01
1.37170e+03,2.89745e+01,-3.99080e+01,-2.33193e-01,1.17502e-01,3.09514e-01
1.37170e+03,2.82218e+01,-4.25685e+01,-2.33520e-01,1.15498e-01,3.07491e-01
1.37170e+03,2.74139e+01,-4.52290e+01,-2.33234e-01,1.13497e-01,3.05029e-01
1.37170e+03,2.64818e+01,-4.78895e+01,-2.31565e-01,1.11511e-01,3.01540e-01
1.37170e+03,2.54982e+01,-5.05501e+01,-2.29324e-01,1.09544e-01,2.97639e-01
1.37170e+03,2.43712e+01,-5.32106e+01,-2.25487e-01,1.07601e-01,2.92537e-01
1.37170e+03,2.31293e+01,-5.58711e+01,-2.20371e-01,1.05697e-01,2.86495e-01
1.37170e+03,2.17704e+01,-5.85317e+01,-2.13954e-01,1.03837e-01,2.79505e-01
1.37170e+03,2.02153e+01,-6.11922e+01,-2.05353e-01,1.02028e-01,2.70922e-01
1.37170e+03,1.84327e+01,-6.38527e+01,-1.94222e-01,1.00290e-01,2.60570e-01
1.37170e+03,1.63931e+01,-6.65133e+01,-1.80231e-01,9.86457e-02,2.48347e-01
1.37170e+03,1.39807e+01,-6.91738e+01,-1.62092e-01,9.71080e-02,2.33589e-01
1.37170e+03,1.08843e+01,-7.18343e+01,-1.36342e-01,9.57522e-02,2.14697e-01
1.37170e+03,6.69639e+00,-7.44949e+01,-9.84486e-02,9.49233e-02,1.91634e-01
1.37170e+03,-2.71333e+00,-7.71554e+01,-2.45484e-03,9.52509e-02,1.64998e-01
1.37170e+03,-3.39243e+00,-7.71616e+01,5.08093e-03,9.62697e-02,1.66821e-01
1.37170e+03,-9.57954e+00,-7.44058e+01,8.29349e-02,9.82019e-02,1.89233e-01
1.37170e+03,-1.03287e+01,-7.16500e+01,1.00284e-01,9.96296e-02,1.99587e-01
1.37170e+03,-1.05872e+01,-6.88942e+01,1.12174e-01,1.01132e-01,2.08005e-01
1.37170e+03,-1.06264e+01,-6.61385e+01,1.21624e-01,1.02704e-01,2.15492e-01
1.37170e+03,-1.05004e+01,-6.33827e+01,1.29236e-01,1.04333e-01,2.22167e-01
1.37170e+03,-1.02708e+01,-6.06269e+01,1.35695e-01,1.06011e-01,2.28315e-01
1.37170e+03,-9.93701e+00,-5.78712e+01,1.40995e-01,1.07726e-01,2.33868e-01
1.37170e+03,-9.53977e+00,-5.51154e+01,1.45589e-01,1.09471e-01,2.39056e-01
1.37170e+03,-9.10569e+00,-5.23596e+01,1.49773e-01,1.11241e-01,2.44040e-01
1.37170e+03,-8.61613e+00,-4.96039e+01,1.53340e-01,1.13031e-01,2.48679e-01
1.37170e+03,-8.09190e+00,-4.68481e+01,1.56521e-01,1.14837e-01,2.53104e-01
1.37170e+03,-7.53389e+00,-4.40923e+01,1.59326e-01,1.16655e-01,2.57313e-01
1.37170e+03,-6.94225e+00,-4.13365e+01,1.61757e-01,1.18480e-01,2.61301e-01
1.37170e+03,-6.32951e+00,-3.85808e+01,1.63954e-01,1.20311e-01,2.65150e-01
1.37170e+03,-5.68976e+00,-3.58250e+01,1.65849e-01,1.22143e-01,2.68818e-01
1.37170e+03,-5.03271e+00,-3.30692e+01,1.67553e-01,1.23975e-01,2.72366e-01
1.37170e+03,-4.36014e+00,-3.03135e+01,1.69083e-01,1.25804e-01,2.75807e-01
1.37170e+03,-3.67372e+00,-2.75577e+01,1.70460e-01,1.27629e-01,2.79149e-01
1.37170e+03,-2.98144e+00,-2.48019e+01,1.71771e-01,1.29448e-01,2.82445e-01
1.37170e+03,-2.28008e+00,-2.20462e+01,1.72981e-01,1.31259e-01,2.85673e-01
1.37170e+03,-1.57720e+00,-1.92904e+01,1.74174e-01,1.33063e-01,2.88884e-01
1.37170e+03,-8.68894e-01,-1.65346e+01,1.75307e-01,1.34858e-01,2.92050e-01
1.37170e+03,-1.60661e-01,-1.37788e+01,1.76441e-01,1.36645e-01,2.95207e-01
1.37170e+03,5.44895e-01,-1.10231e+01,1.77605e-01,1.38423e-01,2.98372e-01
1.37170e+03,1.25045e+00,-8.26731e+00,1.78768e-01,1.40191e-01,3.01527e-01
1.37170e+03,1.93930e+00,-5.51154e+00,1.80118e-01,1.41951e-01,3.04782e-01
1.37170e+03,2.62503e+00,-2.75577e+00,1.81502e-01,1.43703e-01,3.08049e-01
1.44960e+03,3.37597e+01,0.00000e+00,-1.32006e-01,1.27200e-01,2.56836e-01
1.44960e+03,3.35897e+01,-2.56538e+00,-1.37307e-01,1.25776e-01,2.57512e-01
1.44960e+03,3.33635e+01,-5.13077e+00,-1.42105e-01,1.24318e-01,2.57990e-01
1.44960e+03,3.31351e+01,-7.69615e+00,-1.46883e-01,1.22826e-01,2.58522e-01
1.44960e+03,3.28571e+01,-1.02615e+01,-1.51215e-01,1.21305e-01,2.58864e-01
1.44960e+03,3.25675e+01,-1.28269e+01,-1.55445e-01,1.19754e-01,2.59203e-01
1.44960e+03,3.22399e+01,-1.53923e+01,-1.59333e-01,1.18178e-01,2.59394e-01
1.44960e+03,3.18939e+01,-1.79577e+01,-1.63055e-01,1.16579e-01,2.59536e-01
1.44960e+03,3.15172e+01,-2.05231e+01,-1.66503e-01,1.14957e-01,2.59555e-01
1.44960e+03,3.11155e+01,-2.30885e+01,-1.69725e-01,1.13317e-01,2.59478e-01
1.44960e+03,3.06860e+01,-2.56538e+01,-1.72700e-01,1.11658e-01,2.59284e-01
1.44960e+03,3.02232e+01,-2.82192e+01,-1.75375e-01,1.09985e-01,2.58933e-01
1.44960e+03,2.97261e+01,-3.07846e+01,-1.77742e-01,1.08299e-01,2.58415e-01
1.44960e+03,2.91805e+01,-3.33500e+01,-1.79674e-01,1.06603e-01,2.57634e-01
1.44960e+03,2.85877e+01,-3.59154e+01,-1.81183e-01,1.04900e-01,2.56591e-01
1.44960e+03,2.79383e+01,-3.84808e+01,-1.82185e-01,1.03193e-01,2.55220e-01
1.44960e+03,2.72125e+01,-4.10462e+01,-1.82500e-01,1.01487e-01,2.53388e-01
1.44960e+03,2.64335e+01,-4.36115e+01,-1.82338e-01,9.97851e-02,2.51234e-01
1.44960e+03,2.55347e+01,-4.61769e+01,-1.81102e-01,9.80949e-02,2.48326e-01
1.44960e+03,2.45863e+01,-4.87423e+01,-1.79421e-01,9.64208e-02,2.45118e-01
1.44960e+03,2.34997e+01,-5.13077e+01,-1.76499e-01,9.47671e-02,2.41028e-01
1.44960e+03,2.23022e+01,-5.38731e+01,-1.72584e-01,9.31475e-02,2.36251e-01
1.44960e+03,2.09919e+01,-5.64385e+01,-1.67656e-01,9.15648e-02,2.30783e-01
1.44960e+03,1.94923e+01,-5.90039e+01,-1.61030e-01,9.00250e-02,2.24152e-01
1.44960e+03,1.77735e+01,-6.15692e+01,-1.52438e-01,8.85465e-02,2.16238e-01
1.44960e+03,1.58069e+01,-6.41346e+01,-1.41622e-01,8.71472e-02,2.06980e-01
1.44960e+03,1.34808e+01,-6.67000e+01,-1.27581e-01,8.58388e-02,1.95913e-01
1.44960e+03,1.04950e+01,-6.92654e+01,-1.07623e-01,8.46852e-02,1.81927e-01
1.44960e+03,6.45692e+00,-7.18308e+01,-7.82240e-02,8.39801e-02,1.65157e-01
1.44960e+03,-2.61629e+00,-7.43962e+01,-3.65516e-03,8.42591e-02,1.45987e-01
1.44960e+03,-3.27111e+00,-7.44021e+01,2.20336e-03,8.51261e-02,1.47459e-01
1.44960e+03,-9.23696e+00,-7.17449e+01,6.27942e-02,8.67705e-02,1.62882e-01
1.44960e+03,-9.95928e+00,-6.90877e+01,7.63454e-02,8.79855e-02,1.70449e-01
1.44960e+03,-1.02085e+01,-6.64305e+01,8.56527e-02,8.92640e-02,1.76750e-01
1.44960e+03,-1.02464e+01,-6.37732e+01,9.30632e-02,9.06018e-02,1.82447e-01
1.44960e+03,-1.01249e+01,-6.11160e+01,9.90447e-02,9.19884e-02,1.87604e-01
1.44960e+03,-9.90345e+00,-5.84588e+01,1.04129e-01,9.34156e-02,1.92412e-01
1.44960e+03,-9.58164e+00,-5.58016e+01,1.08314e-01,9.48752e-02,1.96814e-01
1.44960e+03,-9.19861e+00,-5.31444e+01,1.11949e-01,9.63600e-02,2.00968e-01
1.44960e+03,-8.78006e+00,-5.04872e+01,1.15265e-01,9.78663e-02,2.04987e-01
1.44960e+03,-8.30801e+00,-4.78299e+01,1.18102e-01,9.93898e-02,2.08765e-01
1.44960e+03,-7.80252e+00,-4.51727e+01,1.20638e-01,1.00926e-01,2.12396e-01
1.44960e+03,-7.26447e+00,-4.25155e+01,1.22883e-01,1.02473e-01,2.15876e-01
1.44960e+03,-6.69398e+00,-3.98583e+01,1.24836e-01,1.04026e-01,2.19200e-01
1.44960e+03,-6.10316e+00,-3.72011e+01,1.26607e-01,1.05584e-01,2.22426e-01
1.44960e+03,-5.48628e+00,-3.45438e+01,1.28144e-01,1.07143e-01,2.25522e-01
1.44960e+03,-4.85273e+00,-3.18866e+01,1.29532e-01,1.08702e-01,2.28532e-01
1.44960e+03,-4.20421e+00,-2.92294e+01,1.30785e-01,1.10259e-01,2.31464e-01
1.44960e+03,-3.54234e+00,-2.65722e+01,1.31919e-01,1.11811e-01,2.34324e-01
1.44960e+03,-2.87482e+00,-2.39150e+01,1.33002e-01,1.13359e-01,2.37150e-01
1.44960e+03,-2.19854e+00,-2.12577e+01,1.34006e-01,1.14900e-01,2.39924e-01
1.44960e+03,-1.52080e+00,-1.86005e+01,1.34997e-01,1.16435e-01,2.42684e-01
1.44960e+03,-8.37821e-01,-1.59433e+01,1.35941e-01,1.17963e-01,2.45409e-01
1.44960e+03,-1.54916e-01,-1.32861e+01,1.36886e-01,1.19483e-01,2.48125e-01
1.44960e+03,5.25408e-01,-1.06289e+01,1.37854e-01,1.20995e-01,2.50845e-01
1.44960e+03,1.20573e+00,-7.97166e+00,1.38822e-01,1.22500e-01,2.53555e-01
1.44960e+03,1.86995e+00,-5.31444e+00,1.39935e-01,1.23997e-01,2.56335e-01
1.44960e+03,2.53116e+00,-2.65722e+00,1.41075e-01,1.25488e-01,2.59121e-01
1.52340e+03,3.25736e+01,0.00000e+00,-1.00125e-01,1.09121e-01,2.13886e-01
1.52340e+03,3.24095e+01,-2.47525e+00,-1.04194e-01,1.07930e-01,2.14016e-01
1.52340e+03,3.21913e+01,-4.95049e+00,-1.07880e-01,1.06710e-01,2.14007e-01
1.52340e+03,3.19709e+01,-7.42574e+00,-1.11552e-01,1.05462e-01,2.14033e-01
1.52340e+03,3.17026e+01,-9.90099e+00,-1.14886e-01,1.04188e-01,2.13926e-01
1.52340e+03,3.14232e+01,-1.23762e+01,-1.18142e-01,1.02891e-01,2.13816e-01
1.52340e+03,3.11072e+01,-1.48515e+01,-1.21138e-01,1.01572e-01,2.13601e-01
1.52340e+03,3.07733e+01,-1.73267e+01,-1.24009e-01,1.00234e-01,2.13351e-01
1.52340e+03,3.04098e+01,-1.98020e+01,-1.26672e-01,9.88773e-02,2.13016e-01
1.52340e+03,3.00222e+01,-2.22772e+01,-1.29164e-01,9.75045e-02,2.12614e-01
1.52340e+03,2.96079e+01,-2.47525e+01,-1.31467e-01,9.61171e-02,2.12130e-01
1.52340e+03,2.91613e+01,-2.72277e+01,-1.33543e-01,9.47171e-02,2.11537e-01
1.52340e+03,2.86816e+01,-2.97030e+01,-1.35386e-01,9.33063e-02,2.10826e-01
1.52340e+03,2.81552e+01,-3.21782e+01,-1.36899e-01,9.18871e-02,2.09931e-01
1.52340e+03,2.75832e+01,-3.46535e+01,-1.38091e-01,9.04623e-02,2.08853e-01
1.52340e+03,2.69567e+01,-3.71287e+01,-1.38898e-01,8.90340e-02,2.07542e-01
1.52340e+03,2.62564e+01,-3.96040e+01,-1.39184e-01,8.76072e-02,2.05906e-01
1.52340e+03,2.55047e+01,-4.20792e+01,-1.39109e-01,8.61829e-02,2.04043e-01
1.52340e+03,2.46375e+01,-4.45544e+01,-1.38218e-01,8.47688e-02,2.01647e-01
1.52340e+03,2.37225e+01,-4.70297e+01,-1.36989e-01,8.33682e-02,1.99040e-01
1.52340e+03,2.26740e+01,-4.95049e+01,-1.34820e-01,8.19846e-02,1.95808e-01
1.52340e+03,2.15185e+01,-5.19802e+01,-1.31896e-01,8.06295e-02,1.92094e-01
1.52340e+03,2.02543e+01,-5.44554e+01,-1.28205e-01,7.93054e-02,1.87895e-01
1.52340e+03,1.88075e+01,-5.69307e+01,-1.23226e-01,7.80171e-02,1.82878e-01
1.52340e+03,1.71490e+01,-5.94059e+01,-1.16754e-01,7.67802e-02,1.76966e-01
1.52340e+03,1.52515e+01,-6.18812e+01,-1.08595e-01,7.56095e-02,1.70127e-01
1.52340e+03,1.30071e+01,-6.43564e+01,-9.79905e-02,7.45149e-02,1.62048e-01
1.52340e+03,1.01263e+01,-6.68317e+01,-8.28964e-02,7.35498e-02,1.51989e-01
1.52340e+03,6.23005e+00,-6.93069e+01,-6.06400e-02,7.29601e-02,1.40167e-01
1.52340e+03,-2.52437e+00,-7.17822e+01,-4.11576e-03,7.31937e-02,1.26842e-01
1.52340e+03,-3.15618e+00,-7.17879e+01,3.28661e-04,7.39192e-02,1.28032e-01
1.52340e+03,-8.91241e+00,-6.92241e+01,4.63443e-02,7.52951e-02,1.38405e-01
1.52340e+03,-9.60935e+00,-6.66602e+01,5.66735e-02,7.63117e-02,1.43813e-01
1.52340e+03,-9.84985e+00,-6.40963e+01,6.37832e-02,7.73814e-02,1.48432e-01
1.52340e+03,-9.88634e+00,-6.15325e+01,6.94538e-02,7.85007e-02,1.52679e-01
1.52340e+03,-9.76914e+00,-5.89686e+01,7.40404e-02,7.96609e-02,1.56587e-01
1.52340e+03,-9.55548e+00,-5.64048e+01,7.79466e-02,8.08550e-02,1.60276e-01
1.52340e+03,-9.24498e+00,-5.38409e+01,8.11697e-02,8.20762e-02,1.63701e-01
1.52340e+03,-8.87540e+00,-5.12771e+01,8.39761e-02,8.33185e-02,1.66967e-01
1.52340e+03,-8.47156e+00,-4.87132e+01,8.65408e-02,8.45787e-02,1.70147e-01
1.52340e+03,-8.01609e+00,-4.61494e+01,8.87413e-02,8.58534e-02,1.73169e-01
1.52340e+03,-7.52837e+00,-4.35855e+01,9.07144e-02,8.71389e-02,1.76093e-01
1.52340e+03,-7.00922e+00,-4.10217e+01,9.24658e-02,8.84329e-02,1.78916e-01
1.52340e+03,-6.45878e+00,-3.84578e+01,9.39964e-02,8.97326e-02,1.81635e-01
1.52340e+03,-5.88872e+00,-3.58940e+01,9.53886e-02,9.10357e-02,1.84286e-01
1.52340e+03,-5.29352e+00,-3.33301e+01,9.66036e-02,9.23403e-02,1.86849e-01
1.52340e+03,-4.68222e+00,-3.07662e+01,9.77050e-02,9.36444e-02,1.89352e-01
1.52340e+03,-4.05649e+00,-2.82024e+01,9.87046e-02,9.49467e-02,1.91800e-01
1.52340e+03,-3.41788e+00,-2.56385e+01,9.96133e-02,9.62455e-02,1.94197e-01
1.52340e+03,-2.77381e+00,-2.30747e+01,1.00484e-01,9.75401e-02,1.96568e-01
1.52340e+03,-2.12129e+00,-2.05108e+01,1.01294e-01,9.88296e-02,1.98903e-01
1.52340e+03,-1.46736e+00,-1.79470e+01,1.02095e-01,1.00114e-01,2.01225e-01
1.52340e+03,-8.08383e-01,-1.53831e+01,1.02860e-01,1.01392e-01,2.03521e-01
1.52340e+03,-1.49473e-01,-1.28193e+01,1.03625e-01,1.02663e-01,2.05809e-01
1.52340e+03,5.06948e-01,-1.02554e+01,1.04409e-01,1.03929e-01,2.08098e-01
1.52340e+03,1.16337e+00,-7.69156e+00,1.05192e-01,1.05187e-01,2.10377e-01
1.52340e+03,1.80424e+00,-5.12771e+00,1.06084e-01,1.06440e-01,2.12702e-01
1.52340e+03,2.44222e+00,-2.56385e+00,1.06998e-01,1.07687e-01,2.15030e-01
1.59310e+03,3.14533e+01,0.00000e+00,-7.38427e-02,9.19564e-02,1.75558e-01
1.59310e+03,3.12949e+01,-2.39012e+00,-7.68823e-02,9.09784e-02,1.75334e-01
1.59310e+03,3.10841e+01,-4.78023e+00,-7.96400e-02,8.99766e-02,1.75014e-01
1.59310e+03,3.08713e+01,-7.17035e+00,-8.23863e-02,8.89520e-02,1.74714e-01
1.59310e+03,3.06123e+01,-9.56047e+00,-8.48837e-02,8.79066e-02,1.74321e-01
1.59310e+03,3.03425e+01,-1.19506e+01,-8.73234e-02,8.68418e-02,1.73925e-01
1.59310e+03,3.00373e+01,-1.43407e+01,-8.95718e-02,8.57592e-02,1.73456e-01
1.59310e+03,2.97149e+01,-1.67308e+01,-9.17276e-02,8.46603e-02,1.72963e-01
1.59310e+03,2.93640e+01,-1.91209e+01,-9.37298e-02,8.35465e-02,1.72410e-01
1.59310e+03,2.89896e+01,-2.15111e+01,-9.56059e-02,8.24195e-02,1.71812e-01
1.59310e+03,2.85896e+01,-2.39012e+01,-9.73432e-02,8.12806e-02,1.71159e-01
1.59310e+03,2.81583e+01,-2.62913e+01,-9.89126e-02,8.01313e-02,1.70431e-01
1.59310e+03,2.76952e+01,-2.86814e+01,-1.00310e-01,7.89731e-02,1.69624e-01
1.59310e+03,2.71869e+01,-3.10715e+01,-1.01464e-01,7.78080e-02,1.68693e-01
1.59310e+03,2.66345e+01,-3.34616e+01,-1.02381e-01,7.66384e-02,1.67637e-01
1.59310e+03,2.60296e+01,-3.58518e+01,-1.03014e-01,7.54658e-02,1.66425e-01
1.59310e+03,2.53533e+01,-3.82419e+01,-1.03263e-01,7.42945e-02,1.64992e-01
1.59310e+03,2.46276e+01,-4.06320e+01,-1.03245e-01,7.31253e-02,1.63406e-01
1.59310e+03,2.37902e+01,-4.30221e+01,-1.02626e-01,7.19645e-02,1.61458e-01
1.59310e+03,2.29066e+01,-4.54122e+01,-1.01757e-01,7.08147e-02,1.59370e-01
1.59310e+03,2.18941e+01,-4.78023e+01,-1.00195e-01,6.96789e-02,1.56858e-01
1.59310e+03,2.07785e+01,-5.01925e+01,-9.80754e-02,6.85666e-02,1.54022e-01
1.59310e+03,1.95577e+01,-5.25826e+01,-9.53901e-02,6.74796e-02,1.50863e-01
1.59310e+03,1.81606e+01,-5.49727e+01,-9.17544e-02,6.64221e-02,1.47155e-01
1.59310e+03,1.65592e+01,-5.73628e+01,-8.70178e-02,6.54067e-02,1.42850e-01
1.59310e+03,1.47269e+01,-5.97529e+01,-8.10369e-02,6.44458e-02,1.37937e-01
1.59310e+03,1.25597e+01,-6.21430e+01,-7.32512e-02,6.35473e-02,1.32214e-01
1.59310e+03,9.77800e+00,-6.45332e+01,-6.21537e-02,6.27551e-02,1.25211e-01
1.59310e+03,6.01578e+00,-6.69233e+01,-4.57724e-02,6.22712e-02,1.17167e-01
1.59310e+03,-2.43755e+00,-6.93134e+01,-4.11068e-03,6.24630e-02,1.08267e-01
1.59310e+03,-3.04763e+00,-6.93189e+01,-8.31992e-04,6.30586e-02,1.09224e-01
1.59310e+03,-8.60589e+00,-6.68433e+01,3.31542e-02,6.41883e-02,1.16016e-01
1.59310e+03,-9.27886e+00,-6.43676e+01,4.08135e-02,6.50228e-02,1.19790e-01
1.59310e+03,-9.51109e+00,-6.18919e+01,4.60976e-02,6.59010e-02,1.23101e-01
1.59310e+03,-9.54632e+00,-5.94162e+01,5.03202e-02,6.68199e-02,1.26201e-01
1.59310e+03,-9.43315e+00,-5.69406e+01,5.37430e-02,6.77723e-02,1.29103e-01
1.59310e+03,-9.22684e+00,-5.44649e+01,5.66639e-02,6.87526e-02,1.31877e-01
1.59310e+03,-8.92702e+00,-5.19892e+01,5.90808e-02,6.97551e-02,1.34491e-01
1.59310e+03,-8.57016e+00,-4.95135e+01,6.11903e-02,7.07749e-02,1.37009e-01
1.59310e+03,-8.18020e+00,-4.70379e+01,6.31215e-02,7.18094e-02,1.39478e-01
1.59310e+03,-7.74040e+00,-4.45622e+01,6.47841e-02,7.28558e-02,1.41848e-01
1.59310e+03,-7.26945e+00,-4.20865e+01,6.62788e-02,7.39111e-02,1.44158e-01
1.59310e+03,-6.76816e+00,-3.96108e+01,6.76100e-02,7.49733e-02,1.46404e-01
1.59310e+03,-6.23665e+00,-3.71351e+01,6.87784e-02,7.60401e-02,1.48583e-01
1.59310e+03,-5.68619e+00,-3.46595e+01,6.98446e-02,7.71099e-02,1.50718e-01
1.59310e+03,-5.11146e+00,-3.21838e+01,7.07801e-02,7.81808e-02,1.52796e-01
1.59310e+03,-4.52119e+00,-2.97081e+01,7.16318e-02,7.92513e-02,1.54833e-01
1.59310e+03,-3.91698e+00,-2.72324e+01,7.24083e-02,8.03202e-02,1.56834e-01
1.59310e+03,-3.30033e+00,-2.47568e+01,7.31179e-02,8.13864e-02,1.58800e-01
1.59310e+03,-2.67841e+00,-2.22811e+01,7.37990e-02,8.24491e-02,1.60748e-01
1.59310e+03,-2.04833e+00,-1.98054e+01,7.44362e-02,8.35076e-02,1.62669e-01
1.59310e+03,-1.41689e+00,-1.73297e+01,7.50661e-02,8.45615e-02,1.64581e-01
1.59310e+03,-7.80581e-01,-1.48541e+01,7.56696e-02,8.56106e-02,1.66473e-01
1.59310e+03,-1.44332e-01,-1.23784e+01,7.62736e-02,8.66544e-02,1.68359e-01
1.59310e+03,4.89512e-01,-9.90271e+00,7.68904e-02,8.76930e-02,1.70242e-01
1.59310e+03,1.12336e+00,-7.42703e+00,7.75073e-02,8.87261e-02,1.72117e-01
1.59310e+03,1.74219e+00,-4.95135e+00,7.82051e-02,8.97542e-02,1.74021e-01
1.59310e+03,2.35823e+00,-2.47568e+00,7.89179e-02,9.07779e-02,1.75926e-01
1.65850e+03,3.04021e+01,0.00000e+00,-5.27451e-02,7.59329e-02,1.41702e-01
1.65850e+03,3.02490e+01,-2.31024e+00,-5.49475e-02,7.51447e-02,1.41278e-01
1.65850e+03,3.00453e+01,-4.62048e+00,-5.69484e-02,7.43373e-02,1.40788e-01
1.65850e+03,2.98396e+01,-6.93072e+00,-5.89413e-02,7.35115e-02,1.40307e-01
1.65850e+03,2.95892e+01,-9.24096e+00,-6.07562e-02,7.26690e-02,1.39763e-01
1.65850e+03,2.93285e+01,-1.15512e+01,-6.25299e-02,7.18108e-02,1.39213e-01
1.65850e+03,2.90335e+01,-1.38614e+01,-6.41670e-02,7.09383e-02,1.38615e-01
1.65850e+03,2.87218e+01,-1.61717e+01,-6.57378e-02,7.00527e-02,1.37999e-01
1.65850e+03,2.83826e+01,-1.84819e+01,-6.71988e-02,6.91551e-02,1.37343e-01
1.65850e+03,2.80208e+01,-2.07921e+01,-6.85698e-02,6.82469e-02,1.36656e-01
1.65850e+03,2.76341e+01,-2.31024e+01,-6.98416e-02,6.73290e-02,1.35932e-01
1.65850e+03,2.72173e+01,-2.54126e+01,-7.09934e-02,6.64028e-02,1.35159e-01
1.65850e+03,2.67696e+01,-2.77229e+01,-7.20223e-02,6.54694e-02,1.34335e-01
1.65850e+03,2.62783e+01,-3.00331e+01,-7.28772e-02,6.45305e-02,1.33430e-01
1.65850e+03,2.57444e+01,-3.23433e+01,-7.35626e-02,6.35879e-02,1.32445e-01
1.65850e+03,2.51597e+01,-3.46536e+01,-7.40453e-02,6.26430e-02,1.31359e-01
1.65850e+03,2.45060e+01,-3.69638e+01,-7.42536e-02,6.16991e-02,1.30130e-01
1.65850e+03,2.38045e+01,-3.92741e+01,-7.42710e-02,6.07569e-02,1.28804e-01
1.65850e+03,2.29951e+01,-4.15843e+01,-7.38588e-02,5.98214e-02,1.27244e-01
1.65850e+03,2.21410e+01,-4.38945e+01,-7.32685e-02,5.88948e-02,1.25595e-01
1.65850e+03,2.11624e+01,-4.62048e+01,-7.21820e-02,5.79795e-02,1.23673e-01
1.65850e+03,2.00840e+01,-4.85150e+01,-7.06980e-02,5.70831e-02,1.21547e-01
1.65850e+03,1.89041e+01,-5.08253e+01,-6.88093e-02,5.62072e-02,1.19216e-01
1.65850e+03,1.75537e+01,-5.31355e+01,-6.62415e-02,5.53550e-02,1.16535e-01
1.65850e+03,1.60058e+01,-5.54457e+01,-6.28870e-02,5.45368e-02,1.13479e-01
1.65850e+03,1.42348e+01,-5.77560e+01,-5.86433e-02,5.37625e-02,1.10047e-01
1.65850e+03,1.21400e+01,-6.00662e+01,-5.31099e-02,5.30384e-02,1.06113e-01
1.65850e+03,9.45122e+00,-6.23764e+01,-4.52098e-02,5.24001e-02,1.01397e-01
1.65850e+03,5.81473e+00,-6.46867e+01,-3.35339e-02,5.20103e-02,9.61235e-02
1.65850e+03,-2.35608e+00,-6.69969e+01,-3.79254e-03,5.21649e-02,9.04319e-02
1.65850e+03,-2.94577e+00,-6.70023e+01,-1.44964e-03,5.26450e-02,9.11954e-02
1.65850e+03,-8.31828e+00,-6.46093e+01,2.28684e-02,5.35554e-02,9.55380e-02
1.65850e+03,-8.96876e+00,-6.22164e+01,2.83732e-02,5.42280e-02,9.81176e-02
1.65850e+03,-9.19322e+00,-5.98235e+01,3.21806e-02,5.49357e-02,1.00446e-01
1.65850e+03,-9.22728e+00,-5.74305e+01,3.52295e-02,5.56762e-02,1.02668e-01
1.65850e+03,-9.11789e+00,-5.50376e+01,3.77068e-02,5.64438e-02,1.04783e-01
1.65850e+03,-8.91848e+00,-5.26447e+01,3.98254e-02,5.72337e-02,1.06832e-01
1.65850e+03,-8.62868e+00,-5.02517e+01,4.15840e-02,5.80417e-02,1.08792e-01
1.65850e+03,-8.28374e+00,-4.78588e+01,4.31228e-02,5.88635e-02,1.10699e-01
1.65850e+03,-7.90682e+00,-4.54658e+01,4.45342e-02,5.96972e-02,1.12581e-01
1.65850e+03,-7.48171e+00,-4.30729e+01,4.57537e-02,6.05404e-02,1.14406e-01
1.65850e+03,-7.02650e+00,-4.06800e+01,4.68532e-02,6.13908e-02,1.16197e-01
1.65850e+03,-6.54196e+00,-3.82870e+01,4.78358e-02,6.22468e-02,1.17950e-01
1.65850e+03,-6.02822e+00,-3.58941e+01,4.87021e-02,6.31065e-02,1.19663e-01
1.65850e+03,-5.49615e+00,-3.35011e+01,4.94954e-02,6.39685e-02,1.21350e-01
1.65850e+03,-4.94063e+00,-3.11082e+01,5.01953e-02,6.48315e-02,1.23000e-01
1.65850e+03,-4.37009e+00,-2.87153e+01,5.08353e-02,6.56941e-02,1.24625e-01
1.65850e+03,-3.78607e+00,-2.63223e+01,5.14216e-02,6.65555e-02,1.26226e-01
1.65850e+03,-3.19003e+00,-2.39294e+01,5.19600e-02,6.74146e-02,1.27805e-01
1.65850e+03,-2.58890e+00,-2.15364e+01,5.24782e-02,6.82709e-02,1.29370e-01
1.65850e+03,-1.97988e+00,-1.91435e+01,5.29649e-02,6.91239e-02,1.30918e-01
1.65850e+03,-1.36954e+00,-1.67506e+01,5.34463e-02,6.99732e-02,1.32458e-01
1.65850e+03,-7.54494e-01,-1.43576e+01,5.39090e-02,7.08185e-02,1.33985e-01
1.65850e+03,-1.39508e-01,-1.19647e+01,5.43719e-02,7.16596e-02,1.35505e-01
1.65850e+03,4.73153e-01,-9.57176e+00,5.48441e-02,7.24965e-02,1.37022e-01
1.65850e+03,1.08581e+00,-7.17882e+00,5.53163e-02,7.33289e-02,1.38533e-01
1.65850e+03,1.68397e+00,-4.78588e+00,5.58463e-02,7.41573e-02,1.40060e-01
1.65850e+03,2.27942e+00,-2.39294e+00,5.63871e-02,7.49822e-02,1.41586e-01
1.71930e+03,2.94249e+01,0.00000e+00,-3.63349e-02,6.09631e-02,1.11668e-01
1.71930e+03,2.92767e+01,-2.23598e+00,-3.78739e-02,6.03424e-02,1.11167e-01
1.71930e+03,2.90795e+01,-4.47196e+00,-3.92741e-02,5.97066e-02,1.10621e-01
1.71930e+03,2.88804e+01,-6.70794e+00,-4.06687e-02,5.90563e-02,1.10077e-01
1.71930e+03,2.86381e+01,-8.94392e+00,-4.19407e-02,5.83928e-02,1.09491e-01
1.71930e+03,2.83857e+01,-1.11799e+01,-4.31842e-02,5.77170e-02,1.08897e-01
1.71930e+03,2.81002e+01,-1.34159e+01,-4.43336e-02,5.70299e-02,1.08271e-01
1.71930e+03,2.77986e+01,-1.56519e+01,-4.54373e-02,5.63325e-02,1.07632e-01
1.71930e+03,2.74703e+01,-1.78878e+01,-4.64655e-02,5.56257e-02,1.06966e-01
1.71930e+03,2.71201e+01,-2.01238e+01,-4.74314e-02,5.49105e-02,1.06279e-01
1.71930e+03,2.67458e+01,-2.23598e+01,-4.83291e-02,5.41877e-02,1.05568e-01
1.71930e+03,2.63424e+01,-2.45958e+01,-4.91441e-02,5.34583e-02,1.04826e-01
1.71930e+03,2.59091e+01,-2.68317e+01,-4.98743e-02,5.27233e-02,1.04051e-01
1.71930e+03,2.54336e+01,-2.90677e+01,-5.04847e-02,5.19840e-02,1.03226e-01
1.71930e+03,2.49169e+01,-3.13037e+01,-5.09782e-02,5.12417e-02,1.02352e-01
1.71930e+03,2.43509e+01,-3.35397e+01,-5.13320e-02,5.04976e-02,1.01415e-01
1.71930e+03,2.37183e+01,-3.57757e+01,-5.14968e-02,4.97544e-02,1.00391e-01
1.71930e+03,2.30393e+01,-3.80116e+01,-5.15299e-02,4.90124e-02,9.93075e-02
1.71930e+03,2.22560e+01,-4.02476e+01,-5.12670e-02,4.82758e-02,9.80814e-02
1.71930e+03,2.14293e+01,-4.24836e+01,-5.08813e-02,4.75462e-02,9.68030e-02
1.71930e+03,2.04822e+01,-4.47196e+01,-5.01537e-02,4.68254e-02,9.53586e-02
1.71930e+03,1.94385e+01,-4.69556e+01,-4.91521e-02,4.61196e-02,9.37922e-02
1.71930e+03,1.82964e+01,-4.91915e+01,-4.78716e-02,4.54299e-02,9.21049e-02
1.71930e+03,1.69894e+01,-5.14275e+01,-4.61231e-02,4.47589e-02,9.02076e-02
1.71930e+03,1.54913e+01,-5.36635e+01,-4.38323e-02,4.41146e-02,8.80884e-02
1.71930e+03,1.37772e+01,-5.58995e+01,-4.09288e-02,4.35049e-02,8.57507e-02
1.71930e+03,1.17498e+01,-5.81355e+01,-3.71364e-02,4.29348e-02,8.31222e-02
1.71930e+03,9.14742e+00,-6.03714e+01,-3.17130e-02,4.24322e-02,8.00450e-02
1.71930e+03,5.62782e+00,-6.26074e+01,-2.36873e-02,4.21253e-02,7.67119e-02
1.71930e+03,-2.28035e+00,-6.48434e+01,-3.21115e-03,4.22472e-02,7.32447e-02
1.71930e+03,-2.85109e+00,-6.48486e+01,-1.59651e-03,4.26253e-02,7.38464e-02
1.71930e+03,-8.05090e+00,-6.25326e+01,1.51850e-02,4.33422e-02,7.65913e-02
1.71930e+03,-8.68047e+00,-6.02165e+01,1.90007e-02,4.38718e-02,7.83278e-02
1.71930e+03,-8.89772e+00,-5.79005e+01,2.16467e-02,4.44292e-02,7.99402e-02
1.71930e+03,-8.93068e+00,-5.55845e+01,2.37698e-02,4.50123e-02,8.15066e-02
1.71930e+03,-8.82481e+00,-5.32685e+01,2.54991e-02,4.56167e-02,8.30232e-02
1.71930e+03,-8.63181e+00,-5.09525e+01,2.69811e-02,4.62388e-02,8.45106e-02
1.71930e+03,-8.35132e+00,-4.86364e+01,2.82150e-02,4.68749e-02,8.59527e-02
1.71930e+03,-8.01747e+00,-4.63204e+01,2.92974e-02,4.75221e-02,8.73692e-02
1.71930e+03,-7.65266e+00,-4.40044e+01,3.02921e-02,4.81786e-02,8.87757e-02
1.71930e+03,-7.24122e+00,-4.16884e+01,3.11544e-02,4.88425e-02,9.01519e-02
1.71930e+03,-6.80064e+00,-3.93724e+01,3.19341e-02,4.95122e-02,9.15104e-02
1.71930e+03,-6.33168e+00,-3.70563e+01,3.26333e-02,5.01862e-02,9.28488e-02
1.71930e+03,-5.83445e+00,-3.47403e+01,3.32522e-02,5.08631e-02,9.41641e-02
1.71930e+03,-5.31949e+00,-3.24243e+01,3.38209e-02,5.15419e-02,9.54649e-02
1.71930e+03,-4.78182e+00,-3.01083e+01,3.43251e-02,5.22214e-02,9.67442e-02
1.71930e+03,-4.22962e+00,-2.77922e+01,3.47881e-02,5.29007e-02,9.80084e-02
1.71930e+03,-3.66437e+00,-2.54762e+01,3.52141e-02,5.35789e-02,9.92579e-02
1.71930e+03,-3.08749e+00,-2.31602e+01,3.56071e-02,5.42554e-02,1.00493e-01
1.71930e+03,-2.50568e+00,-2.08442e+01,3.59861e-02,5.49296e-02,1.01719e-01
1.71930e+03,-1.91624e+00,-1.85282e+01,3.63434e-02,5.56012e-02,1.02934e-01
1.71930e+03,-1.32552e+00,-1.62121e+01,3.66971e-02,5.62699e-02,1.04142e-01
1.71930e+03,-7.30242e-01,-1.38961e+01,3.70379e-02,5.69355e-02,1.05341e-01
1.71930e+03,-1.35024e-01,-1.15801e+01,3.73789e-02,5.75978e-02,1.06535e-01
1.71930e+03,4.57944e-01,-9.26408e+00,3.77262e-02,5.82567e-02,1.07726e-01
1.71930e+03,1.05091e+00,-6.94806e+00,3.80736e-02,5.89121e-02,1.08911e-01
1.71930e+03,1.62984e+00,-4.63204e+00,3.84608e-02,5.95644e-02,1.10104e-01
1.71930e+03,2.20615e+00,-2.31602e+00,3.88554e-02,6.02139e-02,1.11296e-01
1.77540e+03,2.77303e+01,0.00000e+00,-4.27435e-02,5.70574e-02,1.07674e-01
1.77540e+03,2.75906e+01,-2.10721e+00,-4.43799e-02,5.62287e-02,1.07026e-01
1.77540e+03,2.74048e+01,-4.21442e+00,-4.58516e-02,5.53796e-02,1.06316e-01
1.77540e+03,2.72172e+01,-6.32163e+00,-4.73167e-02,5.45111e-02,1.05609e-01
1.77540e+03,2.69888e+01,-8.42884e+00,-4.86365e-02,5.36247e-02,1.04844e-01
1.77540e+03,2.67510e+01,-1.05361e+01,-4.99226e-02,5.27218e-02,1.04072e-01
1.77540e+03,2.64819e+01,-1.26433e+01,-5.10971e-02,5.18037e-02,1.03256e-01
1.77540e+03,2.61977e+01,-1.47505e+01,-5.22174e-02,5.08716e-02,1.02423e-01
1.77540e+03,2.58883e+01,-1.68577e+01,-5.32481e-02,4.99268e-02,1.01555e-01
1.77540e+03,2.55583e+01,-1.89649e+01,-5.42052e-02,4.89706e-02,1.00661e-01
1.77540e+03,2.52056e+01,-2.10721e+01,-5.50814e-02,4.80042e-02,9.97354e-02
1.77540e+03,2.48254e+01,-2.31793e+01,-5.58594e-02,4.70288e-02,9.87695e-02
1.77540e+03,2.44171e+01,-2.52865e+01,-5.65371e-02,4.60458e-02,9.77605e-02
1.77540e+03,2.39689e+01,-2.73937e+01,-5.70727e-02,4.50569e-02,9.66833e-02
1.77540e+03,2.34819e+01,-2.95009e+01,-5.74698e-02,4.40639e-02,9.55388e-02
1.77540e+03,2.29486e+01,-3.16082e+01,-5.77014e-02,4.30684e-02,9.43086e-02
1.77540e+03,2.23524e+01,-3.37154e+01,-5.77088e-02,4.20738e-02,9.29565e-02
1.77540e+03,2.17125e+01,-3.58226e+01,-5.75602e-02,4.10809e-02,9.15210e-02
1.77540e+03,2.09743e+01,-3.79298e+01,-5.70607e-02,4.00950e-02,8.98818e-02
1.77540e+03,2.01952e+01,-4.00370e+01,-5.64157e-02,3.91184e-02,8.81672e-02
1.77540e+03,1.93026e+01,-4.21442e+01,-5.53654e-02,3.81535e-02,8.62113e-02
1.77540e+03,1.83190e+01,-4.42514e+01,-5.39904e-02,3.72084e-02,8.40735e-02
1.77540e+03,1.72428e+01,-4.63586e+01,-5.22848e-02,3.62848e-02,8.17524e-02
1.77540e+03,1.60110e+01,-4.84658e+01,-5.00245e-02,3.53860e-02,7.91135e-02
1.77540e+03,1.45992e+01,-5.05731e+01,-4.71214e-02,3.45229e-02,7.61310e-02
1.77540e+03,1.29838e+01,-5.26803e+01,-4.34921e-02,3.37059e-02,7.27998e-02
1.77540e+03,1.10731e+01,-5.47875e+01,-3.88092e-02,3.29416e-02,6.90044e-02
1.77540e+03,8.62063e+00,-5.68947e+01,-3.21931e-02,3.22674e-02,6.44976e-02
1.77540e+03,5.30372e+00,-5.90019e+01,-2.24926e-02,3.18538e-02,5.95811e-02
1.77540e+03,-2.14903e+00,-6.11091e+01,1.96508e-03,3.20149e-02,5.54862e-02
1.77540e+03,-2.68689e+00,-6.11140e+01,3.87931e-03,3.25196e-02,5.64590e-02
1.77540e+03,-7.58725e+00,-5.89314e+01,2.35755e-02,3.34776e-02,6.25943e-02
1.77540e+03,-8.18057e+00,-5.67487e+01,2.79035e-02,3.41857e-02,6.54569e-02
1.77540e+03,-8.38530e+00,-5.45661e+01,3.08451e-02,3.49311e-02,6.79115e-02
1.77540e+03,-8.41637e+00,-5.23834e+01,3.31670e-02,3.57112e-02,7.01848e-02
1.77540e+03,-8.31659e+00,-5.02008e+01,3.50221e-02,3.65198e-02,7.23024e-02
1.77540e+03,-8.13471e+00,-4.80181e+01,3.65841e-02,3.73522e-02,7.43234e-02
1.77540e+03,-7.87037e+00,-4.58355e+01,3.78520e-02,3.82037e-02,7.62322e-02
1.77540e+03,-7.55575e+00,-4.36529e+01,3.89404e-02,3.90700e-02,7.80752e-02
1.77540e+03,-7.21195e+00,-4.14702e+01,3.99248e-02,3.99488e-02,7.98856e-02
1.77540e+03,-6.82421e+00,-3.92876e+01,4.07523e-02,4.08379e-02,8.16330e-02
1.77540e+03,-6.40900e+00,-3.71049e+01,4.14819e-02,4.17346e-02,8.33432e-02
1.77540e+03,-5.96704e+00,-3.49223e+01,4.21160e-02,4.26374e-02,8.50153e-02
1.77540e+03,-5.49844e+00,-3.27396e+01,4.26550e-02,4.35443e-02,8.66473e-02
1.77540e+03,-5.01314e+00,-3.05570e+01,4.31344e-02,4.44536e-02,8.82550e-02
1.77540e+03,-4.50644e+00,-2.83744e+01,4.35375e-02,4.53641e-02,8.98289e-02
1.77540e+03,-3.98604e+00,-2.61917e+01,4.38917e-02,4.62744e-02,9.13808e-02
1.77540e+03,-3.45334e+00,-2.40091e+01,4.42020e-02,4.71835e-02,9.29122e-02
1.77540e+03,-2.90969e+00,-2.18264e+01,4.44733e-02,4.80904e-02,9.44242e-02
1.77540e+03,-2.36138e+00,-1.96438e+01,4.47279e-02,4.89944e-02,9.59267e-02
1.77540e+03,-1.80588e+00,-1.74611e+01,4.49569e-02,4.98950e-02,9.74148e-02
1.77540e+03,-1.24918e+00,-1.52785e+01,4.51815e-02,5.07918e-02,9.88979e-02
1.77540e+03,-6.88187e-01,-1.30959e+01,4.53909e-02,5.16846e-02,1.00370e-01
1.77540e+03,-1.27248e-01,-1.09132e+01,4.56004e-02,5.25731e-02,1.01839e-01
1.77540e+03,4.31571e-01,-8.73057e+00,4.58176e-02,5.34573e-02,1.03307e-01
1.77540e+03,9.90390e-01,-6.54793e+00,4.60347e-02,5.43368e-02,1.04770e-01
1.77540e+03,1.53598e+00,-4.36529e+00,4.62990e-02,5.52123e-02,1.06249e-01
1.77540e+03,2.07910e+00,-2.18264e+00,4.65721e-02,5.60842e-02,1.07728e-01
1.82660e+03,2.53092e+01,0.00000e+00,-2.91349e-02,4.67282e-02,8.60198e-02
1.82660e+03,2.51817e+01,-1.92323e+00,-3.02751e-02,4.60976e-02,8.53906e-02
1.82660e+03,2.50121e+01,-3.84646e+00,-3.13031e-02,4.54516e-02,8.47198e-02
1.82660e+03,2.48409e+01,-5.76969e+00,-3.23267e-02,4.47908e-02,8.40457e-02
1.82660e+03,2.46324e+01,-7.69292e+00,-3.32511e-02,4.41165e-02,8.33333e-02
1.82660e+03,2.44154e+01,-9.61614e+00,-3.41526e-02,4.34296e-02,8.26122e-02
1.82660e+03,2.41698e+01,-1.15394e+01,-3.49779e-02,4.27311e-02,8.18614e-02
1.82660e+03,2.39103e+01,-1.34626e+01,-3.57664e-02,4.20220e-02,8.10974e-02
1.82660e+03,2.36280e+01,-1.53858e+01,-3.64938e-02,4.13033e-02,8.03099e-02
1.82660e+03,2.33268e+01,-1.73091e+01,-3.71709e-02,4.05759e-02,7.95041e-02
1.82660e+03,2.30049e+01,-1.92323e+01,-3.77929e-02,3.98408e-02,7.86776e-02
1.82660e+03,2.26579e+01,-2.11555e+01,-3.83480e-02,3.90989e-02,7.78250e-02
1.82660e+03,2.22852e+01,-2.30787e+01,-3.88347e-02,3.83512e-02,7.69452e-02
1.82660e+03,2.18762e+01,-2.50020e+01,-3.92244e-02,3.75989e-02,7.60236e-02
1.82660e+03,2.14317e+01,-2.69252e+01,-3.95198e-02,3.68437e-02,7.50612e-02
1.82660e+03,2.09449e+01,-2.88484e+01,-3.97023e-02,3.60865e-02,7.40471e-02
1.82660e+03,2.04008e+01,-3.07717e+01,-3.97319e-02,3.53300e-02,7.29607e-02
1.82660e+03,1.98168e+01,-3.26949e+01,-3.96553e-02,3.45749e-02,7.18248e-02
1.82660e+03,1.91430e+01,-3.46181e+01,-3.93393e-02,3.38250e-02,7.05690e-02
1.82660e+03,1.84320e+01,-3.65413e+01,-3.89242e-02,3.30822e-02,6.92705e-02
1.82660e+03,1.76173e+01,-3.84646e+01,-3.82328e-02,3.23484e-02,6.78307e-02
1.82660e+03,1.67196e+01,-4.03878e+01,-3.73199e-02,3.16297e-02,6.62880e-02
1.82660e+03,1.57373e+01,-4.23110e+01,-3.61817e-02,3.09273e-02,6.46422e-02
1.82660e+03,1.46131e+01,-4.42343e+01,-3.46652e-02,3.02438e-02,6.28152e-02
1.82660e+03,1.33245e+01,-4.61575e+01,-3.27106e-02,2.95875e-02,6.07968e-02
1.82660e+03,1.18502e+01,-4.80807e+01,-3.02608e-02,2.89662e-02,5.85905e-02
1.82660e+03,1.01063e+01,-5.00040e+01,-2.70927e-02,2.83852e-02,5.61352e-02
1.82660e+03,7.86795e+00,-5.19272e+01,-2.26065e-02,2.78726e-02,5.33075e-02
1.82660e+03,4.84065e+00,-5.38504e+01,-1.60175e-02,2.75584e-02,5.03483e-02
1.82660e+03,-1.96139e+00,-5.57736e+01,6.32848e-04,2.76811e-02,4.79493e-02
1.82660e+03,-2.45230e+00,-5.57781e+01,1.93789e-03,2.80651e-02,4.86488e-02
1.82660e+03,-6.92480e+00,-5.37860e+01,1.53920e-02,2.87939e-02,5.21937e-02
1.82660e+03,-7.46632e+00,-5.17940e+01,1.83683e-02,2.93326e-02,5.40240e-02
1.82660e+03,-7.65318e+00,-4.98019e+01,2.03994e-02,2.98995e-02,5.56604e-02
1.82660e+03,-7.68153e+00,-4.78098e+01,2.20079e-02,3.04928e-02,5.72170e-02
1.82660e+03,-7.59047e+00,-4.58177e+01,2.32982e-02,3.11079e-02,5.87018e-02
1.82660e+03,-7.42446e+00,-4.38257e+01,2.43887e-02,3.17410e-02,6.01438e-02
1.82660e+03,-7.18321e+00,-4.18336e+01,2.52786e-02,3.23886e-02,6.15310e-02
1.82660e+03,-6.89605e+00,-3.98415e+01,2.60462e-02,3.30474e-02,6.28871e-02
1.82660e+03,-6.58227e+00,-3.78494e+01,2.67428e-02,3.37157e-02,6.42295e-02
1.82660e+03,-6.22838e+00,-3.58574e+01,2.73325e-02,3.43918e-02,6.55398e-02
1.82660e+03,-5.84943e+00,-3.38653e+01,2.78554e-02,3.50738e-02,6.68314e-02
1.82660e+03,-5.44606e+00,-3.18732e+01,2.83132e-02,3.57603e-02,6.81031e-02
1.82660e+03,-5.01837e+00,-2.98811e+01,2.87062e-02,3.64499e-02,6.93529e-02
1.82660e+03,-4.57544e+00,-2.78891e+01,2.90586e-02,3.71413e-02,7.05892e-02
1.82660e+03,-4.11298e+00,-2.58970e+01,2.93589e-02,3.78337e-02,7.18060e-02
1.82660e+03,-3.63801e+00,-2.39049e+01,2.96259e-02,3.85258e-02,7.30097e-02
1.82660e+03,-3.15183e+00,-2.19128e+01,2.98630e-02,3.92170e-02,7.42006e-02
1.82660e+03,-2.65564e+00,-1.99208e+01,3.00734e-02,3.99065e-02,7.53791e-02
1.82660e+03,-2.15521e+00,-1.79287e+01,3.02725e-02,4.05938e-02,7.65507e-02
1.82660e+03,-1.64821e+00,-1.59366e+01,3.04541e-02,4.12785e-02,7.77123e-02
1.82660e+03,-1.14012e+00,-1.39445e+01,3.06328e-02,4.19604e-02,7.88694e-02
1.82660e+03,-6.28101e-01,-1.19525e+01,3.08011e-02,4.26391e-02,8.00187e-02
1.82660e+03,-1.16138e-01,-9.96038e+00,3.09694e-02,4.33145e-02,8.11637e-02
1.82660e+03,3.93890e-01,-7.96830e+00,3.11430e-02,4.39867e-02,8.23066e-02
1.82660e+03,9.03919e-01,-5.97623e+00,3.13165e-02,4.46553e-02,8.34447e-02
1.82660e+03,1.40187e+00,-3.98415e+00,3.15222e-02,4.53209e-02,8.45907e-02
1.82660e+03,1.89757e+00,-1.99208e+00,3.17340e-02,4.59836e-02,8.57352e-02
1.87280e+03,2.31244e+01,0.00000e+00,-1.86661e-02,3.73342e-02,6.73049e-02
1.87280e+03,2.30080e+01,-1.75721e+00,-1.94199e-02,3.68713e-02,6.67504e-02
1.87280e+03,2.28531e+01,-3.51443e+00,-2.01017e-02,3.63971e-02,6.61689e-02
1.87280e+03,2.26966e+01,-5.27164e+00,-2.07807e-02,3.59120e-02,6.55809e-02
1.87280e+03,2.25061e+01,-7.02886e+00,-2.13961e-02,3.54170e-02,6.49684e-02
1.87280e+03,2.23078e+01,-8.78607e+00,-2.19968e-02,3.49128e-02,6.43473e-02
1.87280e+03,2.20834e+01,-1.05433e+01,-2.25486e-02,3.44001e-02,6.37067e-02
1.87280e+03,2.18464e+01,-1.23005e+01,-2.30768e-02,3.38797e-02,6.30558e-02
1.87280e+03,2.15884e+01,-1.40577e+01,-2.35658e-02,3.33522e-02,6.23895e-02
1.87280e+03,2.13132e+01,-1.58149e+01,-2.40225e-02,3.28183e-02,6.17107e-02
1.87280e+03,2.10191e+01,-1.75721e+01,-2.44439e-02,3.22788e-02,6.10185e-02
1.87280e+03,2.07020e+01,-1.93294e+01,-2.48224e-02,3.17343e-02,6.03104e-02
1.87280e+03,2.03615e+01,-2.10866e+01,-2.51569e-02,3.11855e-02,5.95859e-02
1.87280e+03,1.99878e+01,-2.28438e+01,-2.54293e-02,3.06335e-02,5.88377e-02
1.87280e+03,1.95817e+01,-2.46010e+01,-2.56412e-02,3.00792e-02,5.80667e-02
1.87280e+03,1.91369e+01,-2.63582e+01,-2.57806e-02,2.95235e-02,5.72674e-02
1.87280e+03,1.86398e+01,-2.81154e+01,-2.58220e-02,2.89684e-02,5.64295e-02
1.87280e+03,1.81062e+01,-2.98726e+01,-2.57952e-02,2.84143e-02,5.55653e-02
1.87280e+03,1.74905e+01,-3.16299e+01,-2.56149e-02,2.78640e-02,5.46382e-02
1.87280e+03,1.68409e+01,-3.33871e+01,-2.53710e-02,2.73190e-02,5.36904e-02
1.87280e+03,1.60966e+01,-3.51443e+01,-2.49498e-02,2.67805e-02,5.26695e-02
1.87280e+03,1.52763e+01,-3.69015e+01,-2.43865e-02,2.62531e-02,5.15983e-02
1.87280e+03,1.43788e+01,-3.86587e+01,-2.36787e-02,2.57377e-02,5.04775e-02
1.87280e+03,1.33517e+01,-4.04159e+01,-2.27283e-02,2.52362e-02,4.92664e-02
1.87280e+03,1.21743e+01,-4.21731e+01,-2.14968e-02,2.47547e-02,4.79635e-02
1.87280e+03,1.08272e+01,-4.39304e+01,-1.99476e-02,2.42989e-02,4.65748e-02
1.87280e+03,9.23393e+00,-4.56876e+01,-1.79376e-02,2.38726e-02,4.50717e-02
1.87280e+03,7.18879e+00,-4.74448e+01,-1.50821e-02,2.34966e-02,4.34020e-02
1.87280e+03,4.42280e+00,-4.92020e+01,-1.08775e-02,2.32662e-02,4.17406e-02
1.87280e+03,-1.79208e+00,-5.09592e+01,-2.18624e-04,2.33565e-02,4.04552e-02
1.87280e+03,-2.24062e+00,-5.09633e+01,6.18513e-04,2.36384e-02,4.09476e-02
1.87280e+03,-6.32705e+00,-4.91432e+01,9.27254e-03,2.41733e-02,4.28839e-02
1.87280e+03,-6.82182e+00,-4.73231e+01,1.12050e-02,2.45687e-02,4.40047e-02
1.87280e+03,-6.99255e+00,-4.55029e+01,1.25311e-02,2.49847e-02,4.50526e-02
1.87280e+03,-7.01846e+00,-4.36828e+01,1.35862e-02,2.54201e-02,4.60775e-02
1.87280e+03,-6.93525e+00,-4.18627e+01,1.44371e-02,2.58715e-02,4.70790e-02
1.87280e+03,-6.78358e+00,-4.00426e+01,1.51598e-02,2.63361e-02,4.80686e-02
1.87280e+03,-6.56315e+00,-3.82225e+01,1.57539e-02,2.68113e-02,4.90379e-02
1.87280e+03,-6.30078e+00,-3.64024e+01,1.62694e-02,2.72947e-02,4.99969e-02
1.87280e+03,-6.01408e+00,-3.45822e+01,1.67395e-02,2.77851e-02,5.09534e-02
1.87280e+03,-5.69074e+00,-3.27621e+01,1.71410e-02,2.82812e-02,5.18969e-02
1.87280e+03,-5.34450e+00,-3.09420e+01,1.74996e-02,2.87816e-02,5.28334e-02
1.87280e+03,-4.97595e+00,-2.91219e+01,1.78164e-02,2.92853e-02,5.37616e-02
1.87280e+03,-4.58518e+00,-2.73018e+01,1.80917e-02,2.97912e-02,5.46796e-02
1.87280e+03,-4.18049e+00,-2.54816e+01,1.83409e-02,3.02985e-02,5.55913e-02
1.87280e+03,-3.75794e+00,-2.36615e+01,1.85568e-02,3.08065e-02,5.64931e-02
1.87280e+03,-3.32398e+00,-2.18414e+01,1.87512e-02,3.13143e-02,5.73878e-02
1.87280e+03,-2.87976e+00,-2.00213e+01,1.89265e-02,3.18214e-02,5.82753e-02
1.87280e+03,-2.42640e+00,-1.82012e+01,1.90846e-02,3.23272e-02,5.91554e-02
1.87280e+03,-1.96917e+00,-1.63811e+01,1.92355e-02,3.28314e-02,6.00309e-02
1.87280e+03,-1.50594e+00,-1.45609e+01,1.93752e-02,3.33337e-02,6.08999e-02
1.87280e+03,-1.04170e+00,-1.27408e+01,1.95130e-02,3.38338e-02,6.17652e-02
1.87280e+03,-5.73883e-01,-1.09207e+01,1.96441e-02,3.43317e-02,6.26250e-02
1.87280e+03,-1.06113e-01,-9.10059e+00,1.97753e-02,3.48272e-02,6.34811e-02
1.87280e+03,3.59890e-01,-7.28047e+00,1.99098e-02,3.53202e-02,6.43347e-02
1.87280e+03,8.25892e-01,-5.46035e+00,2.00442e-02,3.58106e-02,6.51842e-02
1.87280e+03,1.28086e+00,-3.64024e+00,2.01994e-02,3.62988e-02,6.60365e-02
1.87280e+03,1.73377e+00,-1.82012e+00,2.03584e-02,3.67848e-02,6.68868e-02
1.91380e+03,2.11856e+01,0.00000e+00,-1.10620e-02,2.87847e-02,5.10690e-02
1.91380e+03,2.10789e+01,-1.60989e+00,-1.15278e-02,2.84591e-02,5.06227e-02
1.91380e+03,2.09370e+01,-3.21977e+00,-1.19508e-02,2.81256e-02,5.01595e-02
1.91380e+03,2.07936e+01,-4.82966e+00,-1.23721e-02,2.77845e-02,4.96891e-02
1.91380e+03,2.06192e+01,-6.43954e+00,-1.27557e-02,2.74364e-02,4.92035e-02
1.91380e+03,2.04375e+01,-8.04943e+00,-1.31304e-02,2.70819e-02,4.87103e-02
1.91380e+03,2.02319e+01,-9.65931e+00,-1.34762e-02,2.67214e-02,4.82048e-02
1.91380e+03,2.00147e+01,-1.12692e+01,-1.38080e-02,2.63554e-02,4.76915e-02
1.91380e+03,1.97784e+01,-1.28791e+01,-1.41164e-02,2.59845e-02,4.71683e-02
1.91380e+03,1.95262e+01,-1.44890e+01,-1.44057e-02,2.56091e-02,4.66369e-02
1.91380e+03,1.92568e+01,-1.60989e+01,-1.46740e-02,2.52297e-02,4.60971e-02
1.91380e+03,1.89663e+01,-1.77087e+01,-1.49168e-02,2.48469e-02,4.55479e-02
1.91380e+03,1.86544e+01,-1.93186e+01,-1.51335e-02,2.44611e-02,4.49895e-02
1.91380e+03,1.83120e+01,-2.09285e+01,-1.53133e-02,2.40729e-02,4.44186e-02
1.91380e+03,1.79399e+01,-2.25384e+01,-1.54571e-02,2.36832e-02,4.38362e-02
1.91380e+03,1.75325e+01,-2.41483e+01,-1.55579e-02,2.32926e-02,4.32398e-02
1.91380e+03,1.70770e+01,-2.57582e+01,-1.56005e-02,2.29023e-02,4.26253e-02
1.91380e+03,1.65881e+01,-2.73680e+01,-1.56025e-02,2.25127e-02,4.19988e-02
1.91380e+03,1.60241e+01,-2.89779e+01,-1.55133e-02,2.21259e-02,4.13440e-02
1.91380e+03,1.54289e+01,-3.05878e+01,-1.53864e-02,2.17427e-02,4.06814e-02
1.91380e+03,1.47470e+01,-3.21977e+01,-1.51541e-02,2.13642e-02,3.99866e-02
1.91380e+03,1.39955e+01,-3.38076e+01,-1.48375e-02,2.09934e-02,3.92724e-02
1.91380e+03,1.31733e+01,-3.54175e+01,-1.44350e-02,2.06311e-02,3.85396e-02
1.91380e+03,1.22322e+01,-3.70274e+01,-1.38883e-02,2.02786e-02,3.77697e-02
1.91380e+03,1.11536e+01,-3.86372e+01,-1.31747e-02,1.99401e-02,3.69648e-02
1.91380e+03,9.91946e+00,-4.02471e+01,-1.22723e-02,1.96197e-02,3.61304e-02
1.91380e+03,8.45973e+00,-4.18570e+01,-1.10963e-02,1.93201e-02,3.52551e-02
1.91380e+03,6.58606e+00,-4.34669e+01,-9.41785e-03,1.90558e-02,3.43230e-02
1.91380e+03,4.05198e+00,-4.50768e+01,-6.93806e-03,1.88941e-02,3.34528e-02
1.91380e+03,-1.64183e+00,-4.66867e+01,-6.23983e-04,1.89576e-02,3.28415e-02
1.91380e+03,-2.05276e+00,-4.66904e+01,-1.26714e-04,1.91559e-02,3.31792e-02
1.91380e+03,-5.79657e+00,-4.50229e+01,5.03292e-03,1.95320e-02,3.42028e-02
1.91380e+03,-6.24986e+00,-4.33554e+01,6.19955e-03,1.98100e-02,3.48675e-02
1.91380e+03,-6.40628e+00,-4.16879e+01,7.00594e-03,2.01025e-02,3.55164e-02
1.91380e+03,-6.43001e+00,-4.00204e+01,7.65132e-03,2.04086e-02,3.61674e-02
1.91380e+03,-6.35378e+00,-3.83528e+01,8.17539e-03,2.07259e-02,3.68175e-02
1.91380e+03,-6.21483e+00,-3.66853e+01,8.62334e-03,2.10526e-02,3.74699e-02
1.91380e+03,-6.01288e+00,-3.50178e+01,8.99485e-03,2.13866e-02,3.81192e-02
1.91380e+03,-5.77251e+00,-3.33503e+01,9.31975e-03,2.17265e-02,3.87682e-02
1.91380e+03,-5.50985e+00,-3.16828e+01,9.61759e-03,2.20712e-02,3.94198e-02
1.91380e+03,-5.21362e+00,-3.00153e+01,9.87469e-03,2.24200e-02,4.00684e-02
1.91380e+03,-4.89640e+00,-2.83477e+01,1.01063e-02,2.27717e-02,4.07160e-02
1.91380e+03,-4.55876e+00,-2.66802e+01,1.03132e-02,2.31258e-02,4.13614e-02
1.91380e+03,-4.20075e+00,-2.50127e+01,1.04953e-02,2.34814e-02,4.20034e-02
1.91380e+03,-3.82998e+00,-2.33452e+01,1.06620e-02,2.38380e-02,4.26431e-02
1.91380e+03,-3.44287e+00,-2.16777e+01,1.08088e-02,2.41951e-02,4.32785e-02
1.91380e+03,-3.04529e+00,-2.00102e+01,1.09429e-02,2.45520e-02,4.39107e-02
1.91380e+03,-2.63832e+00,-1.83427e+01,1.10656e-02,2.49084e-02,4.45391e-02
1.91380e+03,-2.22297e+00,-1.66751e+01,1.11782e-02,2.52639e-02,4.51636e-02
1.91380e+03,-1.80407e+00,-1.50076e+01,1.12864e-02,2.56183e-02,4.57851e-02
1.91380e+03,-1.37967e+00,-1.33401e+01,1.13880e-02,2.59713e-02,4.64027e-02
1.91380e+03,-9.54362e-01,-1.16726e+01,1.14885e-02,2.63228e-02,4.70176e-02
1.91380e+03,-5.25768e-01,-1.00051e+01,1.15850e-02,2.66727e-02,4.76289e-02
1.91380e+03,-9.72161e-02,-8.33757e+00,1.16815e-02,2.70209e-02,4.82374e-02
1.91380e+03,3.29716e-01,-6.67006e+00,1.17800e-02,2.73674e-02,4.88435e-02
1.91380e+03,7.56647e-01,-5.00254e+00,1.18785e-02,2.77120e-02,4.94466e-02
1.91380e+03,1.17347e+00,-3.33503e+00,1.19893e-02,2.80551e-02,5.00500e-02
1.91380e+03,1.58841e+00,-1.66751e+00,1.21023e-02,2.83966e-02,5.06515e-02
1.94970e+03,1.94880e+01,0.00000e+00,-5.89576e-03,2.10286e-02,3.68968e-02
1.94970e+03,1.93899e+01,-1.48088e+00,-6.15804e-03,2.08129e-02,3.65712e-02
1.94970e+03,1.92593e+01,-2.96177e+00,-6.39744e-03,2.05919e-02,3.62355e-02
1.94970e+03,1.91274e+01,-4.44265e+00,-6.63592e-03,2.03659e-02,3.58935e-02
1.94970e+03,1.89669e+01,-5.92353e+00,-6.85419e-03,2.01352e-02,3.55424e-02
1.94970e+03,1.87998e+01,-7.40441e+00,-7.06778e-03,1.99003e-02,3.51855e-02
1.94970e+03,1.86107e+01,-8.88530e+00,-7.26585e-03,1.96614e-02,3.48211e-02
1.94970e+03,1.84109e+01,-1.03662e+01,-7.45640e-03,1.94190e-02,3.44512e-02
1.94970e+03,1.81935e+01,-1.18471e+01,-7.63449e-03,1.91732e-02,3.40752e-02
1.94970e+03,1.79616e+01,-1.33279e+01,-7.80234e-03,1.89245e-02,3.36940e-02
1.94970e+03,1.77137e+01,-1.48088e+01,-7.95893e-03,1.86732e-02,3.33077e-02
1.94970e+03,1.74465e+01,-1.62897e+01,-8.10189e-03,1.84195e-02,3.29162e-02
1.94970e+03,1.71596e+01,-1.77706e+01,-8.23090e-03,1.81639e-02,3.25197e-02
1.94970e+03,1.68446e+01,-1.92515e+01,-8.34015e-03,1.79068e-02,3.21172e-02
1.94970e+03,1.65024e+01,-2.07324e+01,-8.43015e-03,1.76486e-02,3.17094e-02
1.94970e+03,1.61276e+01,-2.22132e+01,-8.49713e-03,1.73898e-02,3.12956e-02
1.94970e+03,1.57086e+01,-2.36941e+01,-8.53295e-03,1.71312e-02,3.08747e-02
1.94970e+03,1.52589e+01,-2.51750e+01,-8.54709e-03,1.68732e-02,3.04493e-02
1.94970e+03,1.47401e+01,-2.66559e+01,-8.51244e-03,1.66169e-02,3.00137e-02
1.94970e+03,1.41926e+01,-2.81368e+01,-8.45756e-03,1.63631e-02,2.95767e-02
1.94970e+03,1.35653e+01,-2.96177e+01,-8.34634e-03,1.61123e-02,2.91287e-02
1.94970e+03,1.28740e+01,-3.10985e+01,-8.18997e-03,1.58667e-02,2.86764e-02
1.94970e+03,1.21177e+01,-3.25794e+01,-7.98765e-03,1.56267e-02,2.82204e-02
1.94970e+03,1.12521e+01,-3.40603e+01,-7.70820e-03,1.53932e-02,2.77538e-02
1.94970e+03,1.02599e+01,-3.55412e+01,-7.33941e-03,1.51690e-02,2.72794e-02
1.94970e+03,9.12460e+00,-3.70221e+01,-6.86964e-03,1.49568e-02,2.68013e-02
1.94970e+03,7.78184e+00,-3.85029e+01,-6.25341e-03,1.47584e-02,2.63160e-02
1.94970e+03,6.05831e+00,-3.99838e+01,-5.36841e-03,1.45834e-02,2.58233e-02
1.94970e+03,3.72729e+00,-4.14647e+01,-4.05461e-03,1.44763e-02,2.53994e-02
1.94970e+03,-1.51027e+00,-4.29456e+01,-6.89223e-04,1.45185e-02,2.51562e-02
1.94970e+03,-1.88827e+00,-4.29490e+01,-4.23183e-04,1.46498e-02,2.53778e-02
1.94970e+03,-5.33209e+00,-4.14151e+01,2.35107e-03,1.48991e-02,2.59128e-02
1.94970e+03,-5.74905e+00,-3.98812e+01,2.98881e-03,1.50832e-02,2.62953e-02
1.94970e+03,-5.89293e+00,-3.83473e+01,3.43380e-03,1.52770e-02,2.66825e-02
1.94970e+03,-5.91477e+00,-3.68135e+01,3.79263e-03,1.54798e-02,2.70788e-02
1.94970e+03,-5.84465e+00,-3.52796e+01,4.08656e-03,1.56901e-02,2.74815e-02
1.94970e+03,-5.71682e+00,-3.37457e+01,4.33976e-03,1.59064e-02,2.78904e-02
1.94970e+03,-5.53106e+00,-3.22118e+01,4.55207e-03,1.61277e-02,2.83025e-02
1.94970e+03,-5.30995e+00,-3.06779e+01,4.73942e-03,1.63528e-02,2.87177e-02
1.94970e+03,-5.06834e+00,-2.91440e+01,4.91230e-03,1.65812e-02,2.91366e-02
1.94970e+03,-4.79584e+00,-2.76101e+01,5.06339e-03,1.68122e-02,2.95566e-02
1.94970e+03,-4.50405e+00,-2.60762e+01,5.20085e-03,1.70452e-02,2.99778e-02
1.94970e+03,-4.19345e+00,-2.45423e+01,5.32504e-03,1.72798e-02,3.03994e-02
1.94970e+03,-3.86414e+00,-2.30084e+01,5.43602e-03,1.75153e-02,3.08206e-02
1.94970e+03,-3.52308e+00,-2.14745e+01,5.53871e-03,1.77515e-02,3.12414e-02
1.94970e+03,-3.16699e+00,-1.99406e+01,5.63078e-03,1.79880e-02,3.16609e-02
1.94970e+03,-2.80126e+00,-1.84067e+01,5.71606e-03,1.82244e-02,3.20789e-02
1.94970e+03,-2.42690e+00,-1.68728e+01,5.79524e-03,1.84605e-02,3.24954e-02
1.94970e+03,-2.04484e+00,-1.53389e+01,5.86899e-03,1.86959e-02,3.29098e-02
1.94970e+03,-1.65951e+00,-1.38050e+01,5.94043e-03,1.89306e-02,3.33226e-02
1.94970e+03,-1.26912e+00,-1.22712e+01,6.00829e-03,1.91644e-02,3.37331e-02
1.94970e+03,-8.77888e-01,-1.07373e+01,6.07557e-03,1.93972e-02,3.41419e-02
1.94970e+03,-4.83637e-01,-9.20336e+00,6.14071e-03,1.96289e-02,3.45484e-02
1.94970e+03,-8.94260e-02,-7.66947e+00,6.20588e-03,1.98595e-02,3.49530e-02
1.94970e+03,3.03295e-01,-6.13558e+00,6.27210e-03,2.00890e-02,3.53559e-02
1.94970e+03,6.96016e-01,-4.60168e+00,6.33833e-03,2.03172e-02,3.57567e-02
1.94970e+03,1.07944e+00,-3.06779e+00,6.41111e-03,2.05443e-02,3.61568e-02
1.94970e+03,1.46113e+00,-1.53389e+00,6.48512e-03,2.07705e-02,3.65555e-02
1.98010e+03,1.80504e+01,0.00000e+00,-2.73821e-03,1.43379e-02,2.49844e-02
1.98010e+03,1.79595e+01,-1.37164e+00,-2.86928e-03,1.42054e-02,2.47711e-02
1.98010e+03,1.78386e+01,-2.74329e+00,-2.98965e-03,1.40696e-02,2.45520e-02
1.98010e+03,1.77165e+01,-4.11493e+00,-3.10960e-03,1.39308e-02,2.43284e-02
1.98010e+03,1.75678e+01,-5.48657e+00,-3.22010e-03,1.37891e-02,2.40996e-02
1.98010e+03,1.74130e+01,-6.85822e+00,-3.32842e-03,1.36448e-02,2.38667e-02
1.98010e+03,1.72378e+01,-8.22986e+00,-3.42948e-03,1.34981e-02,2.36296e-02
1.98010e+03,1.70528e+01,-9.60150e+00,-3.52703e-03,1.33492e-02,2.33889e-02
1.98010e+03,1.68514e+01,-1.09731e+01,-3.61876e-03,1.31982e-02,2.31447e-02
1.98010e+03,1.66366e+01,-1.23448e+01,-3.70570e-03,1.30455e-02,2.28973e-02
1.98010e+03,1.64070e+01,-1.37164e+01,-3.78738e-03,1.28911e-02,2.26470e-02
1.98010e+03,1.61595e+01,-1.50881e+01,-3.86269e-03,1.27354e-02,2.23940e-02
1.98010e+03,1.58938e+01,-1.64597e+01,-3.93148e-03,1.25784e-02,2.21383e-02
1.98010e+03,1.56020e+01,-1.78314e+01,-3.99104e-03,1.24205e-02,2.18800e-02
1.98010e+03,1.52851e+01,-1.92030e+01,-4.04160e-03,1.22619e-02,2.16194e-02
1.98010e+03,1.49379e+01,-2.05747e+01,-4.08140e-03,1.21030e-02,2.13566e-02
1.98010e+03,1.45498e+01,-2.19463e+01,-4.10664e-03,1.19442e-02,2.10916e-02
1.98010e+03,1.41333e+01,-2.33179e+01,-4.12175e-03,1.17857e-02,2.08254e-02
1.98010e+03,1.36527e+01,-2.46896e+01,-4.11406e-03,1.16284e-02,2.05568e-02
1.98010e+03,1.31457e+01,-2.60612e+01,-4.09692e-03,1.14725e-02,2.02889e-02
1.98010e+03,1.25646e+01,-2.74329e+01,-4.05345e-03,1.13185e-02,2.00189e-02
1.98010e+03,1.19244e+01,-2.88045e+01,-3.98887e-03,1.11677e-02,1.97501e-02
1.98010e+03,1.12238e+01,-3.01762e+01,-3.90283e-03,1.10204e-02,1.94827e-02
1.98010e+03,1.04220e+01,-3.15478e+01,-3.78074e-03,1.08770e-02,1.92151e-02
1.98010e+03,9.50303e+00,-3.29194e+01,-3.61690e-03,1.07393e-02,1.89494e-02
1.98010e+03,8.45151e+00,-3.42911e+01,-3.40587e-03,1.06090e-02,1.86883e-02
1.98010e+03,7.20780e+00,-3.56627e+01,-3.12639e-03,1.04872e-02,1.84314e-02
1.98010e+03,5.61141e+00,-3.70344e+01,-2.72132e-03,1.03797e-02,1.81830e-02
1.98010e+03,3.45234e+00,-3.84060e+01,-2.11586e-03,1.03140e-02,1.79893e-02
1.98010e+03,-1.39886e+00,-3.97777e+01,-5.51654e-04,1.03400e-02,1.79178e-02
1.98010e+03,-1.74898e+00,-3.97808e+01,-4.27348e-04,1.04207e-02,1.80542e-02
1.98010e+03,-4.93876e+00,-3.83601e+01,8.77916e-04,1.05737e-02,1.83353e-02
1.98010e+03,-5.32496e+00,-3.69394e+01,1.18475e-03,1.06868e-02,1.85480e-02
1.98010e+03,-5.45823e+00,-3.55186e+01,1.40151e-03,1.08059e-02,1.87687e-02
1.98010e+03,-5.47846e+00,-3.40979e+01,1.57800e-03,1.09304e-02,1.89977e-02
1.98010e+03,-5.41351e+00,-3.26771e+01,1.72417e-03,1.10595e-02,1.92330e-02
1.98010e+03,-5.29511e+00,-3.12564e+01,1.85130e-03,1.11924e-02,1.94739e-02
1.98010e+03,-5.12305e+00,-2.98356e+01,1.95932e-03,1.13283e-02,1.97187e-02
1.98010e+03,-4.91825e+00,-2.84149e+01,2.05568e-03,1.14665e-02,1.99667e-02
1.98010e+03,-4.69446e+00,-2.69941e+01,2.14528e-03,1.16067e-02,2.02176e-02
1.98010e+03,-4.44207e+00,-2.55734e+01,2.22469e-03,1.17486e-02,2.04704e-02
1.98010e+03,-4.17180e+00,-2.41527e+01,2.29773e-03,1.18917e-02,2.07247e-02
1.98010e+03,-3.88412e+00,-2.27319e+01,2.36458e-03,1.20357e-02,2.09801e-02
1.98010e+03,-3.57909e+00,-2.13112e+01,2.42524e-03,1.21803e-02,2.12359e-02
1.98010e+03,-3.26320e+00,-1.98904e+01,2.48204e-03,1.23253e-02,2.14919e-02
1.98010e+03,-2.93337e+00,-1.84697e+01,2.53387e-03,1.24705e-02,2.17477e-02
1.98010e+03,-2.59462e+00,-1.70489e+01,2.58253e-03,1.26157e-02,2.20031e-02
1.98010e+03,-2.24788e+00,-1.56282e+01,2.62834e-03,1.27606e-02,2.22578e-02
1.98010e+03,-1.89400e+00,-1.42074e+01,2.67161e-03,1.29052e-02,2.25115e-02
1.98010e+03,-1.53709e+00,-1.27867e+01,2.71380e-03,1.30493e-02,2.27644e-02
1.98010e+03,-1.17550e+00,-1.13660e+01,2.75432e-03,1.31928e-02,2.30160e-02
1.98010e+03,-8.13129e-01,-9.94521e+00,2.79457e-03,1.33357e-02,2.32666e-02
1.98010e+03,-4.47961e-01,-8.52447e+00,2.83382e-03,1.34780e-02,2.35160e-02
1.98010e+03,-8.28294e-02,-7.10372e+00,2.87308e-03,1.36196e-02,2.37641e-02
1.98010e+03,2.80922e-01,-5.68298e+00,2.91283e-03,1.37604e-02,2.40111e-02
1.98010e+03,6.44673e-01,-4.26223e+00,2.95258e-03,1.39005e-02,2.42568e-02
1.98010e+03,9.99811e-01,-2.84149e+00,2.99540e-03,1.40400e-02,2.45018e-02
1.98010e+03,1.35334e+00,-1.42074e+00,3.03880e-03,1.41788e-02,2.47458e-02
2.00520e+03,1.68635e+01,0.00000e+00,-1.03546e-03,8.76474e-03,1.52162e-02
2.00520e+03,1.67786e+01,-1.28145e+00,-1.09023e-03,8.69221e-03,1.50948e-02
2.00520e+03,1.66656e+01,-2.56290e+00,-1.14093e-03,8.61791e-03,1.49702e-02
2.00520e+03,1.65515e+01,-3.84435e+00,-1.19145e-03,8.54192e-03,1.48429e-02
2.00520e+03,1.64126e+01,-5.12580e+00,-1.23838e-03,8.46439e-03,1.47130e-02
2.00520e+03,1.62680e+01,-6.40725e+00,-1.28446e-03,8.38541e-03,1.45806e-02
2.00520e+03,1.61044e+01,-7.68870e+00,-1.32778e-03,8.30512e-03,1.44460e-02
2.00520e+03,1.59315e+01,-8.97015e+00,-1.36976e-03,8.22361e-03,1.43094e-02
2.00520e+03,1.57433e+01,-1.02516e+01,-1.40951e-03,8.14101e-03,1.41709e-02
2.00520e+03,1.55427e+01,-1.15330e+01,-1.44743e-03,8.05741e-03,1.40307e-02
2.00520e+03,1.53282e+01,-1.28145e+01,-1.48335e-03,7.97293e-03,1.38890e-02
2.00520e+03,1.50970e+01,-1.40959e+01,-1.51683e-03,7.88769e-03,1.37458e-02
2.00520e+03,1.48486e+01,-1.53774e+01,-1.54782e-03,7.80178e-03,1.36014e-02
2.00520e+03,1.45761e+01,-1.66588e+01,-1.57529e-03,7.71536e-03,1.34559e-02
2.00520e+03,1.42800e+01,-1.79403e+01,-1.59932e-03,7.62860e-03,1.33096e-02
2.00520e+03,1.39556e+01,-1.92217e+01,-1.61924e-03,7.54162e-03,1.31624e-02
2.00520e+03,1.35931e+01,-2.05032e+01,-1.63360e-03,7.45473e-03,1.30149e-02
2.00520e+03,1.32039e+01,-2.17846e+01,-1.64409e-03,7.36800e-03,1.28672e-02
2.00520e+03,1.27550e+01,-2.30661e+01,-1.64588e-03,7.28189e-03,1.27195e-02
2.00520e+03,1.22812e+01,-2.43475e+01,-1.64405e-03,7.19660e-03,1.25728e-02
2.00520e+03,1.17384e+01,-2.56290e+01,-1.63217e-03,7.11234e-03,1.24266e-02
2.00520e+03,1.11403e+01,-2.69104e+01,-1.61223e-03,7.02982e-03,1.22823e-02
2.00520e+03,1.04858e+01,-2.81919e+01,-1.58409e-03,6.94919e-03,1.21401e-02
2.00520e+03,9.73672e+00,-2.94733e+01,-1.54219e-03,6.87073e-03,1.20000e-02
2.00520e+03,8.87814e+00,-3.07548e+01,-1.48434e-03,6.79540e-03,1.18632e-02
2.00520e+03,7.89577e+00,-3.20362e+01,-1.40847e-03,6.72411e-03,1.17314e-02
2.00520e+03,6.73385e+00,-3.33177e+01,-1.30646e-03,6.65745e-03,1.16048e-02
2.00520e+03,5.24243e+00,-3.45991e+01,-1.15648e-03,6.59867e-03,1.14876e-02
2.00520e+03,3.22533e+00,-3.58806e+01,-9.29982e-04,6.56274e-03,1.14050e-02
2.00520e+03,-1.30688e+00,-3.71620e+01,-3.37340e-04,6.57695e-03,1.13966e-02
2.00520e+03,-1.63397e+00,-3.71650e+01,-2.89879e-04,6.62112e-03,1.14718e-02
2.00520e+03,-4.61400e+00,-3.58377e+01,2.13488e-04,6.70490e-03,1.16152e-02
2.00520e+03,-4.97481e+00,-3.45104e+01,3.35557e-04,6.76679e-03,1.17252e-02
2.00520e+03,-5.09932e+00,-3.31830e+01,4.23226e-04,6.83193e-03,1.18408e-02
2.00520e+03,-5.11821e+00,-3.18557e+01,4.95520e-04,6.90009e-03,1.19616e-02
2.00520e+03,-5.05754e+00,-3.05284e+01,5.56230e-04,6.97073e-03,1.20865e-02
2.00520e+03,-4.94693e+00,-2.92011e+01,6.09672e-04,7.04344e-03,1.22148e-02
2.00520e+03,-4.78618e+00,-2.78738e+01,6.55814e-04,7.11781e-03,1.23458e-02
2.00520e+03,-4.59485e+00,-2.65464e+01,6.97504e-04,7.19346e-03,1.24789e-02
2.00520e+03,-4.38577e+00,-2.52191e+01,7.36612e-04,7.27020e-03,1.26139e-02
2.00520e+03,-4.14998e+00,-2.38918e+01,7.71829e-04,7.34782e-03,1.27502e-02
2.00520e+03,-3.89748e+00,-2.25645e+01,8.04615e-04,7.42610e-03,1.28875e-02
2.00520e+03,-3.62871e+00,-2.12371e+01,8.35033e-04,7.50490e-03,1.30257e-02
2.00520e+03,-3.34375e+00,-1.99098e+01,8.63092e-04,7.58404e-03,1.31643e-02
2.00520e+03,-3.04862e+00,-1.85825e+01,8.89672e-04,7.66340e-03,1.33032e-02
2.00520e+03,-2.74048e+00,-1.72552e+01,9.14358e-04,7.74285e-03,1.34421e-02
2.00520e+03,-2.42401e+00,-1.59279e+01,9.37831e-04,7.82227e-03,1.35810e-02
2.00520e+03,-2.10007e+00,-1.46005e+01,9.60216e-04,7.90157e-03,1.37196e-02
2.00520e+03,-1.76946e+00,-1.32732e+01,9.81630e-04,7.98067e-03,1.38577e-02
2.00520e+03,-1.43602e+00,-1.19459e+01,1.00263e-03,8.05951e-03,1.39954e-02
2.00520e+03,-1.09820e+00,-1.06186e+01,1.02300e-03,8.13804e-03,1.41326e-02
2.00520e+03,-7.59661e-01,-9.29125e+00,1.04326e-03,8.21624e-03,1.42691e-02
2.00520e+03,-4.18505e-01,-7.96393e+00,1.06314e-03,8.29407e-03,1.44050e-02
2.00520e+03,-7.73829e-02,-6.63661e+00,1.08302e-03,8.37152e-03,1.45403e-02
2.00520e+03,2.62450e-01,-5.30929e+00,1.10309e-03,8.44858e-03,1.46749e-02
2.00520e+03,6.02282e-01,-3.98196e+00,1.12317e-03,8.52523e-03,1.48088e-02
2.00520e+03,9.34067e-01,-2.65464e+00,1.14441e-03,8.60152e-03,1.49422e-02
2.00520e+03,1.26435e+00,-1.32732e+00,1.16587e-03,8.67748e-03,1.50750e-02
2.02480e+03,1.59367e+01,0.00000e+00,-2.86667e-04,4.53371e-03,7.85784e-03
2.02480e+03,1.58564e+01,-1.21102e+00,-3.04163e-04,4.50054e-03,7.80110e-03
2.02480e+03,1.57496e+01,-2.42204e+00,-3.20508e-04,4.46657e-03,7.74295e-03
2.02480e+03,1.56418e+01,-3.63306e+00,-3.36807e-04,4.43182e-03,7.68352e-03
2.02480e+03,1.55106e+01,-4.84408e+00,-3.52092e-04,4.39636e-03,7.62285e-03
2.02480e+03,1.53739e+01,-6.05509e+00,-3.67141e-04,4.36025e-03,7.56109e-03
2.02480e+03,1.52192e+01,-7.26611e+00,-3.81410e-04,4.32353e-03,7.49828e-03
2.02480e+03,1.50559e+01,-8.47713e+00,-3.95302e-04,4.28626e-03,7.43453e-03
2.02480e+03,1.48781e+01,-9.68815e+00,-4.08567e-04,4.24848e-03,7.36993e-03
2.02480e+03,1.46884e+01,-1.08992e+01,-4.21319e-04,4.21026e-03,7.30455e-03
2.02480e+03,1.44857e+01,-1.21102e+01,-4.33504e-04,4.17163e-03,7.23847e-03
2.02480e+03,1.42672e+01,-1.33212e+01,-4.45005e-04,4.13265e-03,7.17178e-03
2.02480e+03,1.40325e+01,-1.45322e+01,-4.55805e-04,4.09337e-03,7.10456e-03
2.02480e+03,1.37750e+01,-1.57432e+01,-4.65612e-04,4.05386e-03,7.03690e-03
2.02480e+03,1.34951e+01,-1.69543e+01,-4.74452e-04,4.01419e-03,6.96894e-03
2.02480e+03,1.31886e+01,-1.81653e+01,-4.82136e-04,3.97442e-03,6.90075e-03
2.02480e+03,1.28460e+01,-1.93763e+01,-4.88253e-04,3.93469e-03,6.83255e-03
2.02480e+03,1.24782e+01,-2.05873e+01,-4.93282e-04,3.89503e-03,6.76441e-03
2.02480e+03,1.20540e+01,-2.17983e+01,-4.95860e-04,3.85566e-03,6.69658e-03
2.02480e+03,1.16063e+01,-2.30094e+01,-4.97421e-04,3.81666e-03,6.62934e-03
2.02480e+03,1.10933e+01,-2.42204e+01,-4.96152e-04,3.77814e-03,6.56271e-03
2.02480e+03,1.05280e+01,-2.54314e+01,-4.92615e-04,3.74041e-03,6.49728e-03
2.02480e+03,9.90946e+00,-2.66424e+01,-4.86769e-04,3.70354e-03,6.43317e-03
2.02480e+03,9.20158e+00,-2.78534e+01,-4.77048e-04,3.66767e-03,6.37048e-03
2.02480e+03,8.39019e+00,-2.90645e+01,-4.62839e-04,3.63323e-03,6.30994e-03
2.02480e+03,7.46181e+00,-3.02755e+01,-4.43557e-04,3.60064e-03,6.25225e-03
2.02480e+03,6.36374e+00,-3.14865e+01,-4.16916e-04,3.57016e-03,6.19774e-03
2.02480e+03,4.95429e+00,-3.26975e+01,-3.76773e-04,3.54329e-03,6.14872e-03
2.02480e+03,3.04806e+00,-3.39085e+01,-3.15087e-04,3.52688e-03,6.11685e-03
2.02480e+03,-1.23505e+00,-3.51195e+01,-1.50331e-04,3.53338e-03,6.12184e-03
2.02480e+03,-1.54416e+00,-3.51224e+01,-1.36975e-04,3.55358e-03,6.15650e-03
2.02480e+03,-4.36041e+00,-3.38680e+01,6.87391e-06,3.59189e-03,6.22134e-03
2.02480e+03,-4.70139e+00,-3.26136e+01,4.33866e-05,3.62019e-03,6.27051e-03
2.02480e+03,-4.81905e+00,-3.13592e+01,7.02154e-05,3.64998e-03,6.32233e-03
2.02480e+03,-4.83691e+00,-3.01049e+01,9.27162e-05,3.68114e-03,6.37660e-03
2.02480e+03,-4.77957e+00,-2.88505e+01,1.11956e-04,3.71344e-03,6.43284e-03
2.02480e+03,-4.67504e+00,-2.75961e+01,1.29150e-04,3.74669e-03,6.49074e-03
2.02480e+03,-4.52312e+00,-2.63418e+01,1.44289e-04,3.78069e-03,6.54994e-03
2.02480e+03,-4.34231e+00,-2.50874e+01,1.58174e-04,3.81528e-03,6.61015e-03
2.02480e+03,-4.14473e+00,-2.38330e+01,1.71333e-04,3.85036e-03,6.67123e-03
2.02480e+03,-3.92189e+00,-2.25787e+01,1.83396e-04,3.88585e-03,6.73299e-03
2.02480e+03,-3.68327e+00,-2.13243e+01,1.94775e-04,3.92165e-03,6.79528e-03
2.02480e+03,-3.42927e+00,-2.00699e+01,2.05488e-04,3.95767e-03,6.85797e-03
2.02480e+03,-3.15997e+00,-1.88155e+01,2.15536e-04,3.99386e-03,6.92092e-03
2.02480e+03,-2.88106e+00,-1.75612e+01,2.25168e-04,4.03014e-03,6.98404e-03
2.02480e+03,-2.58986e+00,-1.63068e+01,2.34267e-04,4.06646e-03,7.04721e-03
2.02480e+03,-2.29078e+00,-1.50524e+01,2.43025e-04,4.10277e-03,7.11036e-03
2.02480e+03,-1.98465e+00,-1.37981e+01,2.51476e-04,4.13903e-03,7.17341e-03
2.02480e+03,-1.67220e+00,-1.25437e+01,2.59654e-04,4.17519e-03,7.23630e-03
2.02480e+03,-1.35709e+00,-1.12893e+01,2.67716e-04,4.21123e-03,7.29898e-03
2.02480e+03,-1.03784e+00,-1.00350e+01,2.75599e-04,4.24713e-03,7.36141e-03
2.02480e+03,-7.17909e-01,-8.78059e+00,2.83452e-04,4.28288e-03,7.42358e-03
2.02480e+03,-3.95503e-01,-7.52622e+00,2.91197e-04,4.31846e-03,7.48546e-03
2.02480e+03,-7.31298e-02,-6.27185e+00,2.98944e-04,4.35387e-03,7.54704e-03
2.02480e+03,2.48025e-01,-5.01748e+00,3.06745e-04,4.38910e-03,7.60832e-03
2.02480e+03,5.69180e-01,-3.76311e+00,3.14545e-04,4.42414e-03,7.66928e-03
2.02480e+03,8.82730e-01,-2.50874e+00,3.22674e-04,4.45901e-03,7.72997e-03
2.02480e+03,1.19486e+00,-1.25437e+00,3.30866e-04,4.49373e-03,7.79040e-03
2.03880e+03,1.52746e+01,0.00000e+00,-4.77771e-05,1.77390e-03,3.07285e-03
2.03880e+03,1.51977e+01,-1.16071e+00,-5.14360e-05,1.76295e-03,3.05395e-03
2.03880e+03,1.50954e+01,-2.32142e+00,-5.48969e-05,1.75173e-03,3.03458e-03
2.03880e+03,1.49920e+01,-3.48213e+00,-5.83499e-05,1.74025e-03,3.01477e-03
2.03880e+03,1.48662e+01,-4.64285e+00,-6.16281e-05,1.72855e-03,2.99456e-03
2.03880e+03,1.47352e+01,-5.80356e+00,-6.48657e-05,1.71662e-03,2.97398e-03
2.03880e+03,1.45870e+01,-6.96427e+00,-6.79692e-05,1.70450e-03,2.95306e-03
2.03880e+03,1.44304e+01,-8.12498e+00,-7.10075e-05,1.69219e-03,2.93182e-03
2.03880e+03,1.42600e+01,-9.28569e+00,-7.39381e-05,1.67972e-03,2.91030e-03
2.03880e+03,1.40782e+01,-1.04464e+01,-7.67801e-05,1.66710e-03,2.88852e-03
2.03880e+03,1.38839e+01,-1.16071e+01,-7.95247e-05,1.65434e-03,2.86651e-03
2.03880e+03,1.36745e+01,-1.27678e+01,-8.21514e-05,1.64147e-03,2.84430e-03
2.03880e+03,1.34496e+01,-1.39285e+01,-8.46574e-05,1.62850e-03,2.82192e-03
2.03880e+03,1.32028e+01,-1.50892e+01,-8.69924e-05,1.61546e-03,2.79940e-03
2.03880e+03,1.29345e+01,-1.62500e+01,-8.91609e-05,1.60236e-03,2.77680e-03
2.03880e+03,1.26407e+01,-1.74107e+01,-9.11304e-05,1.58923e-03,2.75413e-03
2.03880e+03,1.23123e+01,-1.85714e+01,-9.28302e-05,1.57611e-03,2.73148e-03
2.03880e+03,1.19599e+01,-1.97321e+01,-9.43424e-05,1.56302e-03,2.70887e-03
2.03880e+03,1.15532e+01,-2.08928e+01,-9.54326e-05,1.55002e-03,2.68641e-03
2.03880e+03,1.11241e+01,-2.20535e+01,-9.63478e-05,1.53714e-03,2.66415e-03
2.03880e+03,1.06324e+01,-2.32142e+01,-9.67757e-05,1.52442e-03,2.64215e-03
2.03880e+03,1.00906e+01,-2.43749e+01,-9.68129e-05,1.51197e-03,2.62059e-03
2.03880e+03,9.49781e+00,-2.55357e+01,-9.64526e-05,1.49980e-03,2.59951e-03
2.03880e+03,8.81933e+00,-2.66964e+01,-9.54251e-05,1.48795e-03,2.57898e-03
2.03880e+03,8.04165e+00,-2.78571e+01,-9.36247e-05,1.47658e-03,2.55923e-03
2.03880e+03,7.15183e+00,-2.90178e+01,-9.09507e-05,1.46582e-03,2.54051e-03
2.03880e+03,6.09938e+00,-3.01785e+01,-8.70097e-05,1.45576e-03,2.52295e-03
2.03880e+03,4.74849e+00,-3.13392e+01,-8.07437e-05,1.44689e-03,2.50739e-03
2.03880e+03,2.92144e+00,-3.24999e+01,-7.07682e-05,1.44147e-03,2.49771e-03
2.03880e+03,-1.18374e+00,-3.36606e+01,-4.30447e-05,1.44362e-03,2.50080e-03
2.03880e+03,-1.48002e+00,-3.36633e+01,-4.07465e-05,1.45029e-03,2.51231e-03
2.03880e+03,-4.17927e+00,-3.24611e+01,-1.53071e-05,1.46294e-03,2.53393e-03
2.03880e+03,-4.50609e+00,-3.12588e+01,-8.35044e-06,1.47229e-03,2.55009e-03
2.03880e+03,-4.61886e+00,-3.00565e+01,-3.06122e-06,1.48212e-03,2.56711e-03
2.03880e+03,-4.63598e+00,-2.88543e+01,1.48272e-06,1.49241e-03,2.58493e-03
2.03880e+03,-4.58102e+00,-2.76520e+01,5.46517e-06,1.50308e-03,2.60341e-03
2.03880e+03,-4.48083e+00,-2.64498e+01,9.09527e-06,1.51405e-03,2.62243e-03
2.03880e+03,-4.33523e+00,-2.52475e+01,1.23716e-05,1.52528e-03,2.64189e-03
2.03880e+03,-4.16192e+00,-2.40452e+01,1.54321e-05,1.53670e-03,2.66168e-03
2.03880e+03,-3.97255e+00,-2.28430e+01,1.83673e-05,1.54828e-03,2.68177e-03
2.03880e+03,-3.75897e+00,-2.16407e+01,2.11141e-05,1.56000e-03,2.70208e-03
2.03880e+03,-3.53026e+00,-2.04384e+01,2.37429e-05,1.57182e-03,2.72257e-03
2.03880e+03,-3.28682e+00,-1.92362e+01,2.62570e-05,1.58371e-03,2.74319e-03
2.03880e+03,-3.02870e+00,-1.80339e+01,2.86567e-05,1.59566e-03,2.76391e-03
2.03880e+03,-2.76138e+00,-1.68317e+01,3.09848e-05,1.60764e-03,2.78468e-03
2.03880e+03,-2.48228e+00,-1.56294e+01,3.32210e-05,1.61963e-03,2.80547e-03
2.03880e+03,-2.19562e+00,-1.44271e+01,3.53985e-05,1.63161e-03,2.82626e-03
2.03880e+03,-1.90220e+00,-1.32249e+01,3.75232e-05,1.64358e-03,2.84702e-03
2.03880e+03,-1.60274e+00,-1.20226e+01,3.96008e-05,1.65552e-03,2.86772e-03
2.03880e+03,-1.30072e+00,-1.08204e+01,4.16585e-05,1.66742e-03,2.88836e-03
2.03880e+03,-9.94731e-01,-9.61809e+00,4.36854e-05,1.67927e-03,2.90892e-03
2.03880e+03,-6.88086e-01,-8.41583e+00,4.57070e-05,1.69108e-03,2.92938e-03
2.03880e+03,-3.79073e-01,-7.21357e+00,4.77103e-05,1.70282e-03,2.94976e-03
2.03880e+03,-7.00919e-02,-6.01131e+00,4.97138e-05,1.71451e-03,2.97003e-03
2.03880e+03,2.37722e-01,-4.80905e+00,5.17264e-05,1.72614e-03,2.99021e-03
2.03880e+03,5.45535e-01,-3.60678e+00,5.37389e-05,1.73771e-03,3.01028e-03
2.03880e+03,8.46060e-01,-2.40452e+00,5.58083e-05,1.74922e-03,3.03025e-03
2.03880e+03,1.14523e+00,-1.20226e+00,5.78883e-05,1.76068e-03,3.05014e-03
2.04720e+03,1.48774e+01,0.00000e+00,-5.39738e-06,3.53706e-04,6.12660e-04
2.04720e+03,1.48025e+01,-1.13053e+00,-5.97557e-06,3.52121e-04,6.09921e-04
2.04720e+03,1.47028e+01,-2.26105e+00,-6.52995e-06,3.50498e-04,6.07115e-04
2.04720e+03,1.46021e+01,-3.39158e+00,-7.08337e-06,3.48838e-04,6.04246e-04
2.04720e+03,1.44796e+01,-4.52211e+00,-7.61578e-06,3.47144e-04,6.01319e-04
2.04720e+03,1.43520e+01,-5.65264e+00,-8.14331e-06,3.45418e-04,5.98338e-04
2.04720e+03,1.42077e+01,-6.78316e+00,-8.65470e-06,3.43664e-04,5.95307e-04
2.04720e+03,1.40552e+01,-7.91369e+00,-9.15826e-06,3.41884e-04,5.92231e-04
2.04720e+03,1.38892e+01,-9.04422e+00,-9.64886e-06,3.40079e-04,5.89113e-04
2.04720e+03,1.37121e+01,-1.01747e+01,-1.01288e-05,3.38253e-04,5.85959e-04
2.04720e+03,1.35229e+01,-1.13053e+01,-1.05970e-05,3.36408e-04,5.82772e-04
2.04720e+03,1.33189e+01,-1.24358e+01,-1.10511e-05,3.34546e-04,5.79556e-04
2.04720e+03,1.30998e+01,-1.35663e+01,-1.14906e-05,3.32669e-04,5.76315e-04
2.04720e+03,1.28594e+01,-1.46969e+01,-1.19096e-05,3.30782e-04,5.73054e-04
2.04720e+03,1.25982e+01,-1.58274e+01,-1.23086e-05,3.28887e-04,5.69781e-04
2.04720e+03,1.23120e+01,-1.69579e+01,-1.26836e-05,3.26987e-04,5.66500e-04
2.04720e+03,1.19922e+01,-1.80884e+01,-1.30262e-05,3.25089e-04,5.63222e-04
2.04720e+03,1.16489e+01,-1.92190e+01,-1.33462e-05,3.23195e-04,5.59949e-04
2.04720e+03,1.12528e+01,-2.03495e+01,-1.36155e-05,3.21314e-04,5.56699e-04
2.04720e+03,1.08348e+01,-2.14800e+01,-1.38637e-05,3.19451e-04,5.53480e-04
2.04720e+03,1.03559e+01,-2.26105e+01,-1.40534e-05,3.17611e-04,5.50298e-04
2.04720e+03,9.82823e+00,-2.37411e+01,-1.41960e-05,3.15809e-04,5.47182e-04
2.04720e+03,9.25081e+00,-2.48716e+01,-1.42909e-05,3.14048e-04,5.44135e-04
2.04720e+03,8.58998e+00,-2.60021e+01,-1.43055e-05,3.12335e-04,5.41169e-04
2.04720e+03,7.83252e+00,-2.71326e+01,-1.42271e-05,3.10690e-04,5.38319e-04
2.04720e+03,6.96585e+00,-2.82632e+01,-1.40437e-05,3.09133e-04,5.35619e-04
2.04720e+03,5.94077e+00,-2.93937e+01,-1.37080e-05,3.07678e-04,5.33090e-04
2.04720e+03,4.62500e+00,-3.05242e+01,-1.30926e-05,3.06395e-04,5.30852e-04
2.04720e+03,2.84547e+00,-3.16548e+01,-1.20312e-05,3.05611e-04,5.29470e-04
2.04720e+03,-1.15296e+00,-3.27853e+01,-8.83535e-06,3.05922e-04,5.29946e-04
2.04720e+03,-1.44153e+00,-3.27879e+01,-8.55928e-06,3.06887e-04,5.31613e-04
2.04720e+03,-4.07059e+00,-3.16169e+01,-5.35687e-06,3.08717e-04,5.34741e-04
2.04720e+03,-4.38891e+00,-3.04459e+01,-4.37715e-06,3.10069e-04,5.37074e-04
2.04720e+03,-4.49875e+00,-2.92749e+01,-3.59795e-06,3.11492e-04,5.39532e-04
2.04720e+03,-4.51542e+00,-2.81039e+01,-2.90838e-06,3.12981e-04,5.42106e-04
2.04720e+03,-4.46189e+00,-2.69329e+01,-2.28634e-06,3.14524e-04,5.44776e-04
2.04720e+03,-4.36430e+00,-2.57619e+01,-1.70667e-06,3.16112e-04,5.47525e-04
2.04720e+03,-4.22249e+00,-2.45909e+01,-1.16955e-06,3.17736e-04,5.50336e-04
2.04720e+03,-4.05369e+00,-2.34199e+01,-6.58376e-07,3.19388e-04,5.53197e-04
2.04720e+03,-3.86924e+00,-2.22489e+01,-1.62260e-07,3.21064e-04,5.56100e-04
2.04720e+03,-3.66121e+00,-2.10779e+01,3.11176e-07,3.22759e-04,5.59036e-04
2.04720e+03,-3.43845e+00,-1.99069e+01,7.70441e-07,3.24469e-04,5.61997e-04
2.04720e+03,-3.20134e+00,-1.87359e+01,1.21590e-06,3.26190e-04,5.64979e-04
2.04720e+03,-2.94994e+00,-1.75649e+01,1.64761e-06,3.27918e-04,5.67973e-04
2.04720e+03,-2.68957e+00,-1.63940e+01,2.07070e-06,3.29651e-04,5.70976e-04
2.04720e+03,-2.41772e+00,-1.52230e+01,2.48275e-06,3.31386e-04,5.73983e-04
2.04720e+03,-2.13852e+00,-1.40520e+01,2.88772e-06,3.33120e-04,5.76988e-04
2.04720e+03,-1.85273e+00,-1.28810e+01,3.28636e-06,3.34852e-04,5.79990e-04
2.04720e+03,-1.56106e+00,-1.17100e+01,3.67933e-06,3.36579e-04,5.82983e-04
2.04720e+03,-1.26689e+00,-1.05390e+01,4.06991e-06,3.38300e-04,5.85967e-04
2.04720e+03,-9.68863e-01,-9.36797e+00,4.45678e-06,3.40015e-04,5.88940e-04
2.04720e+03,-6.70192e-01,-8.19698e+00,4.84302e-06,3.41722e-04,5.91900e-04
2.04720e+03,-3.69215e-01,-7.02598e+00,5.22705e-06,3.43422e-04,5.94847e-04
2.04720e+03,-6.82691e-02,-5.85498e+00,5.61111e-06,3.45112e-04,5.97779e-04
2.04720e+03,2.31540e-01,-4.68399e+00,5.99626e-06,3.46795e-04,6.00696e-04
2.04720e+03,5.31348e-01,-3.51299e+00,6.38141e-06,3.48468e-04,6.03598e-04
2.04720e+03,8.24058e-01,-2.34199e+00,6.77339e-06,3.50134e-04,6.06487e-04
2.04720e+03,1.11544e+00,-1.17100e+00,7.16664e-06,3.51792e-04,6.09364e-04
2.05000e+03,1.47450e+01,0.00000e+00,0.00000e+00,0.00000e+00,0.00000e+00
2.05000e+03,1.46708e+01,-1.12047e+00,0.00000e+00,0.00000e+00,0.00000e+00
2.05000e+03,1.45720e+01,-2.24093e+00,0.00000e+00,0.00000e+00,0.00000e+00
2.05000e+03,1.44722e+01,-3.36140e+00,0.00000e+00,0.00000e+00,0.00000e+00
2.05000e+03,1.43508e+01,-4.48186e+00,0.00000e+00,0.00000e+00,0.00000e+00
2.05000e+03,1.42243e+01,-5.60233e+00,0.00000e+00,0.00000e+00,0.00000e+00
2.05000e+03,1.40812e+01,-6.72279e+00,0.00000e+00,0.00000e+00,0.00000e+00
2.05000e+03,1.39301e+01,-7.84326e+00,0.00000e+00,0.00000e+00,0.00000e+00
2.05000e+03,1.37656e+01,-8.96372e+00,0.00000e+00,0.00000e+00,0.00000e+00
2.05000e+03,1.35901e+01,-1.00842e+01,0.00000e+00,0.00000e+00,0.00000e+00
2.05000e+03,1.34025e+01,-1.12047e+01,0.00000e+00,0.00000e+00,0.00000e+00
2.05000e+03,1.32004e+01,-1.23251e+01,0.00000e+00,0.00000e+00,0.00000e+00
2.05000e+03,1.29833e+01,-1.34456e+01,0.00000e+00,0.00000e+00,0.00000e+00
2.05000e+03,1.27450e+01,-1.45661e+01,0.00000e+00,0.00000e+00,0.00000e+00
2.05000e+03,1.24860e+01,-1.56865e+01,0.00000e+00,0.00000e+00,0.00000e+00
2.05000e+03,1.22024e+01,-1.68070e+01,0.00000e+00,0.00000e+00,0.00000e+00
2.05000e+03,1.18854e+01,-1.79274e+01,0.00000e+00,0.00000e+00,0.00000e+00
2.05000e+03,1.15452e+01,-1.90479e+01,0.00000e+00,0.00000e+00,0.00000e+00
2.05000e+03,1.11526e+01,-2.01684e+01,0.00000e+00,0.00000e+00,0.00000e+00
2.05000e+03,1.07384e+01,-2.12888e+01,0.00000e+00,0.00000e+00,0.00000e+00
2.05000e+03,1.02638e+01,-2.24093e+01,0.00000e+00,0.00000e+00,0.00000e+00
2.05000e+03,9.74076e+00,-2.35298e+01,0.00000e+00,0.00000e+00,0.00000e+00
2.05000e+03,9.16848e+00,-2.46502e+01,0.00000e+00,0.00000e+00,0.00000e+00
2.05000e+03,8.51353e+00,-2.57707e+01,0.00000e+00,0.00000e+00,0.00000e+00
2.05000e+03,7.76281e+00,-2.68912e+01,0.00000e+00,0.00000e+00,0.00000e+00
2.05000e+03,6.90385e+00,-2.80116e+01,0.00000e+00,0.00000e+00,0.00000e+00
2.05000e+03,5.88790e+00,-2.91321e+01,0.00000e+00,0.00000e+00,0.00000e+00
2.05000e+03,4.58384e+00,-3.02526e+01,0.00000e+00,0.00000e+00,0.00000e+00
2.05000e+03,2.82014e+00,-3.13730e+01,0.00000e+00,0.00000e+00,0.00000e+00
2.05000e+03,-1.14270e+00,-3.24935e+01,0.00000e+00,0.00000e+00,0.00000e+00
2.05000e+03,-1.42870e+00,-3.24961e+01,0.00000e+00,0.00000e+00,0.00000e+00
2.05000e+03,-4.03436e+00,-3.13355e+01,0.00000e+00,0.00000e+00,0.00000e+00
2.05000e+03,-4.34985e+00,-3.01749e+01,0.00000e+00,0.00000e+00,0.00000e+00
2.05000e+03,-4.45871e+00,-2.90144e+01,0.00000e+00,0.00000e+00,0.00000e+00
2.05000e+03,-4.47523e+00,-2.78538e+01,0.00000e+00,0.00000e+00,0.00000e+00
2.05000e+03,-4.42218e+00,-2.66932e+01,0.00000e+00,0.00000e+00,0.00000e+00
2.05000e+03,-4.32546e+00,-2.55327e+01,0.00000e+00,0.00000e+00,0.00000e+00
2.05000e+03,-4.18491e+00,-2.43721e+01,0.00000e+00,0.00000e+00,0.00000e+00
2.05000e+03,-4.01761e+00,-2.32115e+01,0.00000e+00,0.00000e+00,0.00000e+00
2.05000e+03,-3.83480e+00,-2.20509e+01,0.00000e+00,0.00000e+00,0.00000e+00
2.05000e+03,-3.62863e+00,-2.08903e+01,0.00000e+00,0.00000e+00,0.00000e+00
2.05000e+03,-3.40785e+00,-1.97298e+01,0.00000e+00,0.00000e+00,0.00000e+00
2.05000e+03,-3.17285e+00,-1.85692e+01,0.00000e+00,0.00000e+00,0.00000e+00
2.05000e+03,-2.92368e+00,-1.74086e+01,0.00000e+00,0.00000e+00,0.00000e+00
2.05000e+03,-2.66563e+00,-1.62480e+01,0.00000e+00,0.00000e+00,0.00000e+00
2.05000e+03,-2.39621e+00,-1.50875e+01,0.00000e+00,0.00000e+00,0.00000e+00
2.05000e+03,-2.11949e+00,-1.39269e+01,0.00000e+00,0.00000e+00,0.00000e+00
2.05000e+03,-1.83624e+00,-1.27663e+01,0.00000e+00,0.00000e+00,0.00000e+00
2.05000e+03,-1.54717e+00,-1.16057e+01,0.00000e+00,0.00000e+00,0.00000e+00
2.05000e+03,-1.25562e+00,-1.04452e+01,0.00000e+00,0.00000e+00,0.00000e+00
2.05000e+03,-9.60241e-01,-9.28460e+00,0.00000e+00,0.00000e+00,0.00000e+00
2.05000e+03,-6.64227e-01,-8.12402e+00,0.00000e+00,0.00000e+00,0.00000e+00
2.05000e+03,-3.65929e-01,-6.96345e+00,0.00000e+00,0.00000e+00,0.00000e+00
2.05000e+03,-6.76615e-02,-5.80287e+00,0.00000e+00,0.00000e+00,0.00000e+00
2.05000e+03,2.29479e-01,-4.64230e+00,0.00000e+00,0.00000e+00,0.00000e+00
2.05000e+03,5.26620e-01,-3.48173e+00,0.00000e+00,0.00000e+00,0.00000e+00
2.05000e+03,8.16724e-01,-2.32115e+00,0.00000e+00,0.00000e+00,0.00000e+00
2.05000e+03,1.10552e+00,-1.16058e+00,0.00000e+00,0.00000e+00,0.00000e+00
--------------------------------------------------------------------------------------------------------------------------------------------------------------------------------------------------------------------------------------------------------------------------------------------------------------------------------------------------------------------------------

LAMINADO 
--------------------------------------------------------------------------------------------------------------------------------------------------------------------------------------------------------------------------------------------------------------------------------------------------------------------------------------------------------------------------------
X,Y,Z,Sigma,Tau,Von Mises
0.00000e+00,4.31008e+01,0.00000e+00,0.00000e+00,0.00000e+00,0.00000e+00
0.00000e+00,4.28837e+01,-3.27521e+00,0.00000e+00,0.00000e+00,0.00000e+00
0.00000e+00,4.25950e+01,-6.55041e+00,0.00000e+00,0.00000e+00,0.00000e+00
0.00000e+00,4.23033e+01,-9.82562e+00,0.00000e+00,0.00000e+00,0.00000e+00
0.00000e+00,4.19484e+01,-1.31008e+01,0.00000e+00,0.00000e+00,0.00000e+00
0.00000e+00,4.15787e+01,-1.63760e+01,0.00000e+00,0.00000e+00,0.00000e+00
0.00000e+00,4.11605e+01,-1.96512e+01,0.00000e+00,0.00000e+00,0.00000e+00
0.00000e+00,4.07187e+01,-2.29264e+01,0.00000e+00,0.00000e+00,0.00000e+00
0.00000e+00,4.02378e+01,-2.62017e+01,0.00000e+00,0.00000e+00,0.00000e+00
0.00000e+00,3.97249e+01,-2.94769e+01,0.00000e+00,0.00000e+00,0.00000e+00
0.00000e+00,3.91766e+01,-3.27521e+01,0.00000e+00,0.00000e+00,0.00000e+00
0.00000e+00,3.85857e+01,-3.60273e+01,0.00000e+00,0.00000e+00,0.00000e+00
0.00000e+00,3.79511e+01,-3.93025e+01,0.00000e+00,0.00000e+00,0.00000e+00
0.00000e+00,3.72545e+01,-4.25777e+01,0.00000e+00,0.00000e+00,0.00000e+00
0.00000e+00,3.64976e+01,-4.58529e+01,0.00000e+00,0.00000e+00,0.00000e+00
0.00000e+00,3.56687e+01,-4.91281e+01,0.00000e+00,0.00000e+00,0.00000e+00
0.00000e+00,3.47420e+01,-5.24033e+01,0.00000e+00,0.00000e+00,0.00000e+00
0.00000e+00,3.37474e+01,-5.56785e+01,0.00000e+00,0.00000e+00,0.00000e+00
0.00000e+00,3.26000e+01,-5.89537e+01,0.00000e+00,0.00000e+00,0.00000e+00
0.00000e+00,3.13892e+01,-6.22289e+01,0.00000e+00,0.00000e+00,0.00000e+00
0.00000e+00,3.00018e+01,-6.55041e+01,0.00000e+00,0.00000e+00,0.00000e+00
0.00000e+00,2.84730e+01,-6.87793e+01,0.00000e+00,0.00000e+00,0.00000e+00
0.00000e+00,2.68002e+01,-7.20546e+01,0.00000e+00,0.00000e+00,0.00000e+00
0.00000e+00,2.48857e+01,-7.53298e+01,0.00000e+00,0.00000e+00,0.00000e+00
0.00000e+00,2.26913e+01,-7.86050e+01,0.00000e+00,0.00000e+00,0.00000e+00
0.00000e+00,2.01805e+01,-8.18802e+01,0.00000e+00,0.00000e+00,0.00000e+00
0.00000e+00,1.72108e+01,-8.51554e+01,0.00000e+00,0.00000e+00,0.00000e+00
0.00000e+00,1.33989e+01,-8.84306e+01,0.00000e+00,0.00000e+00,0.00000e+00
0.00000e+00,8.24350e+00,-9.17058e+01,0.00000e+00,0.00000e+00,0.00000e+00
0.00000e+00,-3.34020e+00,-9.49810e+01,0.00000e+00,0.00000e+00,0.00000e+00
0.00000e+00,-4.17620e+00,-9.49886e+01,0.00000e+00,0.00000e+00,0.00000e+00
0.00000e+00,-1.17928e+01,-9.15961e+01,0.00000e+00,0.00000e+00,0.00000e+00
0.00000e+00,-1.27149e+01,-8.82037e+01,0.00000e+00,0.00000e+00,0.00000e+00
0.00000e+00,-1.30332e+01,-8.48113e+01,0.00000e+00,0.00000e+00,0.00000e+00
0.00000e+00,-1.30814e+01,-8.14188e+01,0.00000e+00,0.00000e+00,0.00000e+00
0.00000e+00,-1.29264e+01,-7.80264e+01,0.00000e+00,0.00000e+00,0.00000e+00
0.00000e+00,-1.26437e+01,-7.46339e+01,0.00000e+00,0.00000e+00,0.00000e+00
0.00000e+00,-1.22328e+01,-7.12415e+01,0.00000e+00,0.00000e+00,0.00000e+00
0.00000e+00,-1.17438e+01,-6.78490e+01,0.00000e+00,0.00000e+00,0.00000e+00
0.00000e+00,-1.12094e+01,-6.44565e+01,0.00000e+00,0.00000e+00,0.00000e+00
0.00000e+00,-1.06068e+01,-6.10641e+01,0.00000e+00,0.00000e+00,0.00000e+00
0.00000e+00,-9.96142e+00,-5.76716e+01,0.00000e+00,0.00000e+00,0.00000e+00
0.00000e+00,-9.27449e+00,-5.42792e+01,0.00000e+00,0.00000e+00,0.00000e+00
0.00000e+00,-8.54615e+00,-5.08867e+01,0.00000e+00,0.00000e+00,0.00000e+00
0.00000e+00,-7.79185e+00,-4.74943e+01,0.00000e+00,0.00000e+00,0.00000e+00
0.00000e+00,-7.00429e+00,-4.41018e+01,0.00000e+00,0.00000e+00,0.00000e+00
0.00000e+00,-6.19544e+00,-4.07094e+01,0.00000e+00,0.00000e+00,0.00000e+00
0.00000e+00,-5.36748e+00,-3.73169e+01,0.00000e+00,0.00000e+00,0.00000e+00
0.00000e+00,-4.52248e+00,-3.39245e+01,0.00000e+00,0.00000e+00,0.00000e+00
0.00000e+00,-3.67026e+00,-3.05320e+01,0.00000e+00,0.00000e+00,0.00000e+00
0.00000e+00,-2.80686e+00,-2.71396e+01,0.00000e+00,0.00000e+00,0.00000e+00
0.00000e+00,-1.94159e+00,-2.37472e+01,0.00000e+00,0.00000e+00,0.00000e+00
0.00000e+00,-1.06964e+00,-2.03547e+01,0.00000e+00,0.00000e+00,0.00000e+00
0.00000e+00,-1.97780e-01,-1.69622e+01,0.00000e+00,0.00000e+00,0.00000e+00
0.00000e+00,6.70785e-01,-1.35698e+01,0.00000e+00,0.00000e+00,0.00000e+00
0.00000e+00,1.53935e+00,-1.01774e+01,0.00000e+00,0.00000e+00,0.00000e+00
0.00000e+00,2.38735e+00,-6.78490e+00,0.00000e+00,0.00000e+00,0.00000e+00
0.00000e+00,3.23151e+00,-3.39245e+00,0.00000e+00,0.00000e+00,0.00000e+00
1.07300e+02,4.26785e+01,0.00000e+00,0.00000e+00,0.00000e+00,0.00000e+00
1.07300e+02,4.24636e+01,-3.24312e+00,0.00000e+00,0.00000e+00,0.00000e+00
1.07300e+02,4.21777e+01,-6.48624e+00,0.00000e+00,0.00000e+00,0.00000e+00
1.07300e+02,4.18889e+01,-9.72936e+00,0.00000e+00,0.00000e+00,0.00000e+00
1.07300e+02,4.15374e+01,-1.29725e+01,0.00000e+00,0.00000e+00,0.00000e+00
1.07300e+02,4.11714e+01,-1.62156e+01,0.00000e+00,0.00000e+00,0.00000e+00
1.07300e+02,4.07572e+01,-1.94587e+01,0.00000e+00,0.00000e+00,0.00000e+00
1.07300e+02,4.03197e+01,-2.27018e+01,0.00000e+00,0.00000e+00,0.00000e+00
1.07300e+02,3.98436e+01,-2.59450e+01,0.00000e+00,0.00000e+00,0.00000e+00
1.07300e+02,3.93357e+01,-2.91881e+01,0.00000e+00,0.00000e+00,0.00000e+00
1.07300e+02,3.87928e+01,-3.24312e+01,0.00000e+00,0.00000e+00,0.00000e+00
1.07300e+02,3.82077e+01,-3.56743e+01,0.00000e+00,0.00000e+00,0.00000e+00
1.07300e+02,3.75793e+01,-3.89174e+01,0.00000e+00,0.00000e+00,0.00000e+00
1.07300e+02,3.68895e+01,-4.21606e+01,0.00000e+00,0.00000e+00,0.00000e+00
1.07300e+02,3.61401e+01,-4.54037e+01,0.00000e+00,0.00000e+00,0.00000e+00
1.07300e+02,3.53192e+01,-4.86468e+01,0.00000e+00,0.00000e+00,0.00000e+00
1.07300e+02,3.44016e+01,-5.18899e+01,0.00000e+00,0.00000e+00,0.00000e+00
1.07300e+02,3.34168e+01,-5.51330e+01,0.00000e+00,0.00000e+00,0.00000e+00
1.07300e+02,3.22806e+01,-5.83762e+01,0.00000e+00,0.00000e+00,0.00000e+00
1.07300e+02,3.10816e+01,-6.16193e+01,0.00000e+00,0.00000e+00,0.00000e+00
1.07300e+02,2.97079e+01,-6.48624e+01,0.00000e+00,0.00000e+00,0.00000e+00
1.07300e+02,2.81940e+01,-6.81055e+01,0.00000e+00,0.00000e+00,0.00000e+00
1.07300e+02,2.65376e+01,-7.13486e+01,0.00000e+00,0.00000e+00,0.00000e+00
1.07300e+02,2.46419e+01,-7.45918e+01,0.00000e+00,0.00000e+00,0.00000e+00
1.07300e+02,2.24690e+01,-7.78349e+01,0.00000e+00,0.00000e+00,0.00000e+00
1.07300e+02,1.99828e+01,-8.10780e+01,0.00000e+00,0.00000e+00,0.00000e+00
1.07300e+02,1.70422e+01,-8.43211e+01,0.00000e+00,0.00000e+00,0.00000e+00
1.07300e+02,1.32676e+01,-8.75642e+01,0.00000e+00,0.00000e+00,0.00000e+00
1.07300e+02,8.16273e+00,-9.08074e+01,0.00000e+00,0.00000e+00,0.00000e+00
1.07300e+02,-3.30748e+00,-9.40505e+01,0.00000e+00,0.00000e+00,0.00000e+00
1.07300e+02,-4.13529e+00,-9.40580e+01,0.00000e+00,0.00000e+00,0.00000e+00
1.07300e+02,-1.16772e+01,-9.06988e+01,0.00000e+00,0.00000e+00,0.00000e+00
1.07300e+02,-1.25904e+01,-8.73396e+01,0.00000e+00,0.00000e+00,0.00000e+00
1.07300e+02,-1.29055e+01,-8.39804e+01,0.00000e+00,0.00000e+00,0.00000e+00
1.07300e+02,-1.29533e+01,-8.06211e+01,0.00000e+00,0.00000e+00,0.00000e+00
1.07300e+02,-1.27997e+01,-7.72619e+01,0.00000e+00,0.00000e+00,0.00000e+00
1.07300e+02,-1.25198e+01,-7.39027e+01,0.00000e+00,0.00000e+00,0.00000e+00
1.07300e+02,-1.21130e+01,-7.05435e+01,0.00000e+00,0.00000e+00,0.00000e+00
1.07300e+02,-1.16287e+01,-6.71843e+01,0.00000e+00,0.00000e+00,0.00000e+00
1.07300e+02,-1.10996e+01,-6.38251e+01,0.00000e+00,0.00000e+00,0.00000e+00
1.07300e+02,-1.05029e+01,-6.04659e+01,0.00000e+00,0.00000e+00,0.00000e+00
1.07300e+02,-9.86382e+00,-5.71066e+01,0.00000e+00,0.00000e+00,0.00000e+00
1.07300e+02,-9.18363e+00,-5.37474e+01,0.00000e+00,0.00000e+00,0.00000e+00
1.07300e+02,-8.46243e+00,-5.03882e+01,0.00000e+00,0.00000e+00,0.00000e+00
1.07300e+02,-7.71552e+00,-4.70290e+01,0.00000e+00,0.00000e+00,0.00000e+00
1.07300e+02,-6.93567e+00,-4.36698e+01,0.00000e+00,0.00000e+00,0.00000e+00
1.07300e+02,-6.13474e+00,-4.03106e+01,0.00000e+00,0.00000e+00,0.00000e+00
1.07300e+02,-5.31490e+00,-3.69514e+01,0.00000e+00,0.00000e+00,0.00000e+00
1.07300e+02,-4.47818e+00,-3.35921e+01,0.00000e+00,0.00000e+00,0.00000e+00
1.07300e+02,-3.63431e+00,-3.02329e+01,0.00000e+00,0.00000e+00,0.00000e+00
1.07300e+02,-2.77936e+00,-2.68737e+01,0.00000e+00,0.00000e+00,0.00000e+00
1.07300e+02,-1.92257e+00,-2.35145e+01,0.00000e+00,0.00000e+00,0.00000e+00
1.07300e+02,-1.05916e+00,-2.01553e+01,0.00000e+00,0.00000e+00,0.00000e+00
1.07300e+02,-1.95842e-01,-1.67961e+01,0.00000e+00,0.00000e+00,0.00000e+00
1.07300e+02,6.64213e-01,-1.34369e+01,0.00000e+00,0.00000e+00,0.00000e+00
1.07300e+02,1.52427e+00,-1.00776e+01,0.00000e+00,0.00000e+00,0.00000e+00
1.07300e+02,2.36396e+00,-6.71843e+00,0.00000e+00,0.00000e+00,0.00000e+00
1.07300e+02,3.19985e+00,-3.35921e+00,0.00000e+00,0.00000e+00,0.00000e+00
2.14300e+02,4.22575e+01,0.00000e+00,0.00000e+00,0.00000e+00,0.00000e+00
2.14300e+02,4.20447e+01,-3.21112e+00,0.00000e+00,0.00000e+00,0.00000e+00
2.14300e+02,4.17615e+01,-6.42224e+00,0.00000e+00,0.00000e+00,0.00000e+00
2.14300e+02,4.14756e+01,-9.63337e+00,0.00000e+00,0.00000e+00,0.00000e+00
2.14300e+02,4.11276e+01,-1.28445e+01,0.00000e+00,0.00000e+00,0.00000e+00
2.14300e+02,4.07652e+01,-1.60556e+01,0.00000e+00,0.00000e+00,0.00000e+00
2.14300e+02,4.03551e+01,-1.92667e+01,0.00000e+00,0.00000e+00,0.00000e+00
2.14300e+02,3.99219e+01,-2.24779e+01,0.00000e+00,0.00000e+00,0.00000e+00
2.14300e+02,3.94505e+01,-2.56890e+01,0.00000e+00,0.00000e+00,0.00000e+00
2.14300e+02,3.89476e+01,-2.89001e+01,0.00000e+00,0.00000e+00,0.00000e+00
2.14300e+02,3.84101e+01,-3.21112e+01,0.00000e+00,0.00000e+00,0.00000e+00
2.14300e+02,3.78307e+01,-3.53223e+01,0.00000e+00,0.00000e+00,0.00000e+00
2.14300e+02,3.72085e+01,-3.85335e+01,0.00000e+00,0.00000e+00,0.00000e+00
2.14300e+02,3.65256e+01,-4.17446e+01,0.00000e+00,0.00000e+00,0.00000e+00
2.14300e+02,3.57835e+01,-4.49557e+01,0.00000e+00,0.00000e+00,0.00000e+00
2.14300e+02,3.49707e+01,-4.81668e+01,0.00000e+00,0.00000e+00,0.00000e+00
2.14300e+02,3.40622e+01,-5.13780e+01,0.00000e+00,0.00000e+00,0.00000e+00
2.14300e+02,3.30871e+01,-5.45891e+01,0.00000e+00,0.00000e+00,0.00000e+00
2.14300e+02,3.19621e+01,-5.78002e+01,0.00000e+00,0.00000e+00,0.00000e+00
2.14300e+02,3.07750e+01,-6.10113e+01,0.00000e+00,0.00000e+00,0.00000e+00
2.14300e+02,2.94148e+01,-6.42224e+01,0.00000e+00,0.00000e+00,0.00000e+00
2.14300e+02,2.79159e+01,-6.74336e+01,0.00000e+00,0.00000e+00,0.00000e+00
2.14300e+02,2.62758e+01,-7.06447e+01,0.00000e+00,0.00000e+00,0.00000e+00
2.14300e+02,2.43988e+01,-7.38558e+01,0.00000e+00,0.00000e+00,0.00000e+00
2.14300e+02,2.22473e+01,-7.70669e+01,0.00000e+00,0.00000e+00,0.00000e+00
2.14300e+02,1.97856e+01,-8.02781e+01,0.00000e+00,0.00000e+00,0.00000e+00
2.14300e+02,1.68740e+01,-8.34892e+01,0.00000e+00,0.00000e+00,0.00000e+00
2.14300e+02,1.31367e+01,-8.67003e+01,0.00000e+00,0.00000e+00,0.00000e+00
2.14300e+02,8.08220e+00,-8.99114e+01,0.00000e+00,0.00000e+00,0.00000e+00
2.14300e+02,-3.27484e+00,-9.31226e+01,0.00000e+00,0.00000e+00,0.00000e+00
2.14300e+02,-4.09449e+00,-9.31300e+01,0.00000e+00,0.00000e+00,0.00000e+00
2.14300e+02,-1.15620e+01,-8.98039e+01,0.00000e+00,0.00000e+00,0.00000e+00
2.14300e+02,-1.24661e+01,-8.64779e+01,0.00000e+00,0.00000e+00,0.00000e+00
2.14300e+02,-1.27781e+01,-8.31518e+01,0.00000e+00,0.00000e+00,0.00000e+00
2.14300e+02,-1.28255e+01,-7.98257e+01,0.00000e+00,0.00000e+00,0.00000e+00
2.14300e+02,-1.26734e+01,-7.64996e+01,0.00000e+00,0.00000e+00,0.00000e+00
2.14300e+02,-1.23963e+01,-7.31736e+01,0.00000e+00,0.00000e+00,0.00000e+00
2.14300e+02,-1.19935e+01,-6.98475e+01,0.00000e+00,0.00000e+00,0.00000e+00
2.14300e+02,-1.15140e+01,-6.65214e+01,0.00000e+00,0.00000e+00,0.00000e+00
2.14300e+02,-1.09901e+01,-6.31954e+01,0.00000e+00,0.00000e+00,0.00000e+00
2.14300e+02,-1.03992e+01,-5.98693e+01,0.00000e+00,0.00000e+00,0.00000e+00
2.14300e+02,-9.76651e+00,-5.65432e+01,0.00000e+00,0.00000e+00,0.00000e+00
2.14300e+02,-9.09302e+00,-5.32171e+01,0.00000e+00,0.00000e+00,0.00000e+00
2.14300e+02,-8.37893e+00,-4.98911e+01,0.00000e+00,0.00000e+00,0.00000e+00
2.14300e+02,-7.63939e+00,-4.65650e+01,0.00000e+00,0.00000e+00,0.00000e+00
2.14300e+02,-6.86724e+00,-4.32389e+01,0.00000e+00,0.00000e+00,0.00000e+00
2.14300e+02,-6.07421e+00,-3.99129e+01,0.00000e+00,0.00000e+00,0.00000e+00
2.14300e+02,-5.26246e+00,-3.65868e+01,0.00000e+00,0.00000e+00,0.00000e+00
2.14300e+02,-4.43399e+00,-3.32607e+01,0.00000e+00,0.00000e+00,0.00000e+00
2.14300e+02,-3.59845e+00,-2.99346e+01,0.00000e+00,0.00000e+00,0.00000e+00
2.14300e+02,-2.75194e+00,-2.66086e+01,0.00000e+00,0.00000e+00,0.00000e+00
2.14300e+02,-1.90360e+00,-2.32825e+01,0.00000e+00,0.00000e+00,0.00000e+00
2.14300e+02,-1.04871e+00,-1.99564e+01,0.00000e+00,0.00000e+00,0.00000e+00
2.14300e+02,-1.93910e-01,-1.66304e+01,0.00000e+00,0.00000e+00,0.00000e+00
2.14300e+02,6.57660e-01,-1.33043e+01,0.00000e+00,0.00000e+00,0.00000e+00
2.14300e+02,1.50923e+00,-9.97821e+00,0.00000e+00,0.00000e+00,0.00000e+00
2.14300e+02,2.34063e+00,-6.65214e+00,0.00000e+00,0.00000e+00,0.00000e+00
2.14300e+02,3.16828e+00,-3.32607e+00,0.00000e+00,0.00000e+00,0.00000e+00
3.20700e+02,4.18388e+01,0.00000e+00,0.00000e+00,0.00000e+00,0.00000e+00
3.20700e+02,4.16280e+01,-3.17930e+00,0.00000e+00,0.00000e+00,0.00000e+00
3.20700e+02,4.13477e+01,-6.35861e+00,0.00000e+00,0.00000e+00,0.00000e+00
3.20700e+02,4.10646e+01,-9.53791e+00,0.00000e+00,0.00000e+00,0.00000e+00
3.20700e+02,4.07201e+01,-1.27172e+01,0.00000e+00,0.00000e+00,0.00000e+00
3.20700e+02,4.03613e+01,-1.58965e+01,0.00000e+00,0.00000e+00,0.00000e+00
3.20700e+02,3.99553e+01,-1.90758e+01,0.00000e+00,0.00000e+00,0.00000e+00
3.20700e+02,3.95264e+01,-2.22551e+01,0.00000e+00,0.00000e+00,0.00000e+00
3.20700e+02,3.90596e+01,-2.54344e+01,0.00000e+00,0.00000e+00,0.00000e+00
3.20700e+02,3.85617e+01,-2.86137e+01,0.00000e+00,0.00000e+00,0.00000e+00
3.20700e+02,3.80295e+01,-3.17930e+01,0.00000e+00,0.00000e+00,0.00000e+00
3.20700e+02,3.74559e+01,-3.49724e+01,0.00000e+00,0.00000e+00,0.00000e+00
3.20700e+02,3.68398e+01,-3.81517e+01,0.00000e+00,0.00000e+00,0.00000e+00
3.20700e+02,3.61637e+01,-4.13310e+01,0.00000e+00,0.00000e+00,0.00000e+00
3.20700e+02,3.54289e+01,-4.45103e+01,0.00000e+00,0.00000e+00,0.00000e+00
3.20700e+02,3.46242e+01,-4.76896e+01,0.00000e+00,0.00000e+00,0.00000e+00
3.20700e+02,3.37247e+01,-5.08689e+01,0.00000e+00,0.00000e+00,0.00000e+00
3.20700e+02,3.27593e+01,-5.40482e+01,0.00000e+00,0.00000e+00,0.00000e+00
3.20700e+02,3.16454e+01,-5.72275e+01,0.00000e+00,0.00000e+00,0.00000e+00
3.20700e+02,3.04701e+01,-6.04068e+01,0.00000e+00,0.00000e+00,0.00000e+00
3.20700e+02,2.91233e+01,-6.35861e+01,0.00000e+00,0.00000e+00,0.00000e+00
3.20700e+02,2.76393e+01,-6.67654e+01,0.00000e+00,0.00000e+00,0.00000e+00
3.20700e+02,2.60154e+01,-6.99447e+01,0.00000e+00,0.00000e+00,0.00000e+00
3.20700e+02,2.41570e+01,-7.31240e+01,0.00000e+00,0.00000e+00,0.00000e+00
3.20700e+02,2.20269e+01,-7.63033e+01,0.00000e+00,0.00000e+00,0.00000e+00
3.20700e+02,1.95896e+01,-7.94826e+01,0.00000e+00,0.00000e+00,0.00000e+00
3.20700e+02,1.67068e+01,-8.26619e+01,0.00000e+00,0.00000e+00,0.00000e+00
3.20700e+02,1.30066e+01,-8.58412e+01,0.00000e+00,0.00000e+00,0.00000e+00
3.20700e+02,8.00212e+00,-8.90205e+01,0.00000e+00,0.00000e+00,0.00000e+00
3.20700e+02,-3.24239e+00,-9.21998e+01,0.00000e+00,0.00000e+00,0.00000e+00
3.20700e+02,-4.05392e+00,-9.22072e+01,0.00000e+00,0.00000e+00,0.00000e+00
3.20700e+02,-1.14474e+01,-8.89141e+01,0.00000e+00,0.00000e+00,0.00000e+00
3.20700e+02,-1.23426e+01,-8.56210e+01,0.00000e+00,0.00000e+00,0.00000e+00
3.20700e+02,-1.26515e+01,-8.23279e+01,0.00000e+00,0.00000e+00,0.00000e+00
3.20700e+02,-1.26984e+01,-7.90348e+01,0.00000e+00,0.00000e+00,0.00000e+00
3.20700e+02,-1.25479e+01,-7.57416e+01,0.00000e+00,0.00000e+00,0.00000e+00
3.20700e+02,-1.22734e+01,-7.24485e+01,0.00000e+00,0.00000e+00,0.00000e+00
3.20700e+02,-1.18746e+01,-6.91554e+01,0.00000e+00,0.00000e+00,0.00000e+00
3.20700e+02,-1.13999e+01,-6.58623e+01,0.00000e+00,0.00000e+00,0.00000e+00
3.20700e+02,-1.08812e+01,-6.25692e+01,0.00000e+00,0.00000e+00,0.00000e+00
3.20700e+02,-1.02962e+01,-5.92761e+01,0.00000e+00,0.00000e+00,0.00000e+00
3.20700e+02,-9.66973e+00,-5.59829e+01,0.00000e+00,0.00000e+00,0.00000e+00
3.20700e+02,-9.00292e+00,-5.26898e+01,0.00000e+00,0.00000e+00,0.00000e+00
3.20700e+02,-8.29591e+00,-4.93967e+01,0.00000e+00,0.00000e+00,0.00000e+00
3.20700e+02,-7.56370e+00,-4.61036e+01,0.00000e+00,0.00000e+00,0.00000e+00
3.20700e+02,-6.79920e+00,-4.28105e+01,0.00000e+00,0.00000e+00,0.00000e+00
3.20700e+02,-6.01403e+00,-3.95174e+01,0.00000e+00,0.00000e+00,0.00000e+00
3.20700e+02,-5.21032e+00,-3.62243e+01,0.00000e+00,0.00000e+00,0.00000e+00
3.20700e+02,-4.39006e+00,-3.29311e+01,0.00000e+00,0.00000e+00,0.00000e+00
3.20700e+02,-3.56279e+00,-2.96380e+01,0.00000e+00,0.00000e+00,0.00000e+00
3.20700e+02,-2.72467e+00,-2.63449e+01,0.00000e+00,0.00000e+00,0.00000e+00
3.20700e+02,-1.88474e+00,-2.30518e+01,0.00000e+00,0.00000e+00,0.00000e+00
3.20700e+02,-1.03832e+00,-1.97587e+01,0.00000e+00,0.00000e+00,0.00000e+00
3.20700e+02,-1.91989e-01,-1.64656e+01,0.00000e+00,0.00000e+00,0.00000e+00
3.20700e+02,6.51143e-01,-1.31725e+01,0.00000e+00,0.00000e+00,0.00000e+00
3.20700e+02,1.49428e+00,-9.87934e+00,0.00000e+00,0.00000e+00,0.00000e+00
3.20700e+02,2.31744e+00,-6.58623e+00,0.00000e+00,0.00000e+00,0.00000e+00
3.20700e+02,3.13689e+00,-3.29311e+00,0.00000e+00,0.00000e+00,0.00000e+00
4.26200e+02,4.14236e+01,0.00000e+00,0.00000e+00,0.00000e+00,0.00000e+00
4.26200e+02,4.12150e+01,-3.14776e+00,0.00000e+00,0.00000e+00,0.00000e+00
4.26200e+02,4.09374e+01,-6.29551e+00,0.00000e+00,0.00000e+00,0.00000e+00
4.26200e+02,4.06571e+01,-9.44327e+00,0.00000e+00,0.00000e+00,0.00000e+00
4.26200e+02,4.03160e+01,-1.25910e+01,0.00000e+00,0.00000e+00,0.00000e+00
4.26200e+02,3.99607e+01,-1.57388e+01,0.00000e+00,0.00000e+00,0.00000e+00
4.26200e+02,3.95588e+01,-1.88865e+01,0.00000e+00,0.00000e+00,0.00000e+00
4.26200e+02,3.91341e+01,-2.20343e+01,0.00000e+00,0.00000e+00,0.00000e+00
4.26200e+02,3.86720e+01,-2.51820e+01,0.00000e+00,0.00000e+00,0.00000e+00
4.26200e+02,3.81790e+01,-2.83298e+01,0.00000e+00,0.00000e+00,0.00000e+00
4.26200e+02,3.76521e+01,-3.14776e+01,0.00000e+00,0.00000e+00,0.00000e+00
4.26200e+02,3.70842e+01,-3.46253e+01,0.00000e+00,0.00000e+00,0.00000e+00
4.26200e+02,3.64743e+01,-3.77731e+01,0.00000e+00,0.00000e+00,0.00000e+00
4.26200e+02,3.58048e+01,-4.09208e+01,0.00000e+00,0.00000e+00,0.00000e+00
4.26200e+02,3.50774e+01,-4.40686e+01,0.00000e+00,0.00000e+00,0.00000e+00
4.26200e+02,3.42806e+01,-4.72163e+01,0.00000e+00,0.00000e+00,0.00000e+00
4.26200e+02,3.33901e+01,-5.03641e+01,0.00000e+00,0.00000e+00,0.00000e+00
4.26200e+02,3.24342e+01,-5.35118e+01,0.00000e+00,0.00000e+00,0.00000e+00
4.26200e+02,3.13314e+01,-5.66596e+01,0.00000e+00,0.00000e+00,0.00000e+00
4.26200e+02,3.01677e+01,-5.98074e+01,0.00000e+00,0.00000e+00,0.00000e+00
4.26200e+02,2.88343e+01,-6.29551e+01,0.00000e+00,0.00000e+00,0.00000e+00
4.26200e+02,2.73650e+01,-6.61029e+01,0.00000e+00,0.00000e+00,0.00000e+00
4.26200e+02,2.57573e+01,-6.92506e+01,0.00000e+00,0.00000e+00,0.00000e+00
4.26200e+02,2.39173e+01,-7.23984e+01,0.00000e+00,0.00000e+00,0.00000e+00
4.26200e+02,2.18083e+01,-7.55461e+01,0.00000e+00,0.00000e+00,0.00000e+00
4.26200e+02,1.93952e+01,-7.86939e+01,0.00000e+00,0.00000e+00,0.00000e+00
4.26200e+02,1.65410e+01,-8.18417e+01,0.00000e+00,0.00000e+00,0.00000e+00
4.26200e+02,1.28775e+01,-8.49894e+01,0.00000e+00,0.00000e+00,0.00000e+00
4.26200e+02,7.92271e+00,-8.81372e+01,0.00000e+00,0.00000e+00,0.00000e+00
4.26200e+02,-3.21022e+00,-9.12849e+01,0.00000e+00,0.00000e+00,0.00000e+00
4.26200e+02,-4.01369e+00,-9.12922e+01,0.00000e+00,0.00000e+00,0.00000e+00
4.26200e+02,-1.13339e+01,-8.80318e+01,0.00000e+00,0.00000e+00,0.00000e+00
4.26200e+02,-1.22201e+01,-8.47713e+01,0.00000e+00,0.00000e+00,0.00000e+00
4.26200e+02,-1.25260e+01,-8.15109e+01,0.00000e+00,0.00000e+00,0.00000e+00
4.26200e+02,-1.25724e+01,-7.82505e+01,0.00000e+00,0.00000e+00,0.00000e+00
4.26200e+02,-1.24233e+01,-7.49900e+01,0.00000e+00,0.00000e+00,0.00000e+00
4.26200e+02,-1.21516e+01,-7.17296e+01,0.00000e+00,0.00000e+00,0.00000e+00
4.26200e+02,-1.17568e+01,-6.84692e+01,0.00000e+00,0.00000e+00,0.00000e+00
4.26200e+02,-1.12868e+01,-6.52087e+01,0.00000e+00,0.00000e+00,0.00000e+00
4.26200e+02,-1.07732e+01,-6.19483e+01,0.00000e+00,0.00000e+00,0.00000e+00
4.26200e+02,-1.01940e+01,-5.86879e+01,0.00000e+00,0.00000e+00,0.00000e+00
4.26200e+02,-9.57378e+00,-5.54274e+01,0.00000e+00,0.00000e+00,0.00000e+00
4.26200e+02,-8.91358e+00,-5.21670e+01,0.00000e+00,0.00000e+00,0.00000e+00
4.26200e+02,-8.21359e+00,-4.89065e+01,0.00000e+00,0.00000e+00,0.00000e+00
4.26200e+02,-7.48864e+00,-4.56461e+01,0.00000e+00,0.00000e+00,0.00000e+00
4.26200e+02,-6.73173e+00,-4.23857e+01,0.00000e+00,0.00000e+00,0.00000e+00
4.26200e+02,-5.95435e+00,-3.91252e+01,0.00000e+00,0.00000e+00,0.00000e+00
4.26200e+02,-5.15861e+00,-3.58648e+01,0.00000e+00,0.00000e+00,0.00000e+00
4.26200e+02,-4.34650e+00,-3.26044e+01,0.00000e+00,0.00000e+00,0.00000e+00
4.26200e+02,-3.52744e+00,-2.93439e+01,0.00000e+00,0.00000e+00,0.00000e+00
4.26200e+02,-2.69763e+00,-2.60835e+01,0.00000e+00,0.00000e+00,0.00000e+00
4.26200e+02,-1.86603e+00,-2.28231e+01,0.00000e+00,0.00000e+00,0.00000e+00
4.26200e+02,-1.02802e+00,-1.95626e+01,0.00000e+00,0.00000e+00,0.00000e+00
4.26200e+02,-1.90083e-01,-1.63022e+01,0.00000e+00,0.00000e+00,0.00000e+00
4.26200e+02,6.44682e-01,-1.30417e+01,0.00000e+00,0.00000e+00,0.00000e+00
4.26200e+02,1.47945e+00,-9.78131e+00,0.00000e+00,0.00000e+00,0.00000e+00
4.26200e+02,2.29445e+00,-6.52087e+00,0.00000e+00,0.00000e+00,0.00000e+00
4.26200e+02,3.10576e+00,-3.26044e+00,0.00000e+00,0.00000e+00,0.00000e+00
5.30600e+02,4.10127e+01,0.00000e+00,0.00000e+00,0.00000e+00,0.00000e+00
5.30600e+02,4.08062e+01,-3.11654e+00,0.00000e+00,0.00000e+00,0.00000e+00
5.30600e+02,4.05314e+01,-6.23307e+00,0.00000e+00,0.00000e+00,0.00000e+00
5.30600e+02,4.02539e+01,-9.34961e+00,0.00000e+00,0.00000e+00,0.00000e+00
5.30600e+02,3.99161e+01,-1.24661e+01,0.00000e+00,0.00000e+00,0.00000e+00
5.30600e+02,3.95644e+01,-1.55827e+01,0.00000e+00,0.00000e+00,0.00000e+00
5.30600e+02,3.91664e+01,-1.86992e+01,0.00000e+00,0.00000e+00,0.00000e+00
5.30600e+02,3.87460e+01,-2.18158e+01,0.00000e+00,0.00000e+00,0.00000e+00
5.30600e+02,3.82884e+01,-2.49323e+01,0.00000e+00,0.00000e+00,0.00000e+00
5.30600e+02,3.78003e+01,-2.80488e+01,0.00000e+00,0.00000e+00,0.00000e+00
5.30600e+02,3.72787e+01,-3.11654e+01,0.00000e+00,0.00000e+00,0.00000e+00
5.30600e+02,3.67164e+01,-3.42819e+01,0.00000e+00,0.00000e+00,0.00000e+00
5.30600e+02,3.61125e+01,-3.73984e+01,0.00000e+00,0.00000e+00,0.00000e+00
5.30600e+02,3.54497e+01,-4.05150e+01,0.00000e+00,0.00000e+00,0.00000e+00
5.30600e+02,3.47295e+01,-4.36315e+01,0.00000e+00,0.00000e+00,0.00000e+00
5.30600e+02,3.39406e+01,-4.67480e+01,0.00000e+00,0.00000e+00,0.00000e+00
5.30600e+02,3.30589e+01,-4.98646e+01,0.00000e+00,0.00000e+00,0.00000e+00
5.30600e+02,3.21125e+01,-5.29811e+01,0.00000e+00,0.00000e+00,0.00000e+00
5.30600e+02,3.10206e+01,-5.60976e+01,0.00000e+00,0.00000e+00,0.00000e+00
5.30600e+02,2.98685e+01,-5.92142e+01,0.00000e+00,0.00000e+00,0.00000e+00
5.30600e+02,2.85484e+01,-6.23307e+01,0.00000e+00,0.00000e+00,0.00000e+00
5.30600e+02,2.70936e+01,-6.54473e+01,0.00000e+00,0.00000e+00,0.00000e+00
5.30600e+02,2.55018e+01,-6.85638e+01,0.00000e+00,0.00000e+00,0.00000e+00
5.30600e+02,2.36801e+01,-7.16803e+01,0.00000e+00,0.00000e+00,0.00000e+00
5.30600e+02,2.15920e+01,-7.47969e+01,0.00000e+00,0.00000e+00,0.00000e+00
5.30600e+02,1.92028e+01,-7.79134e+01,0.00000e+00,0.00000e+00,0.00000e+00
5.30600e+02,1.63770e+01,-8.10299e+01,0.00000e+00,0.00000e+00,0.00000e+00
5.30600e+02,1.27498e+01,-8.41465e+01,0.00000e+00,0.00000e+00,0.00000e+00
5.30600e+02,7.84413e+00,-8.72630e+01,0.00000e+00,0.00000e+00,0.00000e+00
5.30600e+02,-3.17838e+00,-9.03795e+01,0.00000e+00,0.00000e+00,0.00000e+00
5.30600e+02,-3.97388e+00,-9.03868e+01,0.00000e+00,0.00000e+00,0.00000e+00
5.30600e+02,-1.12214e+01,-8.71587e+01,0.00000e+00,0.00000e+00,0.00000e+00
5.30600e+02,-1.20989e+01,-8.39306e+01,0.00000e+00,0.00000e+00,0.00000e+00
5.30600e+02,-1.24018e+01,-8.07025e+01,0.00000e+00,0.00000e+00,0.00000e+00
5.30600e+02,-1.24477e+01,-7.74744e+01,0.00000e+00,0.00000e+00,0.00000e+00
5.30600e+02,-1.23001e+01,-7.42463e+01,0.00000e+00,0.00000e+00,0.00000e+00
5.30600e+02,-1.20311e+01,-7.10182e+01,0.00000e+00,0.00000e+00,0.00000e+00
5.30600e+02,-1.16402e+01,-6.77901e+01,0.00000e+00,0.00000e+00,0.00000e+00
5.30600e+02,-1.11748e+01,-6.45620e+01,0.00000e+00,0.00000e+00,0.00000e+00
5.30600e+02,-1.06664e+01,-6.13339e+01,0.00000e+00,0.00000e+00,0.00000e+00
5.30600e+02,-1.00929e+01,-5.81058e+01,0.00000e+00,0.00000e+00,0.00000e+00
5.30600e+02,-9.47882e+00,-5.48777e+01,0.00000e+00,0.00000e+00,0.00000e+00
5.30600e+02,-8.82518e+00,-5.16496e+01,0.00000e+00,0.00000e+00,0.00000e+00
5.30600e+02,-8.13212e+00,-4.84215e+01,0.00000e+00,0.00000e+00,0.00000e+00
5.30600e+02,-7.41437e+00,-4.51934e+01,0.00000e+00,0.00000e+00,0.00000e+00
5.30600e+02,-6.66496e+00,-4.19653e+01,0.00000e+00,0.00000e+00,0.00000e+00
5.30600e+02,-5.89529e+00,-3.87372e+01,0.00000e+00,0.00000e+00,0.00000e+00
5.30600e+02,-5.10745e+00,-3.55091e+01,0.00000e+00,0.00000e+00,0.00000e+00
5.30600e+02,-4.30339e+00,-3.22810e+01,0.00000e+00,0.00000e+00,0.00000e+00
5.30600e+02,-3.49245e+00,-2.90529e+01,0.00000e+00,0.00000e+00,0.00000e+00
5.30600e+02,-2.67088e+00,-2.58248e+01,0.00000e+00,0.00000e+00,0.00000e+00
5.30600e+02,-1.84753e+00,-2.25967e+01,0.00000e+00,0.00000e+00,0.00000e+00
5.30600e+02,-1.01782e+00,-1.93686e+01,0.00000e+00,0.00000e+00,0.00000e+00
5.30600e+02,-1.88198e-01,-1.61405e+01,0.00000e+00,0.00000e+00,0.00000e+00
5.30600e+02,6.38288e-01,-1.29124e+01,0.00000e+00,0.00000e+00,0.00000e+00
5.30600e+02,1.46477e+00,-9.68430e+00,0.00000e+00,0.00000e+00,0.00000e+00
5.30600e+02,2.27169e+00,-6.45620e+00,0.00000e+00,0.00000e+00,0.00000e+00
5.30600e+02,3.07496e+00,-3.22810e+00,0.00000e+00,0.00000e+00,0.00000e+00
6.33500e+02,4.06078e+01,0.00000e+00,0.00000e+00,0.00000e+00,0.00000e+00
6.33500e+02,4.04033e+01,-3.08576e+00,0.00000e+00,0.00000e+00,0.00000e+00
6.33500e+02,4.01312e+01,-6.17153e+00,0.00000e+00,0.00000e+00,0.00000e+00
6.33500e+02,3.98564e+01,-9.25729e+00,0.00000e+00,0.00000e+00,0.00000e+00
6.33500e+02,3.95220e+01,-1.23431e+01,0.00000e+00,0.00000e+00,0.00000e+00
6.33500e+02,3.91738e+01,-1.54288e+01,0.00000e+00,0.00000e+00,0.00000e+00
6.33500e+02,3.87797e+01,-1.85146e+01,0.00000e+00,0.00000e+00,0.00000e+00
6.33500e+02,3.83634e+01,-2.16004e+01,0.00000e+00,0.00000e+00,0.00000e+00
6.33500e+02,3.79104e+01,-2.46861e+01,0.00000e+00,0.00000e+00,0.00000e+00
6.33500e+02,3.74271e+01,-2.77719e+01,0.00000e+00,0.00000e+00,0.00000e+00
6.33500e+02,3.69106e+01,-3.08576e+01,0.00000e+00,0.00000e+00,0.00000e+00
6.33500e+02,3.63539e+01,-3.39434e+01,0.00000e+00,0.00000e+00,0.00000e+00
6.33500e+02,3.57559e+01,-3.70292e+01,0.00000e+00,0.00000e+00,0.00000e+00
6.33500e+02,3.50997e+01,-4.01149e+01,0.00000e+00,0.00000e+00,0.00000e+00
6.33500e+02,3.43866e+01,-4.32007e+01,0.00000e+00,0.00000e+00,0.00000e+00
6.33500e+02,3.36055e+01,-4.62865e+01,0.00000e+00,0.00000e+00,0.00000e+00
6.33500e+02,3.27325e+01,-4.93722e+01,0.00000e+00,0.00000e+00,0.00000e+00
6.33500e+02,3.17954e+01,-5.24580e+01,0.00000e+00,0.00000e+00,0.00000e+00
6.33500e+02,3.07144e+01,-5.55438e+01,0.00000e+00,0.00000e+00,0.00000e+00
6.33500e+02,2.95736e+01,-5.86295e+01,0.00000e+00,0.00000e+00,0.00000e+00
6.33500e+02,2.82665e+01,-6.17153e+01,0.00000e+00,0.00000e+00,0.00000e+00
6.33500e+02,2.68261e+01,-6.48011e+01,0.00000e+00,0.00000e+00,0.00000e+00
6.33500e+02,2.52500e+01,-6.78868e+01,0.00000e+00,0.00000e+00,0.00000e+00
6.33500e+02,2.34463e+01,-7.09726e+01,0.00000e+00,0.00000e+00,0.00000e+00
6.33500e+02,2.13788e+01,-7.40584e+01,0.00000e+00,0.00000e+00,0.00000e+00
6.33500e+02,1.90132e+01,-7.71441e+01,0.00000e+00,0.00000e+00,0.00000e+00
6.33500e+02,1.62153e+01,-8.02299e+01,0.00000e+00,0.00000e+00,0.00000e+00
6.33500e+02,1.26239e+01,-8.33156e+01,0.00000e+00,0.00000e+00,0.00000e+00
6.33500e+02,7.76668e+00,-8.64014e+01,0.00000e+00,0.00000e+00,0.00000e+00
6.33500e+02,-3.14700e+00,-8.94872e+01,0.00000e+00,0.00000e+00,0.00000e+00
6.33500e+02,-3.93464e+00,-8.94943e+01,0.00000e+00,0.00000e+00,0.00000e+00
6.33500e+02,-1.11106e+01,-8.62981e+01,0.00000e+00,0.00000e+00,0.00000e+00
6.33500e+02,-1.19795e+01,-8.31019e+01,0.00000e+00,0.00000e+00,0.00000e+00
6.33500e+02,-1.22793e+01,-7.99057e+01,0.00000e+00,0.00000e+00,0.00000e+00
6.33500e+02,-1.23248e+01,-7.67094e+01,0.00000e+00,0.00000e+00,0.00000e+00
6.33500e+02,-1.21787e+01,-7.35132e+01,0.00000e+00,0.00000e+00,0.00000e+00
6.33500e+02,-1.19123e+01,-7.03170e+01,0.00000e+00,0.00000e+00,0.00000e+00
6.33500e+02,-1.15252e+01,-6.71208e+01,0.00000e+00,0.00000e+00,0.00000e+00
6.33500e+02,-1.10645e+01,-6.39245e+01,0.00000e+00,0.00000e+00,0.00000e+00
6.33500e+02,-1.05611e+01,-6.07283e+01,0.00000e+00,0.00000e+00,0.00000e+00
6.33500e+02,-9.99326e+00,-5.75321e+01,0.00000e+00,0.00000e+00,0.00000e+00
6.33500e+02,-9.38524e+00,-5.43358e+01,0.00000e+00,0.00000e+00,0.00000e+00
6.33500e+02,-8.73804e+00,-5.11396e+01,0.00000e+00,0.00000e+00,0.00000e+00
6.33500e+02,-8.05183e+00,-4.79434e+01,0.00000e+00,0.00000e+00,0.00000e+00
6.33500e+02,-7.34116e+00,-4.47472e+01,0.00000e+00,0.00000e+00,0.00000e+00
6.33500e+02,-6.59916e+00,-4.15509e+01,0.00000e+00,0.00000e+00,0.00000e+00
6.33500e+02,-5.83709e+00,-3.83547e+01,0.00000e+00,0.00000e+00,0.00000e+00
6.33500e+02,-5.05702e+00,-3.51585e+01,0.00000e+00,0.00000e+00,0.00000e+00
6.33500e+02,-4.26090e+00,-3.19623e+01,0.00000e+00,0.00000e+00,0.00000e+00
6.33500e+02,-3.45797e+00,-2.87660e+01,0.00000e+00,0.00000e+00,0.00000e+00
6.33500e+02,-2.64450e+00,-2.55698e+01,0.00000e+00,0.00000e+00,0.00000e+00
6.33500e+02,-1.82928e+00,-2.23736e+01,0.00000e+00,0.00000e+00,0.00000e+00
6.33500e+02,-1.00777e+00,-1.91774e+01,0.00000e+00,0.00000e+00,0.00000e+00
6.33500e+02,-1.86340e-01,-1.59811e+01,0.00000e+00,0.00000e+00,0.00000e+00
6.33500e+02,6.31986e-01,-1.27849e+01,0.00000e+00,0.00000e+00,0.00000e+00
6.33500e+02,1.45031e+00,-9.58868e+00,0.00000e+00,0.00000e+00,0.00000e+00
6.33500e+02,2.24926e+00,-6.39245e+00,0.00000e+00,0.00000e+00,0.00000e+00
6.33500e+02,3.04460e+00,-3.19623e+00,0.00000e+00,0.00000e+00,0.00000e+00
7.34700e+02,4.02095e+01,0.00000e+00,0.00000e+00,0.00000e+00,0.00000e+00
7.34700e+02,4.00070e+01,-3.05550e+00,0.00000e+00,0.00000e+00,0.00000e+00
7.34700e+02,3.97376e+01,-6.11100e+00,0.00000e+00,0.00000e+00,0.00000e+00
7.34700e+02,3.94656e+01,-9.16651e+00,0.00000e+00,0.00000e+00,0.00000e+00
7.34700e+02,3.91344e+01,-1.22220e+01,0.00000e+00,0.00000e+00,0.00000e+00
7.34700e+02,3.87896e+01,-1.52775e+01,0.00000e+00,0.00000e+00,0.00000e+00
7.34700e+02,3.83994e+01,-1.83330e+01,0.00000e+00,0.00000e+00,0.00000e+00
7.34700e+02,3.79872e+01,-2.13885e+01,0.00000e+00,0.00000e+00,0.00000e+00
7.34700e+02,3.75386e+01,-2.44440e+01,0.00000e+00,0.00000e+00,0.00000e+00
7.34700e+02,3.70601e+01,-2.74995e+01,0.00000e+00,0.00000e+00,0.00000e+00
7.34700e+02,3.65486e+01,-3.05550e+01,0.00000e+00,0.00000e+00,0.00000e+00
7.34700e+02,3.59973e+01,-3.36105e+01,0.00000e+00,0.00000e+00,0.00000e+00
7.34700e+02,3.54053e+01,-3.66660e+01,0.00000e+00,0.00000e+00,0.00000e+00
7.34700e+02,3.47554e+01,-3.97215e+01,0.00000e+00,0.00000e+00,0.00000e+00
7.34700e+02,3.40493e+01,-4.27770e+01,0.00000e+00,0.00000e+00,0.00000e+00
7.34700e+02,3.32760e+01,-4.58325e+01,0.00000e+00,0.00000e+00,0.00000e+00
7.34700e+02,3.24115e+01,-4.88880e+01,0.00000e+00,0.00000e+00,0.00000e+00
7.34700e+02,3.14836e+01,-5.19435e+01,0.00000e+00,0.00000e+00,0.00000e+00
7.34700e+02,3.04131e+01,-5.49990e+01,0.00000e+00,0.00000e+00,0.00000e+00
7.34700e+02,2.92835e+01,-5.80545e+01,0.00000e+00,0.00000e+00,0.00000e+00
7.34700e+02,2.79893e+01,-6.11100e+01,0.00000e+00,0.00000e+00,0.00000e+00
7.34700e+02,2.65630e+01,-6.41655e+01,0.00000e+00,0.00000e+00,0.00000e+00
7.34700e+02,2.50024e+01,-6.72210e+01,0.00000e+00,0.00000e+00,0.00000e+00
7.34700e+02,2.32164e+01,-7.02765e+01,0.00000e+00,0.00000e+00,0.00000e+00
7.34700e+02,2.11691e+01,-7.33320e+01,0.00000e+00,0.00000e+00,0.00000e+00
7.34700e+02,1.88268e+01,-7.63875e+01,0.00000e+00,0.00000e+00,0.00000e+00
7.34700e+02,1.60563e+01,-7.94430e+01,0.00000e+00,0.00000e+00,0.00000e+00
7.34700e+02,1.25001e+01,-8.24985e+01,0.00000e+00,0.00000e+00,0.00000e+00
7.34700e+02,7.69051e+00,-8.55540e+01,0.00000e+00,0.00000e+00,0.00000e+00
7.34700e+02,-3.11614e+00,-8.86096e+01,0.00000e+00,0.00000e+00,0.00000e+00
7.34700e+02,-3.89606e+00,-8.86166e+01,0.00000e+00,0.00000e+00,0.00000e+00
7.34700e+02,-1.10017e+01,-8.54518e+01,0.00000e+00,0.00000e+00,0.00000e+00
7.34700e+02,-1.18620e+01,-8.22869e+01,0.00000e+00,0.00000e+00,0.00000e+00
7.34700e+02,-1.21589e+01,-7.91220e+01,0.00000e+00,0.00000e+00,0.00000e+00
7.34700e+02,-1.22039e+01,-7.59571e+01,0.00000e+00,0.00000e+00,0.00000e+00
7.34700e+02,-1.20592e+01,-7.27922e+01,0.00000e+00,0.00000e+00,0.00000e+00
7.34700e+02,-1.17955e+01,-6.96274e+01,0.00000e+00,0.00000e+00,0.00000e+00
7.34700e+02,-1.14122e+01,-6.64625e+01,0.00000e+00,0.00000e+00,0.00000e+00
7.34700e+02,-1.09560e+01,-6.32976e+01,0.00000e+00,0.00000e+00,0.00000e+00
7.34700e+02,-1.04575e+01,-6.01327e+01,0.00000e+00,0.00000e+00,0.00000e+00
7.34700e+02,-9.89525e+00,-5.69678e+01,0.00000e+00,0.00000e+00,0.00000e+00
7.34700e+02,-9.29319e+00,-5.38030e+01,0.00000e+00,0.00000e+00,0.00000e+00
7.34700e+02,-8.65235e+00,-5.06381e+01,0.00000e+00,0.00000e+00,0.00000e+00
7.34700e+02,-7.97287e+00,-4.74732e+01,0.00000e+00,0.00000e+00,0.00000e+00
7.34700e+02,-7.26917e+00,-4.43083e+01,0.00000e+00,0.00000e+00,0.00000e+00
7.34700e+02,-6.53444e+00,-4.11434e+01,0.00000e+00,0.00000e+00,0.00000e+00
7.34700e+02,-5.77984e+00,-3.79786e+01,0.00000e+00,0.00000e+00,0.00000e+00
7.34700e+02,-5.00742e+00,-3.48137e+01,0.00000e+00,0.00000e+00,0.00000e+00
7.34700e+02,-4.21911e+00,-3.16488e+01,0.00000e+00,0.00000e+00,0.00000e+00
7.34700e+02,-3.42406e+00,-2.84839e+01,0.00000e+00,0.00000e+00,0.00000e+00
7.34700e+02,-2.61857e+00,-2.53190e+01,0.00000e+00,0.00000e+00,0.00000e+00
7.34700e+02,-1.81134e+00,-2.21542e+01,0.00000e+00,0.00000e+00,0.00000e+00
7.34700e+02,-9.97887e-01,-1.89893e+01,0.00000e+00,0.00000e+00,0.00000e+00
7.34700e+02,-1.84513e-01,-1.58244e+01,0.00000e+00,0.00000e+00,0.00000e+00
7.34700e+02,6.25788e-01,-1.26595e+01,0.00000e+00,0.00000e+00,0.00000e+00
7.34700e+02,1.43609e+00,-9.49464e+00,0.00000e+00,0.00000e+00,0.00000e+00
7.34700e+02,2.22720e+00,-6.32976e+00,0.00000e+00,0.00000e+00,0.00000e+00
7.34700e+02,3.01474e+00,-3.16488e+00,0.00000e+00,0.00000e+00,0.00000e+00
8.33800e+02,3.98196e+01,0.00000e+00,0.00000e+00,0.00000e+00,0.00000e+00
8.33800e+02,3.96190e+01,-3.02587e+00,0.00000e+00,0.00000e+00,0.00000e+00
8.33800e+02,3.93522e+01,-6.05173e+00,0.00000e+00,0.00000e+00,0.00000e+00
8.33800e+02,3.90828e+01,-9.07760e+00,0.00000e+00,0.00000e+00,0.00000e+00
8.33800e+02,3.87549e+01,-1.21035e+01,0.00000e+00,0.00000e+00,0.00000e+00
8.33800e+02,3.84134e+01,-1.51293e+01,0.00000e+00,0.00000e+00,0.00000e+00
8.33800e+02,3.80270e+01,-1.81552e+01,0.00000e+00,0.00000e+00,0.00000e+00
8.33800e+02,3.76188e+01,-2.11811e+01,0.00000e+00,0.00000e+00,0.00000e+00
8.33800e+02,3.71745e+01,-2.42069e+01,0.00000e+00,0.00000e+00,0.00000e+00
8.33800e+02,3.67006e+01,-2.72328e+01,0.00000e+00,0.00000e+00,0.00000e+00
8.33800e+02,3.61941e+01,-3.02587e+01,0.00000e+00,0.00000e+00,0.00000e+00
8.33800e+02,3.56482e+01,-3.32845e+01,0.00000e+00,0.00000e+00,0.00000e+00
8.33800e+02,3.50619e+01,-3.63104e+01,0.00000e+00,0.00000e+00,0.00000e+00
8.33800e+02,3.44183e+01,-3.93363e+01,0.00000e+00,0.00000e+00,0.00000e+00
8.33800e+02,3.37191e+01,-4.23621e+01,0.00000e+00,0.00000e+00,0.00000e+00
8.33800e+02,3.29532e+01,-4.53880e+01,0.00000e+00,0.00000e+00,0.00000e+00
8.33800e+02,3.20971e+01,-4.84139e+01,0.00000e+00,0.00000e+00,0.00000e+00
8.33800e+02,3.11783e+01,-5.14397e+01,0.00000e+00,0.00000e+00,0.00000e+00
8.33800e+02,3.01182e+01,-5.44656e+01,0.00000e+00,0.00000e+00,0.00000e+00
8.33800e+02,2.89995e+01,-5.74915e+01,0.00000e+00,0.00000e+00,0.00000e+00
8.33800e+02,2.77178e+01,-6.05173e+01,0.00000e+00,0.00000e+00,0.00000e+00
8.33800e+02,2.63054e+01,-6.35432e+01,0.00000e+00,0.00000e+00,0.00000e+00
8.33800e+02,2.47599e+01,-6.65691e+01,0.00000e+00,0.00000e+00,0.00000e+00
8.33800e+02,2.29912e+01,-6.95949e+01,0.00000e+00,0.00000e+00,0.00000e+00
8.33800e+02,2.09638e+01,-7.26208e+01,0.00000e+00,0.00000e+00,0.00000e+00
8.33800e+02,1.86442e+01,-7.56467e+01,0.00000e+00,0.00000e+00,0.00000e+00
8.33800e+02,1.59005e+01,-7.86725e+01,0.00000e+00,0.00000e+00,0.00000e+00
8.33800e+02,1.23789e+01,-8.16984e+01,0.00000e+00,0.00000e+00,0.00000e+00
8.33800e+02,7.61592e+00,-8.47243e+01,0.00000e+00,0.00000e+00,0.00000e+00
8.33800e+02,-3.08591e+00,-8.77501e+01,0.00000e+00,0.00000e+00,0.00000e+00
8.33800e+02,-3.85827e+00,-8.77572e+01,0.00000e+00,0.00000e+00,0.00000e+00
8.33800e+02,-1.08950e+01,-8.46230e+01,0.00000e+00,0.00000e+00,0.00000e+00
8.33800e+02,-1.17470e+01,-8.14888e+01,0.00000e+00,0.00000e+00,0.00000e+00
8.33800e+02,-1.20409e+01,-7.83546e+01,0.00000e+00,0.00000e+00,0.00000e+00
8.33800e+02,-1.20856e+01,-7.52204e+01,0.00000e+00,0.00000e+00,0.00000e+00
8.33800e+02,-1.19423e+01,-7.20862e+01,0.00000e+00,0.00000e+00,0.00000e+00
8.33800e+02,-1.16811e+01,-6.89521e+01,0.00000e+00,0.00000e+00,0.00000e+00
8.33800e+02,-1.13015e+01,-6.58179e+01,0.00000e+00,0.00000e+00,0.00000e+00
8.33800e+02,-1.08497e+01,-6.26837e+01,0.00000e+00,0.00000e+00,0.00000e+00
8.33800e+02,-1.03561e+01,-5.95495e+01,0.00000e+00,0.00000e+00,0.00000e+00
8.33800e+02,-9.79928e+00,-5.64153e+01,0.00000e+00,0.00000e+00,0.00000e+00
8.33800e+02,-9.20306e+00,-5.32811e+01,0.00000e+00,0.00000e+00,0.00000e+00
8.33800e+02,-8.56843e+00,-5.01469e+01,0.00000e+00,0.00000e+00,0.00000e+00
8.33800e+02,-7.89554e+00,-4.70128e+01,0.00000e+00,0.00000e+00,0.00000e+00
8.33800e+02,-7.19866e+00,-4.38786e+01,0.00000e+00,0.00000e+00,0.00000e+00
8.33800e+02,-6.47106e+00,-4.07444e+01,0.00000e+00,0.00000e+00,0.00000e+00
8.33800e+02,-5.72378e+00,-3.76102e+01,0.00000e+00,0.00000e+00,0.00000e+00
8.33800e+02,-4.95886e+00,-3.44760e+01,0.00000e+00,0.00000e+00,0.00000e+00
8.33800e+02,-4.17819e+00,-3.13418e+01,0.00000e+00,0.00000e+00,0.00000e+00
8.33800e+02,-3.39085e+00,-2.82077e+01,0.00000e+00,0.00000e+00,0.00000e+00
8.33800e+02,-2.59317e+00,-2.50735e+01,0.00000e+00,0.00000e+00,0.00000e+00
8.33800e+02,-1.79378e+00,-2.19393e+01,0.00000e+00,0.00000e+00,0.00000e+00
8.33800e+02,-9.88209e-01,-1.88051e+01,0.00000e+00,0.00000e+00,0.00000e+00
8.33800e+02,-1.82723e-01,-1.56709e+01,0.00000e+00,0.00000e+00,0.00000e+00
8.33800e+02,6.19718e-01,-1.25367e+01,0.00000e+00,0.00000e+00,0.00000e+00
8.33800e+02,1.42216e+00,-9.40255e+00,0.00000e+00,0.00000e+00,0.00000e+00
8.33800e+02,2.20560e+00,-6.26837e+00,0.00000e+00,0.00000e+00,0.00000e+00
8.33800e+02,2.98550e+00,-3.13418e+00,0.00000e+00,0.00000e+00,0.00000e+00
9.30700e+02,3.94382e+01,0.00000e+00,0.00000e+00,0.00000e+00,0.00000e+00
9.30700e+02,3.92396e+01,-2.99689e+00,0.00000e+00,0.00000e+00,0.00000e+00
9.30700e+02,3.89754e+01,-5.99378e+00,0.00000e+00,0.00000e+00,0.00000e+00
9.30700e+02,3.87085e+01,-8.99067e+00,0.00000e+00,0.00000e+00,0.00000e+00
9.30700e+02,3.83837e+01,-1.19876e+01,0.00000e+00,0.00000e+00,0.00000e+00
9.30700e+02,3.80455e+01,-1.49844e+01,0.00000e+00,0.00000e+00,0.00000e+00
9.30700e+02,3.76628e+01,-1.79813e+01,0.00000e+00,0.00000e+00,0.00000e+00
9.30700e+02,3.72585e+01,-2.09782e+01,0.00000e+00,0.00000e+00,0.00000e+00
9.30700e+02,3.68185e+01,-2.39751e+01,0.00000e+00,0.00000e+00,0.00000e+00
9.30700e+02,3.63492e+01,-2.69720e+01,0.00000e+00,0.00000e+00,0.00000e+00
9.30700e+02,3.58475e+01,-2.99689e+01,0.00000e+00,0.00000e+00,0.00000e+00
9.30700e+02,3.53068e+01,-3.29658e+01,0.00000e+00,0.00000e+00,0.00000e+00
9.30700e+02,3.47261e+01,-3.59627e+01,0.00000e+00,0.00000e+00,0.00000e+00
9.30700e+02,3.40887e+01,-3.89596e+01,0.00000e+00,0.00000e+00,0.00000e+00
9.30700e+02,3.33962e+01,-4.19565e+01,0.00000e+00,0.00000e+00,0.00000e+00
9.30700e+02,3.26376e+01,-4.49533e+01,0.00000e+00,0.00000e+00,0.00000e+00
9.30700e+02,3.17897e+01,-4.79502e+01,0.00000e+00,0.00000e+00,0.00000e+00
9.30700e+02,3.08797e+01,-5.09471e+01,0.00000e+00,0.00000e+00,0.00000e+00
9.30700e+02,2.98297e+01,-5.39440e+01,0.00000e+00,0.00000e+00,0.00000e+00
9.30700e+02,2.87218e+01,-5.69409e+01,0.00000e+00,0.00000e+00,0.00000e+00
9.30700e+02,2.74524e+01,-5.99378e+01,0.00000e+00,0.00000e+00,0.00000e+00
9.30700e+02,2.60534e+01,-6.29347e+01,0.00000e+00,0.00000e+00,0.00000e+00
9.30700e+02,2.45228e+01,-6.59316e+01,0.00000e+00,0.00000e+00,0.00000e+00
9.30700e+02,2.27710e+01,-6.89285e+01,0.00000e+00,0.00000e+00,0.00000e+00
9.30700e+02,2.07631e+01,-7.19254e+01,0.00000e+00,0.00000e+00,0.00000e+00
9.30700e+02,1.84656e+01,-7.49222e+01,0.00000e+00,0.00000e+00,0.00000e+00
9.30700e+02,1.57483e+01,-7.79191e+01,0.00000e+00,0.00000e+00,0.00000e+00
9.30700e+02,1.22603e+01,-8.09160e+01,0.00000e+00,0.00000e+00,0.00000e+00
9.30700e+02,7.54299e+00,-8.39129e+01,0.00000e+00,0.00000e+00,0.00000e+00
9.30700e+02,-3.05636e+00,-8.69098e+01,0.00000e+00,0.00000e+00,0.00000e+00
9.30700e+02,-3.82132e+00,-8.69168e+01,0.00000e+00,0.00000e+00,0.00000e+00
9.30700e+02,-1.07906e+01,-8.38126e+01,0.00000e+00,0.00000e+00,0.00000e+00
9.30700e+02,-1.16345e+01,-8.07084e+01,0.00000e+00,0.00000e+00,0.00000e+00
9.30700e+02,-1.19256e+01,-7.76042e+01,0.00000e+00,0.00000e+00,0.00000e+00
9.30700e+02,-1.19698e+01,-7.45001e+01,0.00000e+00,0.00000e+00,0.00000e+00
9.30700e+02,-1.18279e+01,-7.13959e+01,0.00000e+00,0.00000e+00,0.00000e+00
9.30700e+02,-1.15692e+01,-6.82917e+01,0.00000e+00,0.00000e+00,0.00000e+00
9.30700e+02,-1.11933e+01,-6.51876e+01,0.00000e+00,0.00000e+00,0.00000e+00
9.30700e+02,-1.07458e+01,-6.20834e+01,0.00000e+00,0.00000e+00,0.00000e+00
9.30700e+02,-1.02569e+01,-5.89792e+01,0.00000e+00,0.00000e+00,0.00000e+00
9.30700e+02,-9.70544e+00,-5.58751e+01,0.00000e+00,0.00000e+00,0.00000e+00
9.30700e+02,-9.11493e+00,-5.27709e+01,0.00000e+00,0.00000e+00,0.00000e+00
9.30700e+02,-8.48637e+00,-4.96667e+01,0.00000e+00,0.00000e+00,0.00000e+00
9.30700e+02,-7.81993e+00,-4.65625e+01,0.00000e+00,0.00000e+00,0.00000e+00
9.30700e+02,-7.12973e+00,-4.34584e+01,0.00000e+00,0.00000e+00,0.00000e+00
9.30700e+02,-6.40909e+00,-4.03542e+01,0.00000e+00,0.00000e+00,0.00000e+00
9.30700e+02,-5.66897e+00,-3.72500e+01,0.00000e+00,0.00000e+00,0.00000e+00
9.30700e+02,-4.91137e+00,-3.41459e+01,0.00000e+00,0.00000e+00,0.00000e+00
9.30700e+02,-4.13818e+00,-3.10417e+01,0.00000e+00,0.00000e+00,0.00000e+00
9.30700e+02,-3.35837e+00,-2.79375e+01,0.00000e+00,0.00000e+00,0.00000e+00
9.30700e+02,-2.56834e+00,-2.48334e+01,0.00000e+00,0.00000e+00,0.00000e+00
9.30700e+02,-1.77660e+00,-2.17292e+01,0.00000e+00,0.00000e+00,0.00000e+00
9.30700e+02,-9.78745e-01,-1.86250e+01,0.00000e+00,0.00000e+00,0.00000e+00
9.30700e+02,-1.80973e-01,-1.55208e+01,0.00000e+00,0.00000e+00,0.00000e+00
9.30700e+02,6.13784e-01,-1.24167e+01,0.00000e+00,0.00000e+00,0.00000e+00
9.30700e+02,1.40854e+00,-9.31251e+00,0.00000e+00,0.00000e+00,0.00000e+00
9.30700e+02,2.18448e+00,-6.20834e+00,0.00000e+00,0.00000e+00,0.00000e+00
9.30700e+02,2.95691e+00,-3.10417e+00,0.00000e+00,0.00000e+00,0.00000e+00
1.02500e+03,3.90671e+01,0.00000e+00,0.00000e+00,0.00000e+00,0.00000e+00
1.02500e+03,3.88704e+01,-2.96869e+00,0.00000e+00,0.00000e+00,0.00000e+00
1.02500e+03,3.86086e+01,-5.93738e+00,0.00000e+00,0.00000e+00,0.00000e+00
1.02500e+03,3.83443e+01,-8.90607e+00,0.00000e+00,0.00000e+00,0.00000e+00
1.02500e+03,3.80226e+01,-1.18748e+01,0.00000e+00,0.00000e+00,0.00000e+00
1.02500e+03,3.76875e+01,-1.48435e+01,0.00000e+00,0.00000e+00,0.00000e+00
1.02500e+03,3.73084e+01,-1.78121e+01,0.00000e+00,0.00000e+00,0.00000e+00
1.02500e+03,3.69079e+01,-2.07808e+01,0.00000e+00,0.00000e+00,0.00000e+00
1.02500e+03,3.64721e+01,-2.37495e+01,0.00000e+00,0.00000e+00,0.00000e+00
1.02500e+03,3.60071e+01,-2.67182e+01,0.00000e+00,0.00000e+00,0.00000e+00
1.02500e+03,3.55102e+01,-2.96869e+01,0.00000e+00,0.00000e+00,0.00000e+00
1.02500e+03,3.49746e+01,-3.26556e+01,0.00000e+00,0.00000e+00,0.00000e+00
1.02500e+03,3.43994e+01,-3.56243e+01,0.00000e+00,0.00000e+00,0.00000e+00
1.02500e+03,3.37680e+01,-3.85930e+01,0.00000e+00,0.00000e+00,0.00000e+00
1.02500e+03,3.30819e+01,-4.15617e+01,0.00000e+00,0.00000e+00,0.00000e+00
1.02500e+03,3.23305e+01,-4.45304e+01,0.00000e+00,0.00000e+00,0.00000e+00
1.02500e+03,3.14906e+01,-4.74990e+01,0.00000e+00,0.00000e+00,0.00000e+00
1.02500e+03,3.05891e+01,-5.04677e+01,0.00000e+00,0.00000e+00,0.00000e+00
1.02500e+03,2.95491e+01,-5.34364e+01,0.00000e+00,0.00000e+00,0.00000e+00
1.02500e+03,2.84516e+01,-5.64051e+01,0.00000e+00,0.00000e+00,0.00000e+00
1.02500e+03,2.71940e+01,-5.93738e+01,0.00000e+00,0.00000e+00,0.00000e+00
1.02500e+03,2.58083e+01,-6.23425e+01,0.00000e+00,0.00000e+00,0.00000e+00
1.02500e+03,2.42920e+01,-6.53112e+01,0.00000e+00,0.00000e+00,0.00000e+00
1.02500e+03,2.25567e+01,-6.82799e+01,0.00000e+00,0.00000e+00,0.00000e+00
1.02500e+03,2.05677e+01,-7.12486e+01,0.00000e+00,0.00000e+00,0.00000e+00
1.02500e+03,1.82919e+01,-7.42173e+01,0.00000e+00,0.00000e+00,0.00000e+00
1.02500e+03,1.56001e+01,-7.71859e+01,0.00000e+00,0.00000e+00,0.00000e+00
1.02500e+03,1.21450e+01,-8.01546e+01,0.00000e+00,0.00000e+00,0.00000e+00
1.02500e+03,7.47201e+00,-8.31233e+01,0.00000e+00,0.00000e+00,0.00000e+00
1.02500e+03,-3.02760e+00,-8.60920e+01,0.00000e+00,0.00000e+00,0.00000e+00
1.02500e+03,-3.78536e+00,-8.60989e+01,0.00000e+00,0.00000e+00,0.00000e+00
1.02500e+03,-1.06891e+01,-8.30239e+01,0.00000e+00,0.00000e+00,0.00000e+00
1.02500e+03,-1.15250e+01,-7.99490e+01,0.00000e+00,0.00000e+00,0.00000e+00
1.02500e+03,-1.18134e+01,-7.68740e+01,0.00000e+00,0.00000e+00,0.00000e+00
1.02500e+03,-1.18572e+01,-7.37991e+01,0.00000e+00,0.00000e+00,0.00000e+00
1.02500e+03,-1.17166e+01,-7.07241e+01,0.00000e+00,0.00000e+00,0.00000e+00
1.02500e+03,-1.14604e+01,-6.76491e+01,0.00000e+00,0.00000e+00,0.00000e+00
1.02500e+03,-1.10880e+01,-6.45742e+01,0.00000e+00,0.00000e+00,0.00000e+00
1.02500e+03,-1.06447e+01,-6.14992e+01,0.00000e+00,0.00000e+00,0.00000e+00
1.02500e+03,-1.01604e+01,-5.84243e+01,0.00000e+00,0.00000e+00,0.00000e+00
1.02500e+03,-9.61411e+00,-5.53493e+01,0.00000e+00,0.00000e+00,0.00000e+00
1.02500e+03,-9.02916e+00,-5.22743e+01,0.00000e+00,0.00000e+00,0.00000e+00
1.02500e+03,-8.40652e+00,-4.91994e+01,0.00000e+00,0.00000e+00,0.00000e+00
1.02500e+03,-7.74634e+00,-4.61244e+01,0.00000e+00,0.00000e+00,0.00000e+00
1.02500e+03,-7.06264e+00,-4.30495e+01,0.00000e+00,0.00000e+00,0.00000e+00
1.02500e+03,-6.34878e+00,-3.99745e+01,0.00000e+00,0.00000e+00,0.00000e+00
1.02500e+03,-5.61563e+00,-3.68995e+01,0.00000e+00,0.00000e+00,0.00000e+00
1.02500e+03,-4.86516e+00,-3.38246e+01,0.00000e+00,0.00000e+00,0.00000e+00
1.02500e+03,-4.09924e+00,-3.07496e+01,0.00000e+00,0.00000e+00,0.00000e+00
1.02500e+03,-3.32677e+00,-2.76746e+01,0.00000e+00,0.00000e+00,0.00000e+00
1.02500e+03,-2.54417e+00,-2.45997e+01,0.00000e+00,0.00000e+00,0.00000e+00
1.02500e+03,-1.75988e+00,-2.15247e+01,0.00000e+00,0.00000e+00,0.00000e+00
1.02500e+03,-9.69535e-01,-1.84498e+01,0.00000e+00,0.00000e+00,0.00000e+00
1.02500e+03,-1.79270e-01,-1.53748e+01,0.00000e+00,0.00000e+00,0.00000e+00
1.02500e+03,6.08008e-01,-1.22998e+01,0.00000e+00,0.00000e+00,0.00000e+00
1.02500e+03,1.39529e+00,-9.22488e+00,0.00000e+00,0.00000e+00,0.00000e+00
1.02500e+03,2.16392e+00,-6.14992e+00,0.00000e+00,0.00000e+00,0.00000e+00
1.02500e+03,2.92908e+00,-3.07496e+00,0.00000e+00,0.00000e+00,0.00000e+00
1.11650e+03,3.87070e+01,0.00000e+00,0.00000e+00,0.00000e+00,0.00000e+00
1.11650e+03,3.85121e+01,-2.94133e+00,0.00000e+00,0.00000e+00,0.00000e+00
1.11650e+03,3.82528e+01,-5.88266e+00,0.00000e+00,0.00000e+00,0.00000e+00
1.11650e+03,3.79909e+01,-8.82398e+00,0.00000e+00,0.00000e+00,0.00000e+00
1.11650e+03,3.76721e+01,-1.17653e+01,0.00000e+00,0.00000e+00,0.00000e+00
1.11650e+03,3.73401e+01,-1.47066e+01,0.00000e+00,0.00000e+00,0.00000e+00
1.11650e+03,3.69645e+01,-1.76480e+01,0.00000e+00,0.00000e+00,0.00000e+00
1.11650e+03,3.65678e+01,-2.05893e+01,0.00000e+00,0.00000e+00,0.00000e+00
1.11650e+03,3.61359e+01,-2.35306e+01,0.00000e+00,0.00000e+00,0.00000e+00
1.11650e+03,3.56753e+01,-2.64720e+01,0.00000e+00,0.00000e+00,0.00000e+00
1.11650e+03,3.51829e+01,-2.94133e+01,0.00000e+00,0.00000e+00,0.00000e+00
1.11650e+03,3.46522e+01,-3.23546e+01,0.00000e+00,0.00000e+00,0.00000e+00
1.11650e+03,3.40823e+01,-3.52959e+01,0.00000e+00,0.00000e+00,0.00000e+00
1.11650e+03,3.34567e+01,-3.82373e+01,0.00000e+00,0.00000e+00,0.00000e+00
1.11650e+03,3.27770e+01,-4.11786e+01,0.00000e+00,0.00000e+00,0.00000e+00
1.11650e+03,3.20325e+01,-4.41199e+01,0.00000e+00,0.00000e+00,0.00000e+00
1.11650e+03,3.12004e+01,-4.70612e+01,0.00000e+00,0.00000e+00,0.00000e+00
1.11650e+03,3.03072e+01,-5.00026e+01,0.00000e+00,0.00000e+00,0.00000e+00
1.11650e+03,2.92767e+01,-5.29439e+01,0.00000e+00,0.00000e+00,0.00000e+00
1.11650e+03,2.81893e+01,-5.58852e+01,0.00000e+00,0.00000e+00,0.00000e+00
1.11650e+03,2.69434e+01,-5.88266e+01,0.00000e+00,0.00000e+00,0.00000e+00
1.11650e+03,2.55704e+01,-6.17679e+01,0.00000e+00,0.00000e+00,0.00000e+00
1.11650e+03,2.40681e+01,-6.47092e+01,0.00000e+00,0.00000e+00,0.00000e+00
1.11650e+03,2.23488e+01,-6.76505e+01,0.00000e+00,0.00000e+00,0.00000e+00
1.11650e+03,2.03781e+01,-7.05919e+01,0.00000e+00,0.00000e+00,0.00000e+00
1.11650e+03,1.81233e+01,-7.35332e+01,0.00000e+00,0.00000e+00,0.00000e+00
1.11650e+03,1.54563e+01,-7.64745e+01,0.00000e+00,0.00000e+00,0.00000e+00
1.11650e+03,1.20330e+01,-7.94159e+01,0.00000e+00,0.00000e+00,0.00000e+00
1.11650e+03,7.40314e+00,-8.23572e+01,0.00000e+00,0.00000e+00,0.00000e+00
1.11650e+03,-2.99970e+00,-8.52985e+01,0.00000e+00,0.00000e+00,0.00000e+00
1.11650e+03,-3.75047e+00,-8.53053e+01,0.00000e+00,0.00000e+00,0.00000e+00
1.11650e+03,-1.05906e+01,-8.22587e+01,0.00000e+00,0.00000e+00,0.00000e+00
1.11650e+03,-1.14188e+01,-7.92121e+01,0.00000e+00,0.00000e+00,0.00000e+00
1.11650e+03,-1.17045e+01,-7.61655e+01,0.00000e+00,0.00000e+00,0.00000e+00
1.11650e+03,-1.17479e+01,-7.31189e+01,0.00000e+00,0.00000e+00,0.00000e+00
1.11650e+03,-1.16086e+01,-7.00722e+01,0.00000e+00,0.00000e+00,0.00000e+00
1.11650e+03,-1.13547e+01,-6.70256e+01,0.00000e+00,0.00000e+00,0.00000e+00
1.11650e+03,-1.09858e+01,-6.39790e+01,0.00000e+00,0.00000e+00,0.00000e+00
1.11650e+03,-1.05466e+01,-6.09324e+01,0.00000e+00,0.00000e+00,0.00000e+00
1.11650e+03,-1.00667e+01,-5.78858e+01,0.00000e+00,0.00000e+00,0.00000e+00
1.11650e+03,-9.52550e+00,-5.48391e+01,0.00000e+00,0.00000e+00,0.00000e+00
1.11650e+03,-8.94594e+00,-5.17925e+01,0.00000e+00,0.00000e+00,0.00000e+00
1.11650e+03,-8.32904e+00,-4.87459e+01,0.00000e+00,0.00000e+00,0.00000e+00
1.11650e+03,-7.67495e+00,-4.56993e+01,0.00000e+00,0.00000e+00,0.00000e+00
1.11650e+03,-6.99754e+00,-4.26527e+01,0.00000e+00,0.00000e+00,0.00000e+00
1.11650e+03,-6.29027e+00,-3.96060e+01,0.00000e+00,0.00000e+00,0.00000e+00
1.11650e+03,-5.56387e+00,-3.65594e+01,0.00000e+00,0.00000e+00,0.00000e+00
1.11650e+03,-4.82031e+00,-3.35128e+01,0.00000e+00,0.00000e+00,0.00000e+00
1.11650e+03,-4.06146e+00,-3.04662e+01,0.00000e+00,0.00000e+00,0.00000e+00
1.11650e+03,-3.29611e+00,-2.74196e+01,0.00000e+00,0.00000e+00,0.00000e+00
1.11650e+03,-2.52072e+00,-2.43730e+01,0.00000e+00,0.00000e+00,0.00000e+00
1.11650e+03,-1.74366e+00,-2.13263e+01,0.00000e+00,0.00000e+00,0.00000e+00
1.11650e+03,-9.60599e-01,-1.82797e+01,0.00000e+00,0.00000e+00,0.00000e+00
1.11650e+03,-1.77618e-01,-1.52331e+01,0.00000e+00,0.00000e+00,0.00000e+00
1.11650e+03,6.02404e-01,-1.21865e+01,0.00000e+00,0.00000e+00,0.00000e+00
1.11650e+03,1.38243e+00,-9.13986e+00,0.00000e+00,0.00000e+00,0.00000e+00
1.11650e+03,2.14398e+00,-6.09324e+00,0.00000e+00,0.00000e+00,0.00000e+00
1.11650e+03,2.90209e+00,-3.04662e+00,0.00000e+00,0.00000e+00,0.00000e+00
1.20500e+03,3.76912e+01,0.00000e+00,0.00000e+00,0.00000e+00,0.00000e+00
1.20500e+03,3.75014e+01,-2.86413e+00,0.00000e+00,0.00000e+00,0.00000e+00
1.20500e+03,3.72488e+01,-5.72827e+00,0.00000e+00,0.00000e+00,0.00000e+00
1.20500e+03,3.69938e+01,-8.59240e+00,0.00000e+00,0.00000e+00,0.00000e+00
1.20500e+03,3.66834e+01,-1.14565e+01,0.00000e+00,0.00000e+00,0.00000e+00
1.20500e+03,3.63602e+01,-1.43207e+01,0.00000e+00,0.00000e+00,0.00000e+00
1.20500e+03,3.59944e+01,-1.71848e+01,0.00000e+00,0.00000e+00,0.00000e+00
1.20500e+03,3.56080e+01,-2.00489e+01,0.00000e+00,0.00000e+00,0.00000e+00
1.20500e+03,3.51875e+01,-2.29131e+01,0.00000e+00,0.00000e+00,0.00000e+00
1.20500e+03,3.47390e+01,-2.57772e+01,0.00000e+00,0.00000e+00,0.00000e+00
1.20500e+03,3.42596e+01,-2.86413e+01,0.00000e+00,0.00000e+00,0.00000e+00
1.20500e+03,3.37428e+01,-3.15055e+01,0.00000e+00,0.00000e+00,0.00000e+00
1.20500e+03,3.31878e+01,-3.43696e+01,0.00000e+00,0.00000e+00,0.00000e+00
1.20500e+03,3.25787e+01,-3.72337e+01,0.00000e+00,0.00000e+00,0.00000e+00
1.20500e+03,3.19168e+01,-4.00979e+01,0.00000e+00,0.00000e+00,0.00000e+00
1.20500e+03,3.11919e+01,-4.29620e+01,0.00000e+00,0.00000e+00,0.00000e+00
1.20500e+03,3.03815e+01,-4.58261e+01,0.00000e+00,0.00000e+00,0.00000e+00
1.20500e+03,2.95118e+01,-4.86903e+01,0.00000e+00,0.00000e+00,0.00000e+00
1.20500e+03,2.85084e+01,-5.15544e+01,0.00000e+00,0.00000e+00,0.00000e+00
1.20500e+03,2.74495e+01,-5.44186e+01,0.00000e+00,0.00000e+00,0.00000e+00
1.20500e+03,2.62363e+01,-5.72827e+01,0.00000e+00,0.00000e+00,0.00000e+00
1.20500e+03,2.48993e+01,-6.01468e+01,0.00000e+00,0.00000e+00,0.00000e+00
1.20500e+03,2.34365e+01,-6.30110e+01,0.00000e+00,0.00000e+00,0.00000e+00
1.20500e+03,2.17623e+01,-6.58751e+01,0.00000e+00,0.00000e+00,0.00000e+00
1.20500e+03,1.98433e+01,-6.87392e+01,0.00000e+00,0.00000e+00,0.00000e+00
1.20500e+03,1.76476e+01,-7.16034e+01,0.00000e+00,0.00000e+00,0.00000e+00
1.20500e+03,1.50506e+01,-7.44675e+01,0.00000e+00,0.00000e+00,0.00000e+00
1.20500e+03,1.17172e+01,-7.73316e+01,0.00000e+00,0.00000e+00,0.00000e+00
1.20500e+03,7.20885e+00,-8.01958e+01,0.00000e+00,0.00000e+00,0.00000e+00
1.20500e+03,-2.92097e+00,-8.30599e+01,0.00000e+00,0.00000e+00,0.00000e+00
1.20500e+03,-3.65204e+00,-8.30665e+01,0.00000e+00,0.00000e+00,0.00000e+00
1.20500e+03,-1.03126e+01,-8.00999e+01,0.00000e+00,0.00000e+00,0.00000e+00
1.20500e+03,-1.11191e+01,-7.71332e+01,0.00000e+00,0.00000e+00,0.00000e+00
1.20500e+03,-1.13974e+01,-7.41666e+01,0.00000e+00,0.00000e+00,0.00000e+00
1.20500e+03,-1.14396e+01,-7.11999e+01,0.00000e+00,0.00000e+00,0.00000e+00
1.20500e+03,-1.13040e+01,-6.82332e+01,0.00000e+00,0.00000e+00,0.00000e+00
1.20500e+03,-1.10567e+01,-6.52666e+01,0.00000e+00,0.00000e+00,0.00000e+00
1.20500e+03,-1.06975e+01,-6.22999e+01,0.00000e+00,0.00000e+00,0.00000e+00
1.20500e+03,-1.02698e+01,-5.93332e+01,0.00000e+00,0.00000e+00,0.00000e+00
1.20500e+03,-9.80253e+00,-5.63666e+01,0.00000e+00,0.00000e+00,0.00000e+00
1.20500e+03,-9.27551e+00,-5.33999e+01,0.00000e+00,0.00000e+00,0.00000e+00
1.20500e+03,-8.71115e+00,-5.04333e+01,0.00000e+00,0.00000e+00,0.00000e+00
1.20500e+03,-8.11045e+00,-4.74666e+01,0.00000e+00,0.00000e+00,0.00000e+00
1.20500e+03,-7.47352e+00,-4.44999e+01,0.00000e+00,0.00000e+00,0.00000e+00
1.20500e+03,-6.81389e+00,-4.15333e+01,0.00000e+00,0.00000e+00,0.00000e+00
1.20500e+03,-6.12518e+00,-3.85666e+01,0.00000e+00,0.00000e+00,0.00000e+00
1.20500e+03,-5.41785e+00,-3.55999e+01,0.00000e+00,0.00000e+00,0.00000e+00
1.20500e+03,-4.69381e+00,-3.26333e+01,0.00000e+00,0.00000e+00,0.00000e+00
1.20500e+03,-3.95486e+00,-2.96666e+01,0.00000e+00,0.00000e+00,0.00000e+00
1.20500e+03,-3.20961e+00,-2.67000e+01,0.00000e+00,0.00000e+00,0.00000e+00
1.20500e+03,-2.45457e+00,-2.37333e+01,0.00000e+00,0.00000e+00,0.00000e+00
1.20500e+03,-1.69790e+00,-2.07666e+01,0.00000e+00,0.00000e+00,0.00000e+00
1.20500e+03,-9.35389e-01,-1.78000e+01,0.00000e+00,0.00000e+00,0.00000e+00
1.20500e+03,-1.72956e-01,-1.48333e+01,0.00000e+00,0.00000e+00,0.00000e+00
1.20500e+03,5.86594e-01,-1.18666e+01,0.00000e+00,0.00000e+00,0.00000e+00
1.20500e+03,1.34615e+00,-8.89999e+00,0.00000e+00,0.00000e+00,0.00000e+00
1.20500e+03,2.08771e+00,-5.93332e+00,0.00000e+00,0.00000e+00,0.00000e+00
1.20500e+03,2.82592e+00,-2.96666e+00,0.00000e+00,0.00000e+00,0.00000e+00
1.29010e+03,3.63234e+01,0.00000e+00,0.00000e+00,0.00000e+00,0.00000e+00
1.29010e+03,3.61405e+01,-2.76019e+00,0.00000e+00,0.00000e+00,0.00000e+00
1.29010e+03,3.58971e+01,-5.52039e+00,0.00000e+00,0.00000e+00,0.00000e+00
1.29010e+03,3.56513e+01,-8.28058e+00,0.00000e+00,0.00000e+00,0.00000e+00
1.29010e+03,3.53522e+01,-1.10408e+01,0.00000e+00,0.00000e+00,0.00000e+00
1.29010e+03,3.50407e+01,-1.38010e+01,0.00000e+00,0.00000e+00,0.00000e+00
1.29010e+03,3.46882e+01,-1.65612e+01,0.00000e+00,0.00000e+00,0.00000e+00
1.29010e+03,3.43158e+01,-1.93214e+01,0.00000e+00,0.00000e+00,0.00000e+00
1.29010e+03,3.39106e+01,-2.20816e+01,0.00000e+00,0.00000e+00,0.00000e+00
1.29010e+03,3.34783e+01,-2.48418e+01,0.00000e+00,0.00000e+00,0.00000e+00
1.29010e+03,3.30163e+01,-2.76019e+01,0.00000e+00,0.00000e+00,0.00000e+00
1.29010e+03,3.25183e+01,-3.03621e+01,0.00000e+00,0.00000e+00,0.00000e+00
1.29010e+03,3.19834e+01,-3.31223e+01,0.00000e+00,0.00000e+00,0.00000e+00
1.29010e+03,3.13964e+01,-3.58825e+01,0.00000e+00,0.00000e+00,0.00000e+00
1.29010e+03,3.07585e+01,-3.86427e+01,0.00000e+00,0.00000e+00,0.00000e+00
1.29010e+03,3.00599e+01,-4.14029e+01,0.00000e+00,0.00000e+00,0.00000e+00
1.29010e+03,2.92790e+01,-4.41631e+01,0.00000e+00,0.00000e+00,0.00000e+00
1.29010e+03,2.84408e+01,-4.69233e+01,0.00000e+00,0.00000e+00,0.00000e+00
1.29010e+03,2.74738e+01,-4.96835e+01,0.00000e+00,0.00000e+00,0.00000e+00
1.29010e+03,2.64534e+01,-5.24437e+01,0.00000e+00,0.00000e+00,0.00000e+00
1.29010e+03,2.52842e+01,-5.52039e+01,0.00000e+00,0.00000e+00,0.00000e+00
1.29010e+03,2.39957e+01,-5.79641e+01,0.00000e+00,0.00000e+00,0.00000e+00
1.29010e+03,2.25860e+01,-6.07243e+01,0.00000e+00,0.00000e+00,0.00000e+00
1.29010e+03,2.09725e+01,-6.34845e+01,0.00000e+00,0.00000e+00,0.00000e+00
1.29010e+03,1.91232e+01,-6.62447e+01,0.00000e+00,0.00000e+00,0.00000e+00
1.29010e+03,1.70072e+01,-6.90049e+01,0.00000e+00,0.00000e+00,0.00000e+00
1.29010e+03,1.45045e+01,-7.17651e+01,0.00000e+00,0.00000e+00,0.00000e+00
1.29010e+03,1.12920e+01,-7.45253e+01,0.00000e+00,0.00000e+00,0.00000e+00
1.29010e+03,6.94724e+00,-7.72855e+01,0.00000e+00,0.00000e+00,0.00000e+00
1.29010e+03,-2.81497e+00,-8.00457e+01,0.00000e+00,0.00000e+00,0.00000e+00
1.29010e+03,-3.51951e+00,-8.00521e+01,0.00000e+00,0.00000e+00,0.00000e+00
1.29010e+03,-9.93839e+00,-7.71931e+01,0.00000e+00,0.00000e+00,0.00000e+00
1.29010e+03,-1.07156e+01,-7.43341e+01,0.00000e+00,0.00000e+00,0.00000e+00
1.29010e+03,-1.09838e+01,-7.14751e+01,0.00000e+00,0.00000e+00,0.00000e+00
1.29010e+03,-1.10244e+01,-6.86160e+01,0.00000e+00,0.00000e+00,0.00000e+00
1.29010e+03,-1.08937e+01,-6.57570e+01,0.00000e+00,0.00000e+00,0.00000e+00
1.29010e+03,-1.06555e+01,-6.28980e+01,0.00000e+00,0.00000e+00,0.00000e+00
1.29010e+03,-1.03093e+01,-6.00390e+01,0.00000e+00,0.00000e+00,0.00000e+00
1.29010e+03,-9.89713e+00,-5.71800e+01,0.00000e+00,0.00000e+00,0.00000e+00
1.29010e+03,-9.44680e+00,-5.43210e+01,0.00000e+00,0.00000e+00,0.00000e+00
1.29010e+03,-8.93890e+00,-5.14620e+01,0.00000e+00,0.00000e+00,0.00000e+00
1.29010e+03,-8.39503e+00,-4.86030e+01,0.00000e+00,0.00000e+00,0.00000e+00
1.29010e+03,-7.81612e+00,-4.57440e+01,0.00000e+00,0.00000e+00,0.00000e+00
1.29010e+03,-7.20231e+00,-4.28850e+01,0.00000e+00,0.00000e+00,0.00000e+00
1.29010e+03,-6.56662e+00,-4.00260e+01,0.00000e+00,0.00000e+00,0.00000e+00
1.29010e+03,-5.90290e+00,-3.71670e+01,0.00000e+00,0.00000e+00,0.00000e+00
1.29010e+03,-5.22123e+00,-3.43080e+01,0.00000e+00,0.00000e+00,0.00000e+00
1.29010e+03,-4.52347e+00,-3.14490e+01,0.00000e+00,0.00000e+00,0.00000e+00
1.29010e+03,-3.81134e+00,-2.85900e+01,0.00000e+00,0.00000e+00,0.00000e+00
1.29010e+03,-3.09313e+00,-2.57310e+01,0.00000e+00,0.00000e+00,0.00000e+00
1.29010e+03,-2.36549e+00,-2.28720e+01,0.00000e+00,0.00000e+00,0.00000e+00
1.29010e+03,-1.63628e+00,-2.00130e+01,0.00000e+00,0.00000e+00,0.00000e+00
1.29010e+03,-9.01444e-01,-1.71540e+01,0.00000e+00,0.00000e+00,0.00000e+00
1.29010e+03,-1.66680e-01,-1.42950e+01,0.00000e+00,0.00000e+00,0.00000e+00
1.29010e+03,5.65307e-01,-1.14360e+01,0.00000e+00,0.00000e+00,0.00000e+00
1.29010e+03,1.29729e+00,-8.57701e+00,0.00000e+00,0.00000e+00,0.00000e+00
1.29010e+03,2.01195e+00,-5.71800e+00,0.00000e+00,0.00000e+00,0.00000e+00
1.29010e+03,2.72337e+00,-2.85900e+00,0.00000e+00,0.00000e+00,0.00000e+00
1.37170e+03,3.50118e+01,0.00000e+00,0.00000e+00,0.00000e+00,0.00000e+00
1.37170e+03,3.48355e+01,-2.66053e+00,0.00000e+00,0.00000e+00,0.00000e+00
1.37170e+03,3.46009e+01,-5.32106e+00,0.00000e+00,0.00000e+00,0.00000e+00
1.37170e+03,3.43640e+01,-7.98159e+00,0.00000e+00,0.00000e+00,0.00000e+00
1.37170e+03,3.40757e+01,-1.06421e+01,0.00000e+00,0.00000e+00,0.00000e+00
1.37170e+03,3.37754e+01,-1.33027e+01,0.00000e+00,0.00000e+00,0.00000e+00
1.37170e+03,3.34357e+01,-1.59632e+01,0.00000e+00,0.00000e+00,0.00000e+00
1.37170e+03,3.30768e+01,-1.86237e+01,0.00000e+00,0.00000e+00,0.00000e+00
1.37170e+03,3.26861e+01,-2.12842e+01,0.00000e+00,0.00000e+00,0.00000e+00
1.37170e+03,3.22695e+01,-2.39448e+01,0.00000e+00,0.00000e+00,0.00000e+00
1.37170e+03,3.18241e+01,-2.66053e+01,0.00000e+00,0.00000e+00,0.00000e+00
1.37170e+03,3.13441e+01,-2.92658e+01,0.00000e+00,0.00000e+00,0.00000e+00
1.37170e+03,3.08286e+01,-3.19264e+01,0.00000e+00,0.00000e+00,0.00000e+00
1.37170e+03,3.02627e+01,-3.45869e+01,0.00000e+00,0.00000e+00,0.00000e+00
1.37170e+03,2.96479e+01,-3.72474e+01,0.00000e+00,0.00000e+00,0.00000e+00
1.37170e+03,2.89745e+01,-3.99080e+01,0.00000e+00,0.00000e+00,0.00000e+00
1.37170e+03,2.82218e+01,-4.25685e+01,0.00000e+00,0.00000e+00,0.00000e+00
1.37170e+03,2.74139e+01,-4.52290e+01,0.00000e+00,0.00000e+00,0.00000e+00
1.37170e+03,2.64818e+01,-4.78895e+01,0.00000e+00,0.00000e+00,0.00000e+00
1.37170e+03,2.54982e+01,-5.05501e+01,0.00000e+00,0.00000e+00,0.00000e+00
1.37170e+03,2.43712e+01,-5.32106e+01,0.00000e+00,0.00000e+00,0.00000e+00
1.37170e+03,2.31293e+01,-5.58711e+01,0.00000e+00,0.00000e+00,0.00000e+00
1.37170e+03,2.17704e+01,-5.85317e+01,0.00000e+00,0.00000e+00,0.00000e+00
1.37170e+03,2.02153e+01,-6.11922e+01,0.00000e+00,0.00000e+00,0.00000e+00
1.37170e+03,1.84327e+01,-6.38527e+01,0.00000e+00,0.00000e+00,0.00000e+00
1.37170e+03,1.63931e+01,-6.65133e+01,0.00000e+00,0.00000e+00,0.00000e+00
1.37170e+03,1.39807e+01,-6.91738e+01,0.00000e+00,0.00000e+00,0.00000e+00
1.37170e+03,1.08843e+01,-7.18343e+01,0.00000e+00,0.00000e+00,0.00000e+00
1.37170e+03,6.69639e+00,-7.44949e+01,0.00000e+00,0.00000e+00,0.00000e+00
1.37170e+03,-2.71333e+00,-7.71554e+01,0.00000e+00,0.00000e+00,0.00000e+00
1.37170e+03,-3.39243e+00,-7.71616e+01,0.00000e+00,0.00000e+00,0.00000e+00
1.37170e+03,-9.57954e+00,-7.44058e+01,0.00000e+00,0.00000e+00,0.00000e+00
1.37170e+03,-1.03287e+01,-7.16500e+01,0.00000e+00,0.00000e+00,0.00000e+00
1.37170e+03,-1.05872e+01,-6.88942e+01,0.00000e+00,0.00000e+00,0.00000e+00
1.37170e+03,-1.06264e+01,-6.61385e+01,0.00000e+00,0.00000e+00,0.00000e+00
1.37170e+03,-1.05004e+01,-6.33827e+01,0.00000e+00,0.00000e+00,0.00000e+00
1.37170e+03,-1.02708e+01,-6.06269e+01,0.00000e+00,0.00000e+00,0.00000e+00
1.37170e+03,-9.93701e+00,-5.78712e+01,0.00000e+00,0.00000e+00,0.00000e+00
1.37170e+03,-9.53977e+00,-5.51154e+01,0.00000e+00,0.00000e+00,0.00000e+00
1.37170e+03,-9.10569e+00,-5.23596e+01,0.00000e+00,0.00000e+00,0.00000e+00
1.37170e+03,-8.61613e+00,-4.96039e+01,0.00000e+00,0.00000e+00,0.00000e+00
1.37170e+03,-8.09190e+00,-4.68481e+01,0.00000e+00,0.00000e+00,0.00000e+00
1.37170e+03,-7.53389e+00,-4.40923e+01,0.00000e+00,0.00000e+00,0.00000e+00
1.37170e+03,-6.94225e+00,-4.13365e+01,0.00000e+00,0.00000e+00,0.00000e+00
1.37170e+03,-6.32951e+00,-3.85808e+01,0.00000e+00,0.00000e+00,0.00000e+00
1.37170e+03,-5.68976e+00,-3.58250e+01,0.00000e+00,0.00000e+00,0.00000e+00
1.37170e+03,-5.03271e+00,-3.30692e+01,0.00000e+00,0.00000e+00,0.00000e+00
1.37170e+03,-4.36014e+00,-3.03135e+01,0.00000e+00,0.00000e+00,0.00000e+00
1.37170e+03,-3.67372e+00,-2.75577e+01,0.00000e+00,0.00000e+00,0.00000e+00
1.37170e+03,-2.98144e+00,-2.48019e+01,0.00000e+00,0.00000e+00,0.00000e+00
1.37170e+03,-2.28008e+00,-2.20462e+01,0.00000e+00,0.00000e+00,0.00000e+00
1.37170e+03,-1.57720e+00,-1.92904e+01,0.00000e+00,0.00000e+00,0.00000e+00
1.37170e+03,-8.68894e-01,-1.65346e+01,0.00000e+00,0.00000e+00,0.00000e+00
1.37170e+03,-1.60661e-01,-1.37788e+01,0.00000e+00,0.00000e+00,0.00000e+00
1.37170e+03,5.44895e-01,-1.10231e+01,0.00000e+00,0.00000e+00,0.00000e+00
1.37170e+03,1.25045e+00,-8.26731e+00,0.00000e+00,0.00000e+00,0.00000e+00
1.37170e+03,1.93930e+00,-5.51154e+00,0.00000e+00,0.00000e+00,0.00000e+00
1.37170e+03,2.62503e+00,-2.75577e+00,0.00000e+00,0.00000e+00,0.00000e+00
1.44960e+03,3.37597e+01,0.00000e+00,0.00000e+00,0.00000e+00,0.00000e+00
1.44960e+03,3.35897e+01,-2.56538e+00,0.00000e+00,0.00000e+00,0.00000e+00
1.44960e+03,3.33635e+01,-5.13077e+00,0.00000e+00,0.00000e+00,0.00000e+00
1.44960e+03,3.31351e+01,-7.69615e+00,0.00000e+00,0.00000e+00,0.00000e+00
1.44960e+03,3.28571e+01,-1.02615e+01,0.00000e+00,0.00000e+00,0.00000e+00
1.44960e+03,3.25675e+01,-1.28269e+01,0.00000e+00,0.00000e+00,0.00000e+00
1.44960e+03,3.22399e+01,-1.53923e+01,0.00000e+00,0.00000e+00,0.00000e+00
1.44960e+03,3.18939e+01,-1.79577e+01,0.00000e+00,0.00000e+00,0.00000e+00
1.44960e+03,3.15172e+01,-2.05231e+01,0.00000e+00,0.00000e+00,0.00000e+00
1.44960e+03,3.11155e+01,-2.30885e+01,0.00000e+00,0.00000e+00,0.00000e+00
1.44960e+03,3.06860e+01,-2.56538e+01,0.00000e+00,0.00000e+00,0.00000e+00
1.44960e+03,3.02232e+01,-2.82192e+01,0.00000e+00,0.00000e+00,0.00000e+00
1.44960e+03,2.97261e+01,-3.07846e+01,0.00000e+00,0.00000e+00,0.00000e+00
1.44960e+03,2.91805e+01,-3.33500e+01,0.00000e+00,0.00000e+00,0.00000e+00
1.44960e+03,2.85877e+01,-3.59154e+01,0.00000e+00,0.00000e+00,0.00000e+00
1.44960e+03,2.79383e+01,-3.84808e+01,0.00000e+00,0.00000e+00,0.00000e+00
1.44960e+03,2.72125e+01,-4.10462e+01,0.00000e+00,0.00000e+00,0.00000e+00
1.44960e+03,2.64335e+01,-4.36115e+01,0.00000e+00,0.00000e+00,0.00000e+00
1.44960e+03,2.55347e+01,-4.61769e+01,0.00000e+00,0.00000e+00,0.00000e+00
1.44960e+03,2.45863e+01,-4.87423e+01,0.00000e+00,0.00000e+00,0.00000e+00
1.44960e+03,2.34997e+01,-5.13077e+01,0.00000e+00,0.00000e+00,0.00000e+00
1.44960e+03,2.23022e+01,-5.38731e+01,0.00000e+00,0.00000e+00,0.00000e+00
1.44960e+03,2.09919e+01,-5.64385e+01,0.00000e+00,0.00000e+00,0.00000e+00
1.44960e+03,1.94923e+01,-5.90039e+01,0.00000e+00,0.00000e+00,0.00000e+00
1.44960e+03,1.77735e+01,-6.15692e+01,0.00000e+00,0.00000e+00,0.00000e+00
1.44960e+03,1.58069e+01,-6.41346e+01,0.00000e+00,0.00000e+00,0.00000e+00
1.44960e+03,1.34808e+01,-6.67000e+01,0.00000e+00,0.00000e+00,0.00000e+00
1.44960e+03,1.04950e+01,-6.92654e+01,0.00000e+00,0.00000e+00,0.00000e+00
1.44960e+03,6.45692e+00,-7.18308e+01,0.00000e+00,0.00000e+00,0.00000e+00
1.44960e+03,-2.61629e+00,-7.43962e+01,0.00000e+00,0.00000e+00,0.00000e+00
1.44960e+03,-3.27111e+00,-7.44021e+01,0.00000e+00,0.00000e+00,0.00000e+00
1.44960e+03,-9.23696e+00,-7.17449e+01,0.00000e+00,0.00000e+00,0.00000e+00
1.44960e+03,-9.95928e+00,-6.90877e+01,0.00000e+00,0.00000e+00,0.00000e+00
1.44960e+03,-1.02085e+01,-6.64305e+01,0.00000e+00,0.00000e+00,0.00000e+00
1.44960e+03,-1.02464e+01,-6.37732e+01,0.00000e+00,0.00000e+00,0.00000e+00
1.44960e+03,-1.01249e+01,-6.11160e+01,0.00000e+00,0.00000e+00,0.00000e+00
1.44960e+03,-9.90345e+00,-5.84588e+01,0.00000e+00,0.00000e+00,0.00000e+00
1.44960e+03,-9.58164e+00,-5.58016e+01,0.00000e+00,0.00000e+00,0.00000e+00
1.44960e+03,-9.19861e+00,-5.31444e+01,0.00000e+00,0.00000e+00,0.00000e+00
1.44960e+03,-8.78006e+00,-5.04872e+01,0.00000e+00,0.00000e+00,0.00000e+00
1.44960e+03,-8.30801e+00,-4.78299e+01,0.00000e+00,0.00000e+00,0.00000e+00
1.44960e+03,-7.80252e+00,-4.51727e+01,0.00000e+00,0.00000e+00,0.00000e+00
1.44960e+03,-7.26447e+00,-4.25155e+01,0.00000e+00,0.00000e+00,0.00000e+00
1.44960e+03,-6.69398e+00,-3.98583e+01,0.00000e+00,0.00000e+00,0.00000e+00
1.44960e+03,-6.10316e+00,-3.72011e+01,0.00000e+00,0.00000e+00,0.00000e+00
1.44960e+03,-5.48628e+00,-3.45438e+01,0.00000e+00,0.00000e+00,0.00000e+00
1.44960e+03,-4.85273e+00,-3.18866e+01,0.00000e+00,0.00000e+00,0.00000e+00
1.44960e+03,-4.20421e+00,-2.92294e+01,0.00000e+00,0.00000e+00,0.00000e+00
1.44960e+03,-3.54234e+00,-2.65722e+01,0.00000e+00,0.00000e+00,0.00000e+00
1.44960e+03,-2.87482e+00,-2.39150e+01,0.00000e+00,0.00000e+00,0.00000e+00
1.44960e+03,-2.19854e+00,-2.12577e+01,0.00000e+00,0.00000e+00,0.00000e+00
1.44960e+03,-1.52080e+00,-1.86005e+01,0.00000e+00,0.00000e+00,0.00000e+00
1.44960e+03,-8.37821e-01,-1.59433e+01,0.00000e+00,0.00000e+00,0.00000e+00
1.44960e+03,-1.54916e-01,-1.32861e+01,0.00000e+00,0.00000e+00,0.00000e+00
1.44960e+03,5.25408e-01,-1.06289e+01,0.00000e+00,0.00000e+00,0.00000e+00
1.44960e+03,1.20573e+00,-7.97166e+00,0.00000e+00,0.00000e+00,0.00000e+00
1.44960e+03,1.86995e+00,-5.31444e+00,0.00000e+00,0.00000e+00,0.00000e+00
1.44960e+03,2.53116e+00,-2.65722e+00,0.00000e+00,0.00000e+00,0.00000e+00
1.52340e+03,3.25736e+01,0.00000e+00,0.00000e+00,0.00000e+00,0.00000e+00
1.52340e+03,3.24095e+01,-2.47525e+00,0.00000e+00,0.00000e+00,0.00000e+00
1.52340e+03,3.21913e+01,-4.95049e+00,0.00000e+00,0.00000e+00,0.00000e+00
1.52340e+03,3.19709e+01,-7.42574e+00,0.00000e+00,0.00000e+00,0.00000e+00
1.52340e+03,3.17026e+01,-9.90099e+00,0.00000e+00,0.00000e+00,0.00000e+00
1.52340e+03,3.14232e+01,-1.23762e+01,0.00000e+00,0.00000e+00,0.00000e+00
1.52340e+03,3.11072e+01,-1.48515e+01,0.00000e+00,0.00000e+00,0.00000e+00
1.52340e+03,3.07733e+01,-1.73267e+01,0.00000e+00,0.00000e+00,0.00000e+00
1.52340e+03,3.04098e+01,-1.98020e+01,0.00000e+00,0.00000e+00,0.00000e+00
1.52340e+03,3.00222e+01,-2.22772e+01,0.00000e+00,0.00000e+00,0.00000e+00
1.52340e+03,2.96079e+01,-2.47525e+01,0.00000e+00,0.00000e+00,0.00000e+00
1.52340e+03,2.91613e+01,-2.72277e+01,0.00000e+00,0.00000e+00,0.00000e+00
1.52340e+03,2.86816e+01,-2.97030e+01,0.00000e+00,0.00000e+00,0.00000e+00
1.52340e+03,2.81552e+01,-3.21782e+01,0.00000e+00,0.00000e+00,0.00000e+00
1.52340e+03,2.75832e+01,-3.46535e+01,0.00000e+00,0.00000e+00,0.00000e+00
1.52340e+03,2.69567e+01,-3.71287e+01,0.00000e+00,0.00000e+00,0.00000e+00
1.52340e+03,2.62564e+01,-3.96040e+01,0.00000e+00,0.00000e+00,0.00000e+00
1.52340e+03,2.55047e+01,-4.20792e+01,0.00000e+00,0.00000e+00,0.00000e+00
1.52340e+03,2.46375e+01,-4.45544e+01,0.00000e+00,0.00000e+00,0.00000e+00
1.52340e+03,2.37225e+01,-4.70297e+01,0.00000e+00,0.00000e+00,0.00000e+00
1.52340e+03,2.26740e+01,-4.95049e+01,0.00000e+00,0.00000e+00,0.00000e+00
1.52340e+03,2.15185e+01,-5.19802e+01,0.00000e+00,0.00000e+00,0.00000e+00
1.52340e+03,2.02543e+01,-5.44554e+01,0.00000e+00,0.00000e+00,0.00000e+00
1.52340e+03,1.88075e+01,-5.69307e+01,0.00000e+00,0.00000e+00,0.00000e+00
1.52340e+03,1.71490e+01,-5.94059e+01,0.00000e+00,0.00000e+00,0.00000e+00
1.52340e+03,1.52515e+01,-6.18812e+01,0.00000e+00,0.00000e+00,0.00000e+00
1.52340e+03,1.30071e+01,-6.43564e+01,0.00000e+00,0.00000e+00,0.00000e+00
1.52340e+03,1.01263e+01,-6.68317e+01,0.00000e+00,0.00000e+00,0.00000e+00
1.52340e+03,6.23005e+00,-6.93069e+01,0.00000e+00,0.00000e+00,0.00000e+00
1.52340e+03,-2.52437e+00,-7.17822e+01,0.00000e+00,0.00000e+00,0.00000e+00
1.52340e+03,-3.15618e+00,-7.17879e+01,0.00000e+00,0.00000e+00,0.00000e+00
1.52340e+03,-8.91241e+00,-6.92241e+01,0.00000e+00,0.00000e+00,0.00000e+00
1.52340e+03,-9.60935e+00,-6.66602e+01,0.00000e+00,0.00000e+00,0.00000e+00
1.52340e+03,-9.84985e+00,-6.40963e+01,0.00000e+00,0.00000e+00,0.00000e+00
1.52340e+03,-9.88634e+00,-6.15325e+01,0.00000e+00,0.00000e+00,0.00000e+00
1.52340e+03,-9.76914e+00,-5.89686e+01,0.00000e+00,0.00000e+00,0.00000e+00
1.52340e+03,-9.55548e+00,-5.64048e+01,0.00000e+00,0.00000e+00,0.00000e+00
1.52340e+03,-9.24498e+00,-5.38409e+01,0.00000e+00,0.00000e+00,0.00000e+00
1.52340e+03,-8.87540e+00,-5.12771e+01,0.00000e+00,0.00000e+00,0.00000e+00
1.52340e+03,-8.47156e+00,-4.87132e+01,0.00000e+00,0.00000e+00,0.00000e+00
1.52340e+03,-8.01609e+00,-4.61494e+01,0.00000e+00,0.00000e+00,0.00000e+00
1.52340e+03,-7.52837e+00,-4.35855e+01,0.00000e+00,0.00000e+00,0.00000e+00
1.52340e+03,-7.00922e+00,-4.10217e+01,0.00000e+00,0.00000e+00,0.00000e+00
1.52340e+03,-6.45878e+00,-3.84578e+01,0.00000e+00,0.00000e+00,0.00000e+00
1.52340e+03,-5.88872e+00,-3.58940e+01,0.00000e+00,0.00000e+00,0.00000e+00
1.52340e+03,-5.29352e+00,-3.33301e+01,0.00000e+00,0.00000e+00,0.00000e+00
1.52340e+03,-4.68222e+00,-3.07662e+01,0.00000e+00,0.00000e+00,0.00000e+00
1.52340e+03,-4.05649e+00,-2.82024e+01,0.00000e+00,0.00000e+00,0.00000e+00
1.52340e+03,-3.41788e+00,-2.56385e+01,0.00000e+00,0.00000e+00,0.00000e+00
1.52340e+03,-2.77381e+00,-2.30747e+01,0.00000e+00,0.00000e+00,0.00000e+00
1.52340e+03,-2.12129e+00,-2.05108e+01,0.00000e+00,0.00000e+00,0.00000e+00
1.52340e+03,-1.46736e+00,-1.79470e+01,0.00000e+00,0.00000e+00,0.00000e+00
1.52340e+03,-8.08383e-01,-1.53831e+01,0.00000e+00,0.00000e+00,0.00000e+00
1.52340e+03,-1.49473e-01,-1.28193e+01,0.00000e+00,0.00000e+00,0.00000e+00
1.52340e+03,5.06948e-01,-1.02554e+01,0.00000e+00,0.00000e+00,0.00000e+00
1.52340e+03,1.16337e+00,-7.69156e+00,0.00000e+00,0.00000e+00,0.00000e+00
1.52340e+03,1.80424e+00,-5.12771e+00,0.00000e+00,0.00000e+00,0.00000e+00
1.52340e+03,2.44222e+00,-2.56385e+00,0.00000e+00,0.00000e+00,0.00000e+00
1.59310e+03,3.14533e+01,0.00000e+00,0.00000e+00,0.00000e+00,0.00000e+00
1.59310e+03,3.12949e+01,-2.39012e+00,0.00000e+00,0.00000e+00,0.00000e+00
1.59310e+03,3.10841e+01,-4.78023e+00,0.00000e+00,0.00000e+00,0.00000e+00
1.59310e+03,3.08713e+01,-7.17035e+00,0.00000e+00,0.00000e+00,0.00000e+00
1.59310e+03,3.06123e+01,-9.56047e+00,0.00000e+00,0.00000e+00,0.00000e+00
1.59310e+03,3.03425e+01,-1.19506e+01,0.00000e+00,0.00000e+00,0.00000e+00
1.59310e+03,3.00373e+01,-1.43407e+01,0.00000e+00,0.00000e+00,0.00000e+00
1.59310e+03,2.97149e+01,-1.67308e+01,0.00000e+00,0.00000e+00,0.00000e+00
1.59310e+03,2.93640e+01,-1.91209e+01,0.00000e+00,0.00000e+00,0.00000e+00
1.59310e+03,2.89896e+01,-2.15111e+01,0.00000e+00,0.00000e+00,0.00000e+00
1.59310e+03,2.85896e+01,-2.39012e+01,0.00000e+00,0.00000e+00,0.00000e+00
1.59310e+03,2.81583e+01,-2.62913e+01,0.00000e+00,0.00000e+00,0.00000e+00
1.59310e+03,2.76952e+01,-2.86814e+01,0.00000e+00,0.00000e+00,0.00000e+00
1.59310e+03,2.71869e+01,-3.10715e+01,0.00000e+00,0.00000e+00,0.00000e+00
1.59310e+03,2.66345e+01,-3.34616e+01,0.00000e+00,0.00000e+00,0.00000e+00
1.59310e+03,2.60296e+01,-3.58518e+01,0.00000e+00,0.00000e+00,0.00000e+00
1.59310e+03,2.53533e+01,-3.82419e+01,0.00000e+00,0.00000e+00,0.00000e+00
1.59310e+03,2.46276e+01,-4.06320e+01,0.00000e+00,0.00000e+00,0.00000e+00
1.59310e+03,2.37902e+01,-4.30221e+01,0.00000e+00,0.00000e+00,0.00000e+00
1.59310e+03,2.29066e+01,-4.54122e+01,0.00000e+00,0.00000e+00,0.00000e+00
1.59310e+03,2.18941e+01,-4.78023e+01,0.00000e+00,0.00000e+00,0.00000e+00
1.59310e+03,2.07785e+01,-5.01925e+01,0.00000e+00,0.00000e+00,0.00000e+00
1.59310e+03,1.95577e+01,-5.25826e+01,0.00000e+00,0.00000e+00,0.00000e+00
1.59310e+03,1.81606e+01,-5.49727e+01,0.00000e+00,0.00000e+00,0.00000e+00
1.59310e+03,1.65592e+01,-5.73628e+01,0.00000e+00,0.00000e+00,0.00000e+00
1.59310e+03,1.47269e+01,-5.97529e+01,0.00000e+00,0.00000e+00,0.00000e+00
1.59310e+03,1.25597e+01,-6.21430e+01,0.00000e+00,0.00000e+00,0.00000e+00
1.59310e+03,9.77800e+00,-6.45332e+01,0.00000e+00,0.00000e+00,0.00000e+00
1.59310e+03,6.01578e+00,-6.69233e+01,0.00000e+00,0.00000e+00,0.00000e+00
1.59310e+03,-2.43755e+00,-6.93134e+01,0.00000e+00,0.00000e+00,0.00000e+00
1.59310e+03,-3.04763e+00,-6.93189e+01,0.00000e+00,0.00000e+00,0.00000e+00
1.59310e+03,-8.60589e+00,-6.68433e+01,0.00000e+00,0.00000e+00,0.00000e+00
1.59310e+03,-9.27886e+00,-6.43676e+01,0.00000e+00,0.00000e+00,0.00000e+00
1.59310e+03,-9.51109e+00,-6.18919e+01,0.00000e+00,0.00000e+00,0.00000e+00
1.59310e+03,-9.54632e+00,-5.94162e+01,0.00000e+00,0.00000e+00,0.00000e+00
1.59310e+03,-9.43315e+00,-5.69406e+01,0.00000e+00,0.00000e+00,0.00000e+00
1.59310e+03,-9.22684e+00,-5.44649e+01,0.00000e+00,0.00000e+00,0.00000e+00
1.59310e+03,-8.92702e+00,-5.19892e+01,0.00000e+00,0.00000e+00,0.00000e+00
1.59310e+03,-8.57016e+00,-4.95135e+01,0.00000e+00,0.00000e+00,0.00000e+00
1.59310e+03,-8.18020e+00,-4.70379e+01,0.00000e+00,0.00000e+00,0.00000e+00
1.59310e+03,-7.74040e+00,-4.45622e+01,0.00000e+00,0.00000e+00,0.00000e+00
1.59310e+03,-7.26945e+00,-4.20865e+01,0.00000e+00,0.00000e+00,0.00000e+00
1.59310e+03,-6.76816e+00,-3.96108e+01,0.00000e+00,0.00000e+00,0.00000e+00
1.59310e+03,-6.23665e+00,-3.71351e+01,0.00000e+00,0.00000e+00,0.00000e+00
1.59310e+03,-5.68619e+00,-3.46595e+01,0.00000e+00,0.00000e+00,0.00000e+00
1.59310e+03,-5.11146e+00,-3.21838e+01,0.00000e+00,0.00000e+00,0.00000e+00
1.59310e+03,-4.52119e+00,-2.97081e+01,0.00000e+00,0.00000e+00,0.00000e+00
1.59310e+03,-3.91698e+00,-2.72324e+01,0.00000e+00,0.00000e+00,0.00000e+00
1.59310e+03,-3.30033e+00,-2.47568e+01,0.00000e+00,0.00000e+00,0.00000e+00
1.59310e+03,-2.67841e+00,-2.22811e+01,0.00000e+00,0.00000e+00,0.00000e+00
1.59310e+03,-2.04833e+00,-1.98054e+01,0.00000e+00,0.00000e+00,0.00000e+00
1.59310e+03,-1.41689e+00,-1.73297e+01,0.00000e+00,0.00000e+00,0.00000e+00
1.59310e+03,-7.80581e-01,-1.48541e+01,0.00000e+00,0.00000e+00,0.00000e+00
1.59310e+03,-1.44332e-01,-1.23784e+01,0.00000e+00,0.00000e+00,0.00000e+00
1.59310e+03,4.89512e-01,-9.90271e+00,0.00000e+00,0.00000e+00,0.00000e+00
1.59310e+03,1.12336e+00,-7.42703e+00,0.00000e+00,0.00000e+00,0.00000e+00
1.59310e+03,1.74219e+00,-4.95135e+00,0.00000e+00,0.00000e+00,0.00000e+00
1.59310e+03,2.35823e+00,-2.47568e+00,0.00000e+00,0.00000e+00,0.00000e+00
1.65850e+03,3.04021e+01,0.00000e+00,0.00000e+00,0.00000e+00,0.00000e+00
1.65850e+03,3.02490e+01,-2.31024e+00,0.00000e+00,0.00000e+00,0.00000e+00
1.65850e+03,3.00453e+01,-4.62048e+00,0.00000e+00,0.00000e+00,0.00000e+00
1.65850e+03,2.98396e+01,-6.93072e+00,0.00000e+00,0.00000e+00,0.00000e+00
1.65850e+03,2.95892e+01,-9.24096e+00,0.00000e+00,0.00000e+00,0.00000e+00
1.65850e+03,2.93285e+01,-1.15512e+01,0.00000e+00,0.00000e+00,0.00000e+00
1.65850e+03,2.90335e+01,-1.38614e+01,0.00000e+00,0.00000e+00,0.00000e+00
1.65850e+03,2.87218e+01,-1.61717e+01,0.00000e+00,0.00000e+00,0.00000e+00
1.65850e+03,2.83826e+01,-1.84819e+01,0.00000e+00,0.00000e+00,0.00000e+00
1.65850e+03,2.80208e+01,-2.07921e+01,0.00000e+00,0.00000e+00,0.00000e+00
1.65850e+03,2.76341e+01,-2.31024e+01,0.00000e+00,0.00000e+00,0.00000e+00
1.65850e+03,2.72173e+01,-2.54126e+01,0.00000e+00,0.00000e+00,0.00000e+00
1.65850e+03,2.67696e+01,-2.77229e+01,0.00000e+00,0.00000e+00,0.00000e+00
1.65850e+03,2.62783e+01,-3.00331e+01,0.00000e+00,0.00000e+00,0.00000e+00
1.65850e+03,2.57444e+01,-3.23433e+01,0.00000e+00,0.00000e+00,0.00000e+00
1.65850e+03,2.51597e+01,-3.46536e+01,0.00000e+00,0.00000e+00,0.00000e+00
1.65850e+03,2.45060e+01,-3.69638e+01,0.00000e+00,0.00000e+00,0.00000e+00
1.65850e+03,2.38045e+01,-3.92741e+01,0.00000e+00,0.00000e+00,0.00000e+00
1.65850e+03,2.29951e+01,-4.15843e+01,0.00000e+00,0.00000e+00,0.00000e+00
1.65850e+03,2.21410e+01,-4.38945e+01,0.00000e+00,0.00000e+00,0.00000e+00
1.65850e+03,2.11624e+01,-4.62048e+01,0.00000e+00,0.00000e+00,0.00000e+00
1.65850e+03,2.00840e+01,-4.85150e+01,0.00000e+00,0.00000e+00,0.00000e+00
1.65850e+03,1.89041e+01,-5.08253e+01,0.00000e+00,0.00000e+00,0.00000e+00
1.65850e+03,1.75537e+01,-5.31355e+01,0.00000e+00,0.00000e+00,0.00000e+00
1.65850e+03,1.60058e+01,-5.54457e+01,0.00000e+00,0.00000e+00,0.00000e+00
1.65850e+03,1.42348e+01,-5.77560e+01,0.00000e+00,0.00000e+00,0.00000e+00
1.65850e+03,1.21400e+01,-6.00662e+01,0.00000e+00,0.00000e+00,0.00000e+00
1.65850e+03,9.45122e+00,-6.23764e+01,0.00000e+00,0.00000e+00,0.00000e+00
1.65850e+03,5.81473e+00,-6.46867e+01,0.00000e+00,0.00000e+00,0.00000e+00
1.65850e+03,-2.35608e+00,-6.69969e+01,0.00000e+00,0.00000e+00,0.00000e+00
1.65850e+03,-2.94577e+00,-6.70023e+01,0.00000e+00,0.00000e+00,0.00000e+00
1.65850e+03,-8.31828e+00,-6.46093e+01,0.00000e+00,0.00000e+00,0.00000e+00
1.65850e+03,-8.96876e+00,-6.22164e+01,0.00000e+00,0.00000e+00,0.00000e+00
1.65850e+03,-9.19322e+00,-5.98235e+01,0.00000e+00,0.00000e+00,0.00000e+00
1.65850e+03,-9.22728e+00,-5.74305e+01,0.00000e+00,0.00000e+00,0.00000e+00
1.65850e+03,-9.11789e+00,-5.50376e+01,0.00000e+00,0.00000e+00,0.00000e+00
1.65850e+03,-8.91848e+00,-5.26447e+01,0.00000e+00,0.00000e+00,0.00000e+00
1.65850e+03,-8.62868e+00,-5.02517e+01,0.00000e+00,0.00000e+00,0.00000e+00
1.65850e+03,-8.28374e+00,-4.78588e+01,0.00000e+00,0.00000e+00,0.00000e+00
1.65850e+03,-7.90682e+00,-4.54658e+01,0.00000e+00,0.00000e+00,0.00000e+00
1.65850e+03,-7.48171e+00,-4.30729e+01,0.00000e+00,0.00000e+00,0.00000e+00
1.65850e+03,-7.02650e+00,-4.06800e+01,0.00000e+00,0.00000e+00,0.00000e+00
1.65850e+03,-6.54196e+00,-3.82870e+01,0.00000e+00,0.00000e+00,0.00000e+00
1.65850e+03,-6.02822e+00,-3.58941e+01,0.00000e+00,0.00000e+00,0.00000e+00
1.65850e+03,-5.49615e+00,-3.35011e+01,0.00000e+00,0.00000e+00,0.00000e+00
1.65850e+03,-4.94063e+00,-3.11082e+01,0.00000e+00,0.00000e+00,0.00000e+00
1.65850e+03,-4.37009e+00,-2.87153e+01,0.00000e+00,0.00000e+00,0.00000e+00
1.65850e+03,-3.78607e+00,-2.63223e+01,0.00000e+00,0.00000e+00,0.00000e+00
1.65850e+03,-3.19003e+00,-2.39294e+01,0.00000e+00,0.00000e+00,0.00000e+00
1.65850e+03,-2.58890e+00,-2.15364e+01,0.00000e+00,0.00000e+00,0.00000e+00
1.65850e+03,-1.97988e+00,-1.91435e+01,0.00000e+00,0.00000e+00,0.00000e+00
1.65850e+03,-1.36954e+00,-1.67506e+01,0.00000e+00,0.00000e+00,0.00000e+00
1.65850e+03,-7.54494e-01,-1.43576e+01,0.00000e+00,0.00000e+00,0.00000e+00
1.65850e+03,-1.39508e-01,-1.19647e+01,0.00000e+00,0.00000e+00,0.00000e+00
1.65850e+03,4.73153e-01,-9.57176e+00,0.00000e+00,0.00000e+00,0.00000e+00
1.65850e+03,1.08581e+00,-7.17882e+00,0.00000e+00,0.00000e+00,0.00000e+00
1.65850e+03,1.68397e+00,-4.78588e+00,0.00000e+00,0.00000e+00,0.00000e+00
1.65850e+03,2.27942e+00,-2.39294e+00,0.00000e+00,0.00000e+00,0.00000e+00
1.71930e+03,2.94249e+01,0.00000e+00,0.00000e+00,0.00000e+00,0.00000e+00
1.71930e+03,2.92767e+01,-2.23598e+00,0.00000e+00,0.00000e+00,0.00000e+00
1.71930e+03,2.90795e+01,-4.47196e+00,0.00000e+00,0.00000e+00,0.00000e+00
1.71930e+03,2.88804e+01,-6.70794e+00,0.00000e+00,0.00000e+00,0.00000e+00
1.71930e+03,2.86381e+01,-8.94392e+00,0.00000e+00,0.00000e+00,0.00000e+00
1.71930e+03,2.83857e+01,-1.11799e+01,0.00000e+00,0.00000e+00,0.00000e+00
1.71930e+03,2.81002e+01,-1.34159e+01,0.00000e+00,0.00000e+00,0.00000e+00
1.71930e+03,2.77986e+01,-1.56519e+01,0.00000e+00,0.00000e+00,0.00000e+00
1.71930e+03,2.74703e+01,-1.78878e+01,0.00000e+00,0.00000e+00,0.00000e+00
1.71930e+03,2.71201e+01,-2.01238e+01,0.00000e+00,0.00000e+00,0.00000e+00
1.71930e+03,2.67458e+01,-2.23598e+01,0.00000e+00,0.00000e+00,0.00000e+00
1.71930e+03,2.63424e+01,-2.45958e+01,0.00000e+00,0.00000e+00,0.00000e+00
1.71930e+03,2.59091e+01,-2.68317e+01,0.00000e+00,0.00000e+00,0.00000e+00
1.71930e+03,2.54336e+01,-2.90677e+01,0.00000e+00,0.00000e+00,0.00000e+00
1.71930e+03,2.49169e+01,-3.13037e+01,0.00000e+00,0.00000e+00,0.00000e+00
1.71930e+03,2.43509e+01,-3.35397e+01,0.00000e+00,0.00000e+00,0.00000e+00
1.71930e+03,2.37183e+01,-3.57757e+01,0.00000e+00,0.00000e+00,0.00000e+00
1.71930e+03,2.30393e+01,-3.80116e+01,0.00000e+00,0.00000e+00,0.00000e+00
1.71930e+03,2.22560e+01,-4.02476e+01,0.00000e+00,0.00000e+00,0.00000e+00
1.71930e+03,2.14293e+01,-4.24836e+01,0.00000e+00,0.00000e+00,0.00000e+00
1.71930e+03,2.04822e+01,-4.47196e+01,0.00000e+00,0.00000e+00,0.00000e+00
1.71930e+03,1.94385e+01,-4.69556e+01,0.00000e+00,0.00000e+00,0.00000e+00
1.71930e+03,1.82964e+01,-4.91915e+01,0.00000e+00,0.00000e+00,0.00000e+00
1.71930e+03,1.69894e+01,-5.14275e+01,0.00000e+00,0.00000e+00,0.00000e+00
1.71930e+03,1.54913e+01,-5.36635e+01,0.00000e+00,0.00000e+00,0.00000e+00
1.71930e+03,1.37772e+01,-5.58995e+01,0.00000e+00,0.00000e+00,0.00000e+00
1.71930e+03,1.17498e+01,-5.81355e+01,0.00000e+00,0.00000e+00,0.00000e+00
1.71930e+03,9.14742e+00,-6.03714e+01,0.00000e+00,0.00000e+00,0.00000e+00
1.71930e+03,5.62782e+00,-6.26074e+01,0.00000e+00,0.00000e+00,0.00000e+00
1.71930e+03,-2.28035e+00,-6.48434e+01,0.00000e+00,0.00000e+00,0.00000e+00
1.71930e+03,-2.85109e+00,-6.48486e+01,0.00000e+00,0.00000e+00,0.00000e+00
1.71930e+03,-8.05090e+00,-6.25326e+01,0.00000e+00,0.00000e+00,0.00000e+00
1.71930e+03,-8.68047e+00,-6.02165e+01,0.00000e+00,0.00000e+00,0.00000e+00
1.71930e+03,-8.89772e+00,-5.79005e+01,0.00000e+00,0.00000e+00,0.00000e+00
1.71930e+03,-8.93068e+00,-5.55845e+01,0.00000e+00,0.00000e+00,0.00000e+00
1.71930e+03,-8.82481e+00,-5.32685e+01,0.00000e+00,0.00000e+00,0.00000e+00
1.71930e+03,-8.63181e+00,-5.09525e+01,0.00000e+00,0.00000e+00,0.00000e+00
1.71930e+03,-8.35132e+00,-4.86364e+01,0.00000e+00,0.00000e+00,0.00000e+00
1.71930e+03,-8.01747e+00,-4.63204e+01,0.00000e+00,0.00000e+00,0.00000e+00
1.71930e+03,-7.65266e+00,-4.40044e+01,0.00000e+00,0.00000e+00,0.00000e+00
1.71930e+03,-7.24122e+00,-4.16884e+01,0.00000e+00,0.00000e+00,0.00000e+00
1.71930e+03,-6.80064e+00,-3.93724e+01,0.00000e+00,0.00000e+00,0.00000e+00
1.71930e+03,-6.33168e+00,-3.70563e+01,0.00000e+00,0.00000e+00,0.00000e+00
1.71930e+03,-5.83445e+00,-3.47403e+01,0.00000e+00,0.00000e+00,0.00000e+00
1.71930e+03,-5.31949e+00,-3.24243e+01,0.00000e+00,0.00000e+00,0.00000e+00
1.71930e+03,-4.78182e+00,-3.01083e+01,0.00000e+00,0.00000e+00,0.00000e+00
1.71930e+03,-4.22962e+00,-2.77922e+01,0.00000e+00,0.00000e+00,0.00000e+00
1.71930e+03,-3.66437e+00,-2.54762e+01,0.00000e+00,0.00000e+00,0.00000e+00
1.71930e+03,-3.08749e+00,-2.31602e+01,0.00000e+00,0.00000e+00,0.00000e+00
1.71930e+03,-2.50568e+00,-2.08442e+01,0.00000e+00,0.00000e+00,0.00000e+00
1.71930e+03,-1.91624e+00,-1.85282e+01,0.00000e+00,0.00000e+00,0.00000e+00
1.71930e+03,-1.32552e+00,-1.62121e+01,0.00000e+00,0.00000e+00,0.00000e+00
1.71930e+03,-7.30242e-01,-1.38961e+01,0.00000e+00,0.00000e+00,0.00000e+00
1.71930e+03,-1.35024e-01,-1.15801e+01,0.00000e+00,0.00000e+00,0.00000e+00
1.71930e+03,4.57944e-01,-9.26408e+00,0.00000e+00,0.00000e+00,0.00000e+00
1.71930e+03,1.05091e+00,-6.94806e+00,0.00000e+00,0.00000e+00,0.00000e+00
1.71930e+03,1.62984e+00,-4.63204e+00,0.00000e+00,0.00000e+00,0.00000e+00
1.71930e+03,2.20615e+00,-2.31602e+00,0.00000e+00,0.00000e+00,0.00000e+00
1.77540e+03,2.77303e+01,0.00000e+00,0.00000e+00,0.00000e+00,0.00000e+00
1.77540e+03,2.75906e+01,-2.10721e+00,0.00000e+00,0.00000e+00,0.00000e+00
1.77540e+03,2.74048e+01,-4.21442e+00,0.00000e+00,0.00000e+00,0.00000e+00
1.77540e+03,2.72172e+01,-6.32163e+00,0.00000e+00,0.00000e+00,0.00000e+00
1.77540e+03,2.69888e+01,-8.42884e+00,0.00000e+00,0.00000e+00,0.00000e+00
1.77540e+03,2.67510e+01,-1.05361e+01,0.00000e+00,0.00000e+00,0.00000e+00
1.77540e+03,2.64819e+01,-1.26433e+01,0.00000e+00,0.00000e+00,0.00000e+00
1.77540e+03,2.61977e+01,-1.47505e+01,0.00000e+00,0.00000e+00,0.00000e+00
1.77540e+03,2.58883e+01,-1.68577e+01,0.00000e+00,0.00000e+00,0.00000e+00
1.77540e+03,2.55583e+01,-1.89649e+01,0.00000e+00,0.00000e+00,0.00000e+00
1.77540e+03,2.52056e+01,-2.10721e+01,0.00000e+00,0.00000e+00,0.00000e+00
1.77540e+03,2.48254e+01,-2.31793e+01,0.00000e+00,0.00000e+00,0.00000e+00
1.77540e+03,2.44171e+01,-2.52865e+01,0.00000e+00,0.00000e+00,0.00000e+00
1.77540e+03,2.39689e+01,-2.73937e+01,0.00000e+00,0.00000e+00,0.00000e+00
1.77540e+03,2.34819e+01,-2.95009e+01,0.00000e+00,0.00000e+00,0.00000e+00
1.77540e+03,2.29486e+01,-3.16082e+01,0.00000e+00,0.00000e+00,0.00000e+00
1.77540e+03,2.23524e+01,-3.37154e+01,0.00000e+00,0.00000e+00,0.00000e+00
1.77540e+03,2.17125e+01,-3.58226e+01,0.00000e+00,0.00000e+00,0.00000e+00
1.77540e+03,2.09743e+01,-3.79298e+01,0.00000e+00,0.00000e+00,0.00000e+00
1.77540e+03,2.01952e+01,-4.00370e+01,0.00000e+00,0.00000e+00,0.00000e+00
1.77540e+03,1.93026e+01,-4.21442e+01,0.00000e+00,0.00000e+00,0.00000e+00
1.77540e+03,1.83190e+01,-4.42514e+01,0.00000e+00,0.00000e+00,0.00000e+00
1.77540e+03,1.72428e+01,-4.63586e+01,0.00000e+00,0.00000e+00,0.00000e+00
1.77540e+03,1.60110e+01,-4.84658e+01,0.00000e+00,0.00000e+00,0.00000e+00
1.77540e+03,1.45992e+01,-5.05731e+01,0.00000e+00,0.00000e+00,0.00000e+00
1.77540e+03,1.29838e+01,-5.26803e+01,0.00000e+00,0.00000e+00,0.00000e+00
1.77540e+03,1.10731e+01,-5.47875e+01,0.00000e+00,0.00000e+00,0.00000e+00
1.77540e+03,8.62063e+00,-5.68947e+01,0.00000e+00,0.00000e+00,0.00000e+00
1.77540e+03,5.30372e+00,-5.90019e+01,0.00000e+00,0.00000e+00,0.00000e+00
1.77540e+03,-2.14903e+00,-6.11091e+01,0.00000e+00,0.00000e+00,0.00000e+00
1.77540e+03,-2.68689e+00,-6.11140e+01,0.00000e+00,0.00000e+00,0.00000e+00
1.77540e+03,-7.58725e+00,-5.89314e+01,0.00000e+00,0.00000e+00,0.00000e+00
1.77540e+03,-8.18057e+00,-5.67487e+01,0.00000e+00,0.00000e+00,0.00000e+00
1.77540e+03,-8.38530e+00,-5.45661e+01,0.00000e+00,0.00000e+00,0.00000e+00
1.77540e+03,-8.41637e+00,-5.23834e+01,0.00000e+00,0.00000e+00,0.00000e+00
1.77540e+03,-8.31659e+00,-5.02008e+01,0.00000e+00,0.00000e+00,0.00000e+00
1.77540e+03,-8.13471e+00,-4.80181e+01,0.00000e+00,0.00000e+00,0.00000e+00
1.77540e+03,-7.87037e+00,-4.58355e+01,0.00000e+00,0.00000e+00,0.00000e+00
1.77540e+03,-7.55575e+00,-4.36529e+01,0.00000e+00,0.00000e+00,0.00000e+00
1.77540e+03,-7.21195e+00,-4.14702e+01,0.00000e+00,0.00000e+00,0.00000e+00
1.77540e+03,-6.82421e+00,-3.92876e+01,0.00000e+00,0.00000e+00,0.00000e+00
1.77540e+03,-6.40900e+00,-3.71049e+01,0.00000e+00,0.00000e+00,0.00000e+00
1.77540e+03,-5.96704e+00,-3.49223e+01,0.00000e+00,0.00000e+00,0.00000e+00
1.77540e+03,-5.49844e+00,-3.27396e+01,0.00000e+00,0.00000e+00,0.00000e+00
1.77540e+03,-5.01314e+00,-3.05570e+01,0.00000e+00,0.00000e+00,0.00000e+00
1.77540e+03,-4.50644e+00,-2.83744e+01,0.00000e+00,0.00000e+00,0.00000e+00
1.77540e+03,-3.98604e+00,-2.61917e+01,0.00000e+00,0.00000e+00,0.00000e+00
1.77540e+03,-3.45334e+00,-2.40091e+01,0.00000e+00,0.00000e+00,0.00000e+00
1.77540e+03,-2.90969e+00,-2.18264e+01,0.00000e+00,0.00000e+00,0.00000e+00
1.77540e+03,-2.36138e+00,-1.96438e+01,0.00000e+00,0.00000e+00,0.00000e+00
1.77540e+03,-1.80588e+00,-1.74611e+01,0.00000e+00,0.00000e+00,0.00000e+00
1.77540e+03,-1.24918e+00,-1.52785e+01,0.00000e+00,0.00000e+00,0.00000e+00
1.77540e+03,-6.88187e-01,-1.30959e+01,0.00000e+00,0.00000e+00,0.00000e+00
1.77540e+03,-1.27248e-01,-1.09132e+01,0.00000e+00,0.00000e+00,0.00000e+00
1.77540e+03,4.31571e-01,-8.73057e+00,0.00000e+00,0.00000e+00,0.00000e+00
1.77540e+03,9.90390e-01,-6.54793e+00,0.00000e+00,0.00000e+00,0.00000e+00
1.77540e+03,1.53598e+00,-4.36529e+00,0.00000e+00,0.00000e+00,0.00000e+00
1.77540e+03,2.07910e+00,-2.18264e+00,0.00000e+00,0.00000e+00,0.00000e+00
1.82660e+03,2.53092e+01,0.00000e+00,0.00000e+00,0.00000e+00,0.00000e+00
1.82660e+03,2.51817e+01,-1.92323e+00,0.00000e+00,0.00000e+00,0.00000e+00
1.82660e+03,2.50121e+01,-3.84646e+00,0.00000e+00,0.00000e+00,0.00000e+00
1.82660e+03,2.48409e+01,-5.76969e+00,0.00000e+00,0.00000e+00,0.00000e+00
1.82660e+03,2.46324e+01,-7.69292e+00,0.00000e+00,0.00000e+00,0.00000e+00
1.82660e+03,2.44154e+01,-9.61614e+00,0.00000e+00,0.00000e+00,0.00000e+00
1.82660e+03,2.41698e+01,-1.15394e+01,0.00000e+00,0.00000e+00,0.00000e+00
1.82660e+03,2.39103e+01,-1.34626e+01,0.00000e+00,0.00000e+00,0.00000e+00
1.82660e+03,2.36280e+01,-1.53858e+01,0.00000e+00,0.00000e+00,0.00000e+00
1.82660e+03,2.33268e+01,-1.73091e+01,0.00000e+00,0.00000e+00,0.00000e+00
1.82660e+03,2.30049e+01,-1.92323e+01,0.00000e+00,0.00000e+00,0.00000e+00
1.82660e+03,2.26579e+01,-2.11555e+01,0.00000e+00,0.00000e+00,0.00000e+00
1.82660e+03,2.22852e+01,-2.30787e+01,0.00000e+00,0.00000e+00,0.00000e+00
1.82660e+03,2.18762e+01,-2.50020e+01,0.00000e+00,0.00000e+00,0.00000e+00
1.82660e+03,2.14317e+01,-2.69252e+01,0.00000e+00,0.00000e+00,0.00000e+00
1.82660e+03,2.09449e+01,-2.88484e+01,0.00000e+00,0.00000e+00,0.00000e+00
1.82660e+03,2.04008e+01,-3.07717e+01,0.00000e+00,0.00000e+00,0.00000e+00
1.82660e+03,1.98168e+01,-3.26949e+01,0.00000e+00,0.00000e+00,0.00000e+00
1.82660e+03,1.91430e+01,-3.46181e+01,0.00000e+00,0.00000e+00,0.00000e+00
1.82660e+03,1.84320e+01,-3.65413e+01,0.00000e+00,0.00000e+00,0.00000e+00
1.82660e+03,1.76173e+01,-3.84646e+01,0.00000e+00,0.00000e+00,0.00000e+00
1.82660e+03,1.67196e+01,-4.03878e+01,0.00000e+00,0.00000e+00,0.00000e+00
1.82660e+03,1.57373e+01,-4.23110e+01,0.00000e+00,0.00000e+00,0.00000e+00
1.82660e+03,1.46131e+01,-4.42343e+01,0.00000e+00,0.00000e+00,0.00000e+00
1.82660e+03,1.33245e+01,-4.61575e+01,0.00000e+00,0.00000e+00,0.00000e+00
1.82660e+03,1.18502e+01,-4.80807e+01,0.00000e+00,0.00000e+00,0.00000e+00
1.82660e+03,1.01063e+01,-5.00040e+01,0.00000e+00,0.00000e+00,0.00000e+00
1.82660e+03,7.86795e+00,-5.19272e+01,0.00000e+00,0.00000e+00,0.00000e+00
1.82660e+03,4.84065e+00,-5.38504e+01,0.00000e+00,0.00000e+00,0.00000e+00
1.82660e+03,-1.96139e+00,-5.57736e+01,0.00000e+00,0.00000e+00,0.00000e+00
1.82660e+03,-2.45230e+00,-5.57781e+01,0.00000e+00,0.00000e+00,0.00000e+00
1.82660e+03,-6.92480e+00,-5.37860e+01,0.00000e+00,0.00000e+00,0.00000e+00
1.82660e+03,-7.46632e+00,-5.17940e+01,0.00000e+00,0.00000e+00,0.00000e+00
1.82660e+03,-7.65318e+00,-4.98019e+01,0.00000e+00,0.00000e+00,0.00000e+00
1.82660e+03,-7.68153e+00,-4.78098e+01,0.00000e+00,0.00000e+00,0.00000e+00
1.82660e+03,-7.59047e+00,-4.58177e+01,0.00000e+00,0.00000e+00,0.00000e+00
1.82660e+03,-7.42446e+00,-4.38257e+01,0.00000e+00,0.00000e+00,0.00000e+00
1.82660e+03,-7.18321e+00,-4.18336e+01,0.00000e+00,0.00000e+00,0.00000e+00
1.82660e+03,-6.89605e+00,-3.98415e+01,0.00000e+00,0.00000e+00,0.00000e+00
1.82660e+03,-6.58227e+00,-3.78494e+01,0.00000e+00,0.00000e+00,0.00000e+00
1.82660e+03,-6.22838e+00,-3.58574e+01,0.00000e+00,0.00000e+00,0.00000e+00
1.82660e+03,-5.84943e+00,-3.38653e+01,0.00000e+00,0.00000e+00,0.00000e+00
1.82660e+03,-5.44606e+00,-3.18732e+01,0.00000e+00,0.00000e+00,0.00000e+00
1.82660e+03,-5.01837e+00,-2.98811e+01,0.00000e+00,0.00000e+00,0.00000e+00
1.82660e+03,-4.57544e+00,-2.78891e+01,0.00000e+00,0.00000e+00,0.00000e+00
1.82660e+03,-4.11298e+00,-2.58970e+01,0.00000e+00,0.00000e+00,0.00000e+00
1.82660e+03,-3.63801e+00,-2.39049e+01,0.00000e+00,0.00000e+00,0.00000e+00
1.82660e+03,-3.15183e+00,-2.19128e+01,0.00000e+00,0.00000e+00,0.00000e+00
1.82660e+03,-2.65564e+00,-1.99208e+01,0.00000e+00,0.00000e+00,0.00000e+00
1.82660e+03,-2.15521e+00,-1.79287e+01,0.00000e+00,0.00000e+00,0.00000e+00
1.82660e+03,-1.64821e+00,-1.59366e+01,0.00000e+00,0.00000e+00,0.00000e+00
1.82660e+03,-1.14012e+00,-1.39445e+01,0.00000e+00,0.00000e+00,0.00000e+00
1.82660e+03,-6.28101e-01,-1.19525e+01,0.00000e+00,0.00000e+00,0.00000e+00
1.82660e+03,-1.16138e-01,-9.96038e+00,0.00000e+00,0.00000e+00,0.00000e+00
1.82660e+03,3.93890e-01,-7.96830e+00,0.00000e+00,0.00000e+00,0.00000e+00
1.82660e+03,9.03919e-01,-5.97623e+00,0.00000e+00,0.00000e+00,0.00000e+00
1.82660e+03,1.40187e+00,-3.98415e+00,0.00000e+00,0.00000e+00,0.00000e+00
1.82660e+03,1.89757e+00,-1.99208e+00,0.00000e+00,0.00000e+00,0.00000e+00
1.87280e+03,2.31244e+01,0.00000e+00,0.00000e+00,0.00000e+00,0.00000e+00
1.87280e+03,2.30080e+01,-1.75721e+00,0.00000e+00,0.00000e+00,0.00000e+00
1.87280e+03,2.28531e+01,-3.51443e+00,0.00000e+00,0.00000e+00,0.00000e+00
1.87280e+03,2.26966e+01,-5.27164e+00,0.00000e+00,0.00000e+00,0.00000e+00
1.87280e+03,2.25061e+01,-7.02886e+00,0.00000e+00,0.00000e+00,0.00000e+00
1.87280e+03,2.23078e+01,-8.78607e+00,0.00000e+00,0.00000e+00,0.00000e+00
1.87280e+03,2.20834e+01,-1.05433e+01,0.00000e+00,0.00000e+00,0.00000e+00
1.87280e+03,2.18464e+01,-1.23005e+01,0.00000e+00,0.00000e+00,0.00000e+00
1.87280e+03,2.15884e+01,-1.40577e+01,0.00000e+00,0.00000e+00,0.00000e+00
1.87280e+03,2.13132e+01,-1.58149e+01,0.00000e+00,0.00000e+00,0.00000e+00
1.87280e+03,2.10191e+01,-1.75721e+01,0.00000e+00,0.00000e+00,0.00000e+00
1.87280e+03,2.07020e+01,-1.93294e+01,0.00000e+00,0.00000e+00,0.00000e+00
1.87280e+03,2.03615e+01,-2.10866e+01,0.00000e+00,0.00000e+00,0.00000e+00
1.87280e+03,1.99878e+01,-2.28438e+01,0.00000e+00,0.00000e+00,0.00000e+00
1.87280e+03,1.95817e+01,-2.46010e+01,0.00000e+00,0.00000e+00,0.00000e+00
1.87280e+03,1.91369e+01,-2.63582e+01,0.00000e+00,0.00000e+00,0.00000e+00
1.87280e+03,1.86398e+01,-2.81154e+01,0.00000e+00,0.00000e+00,0.00000e+00
1.87280e+03,1.81062e+01,-2.98726e+01,0.00000e+00,0.00000e+00,0.00000e+00
1.87280e+03,1.74905e+01,-3.16299e+01,0.00000e+00,0.00000e+00,0.00000e+00
1.87280e+03,1.68409e+01,-3.33871e+01,0.00000e+00,0.00000e+00,0.00000e+00
1.87280e+03,1.60966e+01,-3.51443e+01,0.00000e+00,0.00000e+00,0.00000e+00
1.87280e+03,1.52763e+01,-3.69015e+01,0.00000e+00,0.00000e+00,0.00000e+00
1.87280e+03,1.43788e+01,-3.86587e+01,0.00000e+00,0.00000e+00,0.00000e+00
1.87280e+03,1.33517e+01,-4.04159e+01,0.00000e+00,0.00000e+00,0.00000e+00
1.87280e+03,1.21743e+01,-4.21731e+01,0.00000e+00,0.00000e+00,0.00000e+00
1.87280e+03,1.08272e+01,-4.39304e+01,0.00000e+00,0.00000e+00,0.00000e+00
1.87280e+03,9.23393e+00,-4.56876e+01,0.00000e+00,0.00000e+00,0.00000e+00
1.87280e+03,7.18879e+00,-4.74448e+01,0.00000e+00,0.00000e+00,0.00000e+00
1.87280e+03,4.42280e+00,-4.92020e+01,0.00000e+00,0.00000e+00,0.00000e+00
1.87280e+03,-1.79208e+00,-5.09592e+01,0.00000e+00,0.00000e+00,0.00000e+00
1.87280e+03,-2.24062e+00,-5.09633e+01,0.00000e+00,0.00000e+00,0.00000e+00
1.87280e+03,-6.32705e+00,-4.91432e+01,0.00000e+00,0.00000e+00,0.00000e+00
1.87280e+03,-6.82182e+00,-4.73231e+01,0.00000e+00,0.00000e+00,0.00000e+00
1.87280e+03,-6.99255e+00,-4.55029e+01,0.00000e+00,0.00000e+00,0.00000e+00
1.87280e+03,-7.01846e+00,-4.36828e+01,0.00000e+00,0.00000e+00,0.00000e+00
1.87280e+03,-6.93525e+00,-4.18627e+01,0.00000e+00,0.00000e+00,0.00000e+00
1.87280e+03,-6.78358e+00,-4.00426e+01,0.00000e+00,0.00000e+00,0.00000e+00
1.87280e+03,-6.56315e+00,-3.82225e+01,0.00000e+00,0.00000e+00,0.00000e+00
1.87280e+03,-6.30078e+00,-3.64024e+01,0.00000e+00,0.00000e+00,0.00000e+00
1.87280e+03,-6.01408e+00,-3.45822e+01,0.00000e+00,0.00000e+00,0.00000e+00
1.87280e+03,-5.69074e+00,-3.27621e+01,0.00000e+00,0.00000e+00,0.00000e+00
1.87280e+03,-5.34450e+00,-3.09420e+01,0.00000e+00,0.00000e+00,0.00000e+00
1.87280e+03,-4.97595e+00,-2.91219e+01,0.00000e+00,0.00000e+00,0.00000e+00
1.87280e+03,-4.58518e+00,-2.73018e+01,0.00000e+00,0.00000e+00,0.00000e+00
1.87280e+03,-4.18049e+00,-2.54816e+01,0.00000e+00,0.00000e+00,0.00000e+00
1.87280e+03,-3.75794e+00,-2.36615e+01,0.00000e+00,0.00000e+00,0.00000e+00
1.87280e+03,-3.32398e+00,-2.18414e+01,0.00000e+00,0.00000e+00,0.00000e+00
1.87280e+03,-2.87976e+00,-2.00213e+01,0.00000e+00,0.00000e+00,0.00000e+00
1.87280e+03,-2.42640e+00,-1.82012e+01,0.00000e+00,0.00000e+00,0.00000e+00
1.87280e+03,-1.96917e+00,-1.63811e+01,0.00000e+00,0.00000e+00,0.00000e+00
1.87280e+03,-1.50594e+00,-1.45609e+01,0.00000e+00,0.00000e+00,0.00000e+00
1.87280e+03,-1.04170e+00,-1.27408e+01,0.00000e+00,0.00000e+00,0.00000e+00
1.87280e+03,-5.73883e-01,-1.09207e+01,0.00000e+00,0.00000e+00,0.00000e+00
1.87280e+03,-1.06113e-01,-9.10059e+00,0.00000e+00,0.00000e+00,0.00000e+00
1.87280e+03,3.59890e-01,-7.28047e+00,0.00000e+00,0.00000e+00,0.00000e+00
1.87280e+03,8.25892e-01,-5.46035e+00,0.00000e+00,0.00000e+00,0.00000e+00
1.87280e+03,1.28086e+00,-3.64024e+00,0.00000e+00,0.00000e+00,0.00000e+00
1.87280e+03,1.73377e+00,-1.82012e+00,0.00000e+00,0.00000e+00,0.00000e+00
1.91380e+03,2.11856e+01,0.00000e+00,0.00000e+00,0.00000e+00,0.00000e+00
1.91380e+03,2.10789e+01,-1.60989e+00,0.00000e+00,0.00000e+00,0.00000e+00
1.91380e+03,2.09370e+01,-3.21977e+00,0.00000e+00,0.00000e+00,0.00000e+00
1.91380e+03,2.07936e+01,-4.82966e+00,0.00000e+00,0.00000e+00,0.00000e+00
1.91380e+03,2.06192e+01,-6.43954e+00,0.00000e+00,0.00000e+00,0.00000e+00
1.91380e+03,2.04375e+01,-8.04943e+00,0.00000e+00,0.00000e+00,0.00000e+00
1.91380e+03,2.02319e+01,-9.65931e+00,0.00000e+00,0.00000e+00,0.00000e+00
1.91380e+03,2.00147e+01,-1.12692e+01,0.00000e+00,0.00000e+00,0.00000e+00
1.91380e+03,1.97784e+01,-1.28791e+01,0.00000e+00,0.00000e+00,0.00000e+00
1.91380e+03,1.95262e+01,-1.44890e+01,0.00000e+00,0.00000e+00,0.00000e+00
1.91380e+03,1.92568e+01,-1.60989e+01,0.00000e+00,0.00000e+00,0.00000e+00
1.91380e+03,1.89663e+01,-1.77087e+01,0.00000e+00,0.00000e+00,0.00000e+00
1.91380e+03,1.86544e+01,-1.93186e+01,0.00000e+00,0.00000e+00,0.00000e+00
1.91380e+03,1.83120e+01,-2.09285e+01,0.00000e+00,0.00000e+00,0.00000e+00
1.91380e+03,1.79399e+01,-2.25384e+01,0.00000e+00,0.00000e+00,0.00000e+00
1.91380e+03,1.75325e+01,-2.41483e+01,0.00000e+00,0.00000e+00,0.00000e+00
1.91380e+03,1.70770e+01,-2.57582e+01,0.00000e+00,0.00000e+00,0.00000e+00
1.91380e+03,1.65881e+01,-2.73680e+01,0.00000e+00,0.00000e+00,0.00000e+00
1.91380e+03,1.60241e+01,-2.89779e+01,0.00000e+00,0.00000e+00,0.00000e+00
1.91380e+03,1.54289e+01,-3.05878e+01,0.00000e+00,0.00000e+00,0.00000e+00
1.91380e+03,1.47470e+01,-3.21977e+01,0.00000e+00,0.00000e+00,0.00000e+00
1.91380e+03,1.39955e+01,-3.38076e+01,0.00000e+00,0.00000e+00,0.00000e+00
1.91380e+03,1.31733e+01,-3.54175e+01,0.00000e+00,0.00000e+00,0.00000e+00
1.91380e+03,1.22322e+01,-3.70274e+01,0.00000e+00,0.00000e+00,0.00000e+00
1.91380e+03,1.11536e+01,-3.86372e+01,0.00000e+00,0.00000e+00,0.00000e+00
1.91380e+03,9.91946e+00,-4.02471e+01,0.00000e+00,0.00000e+00,0.00000e+00
1.91380e+03,8.45973e+00,-4.18570e+01,0.00000e+00,0.00000e+00,0.00000e+00
1.91380e+03,6.58606e+00,-4.34669e+01,0.00000e+00,0.00000e+00,0.00000e+00
1.91380e+03,4.05198e+00,-4.50768e+01,0.00000e+00,0.00000e+00,0.00000e+00
1.91380e+03,-1.64183e+00,-4.66867e+01,0.00000e+00,0.00000e+00,0.00000e+00
1.91380e+03,-2.05276e+00,-4.66904e+01,0.00000e+00,0.00000e+00,0.00000e+00
1.91380e+03,-5.79657e+00,-4.50229e+01,0.00000e+00,0.00000e+00,0.00000e+00
1.91380e+03,-6.24986e+00,-4.33554e+01,0.00000e+00,0.00000e+00,0.00000e+00
1.91380e+03,-6.40628e+00,-4.16879e+01,0.00000e+00,0.00000e+00,0.00000e+00
1.91380e+03,-6.43001e+00,-4.00204e+01,0.00000e+00,0.00000e+00,0.00000e+00
1.91380e+03,-6.35378e+00,-3.83528e+01,0.00000e+00,0.00000e+00,0.00000e+00
1.91380e+03,-6.21483e+00,-3.66853e+01,0.00000e+00,0.00000e+00,0.00000e+00
1.91380e+03,-6.01288e+00,-3.50178e+01,0.00000e+00,0.00000e+00,0.00000e+00
1.91380e+03,-5.77251e+00,-3.33503e+01,0.00000e+00,0.00000e+00,0.00000e+00
1.91380e+03,-5.50985e+00,-3.16828e+01,0.00000e+00,0.00000e+00,0.00000e+00
1.91380e+03,-5.21362e+00,-3.00153e+01,0.00000e+00,0.00000e+00,0.00000e+00
1.91380e+03,-4.89640e+00,-2.83477e+01,0.00000e+00,0.00000e+00,0.00000e+00
1.91380e+03,-4.55876e+00,-2.66802e+01,0.00000e+00,0.00000e+00,0.00000e+00
1.91380e+03,-4.20075e+00,-2.50127e+01,0.00000e+00,0.00000e+00,0.00000e+00
1.91380e+03,-3.82998e+00,-2.33452e+01,0.00000e+00,0.00000e+00,0.00000e+00
1.91380e+03,-3.44287e+00,-2.16777e+01,0.00000e+00,0.00000e+00,0.00000e+00
1.91380e+03,-3.04529e+00,-2.00102e+01,0.00000e+00,0.00000e+00,0.00000e+00
1.91380e+03,-2.63832e+00,-1.83427e+01,0.00000e+00,0.00000e+00,0.00000e+00
1.91380e+03,-2.22297e+00,-1.66751e+01,0.00000e+00,0.00000e+00,0.00000e+00
1.91380e+03,-1.80407e+00,-1.50076e+01,0.00000e+00,0.00000e+00,0.00000e+00
1.91380e+03,-1.37967e+00,-1.33401e+01,0.00000e+00,0.00000e+00,0.00000e+00
1.91380e+03,-9.54362e-01,-1.16726e+01,0.00000e+00,0.00000e+00,0.00000e+00
1.91380e+03,-5.25768e-01,-1.00051e+01,0.00000e+00,0.00000e+00,0.00000e+00
1.91380e+03,-9.72161e-02,-8.33757e+00,0.00000e+00,0.00000e+00,0.00000e+00
1.91380e+03,3.29716e-01,-6.67006e+00,0.00000e+00,0.00000e+00,0.00000e+00
1.91380e+03,7.56647e-01,-5.00254e+00,0.00000e+00,0.00000e+00,0.00000e+00
1.91380e+03,1.17347e+00,-3.33503e+00,0.00000e+00,0.00000e+00,0.00000e+00
1.91380e+03,1.58841e+00,-1.66751e+00,0.00000e+00,0.00000e+00,0.00000e+00
1.94970e+03,1.94880e+01,0.00000e+00,0.00000e+00,0.00000e+00,0.00000e+00
1.94970e+03,1.93899e+01,-1.48088e+00,0.00000e+00,0.00000e+00,0.00000e+00
1.94970e+03,1.92593e+01,-2.96177e+00,0.00000e+00,0.00000e+00,0.00000e+00
1.94970e+03,1.91274e+01,-4.44265e+00,0.00000e+00,0.00000e+00,0.00000e+00
1.94970e+03,1.89669e+01,-5.92353e+00,0.00000e+00,0.00000e+00,0.00000e+00
1.94970e+03,1.87998e+01,-7.40441e+00,0.00000e+00,0.00000e+00,0.00000e+00
1.94970e+03,1.86107e+01,-8.88530e+00,0.00000e+00,0.00000e+00,0.00000e+00
1.94970e+03,1.84109e+01,-1.03662e+01,0.00000e+00,0.00000e+00,0.00000e+00
1.94970e+03,1.81935e+01,-1.18471e+01,0.00000e+00,0.00000e+00,0.00000e+00
1.94970e+03,1.79616e+01,-1.33279e+01,0.00000e+00,0.00000e+00,0.00000e+00
1.94970e+03,1.77137e+01,-1.48088e+01,0.00000e+00,0.00000e+00,0.00000e+00
1.94970e+03,1.74465e+01,-1.62897e+01,0.00000e+00,0.00000e+00,0.00000e+00
1.94970e+03,1.71596e+01,-1.77706e+01,0.00000e+00,0.00000e+00,0.00000e+00
1.94970e+03,1.68446e+01,-1.92515e+01,0.00000e+00,0.00000e+00,0.00000e+00
1.94970e+03,1.65024e+01,-2.07324e+01,0.00000e+00,0.00000e+00,0.00000e+00
1.94970e+03,1.61276e+01,-2.22132e+01,0.00000e+00,0.00000e+00,0.00000e+00
1.94970e+03,1.57086e+01,-2.36941e+01,0.00000e+00,0.00000e+00,0.00000e+00
1.94970e+03,1.52589e+01,-2.51750e+01,0.00000e+00,0.00000e+00,0.00000e+00
1.94970e+03,1.47401e+01,-2.66559e+01,0.00000e+00,0.00000e+00,0.00000e+00
1.94970e+03,1.41926e+01,-2.81368e+01,0.00000e+00,0.00000e+00,0.00000e+00
1.94970e+03,1.35653e+01,-2.96177e+01,0.00000e+00,0.00000e+00,0.00000e+00
1.94970e+03,1.28740e+01,-3.10985e+01,0.00000e+00,0.00000e+00,0.00000e+00
1.94970e+03,1.21177e+01,-3.25794e+01,0.00000e+00,0.00000e+00,0.00000e+00
1.94970e+03,1.12521e+01,-3.40603e+01,0.00000e+00,0.00000e+00,0.00000e+00
1.94970e+03,1.02599e+01,-3.55412e+01,0.00000e+00,0.00000e+00,0.00000e+00
1.94970e+03,9.12460e+00,-3.70221e+01,0.00000e+00,0.00000e+00,0.00000e+00
1.94970e+03,7.78184e+00,-3.85029e+01,0.00000e+00,0.00000e+00,0.00000e+00
1.94970e+03,6.05831e+00,-3.99838e+01,0.00000e+00,0.00000e+00,0.00000e+00
1.94970e+03,3.72729e+00,-4.14647e+01,0.00000e+00,0.00000e+00,0.00000e+00
1.94970e+03,-1.51027e+00,-4.29456e+01,0.00000e+00,0.00000e+00,0.00000e+00
1.94970e+03,-1.88827e+00,-4.29490e+01,0.00000e+00,0.00000e+00,0.00000e+00
1.94970e+03,-5.33209e+00,-4.14151e+01,0.00000e+00,0.00000e+00,0.00000e+00
1.94970e+03,-5.74905e+00,-3.98812e+01,0.00000e+00,0.00000e+00,0.00000e+00
1.94970e+03,-5.89293e+00,-3.83473e+01,0.00000e+00,0.00000e+00,0.00000e+00
1.94970e+03,-5.91477e+00,-3.68135e+01,0.00000e+00,0.00000e+00,0.00000e+00
1.94970e+03,-5.84465e+00,-3.52796e+01,0.00000e+00,0.00000e+00,0.00000e+00
1.94970e+03,-5.71682e+00,-3.37457e+01,0.00000e+00,0.00000e+00,0.00000e+00
1.94970e+03,-5.53106e+00,-3.22118e+01,0.00000e+00,0.00000e+00,0.00000e+00
1.94970e+03,-5.30995e+00,-3.06779e+01,0.00000e+00,0.00000e+00,0.00000e+00
1.94970e+03,-5.06834e+00,-2.91440e+01,0.00000e+00,0.00000e+00,0.00000e+00
1.94970e+03,-4.79584e+00,-2.76101e+01,0.00000e+00,0.00000e+00,0.00000e+00
1.94970e+03,-4.50405e+00,-2.60762e+01,0.00000e+00,0.00000e+00,0.00000e+00
1.94970e+03,-4.19345e+00,-2.45423e+01,0.00000e+00,0.00000e+00,0.00000e+00
1.94970e+03,-3.86414e+00,-2.30084e+01,0.00000e+00,0.00000e+00,0.00000e+00
1.94970e+03,-3.52308e+00,-2.14745e+01,0.00000e+00,0.00000e+00,0.00000e+00
1.94970e+03,-3.16699e+00,-1.99406e+01,0.00000e+00,0.00000e+00,0.00000e+00
1.94970e+03,-2.80126e+00,-1.84067e+01,0.00000e+00,0.00000e+00,0.00000e+00
1.94970e+03,-2.42690e+00,-1.68728e+01,0.00000e+00,0.00000e+00,0.00000e+00
1.94970e+03,-2.04484e+00,-1.53389e+01,0.00000e+00,0.00000e+00,0.00000e+00
1.94970e+03,-1.65951e+00,-1.38050e+01,0.00000e+00,0.00000e+00,0.00000e+00
1.94970e+03,-1.26912e+00,-1.22712e+01,0.00000e+00,0.00000e+00,0.00000e+00
1.94970e+03,-8.77888e-01,-1.07373e+01,0.00000e+00,0.00000e+00,0.00000e+00
1.94970e+03,-4.83637e-01,-9.20336e+00,0.00000e+00,0.00000e+00,0.00000e+00
1.94970e+03,-8.94260e-02,-7.66947e+00,0.00000e+00,0.00000e+00,0.00000e+00
1.94970e+03,3.03295e-01,-6.13558e+00,0.00000e+00,0.00000e+00,0.00000e+00
1.94970e+03,6.96016e-01,-4.60168e+00,0.00000e+00,0.00000e+00,0.00000e+00
1.94970e+03,1.07944e+00,-3.06779e+00,0.00000e+00,0.00000e+00,0.00000e+00
1.94970e+03,1.46113e+00,-1.53389e+00,0.00000e+00,0.00000e+00,0.00000e+00
1.98010e+03,1.80504e+01,0.00000e+00,0.00000e+00,0.00000e+00,0.00000e+00
1.98010e+03,1.79595e+01,-1.37164e+00,0.00000e+00,0.00000e+00,0.00000e+00
1.98010e+03,1.78386e+01,-2.74329e+00,0.00000e+00,0.00000e+00,0.00000e+00
1.98010e+03,1.77165e+01,-4.11493e+00,0.00000e+00,0.00000e+00,0.00000e+00
1.98010e+03,1.75678e+01,-5.48657e+00,0.00000e+00,0.00000e+00,0.00000e+00
1.98010e+03,1.74130e+01,-6.85822e+00,0.00000e+00,0.00000e+00,0.00000e+00
1.98010e+03,1.72378e+01,-8.22986e+00,0.00000e+00,0.00000e+00,0.00000e+00
1.98010e+03,1.70528e+01,-9.60150e+00,0.00000e+00,0.00000e+00,0.00000e+00
1.98010e+03,1.68514e+01,-1.09731e+01,0.00000e+00,0.00000e+00,0.00000e+00
1.98010e+03,1.66366e+01,-1.23448e+01,0.00000e+00,0.00000e+00,0.00000e+00
1.98010e+03,1.64070e+01,-1.37164e+01,0.00000e+00,0.00000e+00,0.00000e+00
1.98010e+03,1.61595e+01,-1.50881e+01,0.00000e+00,0.00000e+00,0.00000e+00
1.98010e+03,1.58938e+01,-1.64597e+01,0.00000e+00,0.00000e+00,0.00000e+00
1.98010e+03,1.56020e+01,-1.78314e+01,0.00000e+00,0.00000e+00,0.00000e+00
1.98010e+03,1.52851e+01,-1.92030e+01,0.00000e+00,0.00000e+00,0.00000e+00
1.98010e+03,1.49379e+01,-2.05747e+01,0.00000e+00,0.00000e+00,0.00000e+00
1.98010e+03,1.45498e+01,-2.19463e+01,0.00000e+00,0.00000e+00,0.00000e+00
1.98010e+03,1.41333e+01,-2.33179e+01,0.00000e+00,0.00000e+00,0.00000e+00
1.98010e+03,1.36527e+01,-2.46896e+01,0.00000e+00,0.00000e+00,0.00000e+00
1.98010e+03,1.31457e+01,-2.60612e+01,0.00000e+00,0.00000e+00,0.00000e+00
1.98010e+03,1.25646e+01,-2.74329e+01,0.00000e+00,0.00000e+00,0.00000e+00
1.98010e+03,1.19244e+01,-2.88045e+01,0.00000e+00,0.00000e+00,0.00000e+00
1.98010e+03,1.12238e+01,-3.01762e+01,0.00000e+00,0.00000e+00,0.00000e+00
1.98010e+03,1.04220e+01,-3.15478e+01,0.00000e+00,0.00000e+00,0.00000e+00
1.98010e+03,9.50303e+00,-3.29194e+01,0.00000e+00,0.00000e+00,0.00000e+00
1.98010e+03,8.45151e+00,-3.42911e+01,0.00000e+00,0.00000e+00,0.00000e+00
1.98010e+03,7.20780e+00,-3.56627e+01,0.00000e+00,0.00000e+00,0.00000e+00
1.98010e+03,5.61141e+00,-3.70344e+01,0.00000e+00,0.00000e+00,0.00000e+00
1.98010e+03,3.45234e+00,-3.84060e+01,0.00000e+00,0.00000e+00,0.00000e+00
1.98010e+03,-1.39886e+00,-3.97777e+01,0.00000e+00,0.00000e+00,0.00000e+00
1.98010e+03,-1.74898e+00,-3.97808e+01,0.00000e+00,0.00000e+00,0.00000e+00
1.98010e+03,-4.93876e+00,-3.83601e+01,0.00000e+00,0.00000e+00,0.00000e+00
1.98010e+03,-5.32496e+00,-3.69394e+01,0.00000e+00,0.00000e+00,0.00000e+00
1.98010e+03,-5.45823e+00,-3.55186e+01,0.00000e+00,0.00000e+00,0.00000e+00
1.98010e+03,-5.47846e+00,-3.40979e+01,0.00000e+00,0.00000e+00,0.00000e+00
1.98010e+03,-5.41351e+00,-3.26771e+01,0.00000e+00,0.00000e+00,0.00000e+00
1.98010e+03,-5.29511e+00,-3.12564e+01,0.00000e+00,0.00000e+00,0.00000e+00
1.98010e+03,-5.12305e+00,-2.98356e+01,0.00000e+00,0.00000e+00,0.00000e+00
1.98010e+03,-4.91825e+00,-2.84149e+01,0.00000e+00,0.00000e+00,0.00000e+00
1.98010e+03,-4.69446e+00,-2.69941e+01,0.00000e+00,0.00000e+00,0.00000e+00
1.98010e+03,-4.44207e+00,-2.55734e+01,0.00000e+00,0.00000e+00,0.00000e+00
1.98010e+03,-4.17180e+00,-2.41527e+01,0.00000e+00,0.00000e+00,0.00000e+00
1.98010e+03,-3.88412e+00,-2.27319e+01,0.00000e+00,0.00000e+00,0.00000e+00
1.98010e+03,-3.57909e+00,-2.13112e+01,0.00000e+00,0.00000e+00,0.00000e+00
1.98010e+03,-3.26320e+00,-1.98904e+01,0.00000e+00,0.00000e+00,0.00000e+00
1.98010e+03,-2.93337e+00,-1.84697e+01,0.00000e+00,0.00000e+00,0.00000e+00
1.98010e+03,-2.59462e+00,-1.70489e+01,0.00000e+00,0.00000e+00,0.00000e+00
1.98010e+03,-2.24788e+00,-1.56282e+01,0.00000e+00,0.00000e+00,0.00000e+00
1.98010e+03,-1.89400e+00,-1.42074e+01,0.00000e+00,0.00000e+00,0.00000e+00
1.98010e+03,-1.53709e+00,-1.27867e+01,0.00000e+00,0.00000e+00,0.00000e+00
1.98010e+03,-1.17550e+00,-1.13660e+01,0.00000e+00,0.00000e+00,0.00000e+00
1.98010e+03,-8.13129e-01,-9.94521e+00,0.00000e+00,0.00000e+00,0.00000e+00
1.98010e+03,-4.47961e-01,-8.52447e+00,0.00000e+00,0.00000e+00,0.00000e+00
1.98010e+03,-8.28294e-02,-7.10372e+00,0.00000e+00,0.00000e+00,0.00000e+00
1.98010e+03,2.80922e-01,-5.68298e+00,0.00000e+00,0.00000e+00,0.00000e+00
1.98010e+03,6.44673e-01,-4.26223e+00,0.00000e+00,0.00000e+00,0.00000e+00
1.98010e+03,9.99811e-01,-2.84149e+00,0.00000e+00,0.00000e+00,0.00000e+00
1.98010e+03,1.35334e+00,-1.42074e+00,0.00000e+00,0.00000e+00,0.00000e+00
2.00520e+03,1.68635e+01,0.00000e+00,0.00000e+00,0.00000e+00,0.00000e+00
2.00520e+03,1.67786e+01,-1.28145e+00,0.00000e+00,0.00000e+00,0.00000e+00
2.00520e+03,1.66656e+01,-2.56290e+00,0.00000e+00,0.00000e+00,0.00000e+00
2.00520e+03,1.65515e+01,-3.84435e+00,0.00000e+00,0.00000e+00,0.00000e+00
2.00520e+03,1.64126e+01,-5.12580e+00,0.00000e+00,0.00000e+00,0.00000e+00
2.00520e+03,1.62680e+01,-6.40725e+00,0.00000e+00,0.00000e+00,0.00000e+00
2.00520e+03,1.61044e+01,-7.68870e+00,0.00000e+00,0.00000e+00,0.00000e+00
2.00520e+03,1.59315e+01,-8.97015e+00,0.00000e+00,0.00000e+00,0.00000e+00
2.00520e+03,1.57433e+01,-1.02516e+01,0.00000e+00,0.00000e+00,0.00000e+00
2.00520e+03,1.55427e+01,-1.15330e+01,0.00000e+00,0.00000e+00,0.00000e+00
2.00520e+03,1.53282e+01,-1.28145e+01,0.00000e+00,0.00000e+00,0.00000e+00
2.00520e+03,1.50970e+01,-1.40959e+01,0.00000e+00,0.00000e+00,0.00000e+00
2.00520e+03,1.48486e+01,-1.53774e+01,0.00000e+00,0.00000e+00,0.00000e+00
2.00520e+03,1.45761e+01,-1.66588e+01,0.00000e+00,0.00000e+00,0.00000e+00
2.00520e+03,1.42800e+01,-1.79403e+01,0.00000e+00,0.00000e+00,0.00000e+00
2.00520e+03,1.39556e+01,-1.92217e+01,0.00000e+00,0.00000e+00,0.00000e+00
2.00520e+03,1.35931e+01,-2.05032e+01,0.00000e+00,0.00000e+00,0.00000e+00
2.00520e+03,1.32039e+01,-2.17846e+01,0.00000e+00,0.00000e+00,0.00000e+00
2.00520e+03,1.27550e+01,-2.30661e+01,0.00000e+00,0.00000e+00,0.00000e+00
2.00520e+03,1.22812e+01,-2.43475e+01,0.00000e+00,0.00000e+00,0.00000e+00
2.00520e+03,1.17384e+01,-2.56290e+01,0.00000e+00,0.00000e+00,0.00000e+00
2.00520e+03,1.11403e+01,-2.69104e+01,0.00000e+00,0.00000e+00,0.00000e+00
2.00520e+03,1.04858e+01,-2.81919e+01,0.00000e+00,0.00000e+00,0.00000e+00
2.00520e+03,9.73672e+00,-2.94733e+01,0.00000e+00,0.00000e+00,0.00000e+00
2.00520e+03,8.87814e+00,-3.07548e+01,0.00000e+00,0.00000e+00,0.00000e+00
2.00520e+03,7.89577e+00,-3.20362e+01,0.00000e+00,0.00000e+00,0.00000e+00
2.00520e+03,6.73385e+00,-3.33177e+01,0.00000e+00,0.00000e+00,0.00000e+00
2.00520e+03,5.24243e+00,-3.45991e+01,0.00000e+00,0.00000e+00,0.00000e+00
2.00520e+03,3.22533e+00,-3.58806e+01,0.00000e+00,0.00000e+00,0.00000e+00
2.00520e+03,-1.30688e+00,-3.71620e+01,0.00000e+00,0.00000e+00,0.00000e+00
2.00520e+03,-1.63397e+00,-3.71650e+01,0.00000e+00,0.00000e+00,0.00000e+00
2.00520e+03,-4.61400e+00,-3.58377e+01,0.00000e+00,0.00000e+00,0.00000e+00
2.00520e+03,-4.97481e+00,-3.45104e+01,0.00000e+00,0.00000e+00,0.00000e+00
2.00520e+03,-5.09932e+00,-3.31830e+01,0.00000e+00,0.00000e+00,0.00000e+00
2.00520e+03,-5.11821e+00,-3.18557e+01,0.00000e+00,0.00000e+00,0.00000e+00
2.00520e+03,-5.05754e+00,-3.05284e+01,0.00000e+00,0.00000e+00,0.00000e+00
2.00520e+03,-4.94693e+00,-2.92011e+01,0.00000e+00,0.00000e+00,0.00000e+00
2.00520e+03,-4.78618e+00,-2.78738e+01,0.00000e+00,0.00000e+00,0.00000e+00
2.00520e+03,-4.59485e+00,-2.65464e+01,0.00000e+00,0.00000e+00,0.00000e+00
2.00520e+03,-4.38577e+00,-2.52191e+01,0.00000e+00,0.00000e+00,0.00000e+00
2.00520e+03,-4.14998e+00,-2.38918e+01,0.00000e+00,0.00000e+00,0.00000e+00
2.00520e+03,-3.89748e+00,-2.25645e+01,0.00000e+00,0.00000e+00,0.00000e+00
2.00520e+03,-3.62871e+00,-2.12371e+01,0.00000e+00,0.00000e+00,0.00000e+00
2.00520e+03,-3.34375e+00,-1.99098e+01,0.00000e+00,0.00000e+00,0.00000e+00
2.00520e+03,-3.04862e+00,-1.85825e+01,0.00000e+00,0.00000e+00,0.00000e+00
2.00520e+03,-2.74048e+00,-1.72552e+01,0.00000e+00,0.00000e+00,0.00000e+00
2.00520e+03,-2.42401e+00,-1.59279e+01,0.00000e+00,0.00000e+00,0.00000e+00
2.00520e+03,-2.10007e+00,-1.46005e+01,0.00000e+00,0.00000e+00,0.00000e+00
2.00520e+03,-1.76946e+00,-1.32732e+01,0.00000e+00,0.00000e+00,0.00000e+00
2.00520e+03,-1.43602e+00,-1.19459e+01,0.00000e+00,0.00000e+00,0.00000e+00
2.00520e+03,-1.09820e+00,-1.06186e+01,0.00000e+00,0.00000e+00,0.00000e+00
2.00520e+03,-7.59661e-01,-9.29125e+00,0.00000e+00,0.00000e+00,0.00000e+00
2.00520e+03,-4.18505e-01,-7.96393e+00,0.00000e+00,0.00000e+00,0.00000e+00
2.00520e+03,-7.73829e-02,-6.63661e+00,0.00000e+00,0.00000e+00,0.00000e+00
2.00520e+03,2.62450e-01,-5.30929e+00,0.00000e+00,0.00000e+00,0.00000e+00
2.00520e+03,6.02282e-01,-3.98196e+00,0.00000e+00,0.00000e+00,0.00000e+00
2.00520e+03,9.34067e-01,-2.65464e+00,0.00000e+00,0.00000e+00,0.00000e+00
2.00520e+03,1.26435e+00,-1.32732e+00,0.00000e+00,0.00000e+00,0.00000e+00
2.02480e+03,1.59367e+01,0.00000e+00,0.00000e+00,0.00000e+00,0.00000e+00
2.02480e+03,1.58564e+01,-1.21102e+00,0.00000e+00,0.00000e+00,0.00000e+00
2.02480e+03,1.57496e+01,-2.42204e+00,0.00000e+00,0.00000e+00,0.00000e+00
2.02480e+03,1.56418e+01,-3.63306e+00,0.00000e+00,0.00000e+00,0.00000e+00
2.02480e+03,1.55106e+01,-4.84408e+00,0.00000e+00,0.00000e+00,0.00000e+00
2.02480e+03,1.53739e+01,-6.05509e+00,0.00000e+00,0.00000e+00,0.00000e+00
2.02480e+03,1.52192e+01,-7.26611e+00,0.00000e+00,0.00000e+00,0.00000e+00
2.02480e+03,1.50559e+01,-8.47713e+00,0.00000e+00,0.00000e+00,0.00000e+00
2.02480e+03,1.48781e+01,-9.68815e+00,0.00000e+00,0.00000e+00,0.00000e+00
2.02480e+03,1.46884e+01,-1.08992e+01,0.00000e+00,0.00000e+00,0.00000e+00
2.02480e+03,1.44857e+01,-1.21102e+01,0.00000e+00,0.00000e+00,0.00000e+00
2.02480e+03,1.42672e+01,-1.33212e+01,0.00000e+00,0.00000e+00,0.00000e+00
2.02480e+03,1.40325e+01,-1.45322e+01,0.00000e+00,0.00000e+00,0.00000e+00
2.02480e+03,1.37750e+01,-1.57432e+01,0.00000e+00,0.00000e+00,0.00000e+00
2.02480e+03,1.34951e+01,-1.69543e+01,0.00000e+00,0.00000e+00,0.00000e+00
2.02480e+03,1.31886e+01,-1.81653e+01,0.00000e+00,0.00000e+00,0.00000e+00
2.02480e+03,1.28460e+01,-1.93763e+01,0.00000e+00,0.00000e+00,0.00000e+00
2.02480e+03,1.24782e+01,-2.05873e+01,0.00000e+00,0.00000e+00,0.00000e+00
2.02480e+03,1.20540e+01,-2.17983e+01,0.00000e+00,0.00000e+00,0.00000e+00
2.02480e+03,1.16063e+01,-2.30094e+01,0.00000e+00,0.00000e+00,0.00000e+00
2.02480e+03,1.10933e+01,-2.42204e+01,0.00000e+00,0.00000e+00,0.00000e+00
2.02480e+03,1.05280e+01,-2.54314e+01,0.00000e+00,0.00000e+00,0.00000e+00
2.02480e+03,9.90946e+00,-2.66424e+01,0.00000e+00,0.00000e+00,0.00000e+00
2.02480e+03,9.20158e+00,-2.78534e+01,0.00000e+00,0.00000e+00,0.00000e+00
2.02480e+03,8.39019e+00,-2.90645e+01,0.00000e+00,0.00000e+00,0.00000e+00
2.02480e+03,7.46181e+00,-3.02755e+01,0.00000e+00,0.00000e+00,0.00000e+00
2.02480e+03,6.36374e+00,-3.14865e+01,0.00000e+00,0.00000e+00,0.00000e+00
2.02480e+03,4.95429e+00,-3.26975e+01,0.00000e+00,0.00000e+00,0.00000e+00
2.02480e+03,3.04806e+00,-3.39085e+01,0.00000e+00,0.00000e+00,0.00000e+00
2.02480e+03,-1.23505e+00,-3.51195e+01,0.00000e+00,0.00000e+00,0.00000e+00
2.02480e+03,-1.54416e+00,-3.51224e+01,0.00000e+00,0.00000e+00,0.00000e+00
2.02480e+03,-4.36041e+00,-3.38680e+01,0.00000e+00,0.00000e+00,0.00000e+00
2.02480e+03,-4.70139e+00,-3.26136e+01,0.00000e+00,0.00000e+00,0.00000e+00
2.02480e+03,-4.81905e+00,-3.13592e+01,0.00000e+00,0.00000e+00,0.00000e+00
2.02480e+03,-4.83691e+00,-3.01049e+01,0.00000e+00,0.00000e+00,0.00000e+00
2.02480e+03,-4.77957e+00,-2.88505e+01,0.00000e+00,0.00000e+00,0.00000e+00
2.02480e+03,-4.67504e+00,-2.75961e+01,0.00000e+00,0.00000e+00,0.00000e+00
2.02480e+03,-4.52312e+00,-2.63418e+01,0.00000e+00,0.00000e+00,0.00000e+00
2.02480e+03,-4.34231e+00,-2.50874e+01,0.00000e+00,0.00000e+00,0.00000e+00
2.02480e+03,-4.14473e+00,-2.38330e+01,0.00000e+00,0.00000e+00,0.00000e+00
2.02480e+03,-3.92189e+00,-2.25787e+01,0.00000e+00,0.00000e+00,0.00000e+00
2.02480e+03,-3.68327e+00,-2.13243e+01,0.00000e+00,0.00000e+00,0.00000e+00
2.02480e+03,-3.42927e+00,-2.00699e+01,0.00000e+00,0.00000e+00,0.00000e+00
2.02480e+03,-3.15997e+00,-1.88155e+01,0.00000e+00,0.00000e+00,0.00000e+00
2.02480e+03,-2.88106e+00,-1.75612e+01,0.00000e+00,0.00000e+00,0.00000e+00
2.02480e+03,-2.58986e+00,-1.63068e+01,0.00000e+00,0.00000e+00,0.00000e+00
2.02480e+03,-2.29078e+00,-1.50524e+01,0.00000e+00,0.00000e+00,0.00000e+00
2.02480e+03,-1.98465e+00,-1.37981e+01,0.00000e+00,0.00000e+00,0.00000e+00
2.02480e+03,-1.67220e+00,-1.25437e+01,0.00000e+00,0.00000e+00,0.00000e+00
2.02480e+03,-1.35709e+00,-1.12893e+01,0.00000e+00,0.00000e+00,0.00000e+00
2.02480e+03,-1.03784e+00,-1.00350e+01,0.00000e+00,0.00000e+00,0.00000e+00
2.02480e+03,-7.17909e-01,-8.78059e+00,0.00000e+00,0.00000e+00,0.00000e+00
2.02480e+03,-3.95503e-01,-7.52622e+00,0.00000e+00,0.00000e+00,0.00000e+00
2.02480e+03,-7.31298e-02,-6.27185e+00,0.00000e+00,0.00000e+00,0.00000e+00
2.02480e+03,2.48025e-01,-5.01748e+00,0.00000e+00,0.00000e+00,0.00000e+00
2.02480e+03,5.69180e-01,-3.76311e+00,0.00000e+00,0.00000e+00,0.00000e+00
2.02480e+03,8.82730e-01,-2.50874e+00,0.00000e+00,0.00000e+00,0.00000e+00
2.02480e+03,1.19486e+00,-1.25437e+00,0.00000e+00,0.00000e+00,0.00000e+00
2.03880e+03,1.52746e+01,0.00000e+00,0.00000e+00,0.00000e+00,0.00000e+00
2.03880e+03,1.51977e+01,-1.16071e+00,0.00000e+00,0.00000e+00,0.00000e+00
2.03880e+03,1.50954e+01,-2.32142e+00,0.00000e+00,0.00000e+00,0.00000e+00
2.03880e+03,1.49920e+01,-3.48213e+00,0.00000e+00,0.00000e+00,0.00000e+00
2.03880e+03,1.48662e+01,-4.64285e+00,0.00000e+00,0.00000e+00,0.00000e+00
2.03880e+03,1.47352e+01,-5.80356e+00,0.00000e+00,0.00000e+00,0.00000e+00
2.03880e+03,1.45870e+01,-6.96427e+00,0.00000e+00,0.00000e+00,0.00000e+00
2.03880e+03,1.44304e+01,-8.12498e+00,0.00000e+00,0.00000e+00,0.00000e+00
2.03880e+03,1.42600e+01,-9.28569e+00,0.00000e+00,0.00000e+00,0.00000e+00
2.03880e+03,1.40782e+01,-1.04464e+01,0.00000e+00,0.00000e+00,0.00000e+00
2.03880e+03,1.38839e+01,-1.16071e+01,0.00000e+00,0.00000e+00,0.00000e+00
2.03880e+03,1.36745e+01,-1.27678e+01,0.00000e+00,0.00000e+00,0.00000e+00
2.03880e+03,1.34496e+01,-1.39285e+01,0.00000e+00,0.00000e+00,0.00000e+00
2.03880e+03,1.32028e+01,-1.50892e+01,0.00000e+00,0.00000e+00,0.00000e+00
2.03880e+03,1.29345e+01,-1.62500e+01,0.00000e+00,0.00000e+00,0.00000e+00
2.03880e+03,1.26407e+01,-1.74107e+01,0.00000e+00,0.00000e+00,0.00000e+00
2.03880e+03,1.23123e+01,-1.85714e+01,0.00000e+00,0.00000e+00,0.00000e+00
2.03880e+03,1.19599e+01,-1.97321e+01,0.00000e+00,0.00000e+00,0.00000e+00
2.03880e+03,1.15532e+01,-2.08928e+01,0.00000e+00,0.00000e+00,0.00000e+00
2.03880e+03,1.11241e+01,-2.20535e+01,0.00000e+00,0.00000e+00,0.00000e+00
2.03880e+03,1.06324e+01,-2.32142e+01,0.00000e+00,0.00000e+00,0.00000e+00
2.03880e+03,1.00906e+01,-2.43749e+01,0.00000e+00,0.00000e+00,0.00000e+00
2.03880e+03,9.49781e+00,-2.55357e+01,0.00000e+00,0.00000e+00,0.00000e+00
2.03880e+03,8.81933e+00,-2.66964e+01,0.00000e+00,0.00000e+00,0.00000e+00
2.03880e+03,8.04165e+00,-2.78571e+01,0.00000e+00,0.00000e+00,0.00000e+00
2.03880e+03,7.15183e+00,-2.90178e+01,0.00000e+00,0.00000e+00,0.00000e+00
2.03880e+03,6.09938e+00,-3.01785e+01,0.00000e+00,0.00000e+00,0.00000e+00
2.03880e+03,4.74849e+00,-3.13392e+01,0.00000e+00,0.00000e+00,0.00000e+00
2.03880e+03,2.92144e+00,-3.24999e+01,0.00000e+00,0.00000e+00,0.00000e+00
2.03880e+03,-1.18374e+00,-3.36606e+01,0.00000e+00,0.00000e+00,0.00000e+00
2.03880e+03,-1.48002e+00,-3.36633e+01,0.00000e+00,0.00000e+00,0.00000e+00
2.03880e+03,-4.17927e+00,-3.24611e+01,0.00000e+00,0.00000e+00,0.00000e+00
2.03880e+03,-4.50609e+00,-3.12588e+01,0.00000e+00,0.00000e+00,0.00000e+00
2.03880e+03,-4.61886e+00,-3.00565e+01,0.00000e+00,0.00000e+00,0.00000e+00
2.03880e+03,-4.63598e+00,-2.88543e+01,0.00000e+00,0.00000e+00,0.00000e+00
2.03880e+03,-4.58102e+00,-2.76520e+01,0.00000e+00,0.00000e+00,0.00000e+00
2.03880e+03,-4.48083e+00,-2.64498e+01,0.00000e+00,0.00000e+00,0.00000e+00
2.03880e+03,-4.33523e+00,-2.52475e+01,0.00000e+00,0.00000e+00,0.00000e+00
2.03880e+03,-4.16192e+00,-2.40452e+01,0.00000e+00,0.00000e+00,0.00000e+00
2.03880e+03,-3.97255e+00,-2.28430e+01,0.00000e+00,0.00000e+00,0.00000e+00
2.03880e+03,-3.75897e+00,-2.16407e+01,0.00000e+00,0.00000e+00,0.00000e+00
2.03880e+03,-3.53026e+00,-2.04384e+01,0.00000e+00,0.00000e+00,0.00000e+00
2.03880e+03,-3.28682e+00,-1.92362e+01,0.00000e+00,0.00000e+00,0.00000e+00
2.03880e+03,-3.02870e+00,-1.80339e+01,0.00000e+00,0.00000e+00,0.00000e+00
2.03880e+03,-2.76138e+00,-1.68317e+01,0.00000e+00,0.00000e+00,0.00000e+00
2.03880e+03,-2.48228e+00,-1.56294e+01,0.00000e+00,0.00000e+00,0.00000e+00
2.03880e+03,-2.19562e+00,-1.44271e+01,0.00000e+00,0.00000e+00,0.00000e+00
2.03880e+03,-1.90220e+00,-1.32249e+01,0.00000e+00,0.00000e+00,0.00000e+00
2.03880e+03,-1.60274e+00,-1.20226e+01,0.00000e+00,0.00000e+00,0.00000e+00
2.03880e+03,-1.30072e+00,-1.08204e+01,0.00000e+00,0.00000e+00,0.00000e+00
2.03880e+03,-9.94731e-01,-9.61809e+00,0.00000e+00,0.00000e+00,0.00000e+00
2.03880e+03,-6.88086e-01,-8.41583e+00,0.00000e+00,0.00000e+00,0.00000e+00
2.03880e+03,-3.79073e-01,-7.21357e+00,0.00000e+00,0.00000e+00,0.00000e+00
2.03880e+03,-7.00919e-02,-6.01131e+00,0.00000e+00,0.00000e+00,0.00000e+00
2.03880e+03,2.37722e-01,-4.80905e+00,0.00000e+00,0.00000e+00,0.00000e+00
2.03880e+03,5.45535e-01,-3.60678e+00,0.00000e+00,0.00000e+00,0.00000e+00
2.03880e+03,8.46060e-01,-2.40452e+00,0.00000e+00,0.00000e+00,0.00000e+00
2.03880e+03,1.14523e+00,-1.20226e+00,0.00000e+00,0.00000e+00,0.00000e+00
2.04720e+03,1.48774e+01,0.00000e+00,0.00000e+00,0.00000e+00,0.00000e+00
2.04720e+03,1.48025e+01,-1.13053e+00,0.00000e+00,0.00000e+00,0.00000e+00
2.04720e+03,1.47028e+01,-2.26105e+00,0.00000e+00,0.00000e+00,0.00000e+00
2.04720e+03,1.46021e+01,-3.39158e+00,0.00000e+00,0.00000e+00,0.00000e+00
2.04720e+03,1.44796e+01,-4.52211e+00,0.00000e+00,0.00000e+00,0.00000e+00
2.04720e+03,1.43520e+01,-5.65264e+00,0.00000e+00,0.00000e+00,0.00000e+00
2.04720e+03,1.42077e+01,-6.78316e+00,0.00000e+00,0.00000e+00,0.00000e+00
2.04720e+03,1.40552e+01,-7.91369e+00,0.00000e+00,0.00000e+00,0.00000e+00
2.04720e+03,1.38892e+01,-9.04422e+00,0.00000e+00,0.00000e+00,0.00000e+00
2.04720e+03,1.37121e+01,-1.01747e+01,0.00000e+00,0.00000e+00,0.00000e+00
2.04720e+03,1.35229e+01,-1.13053e+01,0.00000e+00,0.00000e+00,0.00000e+00
2.04720e+03,1.33189e+01,-1.24358e+01,0.00000e+00,0.00000e+00,0.00000e+00
2.04720e+03,1.30998e+01,-1.35663e+01,0.00000e+00,0.00000e+00,0.00000e+00
2.04720e+03,1.28594e+01,-1.46969e+01,0.00000e+00,0.00000e+00,0.00000e+00
2.04720e+03,1.25982e+01,-1.58274e+01,0.00000e+00,0.00000e+00,0.00000e+00
2.04720e+03,1.23120e+01,-1.69579e+01,0.00000e+00,0.00000e+00,0.00000e+00
2.04720e+03,1.19922e+01,-1.80884e+01,0.00000e+00,0.00000e+00,0.00000e+00
2.04720e+03,1.16489e+01,-1.92190e+01,0.00000e+00,0.00000e+00,0.00000e+00
2.04720e+03,1.12528e+01,-2.03495e+01,0.00000e+00,0.00000e+00,0.00000e+00
2.04720e+03,1.08348e+01,-2.14800e+01,0.00000e+00,0.00000e+00,0.00000e+00
2.04720e+03,1.03559e+01,-2.26105e+01,0.00000e+00,0.00000e+00,0.00000e+00
2.04720e+03,9.82823e+00,-2.37411e+01,0.00000e+00,0.00000e+00,0.00000e+00
2.04720e+03,9.25081e+00,-2.48716e+01,0.00000e+00,0.00000e+00,0.00000e+00
2.04720e+03,8.58998e+00,-2.60021e+01,0.00000e+00,0.00000e+00,0.00000e+00
2.04720e+03,7.83252e+00,-2.71326e+01,0.00000e+00,0.00000e+00,0.00000e+00
2.04720e+03,6.96585e+00,-2.82632e+01,0.00000e+00,0.00000e+00,0.00000e+00
2.04720e+03,5.94077e+00,-2.93937e+01,0.00000e+00,0.00000e+00,0.00000e+00
2.04720e+03,4.62500e+00,-3.05242e+01,0.00000e+00,0.00000e+00,0.00000e+00
2.04720e+03,2.84547e+00,-3.16548e+01,0.00000e+00,0.00000e+00,0.00000e+00
2.04720e+03,-1.15296e+00,-3.27853e+01,0.00000e+00,0.00000e+00,0.00000e+00
2.04720e+03,-1.44153e+00,-3.27879e+01,0.00000e+00,0.00000e+00,0.00000e+00
2.04720e+03,-4.07059e+00,-3.16169e+01,0.00000e+00,0.00000e+00,0.00000e+00
2.04720e+03,-4.38891e+00,-3.04459e+01,0.00000e+00,0.00000e+00,0.00000e+00
2.04720e+03,-4.49875e+00,-2.92749e+01,0.00000e+00,0.00000e+00,0.00000e+00
2.04720e+03,-4.51542e+00,-2.81039e+01,0.00000e+00,0.00000e+00,0.00000e+00
2.04720e+03,-4.46189e+00,-2.69329e+01,0.00000e+00,0.00000e+00,0.00000e+00
2.04720e+03,-4.36430e+00,-2.57619e+01,0.00000e+00,0.00000e+00,0.00000e+00
2.04720e+03,-4.22249e+00,-2.45909e+01,0.00000e+00,0.00000e+00,0.00000e+00
2.04720e+03,-4.05369e+00,-2.34199e+01,0.00000e+00,0.00000e+00,0.00000e+00
2.04720e+03,-3.86924e+00,-2.22489e+01,0.00000e+00,0.00000e+00,0.00000e+00
2.04720e+03,-3.66121e+00,-2.10779e+01,0.00000e+00,0.00000e+00,0.00000e+00
2.04720e+03,-3.43845e+00,-1.99069e+01,0.00000e+00,0.00000e+00,0.00000e+00
2.04720e+03,-3.20134e+00,-1.87359e+01,0.00000e+00,0.00000e+00,0.00000e+00
2.04720e+03,-2.94994e+00,-1.75649e+01,0.00000e+00,0.00000e+00,0.00000e+00
2.04720e+03,-2.68957e+00,-1.63940e+01,0.00000e+00,0.00000e+00,0.00000e+00
2.04720e+03,-2.41772e+00,-1.52230e+01,0.00000e+00,0.00000e+00,0.00000e+00
2.04720e+03,-2.13852e+00,-1.40520e+01,0.00000e+00,0.00000e+00,0.00000e+00
2.04720e+03,-1.85273e+00,-1.28810e+01,0.00000e+00,0.00000e+00,0.00000e+00
2.04720e+03,-1.56106e+00,-1.17100e+01,0.00000e+00,0.00000e+00,0.00000e+00
2.04720e+03,-1.26689e+00,-1.05390e+01,0.00000e+00,0.00000e+00,0.00000e+00
2.04720e+03,-9.68863e-01,-9.36797e+00,0.00000e+00,0.00000e+00,0.00000e+00
2.04720e+03,-6.70192e-01,-8.19698e+00,0.00000e+00,0.00000e+00,0.00000e+00
2.04720e+03,-3.69215e-01,-7.02598e+00,0.00000e+00,0.00000e+00,0.00000e+00
2.04720e+03,-6.82691e-02,-5.85498e+00,0.00000e+00,0.00000e+00,0.00000e+00
2.04720e+03,2.31540e-01,-4.68399e+00,0.00000e+00,0.00000e+00,0.00000e+00
2.04720e+03,5.31348e-01,-3.51299e+00,0.00000e+00,0.00000e+00,0.00000e+00
2.04720e+03,8.24058e-01,-2.34199e+00,0.00000e+00,0.00000e+00,0.00000e+00
2.04720e+03,1.11544e+00,-1.17100e+00,0.00000e+00,0.00000e+00,0.00000e+00
2.05000e+03,1.47450e+01,0.00000e+00,0.00000e+00,0.00000e+00,0.00000e+00
2.05000e+03,1.46708e+01,-1.12047e+00,0.00000e+00,0.00000e+00,0.00000e+00
2.05000e+03,1.45720e+01,-2.24093e+00,0.00000e+00,0.00000e+00,0.00000e+00
2.05000e+03,1.44722e+01,-3.36140e+00,0.00000e+00,0.00000e+00,0.00000e+00
2.05000e+03,1.43508e+01,-4.48186e+00,0.00000e+00,0.00000e+00,0.00000e+00
2.05000e+03,1.42243e+01,-5.60233e+00,0.00000e+00,0.00000e+00,0.00000e+00
2.05000e+03,1.40812e+01,-6.72279e+00,0.00000e+00,0.00000e+00,0.00000e+00
2.05000e+03,1.39301e+01,-7.84326e+00,0.00000e+00,0.00000e+00,0.00000e+00
2.05000e+03,1.37656e+01,-8.96372e+00,0.00000e+00,0.00000e+00,0.00000e+00
2.05000e+03,1.35901e+01,-1.00842e+01,0.00000e+00,0.00000e+00,0.00000e+00
2.05000e+03,1.34025e+01,-1.12047e+01,0.00000e+00,0.00000e+00,0.00000e+00
2.05000e+03,1.32004e+01,-1.23251e+01,0.00000e+00,0.00000e+00,0.00000e+00
2.05000e+03,1.29833e+01,-1.34456e+01,0.00000e+00,0.00000e+00,0.00000e+00
2.05000e+03,1.27450e+01,-1.45661e+01,0.00000e+00,0.00000e+00,0.00000e+00
2.05000e+03,1.24860e+01,-1.56865e+01,0.00000e+00,0.00000e+00,0.00000e+00
2.05000e+03,1.22024e+01,-1.68070e+01,0.00000e+00,0.00000e+00,0.00000e+00
2.05000e+03,1.18854e+01,-1.79274e+01,0.00000e+00,0.00000e+00,0.00000e+00
2.05000e+03,1.15452e+01,-1.90479e+01,0.00000e+00,0.00000e+00,0.00000e+00
2.05000e+03,1.11526e+01,-2.01684e+01,0.00000e+00,0.00000e+00,0.00000e+00
2.05000e+03,1.07384e+01,-2.12888e+01,0.00000e+00,0.00000e+00,0.00000e+00
2.05000e+03,1.02638e+01,-2.24093e+01,0.00000e+00,0.00000e+00,0.00000e+00
2.05000e+03,9.74076e+00,-2.35298e+01,0.00000e+00,0.00000e+00,0.00000e+00
2.05000e+03,9.16848e+00,-2.46502e+01,0.00000e+00,0.00000e+00,0.00000e+00
2.05000e+03,8.51353e+00,-2.57707e+01,0.00000e+00,0.00000e+00,0.00000e+00
2.05000e+03,7.76281e+00,-2.68912e+01,0.00000e+00,0.00000e+00,0.00000e+00
2.05000e+03,6.90385e+00,-2.80116e+01,0.00000e+00,0.00000e+00,0.00000e+00
2.05000e+03,5.88790e+00,-2.91321e+01,0.00000e+00,0.00000e+00,0.00000e+00
2.05000e+03,4.58384e+00,-3.02526e+01,0.00000e+00,0.00000e+00,0.00000e+00
2.05000e+03,2.82014e+00,-3.13730e+01,0.00000e+00,0.00000e+00,0.00000e+00
2.05000e+03,-1.14270e+00,-3.24935e+01,0.00000e+00,0.00000e+00,0.00000e+00
2.05000e+03,-1.42870e+00,-3.24961e+01,0.00000e+00,0.00000e+00,0.00000e+00
2.05000e+03,-4.03436e+00,-3.13355e+01,0.00000e+00,0.00000e+00,0.00000e+00
2.05000e+03,-4.34985e+00,-3.01749e+01,0.00000e+00,0.00000e+00,0.00000e+00
2.05000e+03,-4.45871e+00,-2.90144e+01,0.00000e+00,0.00000e+00,0.00000e+00
2.05000e+03,-4.47523e+00,-2.78538e+01,0.00000e+00,0.00000e+00,0.00000e+00
2.05000e+03,-4.42218e+00,-2.66932e+01,0.00000e+00,0.00000e+00,0.00000e+00
2.05000e+03,-4.32546e+00,-2.55327e+01,0.00000e+00,0.00000e+00,0.00000e+00
2.05000e+03,-4.18491e+00,-2.43721e+01,0.00000e+00,0.00000e+00,0.00000e+00
2.05000e+03,-4.01761e+00,-2.32115e+01,0.00000e+00,0.00000e+00,0.00000e+00
2.05000e+03,-3.83480e+00,-2.20509e+01,0.00000e+00,0.00000e+00,0.00000e+00
2.05000e+03,-3.62863e+00,-2.08903e+01,0.00000e+00,0.00000e+00,0.00000e+00
2.05000e+03,-3.40785e+00,-1.97298e+01,0.00000e+00,0.00000e+00,0.00000e+00
2.05000e+03,-3.17285e+00,-1.85692e+01,0.00000e+00,0.00000e+00,0.00000e+00
2.05000e+03,-2.92368e+00,-1.74086e+01,0.00000e+00,0.00000e+00,0.00000e+00
2.05000e+03,-2.66563e+00,-1.62480e+01,0.00000e+00,0.00000e+00,0.00000e+00
2.05000e+03,-2.39621e+00,-1.50875e+01,0.00000e+00,0.00000e+00,0.00000e+00
2.05000e+03,-2.11949e+00,-1.39269e+01,0.00000e+00,0.00000e+00,0.00000e+00
2.05000e+03,-1.83624e+00,-1.27663e+01,0.00000e+00,0.00000e+00,0.00000e+00
2.05000e+03,-1.54717e+00,-1.16057e+01,0.00000e+00,0.00000e+00,0.00000e+00
2.05000e+03,-1.25562e+00,-1.04452e+01,0.00000e+00,0.00000e+00,0.00000e+00
2.05000e+03,-9.60241e-01,-9.28460e+00,0.00000e+00,0.00000e+00,0.00000e+00
2.05000e+03,-6.64227e-01,-8.12402e+00,0.00000e+00,0.00000e+00,0.00000e+00
2.05000e+03,-3.65929e-01,-6.96345e+00,0.00000e+00,0.00000e+00,0.00000e+00
2.05000e+03,-6.76615e-02,-5.80287e+00,0.00000e+00,0.00000e+00,0.00000e+00
2.05000e+03,2.29479e-01,-4.64230e+00,0.00000e+00,0.00000e+00,0.00000e+00
2.05000e+03,5.26620e-01,-3.48173e+00,0.00000e+00,0.00000e+00,0.00000e+00
2.05000e+03,8.16724e-01,-2.32115e+00,0.00000e+00,0.00000e+00,0.00000e+00
2.05000e+03,1.10552e+00,-1.16058e+00,0.00000e+00,0.00000e+00,0.00000e+00
--------------------------------------------------------------------------------------------------------------------------------------------------------------------------------------------------------------------------------------------------------------------------------------------------------------------------------------------------------------------------------

ALMA 
--------------------------------------------------------------------------------------------------------------------------------------------------------------------------------------------------------------------------------------------------------------------------------------------------------------------------------------------------------------------------------
X,Y,Z,Sigma,Tau,Von Mises
0.00000e+00,4.05613e+00,0.00000e+00,9.80533e-02,4.07323e-01,7.12285e-01
0.00000e+00,1.70710e+01,0.00000e+00,3.46513e-02,4.07785e-01,7.07153e-01
0.00000e+00,3.00859e+01,0.00000e+00,-2.87507e-02,4.07785e-01,7.06889e-01
0.00000e+00,4.31008e+01,0.00000e+00,-9.21528e-02,4.07333e-01,7.11514e-01
1.07300e+02,4.01639e+00,0.00000e+00,8.75698e-02,3.84488e-01,6.71685e-01
1.07300e+02,1.69038e+01,0.00000e+00,3.09535e-02,3.84920e-01,6.67420e-01
1.07300e+02,2.97912e+01,0.00000e+00,-2.56628e-02,3.84920e-01,6.67195e-01
1.07300e+02,4.26785e+01,0.00000e+00,-8.22791e-02,3.84497e-01,6.71031e-01
2.14300e+02,3.97676e+00,0.00000e+00,7.76524e-02,3.61536e-01,6.30996e-01
2.14300e+02,1.67370e+01,0.00000e+00,2.74552e-02,3.61940e-01,6.27499e-01
2.14300e+02,2.94972e+01,0.00000e+00,-2.27421e-02,3.61940e-01,6.27310e-01
2.14300e+02,4.22575e+01,0.00000e+00,-7.29393e-02,3.61545e-01,6.30447e-01
3.20700e+02,3.93736e+00,0.00000e+00,6.83399e-02,3.38132e-01,5.89636e-01
3.20700e+02,1.65712e+01,0.00000e+00,2.41699e-02,3.38506e-01,5.86808e-01
3.20700e+02,2.92050e+01,0.00000e+00,-2.00001e-02,3.38506e-01,5.86651e-01
3.20700e+02,4.18388e+01,0.00000e+00,-6.41701e-02,3.38140e-01,5.89180e-01
4.26200e+02,3.89829e+00,0.00000e+00,5.96683e-02,3.14727e-01,5.48379e-01
4.26200e+02,1.64067e+01,0.00000e+00,2.11104e-02,3.15072e-01,5.46129e-01
4.26200e+02,2.89151e+01,0.00000e+00,-1.74476e-02,3.15072e-01,5.45999e-01
4.26200e+02,4.14236e+01,0.00000e+00,-5.60056e-02,3.14734e-01,5.48004e-01
5.30600e+02,3.85963e+00,0.00000e+00,5.16508e-02,2.91421e-01,5.07392e-01
5.30600e+02,1.62440e+01,0.00000e+00,1.82812e-02,2.91738e-01,5.05636e-01
5.30600e+02,2.86284e+01,0.00000e+00,-1.50883e-02,2.91738e-01,5.05530e-01
5.30600e+02,4.10127e+01,0.00000e+00,-4.84579e-02,2.91428e-01,5.07088e-01
6.33500e+02,3.82152e+00,0.00000e+00,4.43068e-02,2.68275e-01,4.66773e-01
6.33500e+02,1.60836e+01,0.00000e+00,1.56892e-02,2.68564e-01,4.65431e-01
6.33500e+02,2.83457e+01,0.00000e+00,-1.29283e-02,2.68564e-01,4.65346e-01
6.33500e+02,4.06078e+01,0.00000e+00,-4.15459e-02,2.68281e-01,4.66529e-01
7.34700e+02,3.78404e+00,0.00000e+00,3.76319e-02,2.45391e-01,4.26692e-01
7.34700e+02,1.59259e+01,0.00000e+00,1.33326e-02,2.45653e-01,4.25693e-01
7.34700e+02,2.80677e+01,0.00000e+00,-1.09667e-02,2.45653e-01,4.25626e-01
7.34700e+02,4.02095e+01,0.00000e+00,-3.52661e-02,2.45396e-01,4.26499e-01
8.33800e+02,3.74734e+00,0.00000e+00,3.16274e-02,2.22922e-01,3.87406e-01
8.33800e+02,1.57714e+01,0.00000e+00,1.12116e-02,2.23159e-01,3.86685e-01
8.33800e+02,2.77955e+01,0.00000e+00,-9.20418e-03,2.23159e-01,3.86632e-01
8.33800e+02,3.98196e+01,0.00000e+00,-2.96200e-02,2.22927e-01,3.87255e-01
9.30700e+02,3.71145e+00,0.00000e+00,2.62701e-02,2.00908e-01,3.48973e-01
9.30700e+02,1.56204e+01,0.00000e+00,9.31810e-03,2.01120e-01,3.48474e-01
9.30700e+02,2.75293e+01,0.00000e+00,-7.63388e-03,2.01120e-01,3.48433e-01
9.30700e+02,3.94382e+01,0.00000e+00,-2.45859e-02,2.00912e-01,3.48857e-01
1.02500e+03,3.67653e+00,0.00000e+00,2.15454e-02,1.79684e-01,3.11966e-01
1.02500e+03,1.54734e+01,0.00000e+00,7.64711e-03,1.79872e-01,3.11642e-01
1.02500e+03,2.72703e+01,0.00000e+00,-6.25114e-03,1.79872e-01,3.11611e-01
1.02500e+03,3.90671e+01,0.00000e+00,-2.01494e-02,1.79687e-01,3.11879e-01
1.11650e+03,3.64264e+00,0.00000e+00,1.74254e-02,1.58921e-01,2.75811e-01
1.11650e+03,1.53308e+01,0.00000e+00,6.18903e-03,1.59087e-01,2.75617e-01
1.11650e+03,2.70189e+01,0.00000e+00,-5.04738e-03,1.59087e-01,2.75594e-01
1.11650e+03,3.87070e+01,0.00000e+00,-1.62838e-02,1.58924e-01,2.75746e-01
1.20500e+03,3.54704e+00,0.00000e+00,1.98932e-02,1.40597e-01,2.44332e-01
1.20500e+03,1.49284e+01,0.00000e+00,7.10520e-03,1.40802e-01,2.43979e-01
1.20500e+03,2.63098e+01,0.00000e+00,-5.68285e-03,1.40802e-01,2.43942e-01
1.20500e+03,3.76912e+01,0.00000e+00,-1.84709e-02,1.40602e-01,2.44230e-01
1.29010e+03,3.41832e+00,0.00000e+00,1.61197e-02,1.26492e-01,2.19682e-01
1.29010e+03,1.43867e+01,0.00000e+00,5.75942e-03,1.26670e-01,2.19474e-01
1.29010e+03,2.53550e+01,0.00000e+00,-4.60090e-03,1.26670e-01,2.19447e-01
1.29010e+03,3.63234e+01,0.00000e+00,-1.49612e-02,1.26496e-01,2.19608e-01
1.37170e+03,3.29489e+00,0.00000e+00,1.28144e-02,1.12459e-01,1.95205e-01
1.37170e+03,1.38672e+01,0.00000e+00,4.58017e-03,1.12612e-01,1.95103e-01
1.37170e+03,2.44395e+01,0.00000e+00,-3.65403e-03,1.12612e-01,1.95084e-01
1.37170e+03,3.50118e+01,0.00000e+00,-1.18882e-02,1.12462e-01,1.95153e-01
1.44960e+03,3.17706e+00,0.00000e+00,9.96460e-03,9.88239e-02,1.71458e-01
1.44960e+03,1.33713e+01,0.00000e+00,3.56293e-03,9.89542e-02,1.71431e-01
1.44960e+03,2.35655e+01,0.00000e+00,-2.83873e-03,9.89542e-02,1.71417e-01
1.44960e+03,3.37597e+01,0.00000e+00,-9.24040e-03,9.88271e-02,1.71423e-01
1.52340e+03,3.06543e+00,0.00000e+00,7.56105e-03,8.53359e-02,1.47999e-01
1.52340e+03,1.29015e+01,0.00000e+00,2.70446e-03,8.54449e-02,1.48020e-01
1.52340e+03,2.27375e+01,0.00000e+00,-2.15213e-03,8.54449e-02,1.48011e-01
1.52340e+03,3.25736e+01,0.00000e+00,-7.00872e-03,8.53385e-02,1.47977e-01
1.59310e+03,2.96000e+00,0.00000e+00,5.57953e-03,7.23012e-02,1.25354e-01
1.59310e+03,1.24578e+01,0.00000e+00,1.99669e-03,7.23906e-02,1.25400e-01
1.59310e+03,2.19555e+01,0.00000e+00,-1.58615e-03,7.23906e-02,1.25394e-01
1.59310e+03,3.14533e+01,0.00000e+00,-5.16899e-03,7.23032e-02,1.25339e-01
1.65850e+03,2.86108e+00,0.00000e+00,3.98880e-03,6.00570e-02,1.04098e-01
1.65850e+03,1.20414e+01,0.00000e+00,1.42848e-03,6.01290e-02,1.04156e-01
1.65850e+03,2.12218e+01,0.00000e+00,-1.13184e-03,6.01290e-02,1.04153e-01
1.65850e+03,3.04021e+01,0.00000e+00,-3.69216e-03,6.00585e-02,1.04090e-01
1.71930e+03,2.76911e+00,0.00000e+00,2.75015e-03,4.86154e-02,8.42492e-02
1.71930e+03,1.16544e+01,0.00000e+00,9.85618e-04,4.86721e-02,8.43083e-02
1.71930e+03,2.05396e+01,0.00000e+00,-7.78912e-04,4.86721e-02,8.43061e-02
1.71930e+03,2.94249e+01,0.00000e+00,-2.54344e-03,4.86166e-02,8.42448e-02
1.77540e+03,2.60964e+00,0.00000e+00,3.28231e-03,6.44268e-02,1.11639e-01
1.77540e+03,1.09832e+01,0.00000e+00,1.19086e-03,6.45034e-02,1.11730e-01
1.77540e+03,1.93567e+01,0.00000e+00,-9.00594e-04,6.45034e-02,1.11727e-01
1.77540e+03,2.77303e+01,0.00000e+00,-2.99205e-03,6.44298e-02,1.11636e-01
1.82660e+03,2.38179e+00,0.00000e+00,2.23834e-03,5.32717e-02,9.22964e-02
1.82660e+03,1.00242e+01,0.00000e+00,8.12413e-04,5.33298e-02,9.23735e-02
1.82660e+03,1.76667e+01,0.00000e+00,-6.13514e-04,5.33298e-02,9.23720e-02
1.82660e+03,2.53092e+01,0.00000e+00,-2.03944e-03,5.32737e-02,9.22953e-02
1.87280e+03,2.17619e+00,0.00000e+00,1.43759e-03,4.26826e-02,7.39424e-02
1.87280e+03,9.15894e+00,0.00000e+00,5.22852e-04,4.27252e-02,7.40040e-02
1.87280e+03,1.61417e+01,0.00000e+00,-3.91886e-04,4.27252e-02,7.40032e-02
1.87280e+03,2.31244e+01,0.00000e+00,-1.30662e-03,4.26840e-02,7.39423e-02
1.91380e+03,1.99374e+00,0.00000e+00,8.55894e-04,3.28178e-02,5.68486e-02
1.91380e+03,8.39104e+00,0.00000e+00,3.12483e-04,3.28477e-02,5.68948e-02
1.91380e+03,1.47883e+01,0.00000e+00,-2.30928e-04,3.28477e-02,5.68944e-02
1.91380e+03,2.11856e+01,0.00000e+00,-7.74338e-04,3.28187e-02,5.68490e-02
1.94970e+03,1.83398e+00,0.00000e+00,4.59576e-04,2.37817e-02,4.11937e-02
1.94970e+03,7.71865e+00,0.00000e+00,1.68816e-04,2.38015e-02,4.12258e-02
1.94970e+03,1.36033e+01,0.00000e+00,-1.21944e-04,2.38015e-02,4.12256e-02
1.94970e+03,1.94880e+01,0.00000e+00,-4.12703e-04,2.37823e-02,4.11942e-02
1.98010e+03,1.69869e+00,0.00000e+00,2.15957e-04,1.59641e-02,2.76514e-02
1.98010e+03,7.14927e+00,0.00000e+00,8.00800e-05,1.59762e-02,2.76717e-02
1.98010e+03,1.25999e+01,0.00000e+00,-5.57972e-05,1.59762e-02,2.76717e-02
1.98010e+03,1.80504e+01,0.00000e+00,-1.91674e-04,1.59644e-02,2.76518e-02
2.00520e+03,1.58699e+00,0.00000e+00,8.31912e-05,9.53353e-03,1.65128e-02
2.00520e+03,6.67917e+00,0.00000e+00,3.13002e-05,9.54017e-03,1.65241e-02
2.00520e+03,1.17713e+01,0.00000e+00,-2.05909e-05,9.54017e-03,1.65241e-02
2.00520e+03,1.68635e+01,0.00000e+00,-7.24820e-05,9.53369e-03,1.65130e-02
2.02480e+03,1.49977e+00,0.00000e+00,2.37559e-05,4.75890e-03,8.24269e-03
2.02480e+03,6.31207e+00,0.00000e+00,9.14838e-06,4.76193e-03,8.24792e-03
2.02480e+03,1.11244e+01,0.00000e+00,-5.45916e-06,4.76193e-03,8.24791e-03
2.02480e+03,1.59367e+01,0.00000e+00,-2.00667e-05,4.75897e-03,8.24280e-03
2.03880e+03,1.43746e+00,0.00000e+00,4.20155e-06,1.74535e-03,3.02304e-03
2.03880e+03,6.04986e+00,0.00000e+00,1.68624e-06,1.74635e-03,3.02478e-03
2.03880e+03,1.06622e+01,0.00000e+00,-8.29078e-07,1.74635e-03,3.02477e-03
2.03880e+03,1.52746e+01,0.00000e+00,-3.34439e-06,1.74538e-03,3.02308e-03
2.04720e+03,1.40008e+00,0.00000e+00,5.29647e-07,3.04356e-04,5.27161e-04
2.04720e+03,5.89253e+00,0.00000e+00,2.27159e-07,3.04501e-04,5.27412e-04
2.04720e+03,1.03850e+01,0.00000e+00,-7.53288e-08,3.04501e-04,5.27412e-04
2.04720e+03,1.48774e+01,0.00000e+00,-3.77817e-07,3.04360e-04,5.27166e-04
2.05000e+03,1.38762e+00,0.00000e+00,0.00000e+00,0.00000e+00,0.00000e+00
2.05000e+03,5.84009e+00,0.00000e+00,0.00000e+00,0.00000e+00,0.00000e+00
2.05000e+03,1.02925e+01,0.00000e+00,0.00000e+00,0.00000e+00,0.00000e+00
2.05000e+03,1.47450e+01,0.00000e+00,0.00000e+00,0.00000e+00,0.00000e+00
MESA INFERIOR 
--------------------------------------------------------------------------------------------------------------------------------------------------------------------------------------------------------------------------------------------------------------------------------------------------------------------------------------------------------------------------------
X,Y,Z,Sigma,Von Mises
0.00000e+00,4.05613e+00,0.00000e+00,0.00000e+00,0.00000e+00
1.07300e+02,4.01639e+00,0.00000e+00,0.00000e+00,0.00000e+00
2.14300e+02,3.97676e+00,0.00000e+00,0.00000e+00,0.00000e+00
3.20700e+02,3.93736e+00,0.00000e+00,0.00000e+00,0.00000e+00
4.26200e+02,3.89829e+00,0.00000e+00,0.00000e+00,0.00000e+00
5.30600e+02,3.85963e+00,0.00000e+00,0.00000e+00,0.00000e+00
6.33500e+02,3.82152e+00,0.00000e+00,0.00000e+00,0.00000e+00
7.34700e+02,3.78404e+00,0.00000e+00,0.00000e+00,0.00000e+00
8.33800e+02,3.74734e+00,0.00000e+00,0.00000e+00,0.00000e+00
9.30700e+02,3.71145e+00,0.00000e+00,0.00000e+00,0.00000e+00
1.02500e+03,3.67653e+00,0.00000e+00,0.00000e+00,0.00000e+00
1.11650e+03,3.64264e+00,0.00000e+00,0.00000e+00,0.00000e+00
1.20500e+03,3.54704e+00,0.00000e+00,0.00000e+00,0.00000e+00
1.29010e+03,3.41832e+00,0.00000e+00,0.00000e+00,0.00000e+00
1.37170e+03,3.29489e+00,0.00000e+00,0.00000e+00,0.00000e+00
1.44960e+03,3.17706e+00,0.00000e+00,0.00000e+00,0.00000e+00
1.52340e+03,3.06543e+00,0.00000e+00,0.00000e+00,0.00000e+00
1.59310e+03,2.96000e+00,0.00000e+00,0.00000e+00,0.00000e+00
1.65850e+03,2.86108e+00,0.00000e+00,0.00000e+00,0.00000e+00
1.71930e+03,2.76911e+00,0.00000e+00,0.00000e+00,0.00000e+00
1.77540e+03,2.60964e+00,0.00000e+00,0.00000e+00,0.00000e+00
1.82660e+03,2.38179e+00,0.00000e+00,0.00000e+00,0.00000e+00
1.87280e+03,2.17619e+00,0.00000e+00,0.00000e+00,0.00000e+00
1.91380e+03,1.99374e+00,0.00000e+00,0.00000e+00,0.00000e+00
1.94970e+03,1.83398e+00,0.00000e+00,0.00000e+00,0.00000e+00
1.98010e+03,1.69869e+00,0.00000e+00,0.00000e+00,0.00000e+00
2.00520e+03,1.58699e+00,0.00000e+00,0.00000e+00,0.00000e+00
2.02480e+03,1.49977e+00,0.00000e+00,0.00000e+00,0.00000e+00
2.03880e+03,1.43746e+00,0.00000e+00,0.00000e+00,0.00000e+00
2.04720e+03,1.40008e+00,0.00000e+00,0.00000e+00,0.00000e+00
2.05000e+03,1.38762e+00,0.00000e+00,0.00000e+00,0.00000e+00
--------------------------------------------------------------------------------------------------------------------------------------------------------------------------------------------------------------------------------------------------------------------------------------------------------------------------------------------------------------------------------

MESA SUPERIOR 
--------------------------------------------------------------------------------------------------------------------------------------------------------------------------------------------------------------------------------------------------------------------------------------------------------------------------------------------------------------------------------
X,Y,Z,Sigma,Von Mises
0.00000e+00,4.31008e+01,0.00000e+00,0.00000e+00,0.00000e+00
1.07300e+02,4.26785e+01,0.00000e+00,0.00000e+00,0.00000e+00
2.14300e+02,4.22575e+01,0.00000e+00,0.00000e+00,0.00000e+00
3.20700e+02,4.18388e+01,0.00000e+00,0.00000e+00,0.00000e+00
4.26200e+02,4.14236e+01,0.00000e+00,0.00000e+00,0.00000e+00
5.30600e+02,4.10127e+01,0.00000e+00,0.00000e+00,0.00000e+00
6.33500e+02,4.06078e+01,0.00000e+00,0.00000e+00,0.00000e+00
7.34700e+02,4.02095e+01,0.00000e+00,0.00000e+00,0.00000e+00
8.33800e+02,3.98196e+01,0.00000e+00,0.00000e+00,0.00000e+00
9.30700e+02,3.94382e+01,0.00000e+00,0.00000e+00,0.00000e+00
1.02500e+03,3.90671e+01,0.00000e+00,0.00000e+00,0.00000e+00
1.11650e+03,3.87070e+01,0.00000e+00,0.00000e+00,0.00000e+00
1.20500e+03,3.76912e+01,0.00000e+00,0.00000e+00,0.00000e+00
1.29010e+03,3.63234e+01,0.00000e+00,0.00000e+00,0.00000e+00
1.37170e+03,3.50118e+01,0.00000e+00,0.00000e+00,0.00000e+00
1.44960e+03,3.37597e+01,0.00000e+00,0.00000e+00,0.00000e+00
1.52340e+03,3.25736e+01,0.00000e+00,0.00000e+00,0.00000e+00
1.59310e+03,3.14533e+01,0.00000e+00,0.00000e+00,0.00000e+00
1.65850e+03,3.04021e+01,0.00000e+00,0.00000e+00,0.00000e+00
1.71930e+03,2.94249e+01,0.00000e+00,0.00000e+00,0.00000e+00
1.77540e+03,2.77303e+01,0.00000e+00,0.00000e+00,0.00000e+00
1.82660e+03,2.53092e+01,0.00000e+00,0.00000e+00,0.00000e+00
1.87280e+03,2.31244e+01,0.00000e+00,0.00000e+00,0.00000e+00
1.91380e+03,2.11856e+01,0.00000e+00,0.00000e+00,0.00000e+00
1.94970e+03,1.94880e+01,0.00000e+00,0.00000e+00,0.00000e+00
1.98010e+03,1.80504e+01,0.00000e+00,0.00000e+00,0.00000e+00
2.00520e+03,1.68635e+01,0.00000e+00,0.00000e+00,0.00000e+00
2.02480e+03,1.59367e+01,0.00000e+00,0.00000e+00,0.00000e+00
2.03880e+03,1.52746e+01,0.00000e+00,0.00000e+00,0.00000e+00
2.04720e+03,1.48774e+01,0.00000e+00,0.00000e+00,0.00000e+00
2.05000e+03,1.47450e+01,0.00000e+00,0.00000e+00,0.00000e+00
--------------------------------------------------------------------------------------------------------------------------------------------------------------------------------------------------------------------------------------------------------------------------------------------------------------------------------------------------------------------------------

