----------------------------------------------
LOG MATLAB Estruturas Copyright Charles 2020
----------------------------------------------

VISÃO GERAL POR SEÇÃO
--------------------------------------------------------------------------------------------------------------------------------------------------------------------------------------------------------------------------------------------------------------------------------------------------------------------------------------------------------------------------------
SEÇÃO,POSIÇÃO .25c,, ESFORÇOS,,,,,INÉRCIAS,,,,CENTROS GEOMÉTRICOS,,,DEFLEXÇOES,,,,,TENSÕES NORMAIS,,,,,,,,TENSÕES CISALHAMENTO,,,TENSÕES DE VON MISES
NUMERO,X,Y,MFz,MFy,MTx,Vz,Vy,EIzz,EIyy,EIzy,GJ,Zcg,Ycg,Zcc,Z,Y,Z´,Y´,Theta,Sigma_Chap+,Sigma_Chap-,Sigma_Lam+,Sigma_Lam-,Sigma_Mesa+,Sigma_Mesa-,Sigma_Alma+,Sigma_Alma-,  Tau_Alma,  Tau_Chap,  Tau_Lam, Von Mises_Alma,  Von Mises_Chap,  Von Mises_Lam
--------------------------------------------------------------------------------------------------------------------------------------------------------------------------------------------------------------------------------------------------------------------------------------------------------------------------------------------------------------------------------
01,0.00000e+00,0.00000e+00,3.54416e+05,2.17043e+04,-2.89669e+04,2.27266e+01,4.00127e+02,2.43720e+09,3.02407e+09,6.88619e+08,4.30148e+07,8.66395e+01,2.17434e+01,7.43235e+01,0.00000e+00,0.00000e+00,0.00000e+00,0.00000e+00,0.00000e+00,4.69672e+00,-5.92492e+00,0.00000e+00,0.00000e+00,2.64164e+02,-2.52273e+02,3.30465e-01,-3.15590e-01,1.36897e+00,1.67854e+00,0.00000e+00,2.39133e+00,6.39370e+00,0.00000e+00
02,1.07300e+02,0.00000e+00,3.12890e+05,1.93399e+04,-2.67649e+04,2.13445e+01,3.73888e+02,2.38487e+09,2.93941e+09,6.69313e+08,4.17623e+07,8.58583e+01,2.15452e+01,7.36225e+01,-1.51414e-01,8.38840e-01,-2.82226e-03,1.56354e-02,-7.05125e-02,4.19447e+00,-5.29849e+00,0.00000e+00,0.00000e+00,2.35945e+02,-2.25268e+02,2.95163e-01,-2.81806e-01,1.29170e+00,1.57936e+00,0.00000e+00,2.25415e+00,5.76177e+00,0.00000e+00
03,2.14300e+02,0.00000e+00,2.74265e+05,1.71294e+04,-2.45963e+04,1.99733e+01,3.48072e+02,2.33333e+09,2.85653e+09,6.50412e+08,4.05230e+07,8.50782e+01,2.13473e+01,7.29231e+01,-5.88092e-01,3.26147e+00,-5.33994e-03,2.96474e-02,-1.37273e-01,3.71965e+00,-4.70551e+00,0.00000e+00,0.00000e+00,2.09264e+02,-1.99735e+02,2.61786e-01,-2.49865e-01,1.21379e+00,1.47871e+00,0.00000e+00,2.11622e+00,5.16235e+00,0.00000e+00
04,3.20700e+02,0.00000e+00,2.38603e+05,1.50750e+04,-2.25119e+04,1.86438e+01,3.22266e+02,2.28273e+09,2.77562e+09,6.31961e+08,3.93283e+07,8.43013e+01,2.11503e+01,7.22271e+01,-1.27450e+00,7.07731e+00,-7.56250e-03,4.20789e-02,-2.00016e-01,3.27403e+00,-4.14823e+00,0.00000e+00,0.00000e+00,1.84221e+02,-1.75771e+02,2.30458e-01,-2.19887e-01,1.13486e+00,1.37853e+00,0.00000e+00,1.97690e+00,4.59800e+00,0.00000e+00
05,4.26200e+02,0.00000e+00,2.05939e+05,1.31766e+04,-2.05107e+04,1.73446e+01,2.96958e+02,2.23318e+09,2.69686e+09,6.14002e+08,3.81690e+07,8.35299e+01,2.09548e+01,7.15366e+01,-2.17471e+00,1.20923e+01,-9.50309e-03,5.29926e-02,-2.58557e-01,2.85913e+00,-3.62858e+00,0.00000e+00,0.00000e+00,1.60902e+02,-1.53461e+02,2.01285e-01,-1.91977e-01,1.05611e+00,1.27929e+00,0.00000e+00,1.83825e+00,4.07041e+00,0.00000e+00
06,5.30600e+02,0.00000e+00,1.76227e+05,1.14321e+04,-1.85915e+04,1.60746e+01,2.72251e+02,2.18477e+09,2.62035e+09,5.96558e+08,3.70438e+07,8.27655e+01,2.07610e+01,7.08528e+01,-3.25434e+00,1.81198e+01,-1.11795e-02,6.24764e-02,-3.12805e-01,2.47549e+00,-3.14728e+00,0.00000e+00,0.00000e+00,1.39336e+02,-1.32833e+02,1.74307e-01,-1.66172e-01,9.77823e-01,1.18112e+00,0.00000e+00,1.70072e+00,3.58002e+00,0.00000e+00
07,6.33500e+02,0.00000e+00,1.49445e+05,9.84032e+03,-1.67523e+04,1.48639e+01,2.48290e+02,2.13765e+09,2.54632e+09,5.79679e+08,3.59507e+07,8.20110e+01,2.05698e+01,7.01785e+01,-4.47822e+00,2.49672e+01,-1.26084e-02,7.06122e-02,-3.62602e-01,2.12398e+00,-2.70549e+00,0.00000e+00,0.00000e+00,1.19573e+02,-1.13935e+02,1.49584e-01,-1.42531e-01,9.00364e-01,1.08412e+00,0.00000e+00,1.56493e+00,3.12753e+00,0.00000e+00
08,7.34700e+02,0.00000e+00,1.25489e+05,8.39469e+03,-1.49969e+04,1.37058e+01,2.25144e+02,2.09189e+09,2.47483e+09,5.63383e+08,3.48902e+07,8.12680e+01,2.03815e+01,6.95148e+01,-5.81507e+00,3.24622e+01,-1.38115e-02,7.75103e-02,-4.07930e-01,1.80439e+00,-2.30298e+00,0.00000e+00,0.00000e+00,1.01601e+02,-9.67576e+01,1.27102e-01,-1.21042e-01,8.24047e-01,9.88680e-01,0.00000e+00,1.43139e+00,2.71257e+00,0.00000e+00
09,8.33800e+02,0.00000e+00,1.04278e+05,7.09134e+03,-1.33320e+04,1.25980e+01,2.02925e+02,2.04762e+09,2.40610e+09,5.47713e+08,3.38639e+07,8.05393e+01,2.01969e+01,6.88645e+01,-7.23324e+00,4.04291e+01,-1.48095e-02,8.32741e-02,-4.48735e-01,1.51677e+00,-1.93991e+00,0.00000e+00,0.00000e+00,8.54242e+01,-8.13040e+01,1.06864e-01,-1.01710e-01,7.49345e-01,8.95395e-01,0.00000e+00,1.30090e+00,2.33526e+00,0.00000e+00
10,9.30700e+02,0.00000e+00,8.56473e+04,5.92312e+03,-1.17482e+04,1.15138e+01,1.81611e+02,2.00486e+09,2.34009e+09,5.32666e+08,3.28662e+07,7.98259e+01,2.00162e+01,6.82283e+01,-8.70786e+00,4.87287e+01,-1.56265e-02,8.80291e-02,-4.85129e-01,1.26004e+00,-1.61502e+00,0.00000e+00,0.00000e+00,7.09805e+01,-6.75154e+01,8.87953e-02,-8.44606e-02,6.76185e-01,8.03957e-01,0.00000e+00,1.17330e+00,1.99467e+00,0.00000e+00
11,1.02500e+03,0.00000e+00,6.94701e+04,4.88760e+03,-1.02474e+04,1.04484e+01,1.61488e+02,1.96375e+09,2.27699e+09,5.18282e+08,3.18856e+07,7.91308e+01,1.98401e+01,6.76088e+01,-1.02124e+01,5.72117e+01,-1.62837e-02,9.18854e-02,-5.17136e-01,1.03355e+00,-1.32778e+00,0.00000e+00,0.00000e+00,5.82347e+01,-5.53562e+01,7.28507e-02,-6.92497e-02,6.05473e-01,7.14903e-01,0.00000e+00,1.05012e+00,1.68845e+00,0.00000e+00
12,1.11650e+03,0.00000e+00,5.55772e+04,3.97947e+03,-8.83021e+03,9.40137e+00,1.42182e+02,1.92432e+09,2.21681e+09,5.04566e+08,3.09342e+07,7.84554e+01,1.96691e+01,6.70073e+01,-1.17262e+01,6.57600e+01,-1.68036e-02,9.49621e-02,-5.44898e-01,8.35984e-01,-1.07660e+00,0.00000e+00,0.00000e+00,4.71139e+01,-4.47549e+01,5.89387e-02,-5.59876e-02,5.36360e-01,6.28141e-01,0.00000e+00,9.29887e-01,1.41566e+00,0.00000e+00
13,1.20500e+03,0.00000e+00,4.37926e+04,3.19259e+03,-7.50922e+03,8.38122e+00,1.24136e+02,1.32148e+09,1.95268e+09,4.45208e+08,2.82104e+07,7.39632e+01,1.86188e+01,6.42675e+01,-1.32358e+01,7.42924e+01,-1.73123e-02,9.78610e-02,-5.69308e-01,9.56283e-01,-1.19370e+00,0.00000e+00,0.00000e+00,5.37799e+01,-5.08038e+01,6.72777e-02,-6.35547e-02,4.75366e-01,6.08228e-01,0.00000e+00,8.24892e-01,1.46624e+00,0.00000e+00
14,1.29010e+03,0.00000e+00,3.39427e+04,2.52042e+03,-6.31380e+03,7.41589e+00,1.07353e+02,1.21619e+09,1.75686e+09,4.00479e+08,2.53358e+07,7.15330e+01,1.79989e+01,6.20379e+01,-1.47303e+01,8.27380e+01,-1.78118e-02,1.00625e-01,-5.91238e-01,7.74775e-01,-9.70794e-01,0.00000e+00,0.00000e+00,4.35862e+01,-4.11607e+01,5.45256e-02,-5.14913e-02,4.28174e-01,5.44938e-01,0.00000e+00,7.42567e-01,1.24041e+00,0.00000e+00
15,1.37170e+03,0.00000e+00,2.58192e+04,1.95287e+03,-5.23284e+03,6.49467e+00,9.17540e+01,1.12002e+09,1.58132e+09,3.60391e+08,2.27506e+07,6.91884e+01,1.74013e+01,5.98941e+01,-1.61999e+01,9.10391e+01,-1.82061e-02,1.02833e-01,-6.10790e-01,6.15781e-01,-7.74629e-01,0.00000e+00,0.00000e+00,3.46535e+01,-3.27134e+01,4.33509e-02,-4.09239e-02,3.80777e-01,4.81561e-01,0.00000e+00,6.60040e-01,1.03889e+00,0.00000e+00
16,1.44960e+03,0.00000e+00,1.92252e+04,1.48038e+03,-4.28335e+03,5.63609e+00,7.75391e+01,1.03251e+09,1.42458e+09,3.24609e+08,2.04430e+07,6.69366e+01,1.68278e+01,5.78421e+01,-1.76299e+01,9.91168e+01,-1.85095e-02,1.04553e-01,-6.27910e-01,4.78774e-01,-6.04742e-01,0.00000e+00,0.00000e+00,2.69528e+01,-2.54346e+01,3.37175e-02,-3.18183e-02,3.34543e-01,4.20264e-01,0.00000e+00,5.79653e-01,8.63551e-01,0.00000e+00
17,1.52340e+03,0.00000e+00,1.39844e+04,1.09487e+03,-3.44784e+03,4.81139e+00,6.44867e+01,9.53418e+08,1.28561e+09,2.92889e+08,1.83982e+07,6.47909e+01,1.62818e+01,5.58929e+01,-1.90043e+01,1.06881e+02,-1.87356e-02,1.05851e-01,-6.42556e-01,3.63286e-01,-4.60770e-01,0.00000e+00,0.00000e+00,2.04586e+01,-1.92999e+01,2.55934e-02,-2.41438e-02,2.88941e-01,3.60439e-01,0.00000e+00,5.00542e-01,7.14954e-01,0.00000e+00
18,1.59310e+03,0.00000e+00,9.90129e+03,7.89058e+02,-2.73483e+03,3.96366e+00,5.26771e+01,8.82075e+08,1.16263e+09,2.64824e+08,1.66046e+07,6.27531e+01,1.57637e+01,5.40474e+01,-2.03159e+01,1.14292e+02,-1.88992e-02,1.06804e-01,-6.54827e-01,2.68032e-01,-3.41439e-01,0.00000e+00,0.00000e+00,1.51000e+01,-1.42388e+01,1.88899e-02,-1.78126e-02,2.45086e-01,3.04062e-01,0.00000e+00,4.24554e-01,5.84904e-01,0.00000e+00
19,1.65850e+03,0.00000e+00,6.79823e+03,5.52803e+02,-2.11941e+03,3.26127e+00,4.22177e+01,8.18049e+08,1.05434e+09,2.40117e+08,1.50125e+07,6.08309e+01,1.52752e+01,5.23116e+01,-2.15556e+01,1.21299e+02,-1.90130e-02,1.07476e-01,-6.64829e-01,1.91530e-01,-2.45192e-01,0.00000e+00,0.00000e+00,1.07946e+01,-1.01731e+01,1.35039e-02,-1.27264e-02,2.03446e-01,2.50502e-01,0.00000e+00,3.52412e-01,4.70433e-01,0.00000e+00
20,1.71930e+03,0.00000e+00,4.50959e+03,3.73920e+02,-1.59892e+03,2.62301e+00,3.30664e+01,7.61023e+08,9.59670e+08,2.18523e+08,1.36099e+07,5.90349e+01,1.48192e+01,5.06943e+01,-2.27139e+01,1.27847e+02,-1.90888e-02,1.07931e-01,-6.72693e-01,1.32003e-01,-1.69831e-01,0.00000e+00,0.00000e+00,7.44282e+00,-7.01021e+00,9.31084e-03,-8.76965e-03,1.64575e-01,2.00689e-01,0.00000e+00,2.85070e-01,3.69491e-01,0.00000e+00
21,1.77540e+03,0.00000e+00,2.87330e+03,2.43584e+02,-1.16303e+03,2.02356e+00,2.52684e+01,3.98519e+08,7.29057e+08,1.66652e+08,9.62085e+06,5.21005e+01,1.31900e+01,4.07358e+01,-2.37867e+01,1.33913e+02,-1.91584e-02,1.08325e-01,-6.79379e-01,1.57919e-01,-1.93212e-01,0.00000e+00,0.00000e+00,8.87618e+00,-8.25834e+00,1.11039e-02,-1.03310e-02,2.17861e-01,1.88464e-01,0.00000e+00,3.77367e-01,3.58242e-01,0.00000e+00
22,1.82660e+03,0.00000e+00,1.74553e+03,1.53633e+02,-8.18269e+02,1.49015e+00,1.87853e+01,3.22692e+08,5.63581e+08,1.28741e+08,7.41563e+06,4.80842e+01,1.21552e+01,3.73499e+01,-2.47693e+01,1.39468e+02,-1.92227e-02,1.08674e-01,-6.85298e-01,1.07627e-01,-1.32690e-01,0.00000e+00,0.00000e+00,6.05309e+00,-5.63054e+00,7.57231e-03,-7.04370e-03,1.80051e-01,1.53996e-01,0.00000e+00,3.11869e-01,2.85079e-01,0.00000e+00
23,1.87280e+03,0.00000e+00,9.99888e+02,9.38607e+01,-5.61440e+02,1.09738e+00,1.34935e+01,2.62353e+08,4.36581e+08,9.96683e+07,5.74483e+06,4.43938e+01,1.12070e+01,3.42731e+01,-2.56583e+01,1.44494e+02,-1.92637e-02,1.08903e-01,-6.90105e-01,6.90461e-02,-8.59592e-02,0.00000e+00,0.00000e+00,3.88676e+00,-3.60805e+00,4.86228e-03,-4.51361e-03,1.43970e-01,1.22419e-01,0.00000e+00,2.49370e-01,2.21623e-01,0.00000e+00
24,1.91380e+03,0.00000e+00,5.32529e+02,5.46701e+01,-3.74214e+02,8.14353e-01,9.30455e+00,2.14932e+08,3.40501e+08,7.76906e+07,4.49474e+06,4.10625e+01,1.03532e+01,3.15244e+01,-2.64486e+01,1.48962e+02,-1.92875e-02,1.09041e-01,-6.93815e-01,4.10401e-02,-5.17547e-02,0.00000e+00,0.00000e+00,2.31315e+00,-2.13864e+00,2.89371e-03,-2.67541e-03,1.10536e-01,9.40611e-02,0.00000e+00,1.91458e-01,1.67342e-01,0.00000e+00
25,1.94970e+03,0.00000e+00,2.56773e+02,2.96215e+01,-2.38301e+02,5.81109e-01,6.05788e+00,1.77937e+08,2.68420e+08,6.12136e+07,3.56346e+06,3.80992e+01,9.59536e+00,2.91026e+01,-2.71412e+01,1.52878e+02,-1.92997e-02,1.09116e-01,-6.96510e-01,2.19843e-02,-2.82123e-02,0.00000e+00,0.00000e+00,1.24125e+00,-1.14011e+00,1.55279e-03,-1.42625e-03,8.00261e-02,6.85926e-02,0.00000e+00,1.38610e-01,1.20540e-01,0.00000e+00
26,1.98010e+03,0.00000e+00,1.08983e+02,1.46180e+01,-1.42535e+02,4.05967e-01,3.66513e+00,1.49784e+08,2.15653e+08,4.91590e+07,2.88363e+06,3.55543e+01,8.94582e+00,2.70403e+01,-2.77280e+01,1.56196e+02,-1.93049e-02,1.09151e-01,-6.98278e-01,1.02950e-02,-1.35367e-02,0.00000e+00,0.00000e+00,5.82691e-01,-5.29673e-01,7.28936e-04,-6.62612e-04,5.35577e-02,4.64806e-02,0.00000e+00,9.27651e-02,8.10613e-02,0.00000e+00
27,2.00520e+03,0.00000e+00,3.81251e+01,6.18386e+00,-7.76752e+01,2.66074e-01,1.98093e+00,1.28656e+08,1.77484e+08,4.04436e+07,2.39791e+06,3.34272e+01,8.40385e+00,2.53292e+01,-2.82126e+01,1.58935e+02,-1.93067e-02,1.09164e-01,-6.99305e-01,3.94416e-03,-5.36743e-03,0.00000e+00,0.00000e+00,2.24020e-01,-2.00391e-01,2.80246e-04,-2.50685e-04,3.18867e-02,2.82560e-02,0.00000e+00,5.52294e-02,4.90717e-02,0.00000e+00
28,2.02480e+03,0.00000e+00,9.92567e+00,2.05698e+00,-3.66405e+01,1.55037e-01,8.96554e-01,1.13447e+08,1.50904e+08,3.43767e+07,2.07063e+06,3.17493e+01,7.97693e+00,2.39876e+01,-2.85910e+01,1.61075e+02,-1.93071e-02,1.09168e-01,-6.99795e-01,1.11599e-03,-1.59800e-03,0.00000e+00,0.00000e+00,6.37232e-02,-5.55314e-02,7.97166e-05,-6.94689e-05,1.58577e-02,1.45379e-02,0.00000e+00,2.74664e-02,2.51998e-02,0.00000e+00
29,2.03880e+03,0.00000e+00,1.59299e+00,4.68021e-01,-1.33986e+01,7.19574e-02,2.93828e-01,1.03260e+08,1.33576e+08,3.04229e+07,1.88110e+06,3.05414e+01,7.66993e+00,2.30264e+01,-2.88613e+01,1.62603e+02,-1.93071e-02,1.09169e-01,-6.99969e-01,1.94380e-04,-3.05063e-04,0.00000e+00,0.00000e+00,1.12030e-02,-9.28792e-03,1.40148e-05,-1.16190e-05,5.76666e-03,5.61802e-03,0.00000e+00,9.98815e-03,9.73211e-03,0.00000e+00
30,2.04720e+03,0.00000e+00,1.79457e-01,8.28999e-02,-2.59544e+00,1.97381e-02,4.27279e-02,9.74134e+07,1.23821e+08,2.81976e+07,1.83180e+06,2.98129e+01,7.48488e+00,2.24484e+01,-2.90235e+01,1.63520e+02,-1.93071e-02,1.09169e-01,-7.00005e-01,2.39872e-05,-4.40607e-05,0.00000e+00,0.00000e+00,1.40474e-03,-1.06096e-03,1.75731e-06,-1.32724e-06,9.93187e-04,1.09944e-03,0.00000e+00,1.72025e-03,1.90437e-03,0.00000e+00
31,2.05000e+03,0.00000e+00,0.00000e+00,0.00000e+00,0.00000e+00,0.00000e+00,0.00000e+00,5.74754e+07,1.08343e+08,2.47732e+07,NaN,2.74871e+01,6.96602e+00,2.15905e+01,-2.90776e+01,1.63826e+02,-1.93071e-02,1.09169e-01,-7.00007e-01,0.00000e+00,0.00000e+00,0.00000e+00,0.00000e+00,0.00000e+00,0.00000e+00,0.00000e+00,0.00000e+00,0.00000e+00,0.00000e+00,0.00000e+00,0.00000e+00,0.00000e+00,0.00000e+00
--------------------------------------------------------------------------------------------------------------------------------------------------------------------------------------------------------------------------------------------------------------------------------------------------------------------------------------------------------------------------------

CHAPEADO 
--------------------------------------------------------------------------------------------------------------------------------------------------------------------------------------------------------------------------------------------------------------------------------------------------------------------------------------------------------------------------------
X,Y,Z,Sigma,Tau,Von Mises
0.00000e+00,4.31008e+01,0.00000e+00,-4.50842e+00,1.67854e+00,5.36455e+00
0.00000e+00,4.28837e+01,-3.27521e+00,-4.66867e+00,1.66128e+00,5.48416e+00
0.00000e+00,4.25950e+01,-6.55041e+00,-4.81196e+00,1.64359e+00,5.59099e+00
0.00000e+00,4.23033e+01,-9.82562e+00,-4.95458e+00,1.62550e+00,5.69865e+00
0.00000e+00,4.19484e+01,-1.31008e+01,-5.08223e+00,1.60704e+00,5.79455e+00
0.00000e+00,4.15787e+01,-1.63760e+01,-5.20641e+00,1.58824e+00,5.88848e+00
0.00000e+00,4.11605e+01,-1.96512e+01,-5.31910e+00,1.56913e+00,5.97321e+00
0.00000e+00,4.07187e+01,-2.29264e+01,-5.42621e+00,1.54973e+00,6.05382e+00
0.00000e+00,4.02378e+01,-2.62017e+01,-5.52410e+00,1.53006e+00,6.12690e+00
0.00000e+00,3.97249e+01,-2.94769e+01,-5.61440e+00,1.51017e+00,6.19381e+00
0.00000e+00,3.91766e+01,-3.27521e+01,-5.69637e+00,1.49006e+00,6.25376e+00
0.00000e+00,3.85857e+01,-3.60273e+01,-5.76824e+00,1.46977e+00,6.30502e+00
0.00000e+00,3.79511e+01,-3.93025e+01,-5.82978e+00,1.44932e+00,6.34728e+00
0.00000e+00,3.72545e+01,-4.25777e+01,-5.87668e+00,1.42876e+00,6.37647e+00
0.00000e+00,3.64976e+01,-4.58529e+01,-5.90932e+00,1.40811e+00,6.39284e+00
0.00000e+00,3.56687e+01,-4.91281e+01,-5.92492e+00,1.38741e+00,6.39370e+00
0.00000e+00,3.47420e+01,-5.24033e+01,-5.91743e+00,1.36673e+00,6.37337e+00
0.00000e+00,3.37474e+01,-5.56785e+01,-5.89389e+00,1.34609e+00,6.33828e+00
0.00000e+00,3.26000e+01,-5.89537e+01,-5.83421e+00,1.32560e+00,6.26974e+00
0.00000e+00,3.13892e+01,-6.22289e+01,-5.75955e+00,1.30530e+00,6.18740e+00
0.00000e+00,3.00018e+01,-6.55041e+01,-5.64317e+00,1.28525e+00,6.06638e+00
0.00000e+00,2.84730e+01,-6.87793e+01,-5.49334e+00,1.26562e+00,5.91457e+00
0.00000e+00,2.68002e+01,-7.20546e+01,-5.30947e+00,1.24643e+00,5.73160e+00
0.00000e+00,2.48857e+01,-7.53298e+01,-5.06849e+00,1.22776e+00,5.49652e+00
0.00000e+00,2.26913e+01,-7.86050e+01,-4.76133e+00,1.20984e+00,5.20205e+00
0.00000e+00,2.01805e+01,-8.18802e+01,-4.37937e+00,1.19287e+00,4.84229e+00
0.00000e+00,1.72108e+01,-8.51554e+01,-3.88895e+00,1.17701e+00,4.39090e+00
0.00000e+00,1.33989e+01,-8.84306e+01,-3.19946e+00,1.16303e+00,3.78080e+00
0.00000e+00,8.24350e+00,-9.17058e+01,-2.19238e+00,1.15449e+00,2.96733e+00
0.00000e+00,-3.34020e+00,-9.49810e+01,3.34216e-01,1.15788e+00,2.03316e+00
0.00000e+00,-4.17620e+00,-9.49886e+01,5.31338e-01,1.16839e+00,2.09230e+00
0.00000e+00,-1.17928e+01,-9.15961e+01,2.55086e+00,1.18833e+00,3.27769e+00
0.00000e+00,-1.27149e+01,-8.82037e+01,2.98797e+00,1.20306e+00,3.64281e+00
0.00000e+00,-1.30332e+01,-8.48113e+01,3.28232e+00,1.21856e+00,3.90235e+00
0.00000e+00,-1.30814e+01,-8.14188e+01,3.51286e+00,1.23478e+00,4.11269e+00
0.00000e+00,-1.29264e+01,-7.80264e+01,3.69533e+00,1.25159e+00,4.28426e+00
0.00000e+00,-1.26437e+01,-7.46339e+01,3.84763e+00,1.26890e+00,4.43109e+00
0.00000e+00,-1.22328e+01,-7.12415e+01,3.96964e+00,1.28659e+00,4.55236e+00
0.00000e+00,-1.17438e+01,-6.78490e+01,4.07317e+00,1.30459e+00,4.65796e+00
0.00000e+00,-1.12094e+01,-6.44565e+01,4.16599e+00,1.32285e+00,4.75450e+00
0.00000e+00,-1.06068e+01,-6.10641e+01,4.24265e+00,1.34132e+00,4.83710e+00
0.00000e+00,-9.96142e+00,-5.76716e+01,4.30923e+00,1.35994e+00,4.91099e+00
0.00000e+00,-9.27449e+00,-5.42792e+01,4.36599e+00,1.37869e+00,4.97636e+00
0.00000e+00,-8.54615e+00,-5.08867e+01,4.41295e+00,1.39752e+00,5.03322e+00
0.00000e+00,-7.79185e+00,-4.74943e+01,4.45377e+00,1.41640e+00,5.08475e+00
0.00000e+00,-7.00429e+00,-4.41018e+01,4.48674e+00,1.43530e+00,5.12943e+00
0.00000e+00,-6.19544e+00,-4.07094e+01,4.51467e+00,1.45419e+00,5.16974e+00
0.00000e+00,-5.36748e+00,-3.73169e+01,4.53808e+00,1.47306e+00,5.20614e+00
0.00000e+00,-4.52248e+00,-3.39245e+01,4.55747e+00,1.49187e+00,5.23904e+00
0.00000e+00,-3.67026e+00,-3.05320e+01,4.57515e+00,1.51063e+00,5.27048e+00
0.00000e+00,-2.80686e+00,-2.71396e+01,4.59018e+00,1.52931e+00,5.29964e+00
0.00000e+00,-1.94159e+00,-2.37472e+01,4.60478e+00,1.54791e+00,5.32842e+00
0.00000e+00,-1.06964e+00,-2.03547e+01,4.61779e+00,1.56642e+00,5.35584e+00
0.00000e+00,-1.97780e-01,-1.69622e+01,4.63083e+00,1.58484e+00,5.38329e+00
0.00000e+00,6.70785e-01,-1.35698e+01,4.64465e+00,1.60317e+00,5.41140e+00
0.00000e+00,1.53935e+00,-1.01774e+01,4.65846e+00,1.62140e+00,5.43949e+00
0.00000e+00,2.38735e+00,-6.78490e+00,4.67714e+00,1.63954e+00,5.47174e+00
0.00000e+00,3.23151e+00,-3.39245e+00,4.69672e+00,1.65761e+00,5.50474e+00
1.07300e+02,4.26785e+01,0.00000e+00,-4.02580e+00,1.57936e+00,4.86726e+00
1.07300e+02,4.24636e+01,-3.24312e+00,-4.16942e+00,1.56320e+00,4.97140e+00
1.07300e+02,4.21777e+01,-6.48624e+00,-4.29790e+00,1.54664e+00,5.06441e+00
1.07300e+02,4.18889e+01,-9.72936e+00,-4.42578e+00,1.52971e+00,5.15825e+00
1.07300e+02,4.15374e+01,-1.29725e+01,-4.54029e+00,1.51244e+00,5.24182e+00
1.07300e+02,4.11714e+01,-1.62156e+01,-4.65170e+00,1.49484e+00,5.32372e+00
1.07300e+02,4.07572e+01,-1.94587e+01,-4.75285e+00,1.47695e+00,5.39757e+00
1.07300e+02,4.03197e+01,-2.27018e+01,-4.84902e+00,1.45880e+00,5.46784e+00
1.07300e+02,3.98436e+01,-2.59450e+01,-4.93695e+00,1.44039e+00,5.53152e+00
1.07300e+02,3.93357e+01,-2.91881e+01,-5.01811e+00,1.42177e+00,5.58979e+00
1.07300e+02,3.87928e+01,-3.24312e+01,-5.09182e+00,1.40295e+00,5.64194e+00
1.07300e+02,3.82077e+01,-3.56743e+01,-5.15652e+00,1.38397e+00,5.68646e+00
1.07300e+02,3.75793e+01,-3.89174e+01,-5.21199e+00,1.36483e+00,5.72303e+00
1.07300e+02,3.68895e+01,-4.21606e+01,-5.25438e+00,1.34558e+00,5.74807e+00
1.07300e+02,3.61401e+01,-4.54037e+01,-5.28405e+00,1.32626e+00,5.76177e+00
1.07300e+02,3.53192e+01,-4.86468e+01,-5.29849e+00,1.30688e+00,5.76175e+00
1.07300e+02,3.44016e+01,-5.18899e+01,-5.29231e+00,1.28753e+00,5.74298e+00
1.07300e+02,3.34168e+01,-5.51330e+01,-5.27180e+00,1.26822e+00,5.71113e+00
1.07300e+02,3.22806e+01,-5.83762e+01,-5.21901e+00,1.24904e+00,5.64963e+00
1.07300e+02,3.10816e+01,-6.16193e+01,-5.15285e+00,1.23004e+00,5.57592e+00
1.07300e+02,2.97079e+01,-6.48624e+01,-5.04942e+00,1.21128e+00,5.46792e+00
1.07300e+02,2.81940e+01,-6.81055e+01,-4.91612e+00,1.19290e+00,5.33266e+00
1.07300e+02,2.65376e+01,-7.13486e+01,-4.75243e+00,1.17494e+00,5.16982e+00
1.07300e+02,2.46419e+01,-7.45918e+01,-4.53772e+00,1.15747e+00,4.96086e+00
1.07300e+02,2.24690e+01,-7.78349e+01,-4.26392e+00,1.14070e+00,4.69942e+00
1.07300e+02,1.99828e+01,-8.10780e+01,-3.92332e+00,1.12483e+00,4.38043e+00
1.07300e+02,1.70422e+01,-8.43211e+01,-3.48585e+00,1.10998e+00,3.98087e+00
1.07300e+02,1.32676e+01,-8.75642e+01,-2.87060e+00,1.09690e+00,3.44236e+00
1.07300e+02,8.16273e+00,-9.08074e+01,-1.97172e+00,1.08890e+00,2.72852e+00
1.07300e+02,-3.30748e+00,-9.40505e+01,2.84186e-01,1.09207e+00,1.91276e+00
1.07300e+02,-4.13529e+00,-9.40580e+01,4.60228e-01,1.10191e+00,1.96328e+00
1.07300e+02,-1.16772e+01,-9.06988e+01,2.26432e+00,1.12058e+00,2.98232e+00
1.07300e+02,-1.25904e+01,-8.73396e+01,2.65522e+00,1.13436e+00,3.30311e+00
1.07300e+02,-1.29055e+01,-8.39804e+01,2.91862e+00,1.14887e+00,3.53243e+00
1.07300e+02,-1.29533e+01,-8.06211e+01,3.12504e+00,1.16405e+00,3.71899e+00
1.07300e+02,-1.27997e+01,-7.72619e+01,3.28852e+00,1.17978e+00,3.87170e+00
1.07300e+02,-1.25198e+01,-7.39027e+01,3.42507e+00,1.19597e+00,4.00277e+00
1.07300e+02,-1.21130e+01,-7.05435e+01,3.53456e+00,1.21253e+00,4.11143e+00
1.07300e+02,-1.16287e+01,-6.71843e+01,3.62755e+00,1.22938e+00,4.20633e+00
1.07300e+02,-1.10996e+01,-6.38251e+01,3.71097e+00,1.24647e+00,4.29329e+00
1.07300e+02,-1.05029e+01,-6.04659e+01,3.77997e+00,1.26375e+00,4.36799e+00
1.07300e+02,-9.86382e+00,-5.71066e+01,3.83996e+00,1.28118e+00,4.43504e+00
1.07300e+02,-9.18363e+00,-5.37474e+01,3.89117e+00,1.29873e+00,4.49459e+00
1.07300e+02,-8.46243e+00,-5.03882e+01,3.93364e+00,1.31635e+00,4.54663e+00
1.07300e+02,-7.71552e+00,-4.70290e+01,3.97063e+00,1.33402e+00,4.59399e+00
1.07300e+02,-6.93567e+00,-4.36698e+01,4.00060e+00,1.35171e+00,4.63531e+00
1.07300e+02,-6.13474e+00,-4.03106e+01,4.02607e+00,1.36939e+00,4.67278e+00
1.07300e+02,-5.31490e+00,-3.69514e+01,4.04751e+00,1.38704e+00,4.70680e+00
1.07300e+02,-4.47818e+00,-3.35921e+01,4.06535e+00,1.40465e+00,4.73774e+00
1.07300e+02,-3.63431e+00,-3.02329e+01,4.08167e+00,1.42221e+00,4.76739e+00
1.07300e+02,-2.77936e+00,-2.68737e+01,4.09562e+00,1.43969e+00,4.79502e+00
1.07300e+02,-1.92257e+00,-2.35145e+01,4.10919e+00,1.45709e+00,4.82232e+00
1.07300e+02,-1.05916e+00,-2.01553e+01,4.12134e+00,1.47442e+00,4.84842e+00
1.07300e+02,-1.95842e-01,-1.67961e+01,4.13351e+00,1.49166e+00,4.87453e+00
1.07300e+02,6.64213e-01,-1.34369e+01,4.14638e+00,1.50881e+00,4.90122e+00
1.07300e+02,1.52427e+00,-1.00776e+01,4.15925e+00,1.52587e+00,4.92790e+00
1.07300e+02,2.36396e+00,-6.71843e+00,4.17646e+00,1.54285e+00,4.95822e+00
1.07300e+02,3.19985e+00,-3.35921e+00,4.19447e+00,1.55976e+00,4.98920e+00
2.14300e+02,4.22575e+01,0.00000e+00,-3.56950e+00,1.47871e+00,4.39330e+00
2.14300e+02,4.20447e+01,-3.21112e+00,-3.69735e+00,1.46364e+00,4.48298e+00
2.14300e+02,4.17615e+01,-6.42224e+00,-3.81178e+00,1.44820e+00,4.56307e+00
2.14300e+02,4.14756e+01,-9.63337e+00,-3.92568e+00,1.43242e+00,4.64396e+00
2.14300e+02,4.11276e+01,-1.28445e+01,-4.02772e+00,1.41631e+00,4.71596e+00
2.14300e+02,4.07652e+01,-1.60556e+01,-4.12701e+00,1.39990e+00,4.78659e+00
2.14300e+02,4.03551e+01,-1.92667e+01,-4.21720e+00,1.38322e+00,4.85023e+00
2.14300e+02,3.99219e+01,-2.24779e+01,-4.30298e+00,1.36630e+00,4.91080e+00
2.14300e+02,3.94505e+01,-2.56890e+01,-4.38145e+00,1.34914e+00,4.96564e+00
2.14300e+02,3.89476e+01,-2.89001e+01,-4.45391e+00,1.33177e+00,5.01580e+00
2.14300e+02,3.84101e+01,-3.21112e+01,-4.51977e+00,1.31423e+00,5.06063e+00
2.14300e+02,3.78307e+01,-3.53223e+01,-4.57764e+00,1.29652e+00,5.09880e+00
2.14300e+02,3.72085e+01,-3.85335e+01,-4.62732e+00,1.27868e+00,5.13003e+00
2.14300e+02,3.65256e+01,-4.17446e+01,-4.66541e+00,1.26073e+00,5.15116e+00
2.14300e+02,3.57835e+01,-4.49557e+01,-4.69221e+00,1.24271e+00,5.16235e+00
2.14300e+02,3.49707e+01,-4.81668e+01,-4.70551e+00,1.22465e+00,5.16151e+00
2.14300e+02,3.40622e+01,-5.13780e+01,-4.70053e+00,1.20661e+00,5.14419e+00
2.14300e+02,3.30871e+01,-5.45891e+01,-4.68283e+00,1.18860e+00,5.11539e+00
2.14300e+02,3.19621e+01,-5.78002e+01,-4.63652e+00,1.17071e+00,5.06053e+00
2.14300e+02,3.07750e+01,-6.10113e+01,-4.57833e+00,1.15300e+00,4.99494e+00
2.14300e+02,2.94148e+01,-6.42224e+01,-4.48711e+00,1.13551e+00,4.89921e+00
2.14300e+02,2.79159e+01,-6.74336e+01,-4.36939e+00,1.11837e+00,4.77953e+00
2.14300e+02,2.62758e+01,-7.06447e+01,-4.22473e+00,1.10163e+00,4.63563e+00
2.14300e+02,2.43988e+01,-7.38558e+01,-4.03482e+00,1.08534e+00,4.45126e+00
2.14300e+02,2.22473e+01,-7.70669e+01,-3.79251e+00,1.06970e+00,4.22089e+00
2.14300e+02,1.97856e+01,-8.02781e+01,-3.49097e+00,1.05490e+00,3.94021e+00
2.14300e+02,1.68740e+01,-8.34892e+01,-3.10351e+00,1.04106e+00,3.58932e+00
2.14300e+02,1.31367e+01,-8.67003e+01,-2.55841e+00,1.02886e+00,3.11787e+00
2.14300e+02,8.08220e+00,-8.99114e+01,-1.76179e+00,1.02141e+00,2.49674e+00
2.14300e+02,-3.27484e+00,-9.31226e+01,2.38234e-01,1.02436e+00,1.79017e+00
2.14300e+02,-4.09449e+00,-9.31300e+01,3.94345e-01,1.03354e+00,1.83306e+00
2.14300e+02,-1.15620e+01,-8.98039e+01,1.99471e+00,1.05094e+00,2.70043e+00
2.14300e+02,-1.24661e+01,-8.64779e+01,2.34187e+00,1.06379e+00,2.97982e+00
2.14300e+02,-1.27781e+01,-8.31518e+01,2.57596e+00,1.07732e+00,3.18079e+00
2.14300e+02,-1.28255e+01,-7.98257e+01,2.75952e+00,1.09147e+00,3.34498e+00
2.14300e+02,-1.26734e+01,-7.64996e+01,2.90501e+00,1.10614e+00,3.47990e+00
2.14300e+02,-1.23963e+01,-7.31736e+01,3.02661e+00,1.12124e+00,3.59609e+00
2.14300e+02,-1.19935e+01,-6.98475e+01,3.12421e+00,1.13668e+00,3.69281e+00
2.14300e+02,-1.15140e+01,-6.65214e+01,3.20719e+00,1.15239e+00,3.77757e+00
2.14300e+02,-1.09901e+01,-6.31954e+01,3.28167e+00,1.16832e+00,3.85543e+00
2.14300e+02,-1.03992e+01,-5.98693e+01,3.34337e+00,1.18444e+00,3.92261e+00
2.14300e+02,-9.76651e+00,-5.65432e+01,3.39708e+00,1.20069e+00,3.98311e+00
2.14300e+02,-9.09302e+00,-5.32171e+01,3.44301e+00,1.21705e+00,4.03707e+00
2.14300e+02,-8.37893e+00,-4.98911e+01,3.48118e+00,1.23348e+00,4.08449e+00
2.14300e+02,-7.63939e+00,-4.65650e+01,3.51450e+00,1.24995e+00,4.12781e+00
2.14300e+02,-6.86724e+00,-4.32389e+01,3.54158e+00,1.26645e+00,4.16587e+00
2.14300e+02,-6.07421e+00,-3.99129e+01,3.56468e+00,1.28293e+00,4.20056e+00
2.14300e+02,-5.26246e+00,-3.65868e+01,3.58421e+00,1.29939e+00,4.23224e+00
2.14300e+02,-4.43399e+00,-3.32607e+01,3.60054e+00,1.31581e+00,4.26122e+00
2.14300e+02,-3.59845e+00,-2.99346e+01,3.61552e+00,1.33218e+00,4.28907e+00
2.14300e+02,-2.75194e+00,-2.66086e+01,3.62841e+00,1.34848e+00,4.31515e+00
2.14300e+02,-1.90360e+00,-2.32825e+01,3.64095e+00,1.36471e+00,4.34094e+00
2.14300e+02,-1.04871e+00,-1.99564e+01,3.65224e+00,1.38086e+00,4.36568e+00
2.14300e+02,-1.93910e-01,-1.66304e+01,3.66354e+00,1.39693e+00,4.39042e+00
2.14300e+02,6.57660e-01,-1.33043e+01,3.67546e+00,1.41293e+00,4.41567e+00
2.14300e+02,1.50923e+00,-9.97821e+00,3.68739e+00,1.42883e+00,4.44089e+00
2.14300e+02,2.34063e+00,-6.65214e+00,3.70316e+00,1.44466e+00,4.46929e+00
2.14300e+02,3.16828e+00,-3.32607e+00,3.71965e+00,1.46043e+00,4.49826e+00
3.20700e+02,4.18388e+01,0.00000e+00,-3.14124e+00,1.37853e+00,3.94569e+00
3.20700e+02,4.16280e+01,-3.17930e+00,-3.25425e+00,1.36456e+00,4.02196e+00
3.20700e+02,4.13477e+01,-6.35861e+00,-3.35544e+00,1.35024e+00,4.09004e+00
3.20700e+02,4.10646e+01,-9.53791e+00,-3.45616e+00,1.33560e+00,4.15891e+00
3.20700e+02,4.07201e+01,-1.27172e+01,-3.54645e+00,1.32067e+00,4.22016e+00
3.20700e+02,4.03613e+01,-1.58965e+01,-3.63432e+00,1.30545e+00,4.28029e+00
3.20700e+02,3.99553e+01,-1.90758e+01,-3.71418e+00,1.28999e+00,4.33443e+00
3.20700e+02,3.95264e+01,-2.22551e+01,-3.79015e+00,1.27429e+00,4.38596e+00
3.20700e+02,3.90596e+01,-2.54344e+01,-3.85969e+00,1.25838e+00,4.43258e+00
3.20700e+02,3.85617e+01,-2.86137e+01,-3.92394e+00,1.24228e+00,4.47516e+00
3.20700e+02,3.80295e+01,-3.17930e+01,-3.98239e+00,1.22601e+00,4.51317e+00
3.20700e+02,3.74559e+01,-3.49724e+01,-4.03379e+00,1.20959e+00,4.54541e+00
3.20700e+02,3.68398e+01,-3.81517e+01,-4.07799e+00,1.19304e+00,4.57166e+00
3.20700e+02,3.61637e+01,-4.13310e+01,-4.11199e+00,1.17640e+00,4.58914e+00
3.20700e+02,3.54289e+01,-4.45103e+01,-4.13606e+00,1.15969e+00,4.59800e+00
3.20700e+02,3.46242e+01,-4.76896e+01,-4.14823e+00,1.14294e+00,4.59639e+00
3.20700e+02,3.37247e+01,-5.08689e+01,-4.14432e+00,1.12621e+00,4.58044e+00
3.20700e+02,3.27593e+01,-5.40482e+01,-4.12922e+00,1.10951e+00,4.55450e+00
3.20700e+02,3.16454e+01,-5.72275e+01,-4.08892e+00,1.09293e+00,4.50586e+00
3.20700e+02,3.04701e+01,-6.04068e+01,-4.03819e+00,1.07650e+00,4.44787e+00
3.20700e+02,2.91233e+01,-6.35861e+01,-3.95837e+00,1.06028e+00,4.36363e+00
3.20700e+02,2.76393e+01,-6.67654e+01,-3.85523e+00,1.04439e+00,4.25853e+00
3.20700e+02,2.60154e+01,-6.99447e+01,-3.72837e+00,1.02887e+00,4.13236e+00
3.20700e+02,2.41570e+01,-7.31240e+01,-3.56169e+00,1.01376e+00,3.97099e+00
3.20700e+02,2.20269e+01,-7.63033e+01,-3.34889e+00,9.99258e-01,3.76969e+00
3.20700e+02,1.95896e+01,-7.94826e+01,-3.08395e+00,9.85533e-01,3.52485e+00
3.20700e+02,1.67068e+01,-8.26619e+01,-2.74339e+00,9.72701e-01,3.21942e+00
3.20700e+02,1.30066e+01,-8.58412e+01,-2.26408e+00,9.61387e-01,2.81049e+00
3.20700e+02,8.00212e+00,-8.90205e+01,-1.56338e+00,9.54477e-01,2.27535e+00
3.20700e+02,-3.24239e+00,-9.21998e+01,1.96524e-01,9.57219e-01,1.66956e+00
3.20700e+02,-4.05392e+00,-9.22072e+01,3.33929e-01,9.65728e-01,1.70570e+00
3.20700e+02,-1.14474e+01,-8.89141e+01,1.74303e+00,9.81863e-01,2.43522e+00
3.20700e+02,-1.23426e+01,-8.56210e+01,2.04908e+00,9.93783e-01,2.67610e+00
3.20700e+02,-1.26515e+01,-8.23279e+01,2.25561e+00,1.00633e+00,2.85059e+00
3.20700e+02,-1.26984e+01,-7.90348e+01,2.41767e+00,1.01945e+00,2.99382e+00
3.20700e+02,-1.25479e+01,-7.57416e+01,2.54621e+00,1.03305e+00,3.11204e+00
3.20700e+02,-1.22734e+01,-7.24485e+01,2.65373e+00,1.04705e+00,3.21423e+00
3.20700e+02,-1.18746e+01,-6.91554e+01,2.74013e+00,1.06137e+00,3.29968e+00
3.20700e+02,-1.13999e+01,-6.58623e+01,2.81366e+00,1.07594e+00,3.37485e+00
3.20700e+02,-1.08812e+01,-6.25692e+01,2.87971e+00,1.09071e+00,3.44408e+00
3.20700e+02,-1.02962e+01,-5.92761e+01,2.93450e+00,1.10566e+00,3.50410e+00
3.20700e+02,-9.66973e+00,-5.59829e+01,2.98227e+00,1.12073e+00,3.55837e+00
3.20700e+02,-9.00292e+00,-5.26898e+01,3.02318e+00,1.13590e+00,3.60699e+00
3.20700e+02,-8.29591e+00,-4.93967e+01,3.05727e+00,1.15113e+00,3.64996e+00
3.20700e+02,-7.56370e+00,-4.61036e+01,3.08708e+00,1.16641e+00,3.68939e+00
3.20700e+02,-6.79920e+00,-4.28105e+01,3.11141e+00,1.18170e+00,3.72426e+00
3.20700e+02,-6.01403e+00,-3.95174e+01,3.13224e+00,1.19699e+00,3.75623e+00
3.20700e+02,-5.21032e+00,-3.62243e+01,3.14991e+00,1.21225e+00,3.78558e+00
3.20700e+02,-4.39006e+00,-3.29311e+01,3.16478e+00,1.22748e+00,3.81260e+00
3.20700e+02,-3.56279e+00,-2.96380e+01,3.17845e+00,1.24265e+00,3.83863e+00
3.20700e+02,-2.72467e+00,-2.63449e+01,3.19029e+00,1.25777e+00,3.86314e+00
3.20700e+02,-1.88474e+00,-2.30518e+01,3.20181e+00,1.27281e+00,3.88739e+00
3.20700e+02,-1.03832e+00,-1.97587e+01,3.21224e+00,1.28779e+00,3.91072e+00
3.20700e+02,-1.91989e-01,-1.64656e+01,3.22268e+00,1.30270e+00,3.93405e+00
3.20700e+02,6.51143e-01,-1.31725e+01,3.23367e+00,1.31753e+00,3.95781e+00
3.20700e+02,1.49428e+00,-9.87934e+00,3.24465e+00,1.33228e+00,3.98154e+00
3.20700e+02,2.31744e+00,-6.58623e+00,3.25902e+00,1.34696e+00,4.00800e+00
3.20700e+02,3.13689e+00,-3.29311e+00,3.27403e+00,1.36157e+00,4.03496e+00
4.26200e+02,4.14236e+01,0.00000e+00,-2.74253e+00,1.27929e+00,3.52580e+00
4.26200e+02,4.12150e+01,-3.14776e+00,-2.84166e+00,1.26640e+00,3.58975e+00
4.26200e+02,4.09374e+01,-6.29551e+00,-2.93047e+00,1.25319e+00,3.64679e+00
4.26200e+02,4.06571e+01,-9.44327e+00,-3.01887e+00,1.23968e+00,3.70459e+00
4.26200e+02,4.03160e+01,-1.25910e+01,-3.09816e+00,1.22589e+00,3.75593e+00
4.26200e+02,3.99607e+01,-1.57388e+01,-3.17534e+00,1.21185e+00,3.80638e+00
4.26200e+02,3.95588e+01,-1.88865e+01,-3.24552e+00,1.19758e+00,3.85175e+00
4.26200e+02,3.91341e+01,-2.20343e+01,-3.31231e+00,1.18309e+00,3.89493e+00
4.26200e+02,3.86720e+01,-2.51820e+01,-3.37348e+00,1.16840e+00,3.93394e+00
4.26200e+02,3.81790e+01,-2.83298e+01,-3.43004e+00,1.15354e+00,3.96953e+00
4.26200e+02,3.76521e+01,-3.14776e+01,-3.48152e+00,1.13853e+00,4.00122e+00
4.26200e+02,3.70842e+01,-3.46253e+01,-3.52686e+00,1.12338e+00,4.02798e+00
4.26200e+02,3.64743e+01,-3.77731e+01,-3.56591e+00,1.10811e+00,4.04961e+00
4.26200e+02,3.58048e+01,-4.09208e+01,-3.59604e+00,1.09275e+00,4.06372e+00
4.26200e+02,3.50774e+01,-4.40686e+01,-3.61750e+00,1.07733e+00,4.07041e+00
4.26200e+02,3.42806e+01,-4.72163e+01,-3.62858e+00,1.06187e+00,4.06808e+00
4.26200e+02,3.33901e+01,-5.03641e+01,-3.62561e+00,1.04643e+00,4.05341e+00
4.26200e+02,3.24342e+01,-5.35118e+01,-3.61287e+00,1.03101e+00,4.03011e+00
4.26200e+02,3.13314e+01,-5.66596e+01,-3.57813e+00,1.01571e+00,3.98723e+00
4.26200e+02,3.01677e+01,-5.98074e+01,-3.53427e+00,1.00055e+00,3.93629e+00
4.26200e+02,2.88343e+01,-6.29551e+01,-3.46501e+00,9.85581e-01,3.86270e+00
4.26200e+02,2.73650e+01,-6.61029e+01,-3.37540e+00,9.70918e-01,3.77112e+00
4.26200e+02,2.57573e+01,-6.92506e+01,-3.26506e+00,9.56590e-01,3.66140e+00
4.26200e+02,2.39173e+01,-7.23984e+01,-3.11996e+00,9.42650e-01,3.52135e+00
4.26200e+02,2.18083e+01,-7.55461e+01,-2.93457e+00,9.29266e-01,3.34699e+00
4.26200e+02,1.93952e+01,-7.86939e+01,-2.70366e+00,9.16600e-01,3.13532e+00
4.26200e+02,1.65410e+01,-8.18417e+01,-2.40672e+00,9.04757e-01,2.87194e+00
4.26200e+02,1.28775e+01,-8.49894e+01,-1.98860e+00,8.94316e-01,2.52070e+00
4.26200e+02,7.92271e+00,-8.81372e+01,-1.37717e+00,8.87939e-01,2.06444e+00
4.26200e+02,-3.21022e+00,-9.12849e+01,1.59217e-01,8.90470e-01,1.55054e+00
4.26200e+02,-4.01369e+00,-9.12922e+01,2.79204e-01,8.98323e-01,1.58079e+00
4.26200e+02,-1.13339e+01,-8.80318e+01,1.51016e+00,9.13214e-01,2.18688e+00
4.26200e+02,-1.22201e+01,-8.47713e+01,1.77788e+00,9.24215e-01,2.39236e+00
4.26200e+02,-1.25260e+01,-8.15109e+01,1.95870e+00,9.35792e-01,2.54236e+00
4.26200e+02,-1.25724e+01,-7.82505e+01,2.10068e+00,9.47904e-01,2.66616e+00
4.26200e+02,-1.24233e+01,-7.49900e+01,2.21339e+00,9.60458e-01,2.76885e+00
4.26200e+02,-1.21516e+01,-7.17296e+01,2.30774e+00,9.73379e-01,2.85798e+00
4.26200e+02,-1.17568e+01,-6.84692e+01,2.38366e+00,9.86593e-01,2.93290e+00
4.26200e+02,-1.12868e+01,-6.52087e+01,2.44832e+00,1.00003e+00,2.99908e+00
4.26200e+02,-1.07732e+01,-6.19483e+01,2.50646e+00,1.01367e+00,3.06022e+00
4.26200e+02,-1.01940e+01,-5.86879e+01,2.55478e+00,1.02746e+00,3.11351e+00
4.26200e+02,-9.57378e+00,-5.54274e+01,2.59695e+00,1.04137e+00,3.16188e+00
4.26200e+02,-8.91358e+00,-5.21670e+01,2.63314e+00,1.05537e+00,3.20544e+00
4.26200e+02,-8.21359e+00,-4.89065e+01,2.66337e+00,1.06943e+00,3.24416e+00
4.26200e+02,-7.48864e+00,-4.56461e+01,2.68987e+00,1.08353e+00,3.27986e+00
4.26200e+02,-6.73173e+00,-4.23857e+01,2.71158e+00,1.09764e+00,3.31166e+00
4.26200e+02,-5.95435e+00,-3.91252e+01,2.73022e+00,1.11175e+00,3.34097e+00
4.26200e+02,-5.15861e+00,-3.58648e+01,2.74612e+00,1.12584e+00,3.36804e+00
4.26200e+02,-4.34650e+00,-3.26044e+01,2.75956e+00,1.13989e+00,3.39311e+00
4.26200e+02,-3.52744e+00,-2.93439e+01,2.77197e+00,1.15389e+00,3.41734e+00
4.26200e+02,-2.69763e+00,-2.60835e+01,2.78277e+00,1.16784e+00,3.44025e+00
4.26200e+02,-1.86603e+00,-2.28231e+01,2.79329e+00,1.18173e+00,3.46294e+00
4.26200e+02,-1.02802e+00,-1.95626e+01,2.80286e+00,1.19555e+00,3.48483e+00
4.26200e+02,-1.90083e-01,-1.63022e+01,2.81244e+00,1.20930e+00,3.50672e+00
4.26200e+02,6.44682e-01,-1.30417e+01,2.82250e+00,1.22299e+00,3.52897e+00
4.26200e+02,1.47945e+00,-9.78131e+00,2.83255e+00,1.23660e+00,3.55118e+00
4.26200e+02,2.29445e+00,-6.52087e+00,2.84556e+00,1.25015e+00,3.57573e+00
4.26200e+02,3.10576e+00,-3.26044e+00,2.85913e+00,1.26364e+00,3.60069e+00
5.30600e+02,4.10127e+01,0.00000e+00,-2.37388e+00,1.18112e+00,3.13376e+00
5.30600e+02,4.08062e+01,-3.11654e+00,-2.46012e+00,1.16928e+00,3.18651e+00
5.30600e+02,4.05314e+01,-6.23307e+00,-2.53743e+00,1.15715e+00,3.23350e+00
5.30600e+02,4.02539e+01,-9.34961e+00,-2.61439e+00,1.14474e+00,3.28121e+00
5.30600e+02,3.99161e+01,-1.24661e+01,-2.68345e+00,1.13208e+00,3.32352e+00
5.30600e+02,3.95644e+01,-1.55827e+01,-2.75069e+00,1.11919e+00,3.36512e+00
5.30600e+02,3.91664e+01,-1.86992e+01,-2.81187e+00,1.10608e+00,3.40248e+00
5.30600e+02,3.87460e+01,-2.18158e+01,-2.87011e+00,1.09278e+00,3.43803e+00
5.30600e+02,3.82884e+01,-2.49323e+01,-2.92349e+00,1.07930e+00,3.47008e+00
5.30600e+02,3.78003e+01,-2.80488e+01,-2.97288e+00,1.06565e+00,3.49927e+00
5.30600e+02,3.72787e+01,-3.11654e+01,-3.01787e+00,1.05187e+00,3.52517e+00
5.30600e+02,3.67164e+01,-3.42819e+01,-3.05754e+00,1.03795e+00,3.54691e+00
5.30600e+02,3.61125e+01,-3.73984e+01,-3.09176e+00,1.02393e+00,3.56431e+00
5.30600e+02,3.54497e+01,-4.05150e+01,-3.11827e+00,1.00983e+00,3.57532e+00
5.30600e+02,3.47295e+01,-4.36315e+01,-3.13727e+00,9.95671e-01,3.58002e+00
5.30600e+02,3.39406e+01,-4.67480e+01,-3.14728e+00,9.81477e-01,3.57705e+00
5.30600e+02,3.30589e+01,-4.98646e+01,-3.14513e+00,9.67299e-01,3.56354e+00
5.30600e+02,3.21125e+01,-5.29811e+01,-3.13452e+00,9.53147e-01,3.54269e+00
5.30600e+02,3.10206e+01,-5.60976e+01,-3.10486e+00,9.39096e-01,3.50512e+00
5.30600e+02,2.98685e+01,-5.92142e+01,-3.06730e+00,9.25178e-01,3.46067e+00
5.30600e+02,2.85484e+01,-6.23307e+01,-3.00776e+00,9.11431e-01,3.39687e+00
5.30600e+02,2.70936e+01,-6.54473e+01,-2.93059e+00,8.97968e-01,3.31774e+00
5.30600e+02,2.55018e+01,-6.85638e+01,-2.83548e+00,8.84812e-01,3.22314e+00
5.30600e+02,2.36801e+01,-7.16803e+01,-2.71027e+00,8.72012e-01,3.10271e+00
5.30600e+02,2.15920e+01,-7.47969e+01,-2.55019e+00,8.59723e-01,2.95310e+00
5.30600e+02,1.92028e+01,-7.79134e+01,-2.35069e+00,8.48093e-01,2.77192e+00
5.30600e+02,1.63770e+01,-8.10299e+01,-2.09402e+00,8.37219e-01,2.54710e+00
5.30600e+02,1.27498e+01,-8.41465e+01,-1.73244e+00,8.27633e-01,2.24862e+00
5.30600e+02,7.84413e+00,-8.72630e+01,-1.20349e+00,8.21778e-01,1.86396e+00
5.30600e+02,-3.17838e+00,-9.03795e+01,1.26261e-01,8.24102e-01,1.43296e+00
5.30600e+02,-3.97388e+00,-9.03868e+01,2.30143e-01,8.31313e-01,1.45815e+00
5.30600e+02,-1.12214e+01,-8.71587e+01,1.29631e+00,8.44986e-01,1.95510e+00
5.30600e+02,-1.20989e+01,-8.39306e+01,1.52853e+00,8.55087e-01,2.12836e+00
5.30600e+02,-1.24018e+01,-8.07025e+01,1.68551e+00,8.65717e-01,2.25596e+00
5.30600e+02,-1.24477e+01,-7.74744e+01,1.80887e+00,8.76838e-01,2.36189e+00
5.30600e+02,-1.23001e+01,-7.42463e+01,1.90689e+00,8.88365e-01,2.45027e+00
5.30600e+02,-1.20311e+01,-7.10182e+01,1.98901e+00,9.00229e-01,2.52733e+00
5.30600e+02,-1.16402e+01,-6.77901e+01,2.05517e+00,9.12362e-01,2.59248e+00
5.30600e+02,-1.11748e+01,-6.45620e+01,2.11159e+00,9.24704e-01,2.65029e+00
5.30600e+02,-1.06664e+01,-6.13339e+01,2.16236e+00,9.37224e-01,2.70388e+00
5.30600e+02,-1.00929e+01,-5.81058e+01,2.20462e+00,9.49887e-01,2.75086e+00
5.30600e+02,-9.47882e+00,-5.48777e+01,2.24157e+00,9.62658e-01,2.79370e+00
5.30600e+02,-8.82518e+00,-5.16496e+01,2.27333e+00,9.75513e-01,2.83247e+00
5.30600e+02,-8.13212e+00,-4.84215e+01,2.29994e+00,9.88423e-01,2.86717e+00
5.30600e+02,-7.41437e+00,-4.51934e+01,2.32331e+00,1.00137e+00,2.89931e+00
5.30600e+02,-6.66496e+00,-4.19653e+01,2.34254e+00,1.01433e+00,2.92815e+00
5.30600e+02,-5.89529e+00,-3.87372e+01,2.35912e+00,1.02728e+00,2.95488e+00
5.30600e+02,-5.10745e+00,-3.55091e+01,2.37331e+00,1.04021e+00,2.97972e+00
5.30600e+02,-4.30339e+00,-3.22810e+01,2.38539e+00,1.05311e+00,3.00287e+00
5.30600e+02,-3.49245e+00,-2.90529e+01,2.39656e+00,1.06597e+00,3.02529e+00
5.30600e+02,-2.67088e+00,-2.58248e+01,2.40634e+00,1.07878e+00,3.04660e+00
5.30600e+02,-1.84753e+00,-2.25967e+01,2.41589e+00,1.09153e+00,3.06771e+00
5.30600e+02,-1.01782e+00,-1.93686e+01,2.42461e+00,1.10422e+00,3.08815e+00
5.30600e+02,-1.88198e-01,-1.61405e+01,2.43333e+00,1.11685e+00,3.10857e+00
5.30600e+02,6.38288e-01,-1.29124e+01,2.44247e+00,1.12942e+00,3.12929e+00
5.30600e+02,1.46477e+00,-9.68430e+00,2.45161e+00,1.14192e+00,3.14997e+00
5.30600e+02,2.27169e+00,-6.45620e+00,2.46331e+00,1.15436e+00,3.17262e+00
5.30600e+02,3.07496e+00,-3.22810e+00,2.47549e+00,1.16674e+00,3.19560e+00
6.33500e+02,4.06078e+01,0.00000e+00,-2.03616e+00,1.08412e+00,2.76982e+00
6.33500e+02,4.04033e+01,-3.08576e+00,-2.11054e+00,1.07330e+00,2.81253e+00
6.33500e+02,4.01312e+01,-6.17153e+00,-2.17725e+00,1.06222e+00,2.85051e+00
6.33500e+02,3.98564e+01,-9.25729e+00,-2.24366e+00,1.05089e+00,2.88914e+00
6.33500e+02,3.95220e+01,-1.23431e+01,-2.30330e+00,1.03933e+00,2.92333e+00
6.33500e+02,3.91738e+01,-1.54288e+01,-2.36137e+00,1.02756e+00,2.95698e+00
6.33500e+02,3.87797e+01,-1.85146e+01,-2.41425e+00,1.01558e+00,2.98711e+00
6.33500e+02,3.83634e+01,-2.16004e+01,-2.46461e+00,1.00343e+00,3.01578e+00
6.33500e+02,3.79104e+01,-2.46861e+01,-2.51079e+00,9.91118e-01,3.04155e+00
6.33500e+02,3.74271e+01,-2.77719e+01,-2.55355e+00,9.78656e-01,3.06495e+00
6.33500e+02,3.69106e+01,-3.08576e+01,-2.59253e+00,9.66063e-01,3.08562e+00
6.33500e+02,3.63539e+01,-3.39434e+01,-2.62695e+00,9.53355e-01,3.10283e+00
6.33500e+02,3.57559e+01,-3.70292e+01,-2.65670e+00,9.40549e-01,3.11640e+00
6.33500e+02,3.50997e+01,-4.01149e+01,-2.67983e+00,9.27668e-01,3.12461e+00
6.33500e+02,3.43866e+01,-4.32007e+01,-2.69651e+00,9.14736e-01,3.12753e+00
6.33500e+02,3.36055e+01,-4.62865e+01,-2.70549e+00,9.01772e-01,3.12398e+00
6.33500e+02,3.27325e+01,-4.93722e+01,-2.70403e+00,8.88822e-01,3.11156e+00
6.33500e+02,3.17954e+01,-5.24580e+01,-2.69531e+00,8.75895e-01,3.09294e+00
6.33500e+02,3.07144e+01,-5.55438e+01,-2.67025e+00,8.63062e-01,3.06021e+00
6.33500e+02,2.95736e+01,-5.86295e+01,-2.63842e+00,8.50350e-01,3.02168e+00
6.33500e+02,2.82665e+01,-6.17153e+01,-2.58772e+00,8.37794e-01,2.96681e+00
6.33500e+02,2.68261e+01,-6.48011e+01,-2.52189e+00,8.25497e-01,2.89901e+00
6.33500e+02,2.52500e+01,-6.78868e+01,-2.44068e+00,8.13481e-01,2.81819e+00
6.33500e+02,2.34463e+01,-7.09726e+01,-2.33364e+00,8.01790e-01,2.71560e+00
6.33500e+02,2.13788e+01,-7.40584e+01,-2.19668e+00,7.90566e-01,2.58851e+00
6.33500e+02,1.90132e+01,-7.71441e+01,-2.02591e+00,7.79944e-01,2.43500e+00
6.33500e+02,1.62153e+01,-8.02299e+01,-1.80608e+00,7.70012e-01,2.24515e+00
6.33500e+02,1.26239e+01,-8.33156e+01,-1.49625e+00,7.61256e-01,1.99432e+00
6.33500e+02,7.76668e+00,-8.64014e+01,-1.04282e+00,7.55910e-01,1.67382e+00
6.33500e+02,-3.14700e+00,-8.94872e+01,9.76590e-02,7.58032e-01,1.31658e+00
6.33500e+02,-3.93464e+00,-8.94943e+01,1.86784e-01,7.64619e-01,1.33747e+00
6.33500e+02,-1.11106e+01,-8.62981e+01,1.10191e+00,7.77108e-01,1.73951e+00
6.33500e+02,-1.19795e+01,-8.31019e+01,1.30154e+00,7.86334e-01,1.88387e+00
6.33500e+02,-1.22793e+01,-7.99057e+01,1.43663e+00,7.96042e-01,1.99122e+00
6.33500e+02,-1.23248e+01,-7.67094e+01,1.54286e+00,8.06200e-01,2.08093e+00
6.33500e+02,-1.21787e+01,-7.35132e+01,1.62735e+00,8.16729e-01,2.15625e+00
6.33500e+02,-1.19123e+01,-7.03170e+01,1.69821e+00,8.27565e-01,2.22228e+00
6.33500e+02,-1.15252e+01,-6.71208e+01,1.75537e+00,8.38647e-01,2.27845e+00
6.33500e+02,-1.10645e+01,-6.39245e+01,1.80418e+00,8.49920e-01,2.32855e+00
6.33500e+02,-1.05611e+01,-6.07283e+01,1.84814e+00,8.61355e-01,2.37516e+00
6.33500e+02,-9.99326e+00,-5.75321e+01,1.88479e+00,8.72920e-01,2.41628e+00
6.33500e+02,-9.38524e+00,-5.43358e+01,1.91689e+00,8.84585e-01,2.45397e+00
6.33500e+02,-8.73804e+00,-5.11396e+01,1.94454e+00,8.96326e-01,2.48826e+00
6.33500e+02,-8.05183e+00,-4.79434e+01,1.96777e+00,9.08117e-01,2.51916e+00
6.33500e+02,-7.34116e+00,-4.47472e+01,1.98822e+00,9.19940e-01,2.54792e+00
6.33500e+02,-6.59916e+00,-4.15509e+01,2.00512e+00,9.31776e-01,2.57393e+00
6.33500e+02,-5.83709e+00,-3.83547e+01,2.01974e+00,9.43607e-01,2.59818e+00
6.33500e+02,-5.05702e+00,-3.51585e+01,2.03232e+00,9.55421e-01,2.62084e+00
6.33500e+02,-4.26090e+00,-3.19623e+01,2.04308e+00,9.67203e-01,2.64209e+00
6.33500e+02,-3.45797e+00,-2.87660e+01,2.05307e+00,9.78947e-01,2.66272e+00
6.33500e+02,-2.64450e+00,-2.55698e+01,2.06186e+00,9.90645e-01,2.68242e+00
6.33500e+02,-1.82928e+00,-2.23736e+01,2.07045e+00,1.00229e+00,2.70195e+00
6.33500e+02,-1.00777e+00,-1.91774e+01,2.07833e+00,1.01388e+00,2.72091e+00
6.33500e+02,-1.86340e-01,-1.59811e+01,2.08622e+00,1.02542e+00,2.73984e+00
6.33500e+02,6.31986e-01,-1.27849e+01,2.09446e+00,1.03690e+00,2.75902e+00
6.33500e+02,1.45031e+00,-9.58868e+00,2.10270e+00,1.04831e+00,2.77816e+00
6.33500e+02,2.24926e+00,-6.39245e+00,2.11313e+00,1.05967e+00,2.79894e+00
6.33500e+02,3.04460e+00,-3.19623e+00,2.12398e+00,1.07098e+00,2.81998e+00
7.34700e+02,4.02095e+01,0.00000e+00,-1.72917e+00,9.88680e-01,2.43362e+00
7.34700e+02,4.00070e+01,-3.05550e+00,-1.79270e+00,9.78858e-01,2.46744e+00
7.34700e+02,3.97376e+01,-6.11100e+00,-1.84972e+00,9.68796e-01,2.49743e+00
7.34700e+02,3.94656e+01,-9.16651e+00,-1.90648e+00,9.58506e-01,2.52802e+00
7.34700e+02,3.91344e+01,-1.22220e+01,-1.95750e+00,9.48008e-01,2.55499e+00
7.34700e+02,3.87896e+01,-1.52775e+01,-2.00718e+00,9.37314e-01,2.58156e+00
7.34700e+02,3.83994e+01,-1.83330e+01,-2.05244e+00,9.26442e-01,2.60526e+00
7.34700e+02,3.79872e+01,-2.13885e+01,-2.09557e+00,9.15407e-01,2.62780e+00
7.34700e+02,3.75386e+01,-2.44440e+01,-2.13515e+00,9.04223e-01,2.64796e+00
7.34700e+02,3.70601e+01,-2.74995e+01,-2.17182e+00,8.92906e-01,2.66620e+00
7.34700e+02,3.65486e+01,-3.05550e+01,-2.20528e+00,8.81469e-01,2.68221e+00
7.34700e+02,3.59973e+01,-3.36105e+01,-2.23487e+00,8.69929e-01,2.69536e+00
7.34700e+02,3.54053e+01,-3.66660e+01,-2.26049e+00,8.58300e-01,2.70552e+00
7.34700e+02,3.47554e+01,-3.97215e+01,-2.28049e+00,8.46602e-01,2.71124e+00
7.34700e+02,3.40493e+01,-4.27770e+01,-2.29501e+00,8.34858e-01,2.71257e+00
7.34700e+02,3.32760e+01,-4.58325e+01,-2.30298e+00,8.23085e-01,2.70853e+00
7.34700e+02,3.24115e+01,-4.88880e+01,-2.30209e+00,8.11325e-01,2.69710e+00
7.34700e+02,3.14836e+01,-5.19435e+01,-2.29503e+00,7.99586e-01,2.68052e+00
7.34700e+02,3.04131e+01,-5.49990e+01,-2.27409e+00,7.87932e-01,2.65217e+00
7.34700e+02,2.92835e+01,-5.80545e+01,-2.24740e+00,7.76388e-01,2.61899e+00
7.34700e+02,2.79893e+01,-6.11100e+01,-2.20468e+00,7.64985e-01,2.57220e+00
7.34700e+02,2.65630e+01,-6.41655e+01,-2.14911e+00,7.53818e-01,2.51464e+00
7.34700e+02,2.50024e+01,-6.72210e+01,-2.08047e+00,7.42906e-01,2.44624e+00
7.34700e+02,2.32164e+01,-7.02765e+01,-1.98990e+00,7.32290e-01,2.35975e+00
7.34700e+02,2.11691e+01,-7.33320e+01,-1.87390e+00,7.22097e-01,2.25295e+00
7.34700e+02,1.88268e+01,-7.63875e+01,-1.72918e+00,7.12451e-01,2.12434e+00
7.34700e+02,1.60563e+01,-7.94430e+01,-1.54280e+00,7.03432e-01,1.96588e+00
7.34700e+02,1.25001e+01,-8.24985e+01,-1.27995e+00,6.95481e-01,1.75766e+00
7.34700e+02,7.69051e+00,-8.55540e+01,-8.95125e-01,6.90626e-01,1.49404e+00
7.34700e+02,-3.11614e+00,-8.86096e+01,7.33325e-02,6.92554e-01,1.20178e+00
7.34700e+02,-3.89606e+00,-8.86166e+01,1.49041e-01,6.98535e-01,1.21904e+00
7.34700e+02,-1.10017e+01,-8.54518e+01,9.26775e-01,7.09877e-01,1.53970e+00
7.34700e+02,-1.18620e+01,-8.22869e+01,1.09672e+00,7.18255e-01,1.65845e+00
7.34700e+02,-1.21589e+01,-7.91220e+01,1.21183e+00,7.27072e-01,1.74769e+00
7.34700e+02,-1.22039e+01,-7.59571e+01,1.30243e+00,7.36297e-01,1.82284e+00
7.34700e+02,-1.20592e+01,-7.27922e+01,1.37457e+00,7.45858e-01,1.88636e+00
7.34700e+02,-1.17955e+01,-6.96274e+01,1.43512e+00,7.55698e-01,1.94237e+00
7.34700e+02,-1.14122e+01,-6.64625e+01,1.48404e+00,7.65762e-01,1.99036e+00
7.34700e+02,-1.09560e+01,-6.32976e+01,1.52586e+00,7.75999e-01,2.03341e+00
7.34700e+02,-1.04575e+01,-6.01327e+01,1.56356e+00,7.86384e-01,2.07363e+00
7.34700e+02,-9.89525e+00,-5.69678e+01,1.59506e+00,7.96887e-01,2.10934e+00
7.34700e+02,-9.29319e+00,-5.38030e+01,1.62269e+00,8.07479e-01,2.14224e+00
7.34700e+02,-8.65235e+00,-5.06381e+01,1.64654e+00,8.18141e-01,2.17236e+00
7.34700e+02,-7.97287e+00,-4.74732e+01,1.66663e+00,8.28849e-01,2.19969e+00
7.34700e+02,-7.26917e+00,-4.43083e+01,1.68437e+00,8.39586e-01,2.22527e+00
7.34700e+02,-6.53444e+00,-4.11434e+01,1.69908e+00,8.50334e-01,2.24858e+00
7.34700e+02,-5.77984e+00,-3.79786e+01,1.71187e+00,8.61078e-01,2.27043e+00
7.34700e+02,-5.00742e+00,-3.48137e+01,1.72291e+00,8.71806e-01,2.29098e+00
7.34700e+02,-4.21911e+00,-3.16488e+01,1.73241e+00,8.82506e-01,2.31035e+00
7.34700e+02,-3.42406e+00,-2.84839e+01,1.74126e+00,8.93171e-01,2.32921e+00
7.34700e+02,-2.61857e+00,-2.53190e+01,1.74909e+00,9.03793e-01,2.34730e+00
7.34700e+02,-1.81134e+00,-2.21542e+01,1.75675e+00,9.14370e-01,2.36524e+00
7.34700e+02,-9.97887e-01,-1.89893e+01,1.76380e+00,9.24897e-01,2.38271e+00
7.34700e+02,-1.84513e-01,-1.58244e+01,1.77086e+00,9.35372e-01,2.40015e+00
7.34700e+02,6.25788e-01,-1.26595e+01,1.77822e+00,9.45794e-01,2.41778e+00
7.34700e+02,1.43609e+00,-9.49464e+00,1.78558e+00,9.56160e-01,2.43537e+00
7.34700e+02,2.22720e+00,-6.32976e+00,1.79481e+00,9.66476e-01,2.45430e+00
7.34700e+02,3.01474e+00,-3.16488e+00,1.80439e+00,9.76748e-01,2.47344e+00
8.33800e+02,3.98196e+01,0.00000e+00,-1.45300e+00,8.95395e-01,2.12518e+00
8.33800e+02,3.96190e+01,-3.02587e+00,-1.50671e+00,8.86529e-01,2.15127e+00
8.33800e+02,3.93522e+01,-6.05173e+00,-1.55494e+00,8.77447e-01,2.17430e+00
8.33800e+02,3.90828e+01,-9.07760e+00,-1.60296e+00,8.68159e-01,2.19786e+00
8.33800e+02,3.87549e+01,-1.21035e+01,-1.64614e+00,8.58682e-01,2.21851e+00
8.33800e+02,3.84134e+01,-1.51293e+01,-1.68821e+00,8.49030e-01,2.23888e+00
8.33800e+02,3.80270e+01,-1.81552e+01,-1.72656e+00,8.39217e-01,2.25696e+00
8.33800e+02,3.76188e+01,-2.11811e+01,-1.76312e+00,8.29256e-01,2.27411e+00
8.33800e+02,3.71745e+01,-2.42069e+01,-1.79669e+00,8.19161e-01,2.28936e+00
8.33800e+02,3.67006e+01,-2.72328e+01,-1.82782e+00,8.08946e-01,2.30307e+00
8.33800e+02,3.61941e+01,-3.02587e+01,-1.85626e+00,7.98623e-01,2.31497e+00
8.33800e+02,3.56482e+01,-3.32845e+01,-1.88144e+00,7.88207e-01,2.32457e+00
8.33800e+02,3.50619e+01,-3.63104e+01,-1.90328e+00,7.77710e-01,2.33173e+00
8.33800e+02,3.44183e+01,-3.93363e+01,-1.92039e+00,7.67151e-01,2.33526e+00
8.33800e+02,3.37191e+01,-4.23621e+01,-1.93290e+00,7.56550e-01,2.33521e+00
8.33800e+02,3.29532e+01,-4.53880e+01,-1.93991e+00,7.45924e-01,2.33077e+00
8.33800e+02,3.20971e+01,-4.84139e+01,-1.93947e+00,7.35309e-01,2.32026e+00
8.33800e+02,3.11783e+01,-5.14397e+01,-1.93384e+00,7.24713e-01,2.30551e+00
8.33800e+02,3.01182e+01,-5.44656e+01,-1.91655e+00,7.14194e-01,2.28109e+00
8.33800e+02,2.89995e+01,-5.74915e+01,-1.89442e+00,7.03774e-01,2.25272e+00
8.33800e+02,2.77178e+01,-6.05173e+01,-1.85882e+00,6.93482e-01,2.21314e+00
8.33800e+02,2.63054e+01,-6.35432e+01,-1.81242e+00,6.83403e-01,2.16472e+00
8.33800e+02,2.47599e+01,-6.65691e+01,-1.75504e+00,6.73553e-01,2.10741e+00
8.33800e+02,2.29912e+01,-6.95949e+01,-1.67921e+00,6.63971e-01,2.03527e+00
8.33800e+02,2.09638e+01,-7.26208e+01,-1.58202e+00,6.54770e-01,1.94653e+00
8.33800e+02,1.86442e+01,-7.56467e+01,-1.46069e+00,6.46064e-01,1.84005e+00
8.33800e+02,1.59005e+01,-7.86725e+01,-1.30433e+00,6.37923e-01,1.70942e+00
8.33800e+02,1.23789e+01,-8.16984e+01,-1.08371e+00,6.30747e-01,1.53881e+00
8.33800e+02,7.61592e+00,-8.47243e+01,-7.60551e-01,6.26365e-01,1.32493e+00
8.33800e+02,-3.08591e+00,-8.77501e+01,5.31672e-02,6.28105e-01,1.08921e+00
8.33800e+02,-3.85827e+00,-8.77572e+01,1.16802e-01,6.33504e-01,1.10346e+00
8.33800e+02,-1.08950e+01,-8.46230e+01,7.70835e-01,6.43742e-01,1.35551e+00
8.33800e+02,-1.17470e+01,-8.14888e+01,9.13998e-01,6.51304e-01,1.45189e+00
8.33800e+02,-1.20409e+01,-7.83546e+01,1.01107e+00,6.59262e-01,1.52517e+00
8.33800e+02,-1.20856e+01,-7.52204e+01,1.08754e+00,6.67589e-01,1.58738e+00
8.33800e+02,-1.19423e+01,-7.20862e+01,1.14850e+00,6.76219e-01,1.64038e+00
8.33800e+02,-1.16811e+01,-6.89521e+01,1.19971e+00,6.85101e-01,1.68742e+00
8.33800e+02,-1.13015e+01,-6.58179e+01,1.24115e+00,6.94185e-01,1.72804e+00
8.33800e+02,-1.08497e+01,-6.26837e+01,1.27661e+00,7.03425e-01,1.76470e+00
8.33800e+02,-1.03561e+01,-5.95495e+01,1.30862e+00,7.12798e-01,1.79909e+00
8.33800e+02,-9.79928e+00,-5.64153e+01,1.33542e+00,7.22278e-01,1.82987e+00
8.33800e+02,-9.20306e+00,-5.32811e+01,1.35896e+00,7.31840e-01,1.85837e+00
8.33800e+02,-8.56843e+00,-5.01469e+01,1.37933e+00,7.41463e-01,1.88463e+00
8.33800e+02,-7.89554e+00,-4.70128e+01,1.39653e+00,7.51128e-01,1.90863e+00
8.33800e+02,-7.19866e+00,-4.38786e+01,1.41176e+00,7.60819e-01,1.93122e+00
8.33800e+02,-6.47106e+00,-4.07444e+01,1.42444e+00,7.70521e-01,1.95196e+00
8.33800e+02,-5.72378e+00,-3.76102e+01,1.43551e+00,7.80218e-01,1.97152e+00
8.33800e+02,-4.95886e+00,-3.44760e+01,1.44511e+00,7.89902e-01,1.99002e+00
8.33800e+02,-4.17819e+00,-3.13418e+01,1.45341e+00,7.99560e-01,2.00756e+00
8.33800e+02,-3.39085e+00,-2.82077e+01,1.46117e+00,8.09186e-01,2.02468e+00
8.33800e+02,-2.59317e+00,-2.50735e+01,1.46806e+00,8.18773e-01,2.04117e+00
8.33800e+02,-1.79378e+00,-2.19393e+01,1.47482e+00,8.28320e-01,2.05753e+00
8.33800e+02,-9.88209e-01,-1.88051e+01,1.48107e+00,8.37822e-01,2.07350e+00
8.33800e+02,-1.82723e-01,-1.56709e+01,1.48732e+00,8.47276e-01,2.08944e+00
8.33800e+02,6.19718e-01,-1.25367e+01,1.49383e+00,8.56683e-01,2.10552e+00
8.33800e+02,1.42216e+00,-9.40255e+00,1.50033e+00,8.66039e-01,2.12157e+00
8.33800e+02,2.20560e+00,-6.26837e+00,1.50841e+00,8.75350e-01,2.13869e+00
8.33800e+02,2.98550e+00,-3.13418e+00,1.51677e+00,8.84621e-01,2.15598e+00
9.30700e+02,3.94382e+01,0.00000e+00,-1.20658e+00,8.03957e-01,1.84252e+00
9.30700e+02,3.92396e+01,-2.99689e+00,-1.25146e+00,7.96010e-01,1.86200e+00
9.30700e+02,3.89754e+01,-5.99378e+00,-1.29179e+00,7.87871e-01,1.87908e+00
9.30700e+02,3.87085e+01,-8.99067e+00,-1.33194e+00,7.79546e-01,1.89661e+00
9.30700e+02,3.83837e+01,-1.19876e+01,-1.36808e+00,7.71052e-01,1.91186e+00
9.30700e+02,3.80455e+01,-1.49844e+01,-1.40328e+00,7.62401e-01,1.92691e+00
9.30700e+02,3.76628e+01,-1.79813e+01,-1.43541e+00,7.53606e-01,1.94015e+00
9.30700e+02,3.72585e+01,-2.09782e+01,-1.46604e+00,7.44679e-01,1.95267e+00
9.30700e+02,3.68185e+01,-2.39751e+01,-1.49419e+00,7.35631e-01,1.96369e+00
9.30700e+02,3.63492e+01,-2.69720e+01,-1.52032e+00,7.26476e-01,1.97349e+00
9.30700e+02,3.58475e+01,-2.99689e+01,-1.54420e+00,7.17224e-01,1.98187e+00
9.30700e+02,3.53068e+01,-3.29658e+01,-1.56538e+00,7.07889e-01,1.98840e+00
9.30700e+02,3.47261e+01,-3.59627e+01,-1.58379e+00,6.98481e-01,1.99299e+00
9.30700e+02,3.40887e+01,-3.89596e+01,-1.59827e+00,6.89017e-01,1.99467e+00
9.30700e+02,3.33962e+01,-4.19565e+01,-1.60893e+00,6.79517e-01,1.99346e+00
9.30700e+02,3.26376e+01,-4.49533e+01,-1.61502e+00,6.69993e-01,1.98870e+00
9.30700e+02,3.17897e+01,-4.79502e+01,-1.61491e+00,6.60479e-01,1.97905e+00
9.30700e+02,3.08797e+01,-5.09471e+01,-1.61050e+00,6.50983e-01,1.96598e+00
9.30700e+02,2.98297e+01,-5.39440e+01,-1.59640e+00,6.41555e-01,1.94507e+00
9.30700e+02,2.87218e+01,-5.69409e+01,-1.57829e+00,6.32217e-01,1.92096e+00
9.30700e+02,2.74524e+01,-5.99378e+01,-1.54898e+00,6.22992e-01,1.88777e+00
9.30700e+02,2.60534e+01,-6.29347e+01,-1.51070e+00,6.13959e-01,1.84745e+00
9.30700e+02,2.45228e+01,-6.59316e+01,-1.46330e+00,6.05131e-01,1.79994e+00
9.30700e+02,2.27710e+01,-6.89285e+01,-1.40058e+00,5.96543e-01,1.74046e+00
9.30700e+02,2.07631e+01,-7.19254e+01,-1.32011e+00,5.88298e-01,1.66762e+00
9.30700e+02,1.84656e+01,-7.49222e+01,-1.21958e+00,5.80494e-01,1.58060e+00
9.30700e+02,1.57483e+01,-7.79191e+01,-1.08997e+00,5.73199e-01,1.47435e+00
9.30700e+02,1.22603e+01,-8.09160e+01,-9.06967e-01,5.66767e-01,1.33651e+00
9.30700e+02,7.54299e+00,-8.39129e+01,-6.38797e-01,5.62840e-01,1.16552e+00
9.30700e+02,-3.05636e+00,-8.69098e+01,3.68682e-02,5.64400e-01,9.78264e-01
9.30700e+02,-3.82132e+00,-8.69168e+01,8.97270e-02,5.69239e-01,9.90025e-01
9.30700e+02,-1.07906e+01,-8.38126e+01,6.33286e-01,5.78414e-01,1.18522e+00
9.30700e+02,-1.16345e+01,-8.07084e+01,7.52481e-01,5.85192e-01,1.26237e+00
9.30700e+02,-1.19256e+01,-7.76042e+01,8.33390e-01,5.92325e-01,1.32177e+00
9.30700e+02,-1.19698e+01,-7.45001e+01,8.97188e-01,5.99787e-01,1.37265e+00
9.30700e+02,-1.18279e+01,-7.13959e+01,9.48094e-01,6.07522e-01,1.41638e+00
9.30700e+02,-1.15692e+01,-6.82917e+01,9.90910e-01,6.15483e-01,1.45546e+00
9.30700e+02,-1.11933e+01,-6.51876e+01,1.02560e+00,6.23624e-01,1.48949e+00
9.30700e+02,-1.07458e+01,-6.20834e+01,1.05534e+00,6.31905e-01,1.52041e+00
9.30700e+02,-1.02569e+01,-5.89792e+01,1.08220e+00,6.40306e-01,1.54956e+00
9.30700e+02,-9.70544e+00,-5.58751e+01,1.10474e+00,6.48802e-01,1.57584e+00
9.30700e+02,-9.11493e+00,-5.27709e+01,1.12456e+00,6.57371e-01,1.60033e+00
9.30700e+02,-8.48637e+00,-4.96667e+01,1.14176e+00,6.65997e-01,1.62304e+00
9.30700e+02,-7.81993e+00,-4.65625e+01,1.15632e+00,6.74659e-01,1.64395e+00
9.30700e+02,-7.12973e+00,-4.34584e+01,1.16924e+00,6.83344e-01,1.66373e+00
9.30700e+02,-6.40909e+00,-4.03542e+01,1.18006e+00,6.92039e-01,1.68205e+00
9.30700e+02,-5.66897e+00,-3.72500e+01,1.18952e+00,7.00730e-01,1.69942e+00
9.30700e+02,-4.91137e+00,-3.41459e+01,1.19777e+00,7.09409e-01,1.71594e+00
9.30700e+02,-4.13818e+00,-3.10417e+01,1.20494e+00,7.18064e-01,1.73169e+00
9.30700e+02,-3.35837e+00,-2.79375e+01,1.21166e+00,7.26691e-01,1.74710e+00
9.30700e+02,-2.56834e+00,-2.48334e+01,1.21766e+00,7.35284e-01,1.76200e+00
9.30700e+02,-1.77660e+00,-2.17292e+01,1.22355e+00,7.43840e-01,1.77678e+00
9.30700e+02,-9.78745e-01,-1.86250e+01,1.22901e+00,7.52356e-01,1.79125e+00
9.30700e+02,-1.80973e-01,-1.55208e+01,1.23448e+00,7.60828e-01,1.80569e+00
9.30700e+02,6.13784e-01,-1.24167e+01,1.24016e+00,7.69259e-01,1.82024e+00
9.30700e+02,1.40854e+00,-9.31251e+00,1.24584e+00,7.77644e-01,1.83475e+00
9.30700e+02,2.18448e+00,-6.20834e+00,1.25282e+00,7.85989e-01,1.85010e+00
9.30700e+02,2.95691e+00,-3.10417e+00,1.26004e+00,7.94298e-01,1.86559e+00
1.02500e+03,3.90671e+01,0.00000e+00,-9.89282e-01,7.14903e-01,1.58491e+00
1.02500e+03,3.88704e+01,-2.96869e+00,-1.02631e+00,7.07828e-01,1.59887e+00
1.02500e+03,3.86086e+01,-5.93738e+00,-1.05962e+00,7.00580e-01,1.61097e+00
1.02500e+03,3.83443e+01,-8.90607e+00,-1.09277e+00,6.93167e-01,1.62345e+00
1.02500e+03,3.80226e+01,-1.18748e+01,-1.12264e+00,6.85604e-01,1.63416e+00
1.02500e+03,3.76875e+01,-1.48435e+01,-1.15174e+00,6.77901e-01,1.64473e+00
1.02500e+03,3.73084e+01,-1.78121e+01,-1.17831e+00,6.70069e-01,1.65390e+00
1.02500e+03,3.69079e+01,-2.07808e+01,-1.20366e+00,6.62120e-01,1.66253e+00
1.02500e+03,3.64721e+01,-2.37495e+01,-1.22697e+00,6.54063e-01,1.66999e+00
1.02500e+03,3.60071e+01,-2.67182e+01,-1.24862e+00,6.45911e-01,1.67650e+00
1.02500e+03,3.55102e+01,-2.96869e+01,-1.26844e+00,6.37673e-01,1.68191e+00
1.02500e+03,3.49746e+01,-3.26556e+01,-1.28603e+00,6.29360e-01,1.68587e+00
1.02500e+03,3.43994e+01,-3.56243e+01,-1.30136e+00,6.20983e-01,1.68831e+00
1.02500e+03,3.37680e+01,-3.85930e+01,-1.31346e+00,6.12556e-01,1.68845e+00
1.02500e+03,3.30819e+01,-4.15617e+01,-1.32242e+00,6.04097e-01,1.68630e+00
1.02500e+03,3.23305e+01,-4.45304e+01,-1.32764e+00,5.95616e-01,1.68134e+00
1.02500e+03,3.14906e+01,-4.74990e+01,-1.32778e+00,5.87145e-01,1.67249e+00
1.02500e+03,3.05891e+01,-5.04677e+01,-1.32439e+00,5.78689e-01,1.66092e+00
1.02500e+03,2.95491e+01,-5.34364e+01,-1.31305e+00,5.70294e-01,1.64311e+00
1.02500e+03,2.84516e+01,-5.64051e+01,-1.29842e+00,5.61979e-01,1.62276e+00
1.02500e+03,2.71940e+01,-5.93738e+01,-1.27460e+00,5.53766e-01,1.59518e+00
1.02500e+03,2.58083e+01,-6.23425e+01,-1.24344e+00,5.45722e-01,1.56191e+00
1.02500e+03,2.42920e+01,-6.53112e+01,-1.20478e+00,5.37862e-01,1.52295e+00
1.02500e+03,2.25567e+01,-6.82799e+01,-1.15356e+00,5.30215e-01,1.47448e+00
1.02500e+03,2.05677e+01,-7.12486e+01,-1.08779e+00,5.22873e-01,1.41544e+00
1.02500e+03,1.82919e+01,-7.42173e+01,-1.00557e+00,5.15925e-01,1.34525e+00
1.02500e+03,1.56001e+01,-7.71859e+01,-8.99483e-01,5.09428e-01,1.26001e+00
1.02500e+03,1.21450e+01,-8.01546e+01,-7.49615e-01,5.03701e-01,1.15025e+00
1.02500e+03,7.47201e+00,-8.31233e+01,-5.29893e-01,5.00205e-01,1.01558e+00
1.02500e+03,-3.02760e+00,-8.60920e+01,2.40465e-02,5.01594e-01,8.69119e-01
1.02500e+03,-3.78536e+00,-8.60989e+01,6.73996e-02,5.05903e-01,8.78838e-01
1.02500e+03,-1.06891e+01,-8.30239e+01,5.13446e-01,5.14073e-01,1.02783e+00
1.02500e+03,-1.15250e+01,-7.99490e+01,6.11440e-01,5.20109e-01,1.08876e+00
1.02500e+03,-1.18134e+01,-7.68740e+01,6.78033e-01,5.26460e-01,1.13631e+00
1.02500e+03,-1.18572e+01,-7.37991e+01,7.30591e-01,5.33105e-01,1.17744e+00
1.02500e+03,-1.17166e+01,-7.07241e+01,7.72576e-01,5.39992e-01,1.21311e+00
1.02500e+03,-1.14604e+01,-6.76491e+01,8.07925e-01,5.47080e-01,1.24524e+00
1.02500e+03,-1.10880e+01,-6.45742e+01,8.36612e-01,5.54330e-01,1.27349e+00
1.02500e+03,-1.06447e+01,-6.14992e+01,8.61235e-01,5.61704e-01,1.29933e+00
1.02500e+03,-1.01604e+01,-5.84243e+01,8.83501e-01,5.69184e-01,1.32381e+00
1.02500e+03,-9.61411e+00,-5.53493e+01,9.02215e-01,5.76749e-01,1.34607e+00
1.02500e+03,-9.02916e+00,-5.22743e+01,9.18710e-01,5.84379e-01,1.36694e+00
1.02500e+03,-8.40652e+00,-4.91994e+01,9.33043e-01,5.92059e-01,1.38642e+00
1.02500e+03,-7.74634e+00,-4.61244e+01,9.45223e-01,5.99772e-01,1.40450e+00
1.02500e+03,-7.06264e+00,-4.30495e+01,9.56053e-01,6.07506e-01,1.42170e+00
1.02500e+03,-6.34878e+00,-3.99745e+01,9.65155e-01,6.15248e-01,1.43775e+00
1.02500e+03,-5.61563e+00,-3.68995e+01,9.73148e-01,6.22987e-01,1.45305e+00
1.02500e+03,-4.86516e+00,-3.38246e+01,9.80149e-01,6.30714e-01,1.46768e+00
1.02500e+03,-4.09924e+00,-3.07496e+01,9.86264e-01,6.38421e-01,1.48171e+00
1.02500e+03,-3.32677e+00,-2.76746e+01,9.92003e-01,6.46103e-01,1.49547e+00
1.02500e+03,-2.54417e+00,-2.45997e+01,9.97161e-01,6.53754e-01,1.50881e+00
1.02500e+03,-1.75988e+00,-2.15247e+01,1.00222e+00,6.61372e-01,1.52207e+00
1.02500e+03,-9.69535e-01,-1.84498e+01,1.00694e+00,6.68955e-01,1.53506e+00
1.02500e+03,-1.79270e-01,-1.53748e+01,1.01165e+00,6.76499e-01,1.54803e+00
1.02500e+03,6.08008e-01,-1.22998e+01,1.01654e+00,6.84006e-01,1.56107e+00
1.02500e+03,1.39529e+00,-9.22488e+00,1.02143e+00,6.91472e-01,1.57408e+00
1.02500e+03,2.16392e+00,-6.14992e+00,1.02739e+00,6.98903e-01,1.58774e+00
1.02500e+03,2.92908e+00,-3.07496e+00,1.03355e+00,7.06301e-01,1.60150e+00
1.11650e+03,3.87070e+01,0.00000e+00,-7.99823e-01,6.28141e-01,1.35033e+00
1.11650e+03,3.85121e+01,-2.94133e+00,-8.29962e-01,6.21902e-01,1.35983e+00
1.11650e+03,3.82528e+01,-5.88266e+00,-8.57086e-01,6.15512e-01,1.36790e+00
1.11650e+03,3.79909e+01,-8.82398e+00,-8.84089e-01,6.08977e-01,1.37629e+00
1.11650e+03,3.76721e+01,-1.17653e+01,-9.08430e-01,6.02309e-01,1.38332e+00
1.11650e+03,3.73401e+01,-1.47066e+01,-9.32154e-01,5.95517e-01,1.39026e+00
1.11650e+03,3.69645e+01,-1.76480e+01,-9.53833e-01,5.88612e-01,1.39613e+00
1.11650e+03,3.65678e+01,-2.05893e+01,-9.74521e-01,5.81604e-01,1.40160e+00
1.11650e+03,3.61359e+01,-2.35306e+01,-9.93568e-01,5.74501e-01,1.40618e+00
1.11650e+03,3.56753e+01,-2.64720e+01,-1.01127e+00,5.67314e-01,1.41003e+00
1.11650e+03,3.51829e+01,-2.94133e+01,-1.02748e+00,5.60050e-01,1.41304e+00
1.11650e+03,3.46522e+01,-3.23546e+01,-1.04190e+00,5.52721e-01,1.41494e+00
1.11650e+03,3.40823e+01,-3.52959e+01,-1.05448e+00,5.45336e-01,1.41566e+00
1.11650e+03,3.34567e+01,-3.82373e+01,-1.06445e+00,5.37907e-01,1.41460e+00
1.11650e+03,3.27770e+01,-4.11786e+01,-1.07189e+00,5.30448e-01,1.41177e+00
1.11650e+03,3.20325e+01,-4.41199e+01,-1.07630e+00,5.22972e-01,1.40674e+00
1.11650e+03,3.12004e+01,-4.70612e+01,-1.07660e+00,5.15503e-01,1.39868e+00
1.11650e+03,3.03072e+01,-5.00026e+01,-1.07405e+00,5.08048e-01,1.38850e+00
1.11650e+03,2.92767e+01,-5.29439e+01,-1.06507e+00,5.00647e-01,1.37343e+00
1.11650e+03,2.81893e+01,-5.58852e+01,-1.05342e+00,4.93316e-01,1.35638e+00
1.11650e+03,2.69434e+01,-5.88266e+01,-1.03435e+00,4.86075e-01,1.33367e+00
1.11650e+03,2.55704e+01,-6.17679e+01,-1.00933e+00,4.78983e-01,1.30653e+00
1.11650e+03,2.40681e+01,-6.47092e+01,-9.78255e-01,4.72053e-01,1.27495e+00
1.11650e+03,2.23488e+01,-6.76505e+01,-9.37019e-01,4.65311e-01,1.23594e+00
1.11650e+03,2.03781e+01,-7.05919e+01,-8.84012e-01,4.58838e-01,1.18873e+00
1.11650e+03,1.81233e+01,-7.35332e+01,-8.17700e-01,4.52713e-01,1.13291e+00
1.11650e+03,1.54563e+01,-7.64745e+01,-7.32092e-01,4.46986e-01,1.06553e+00
1.11650e+03,1.20330e+01,-7.94159e+01,-6.11072e-01,4.41937e-01,9.79455e-01
1.11650e+03,7.40314e+00,-8.23572e+01,-4.33556e-01,4.38854e-01,8.75071e-01
1.11650e+03,-2.99970e+00,-8.52985e+01,1.42649e-02,4.40079e-01,7.62373e-01
1.11650e+03,-3.75047e+00,-8.53053e+01,4.93271e-02,4.43878e-01,7.70400e-01
1.11650e+03,-1.05906e+01,-8.22587e+01,4.10271e-01,4.51082e-01,8.82466e-01
1.11650e+03,-1.14188e+01,-7.92121e+01,4.89720e-01,4.56403e-01,9.29912e-01
1.11650e+03,-1.17045e+01,-7.61655e+01,5.43773e-01,4.62002e-01,9.67485e-01
1.11650e+03,-1.17479e+01,-7.31189e+01,5.86476e-01,4.67860e-01,1.00032e+00
1.11650e+03,-1.16086e+01,-7.00722e+01,6.20627e-01,4.73932e-01,1.02908e+00
1.11650e+03,-1.13547e+01,-6.70256e+01,6.49411e-01,4.80182e-01,1.05521e+00
1.11650e+03,-1.09858e+01,-6.39790e+01,6.72807e-01,4.86573e-01,1.07839e+00
1.11650e+03,-1.05466e+01,-6.09324e+01,6.92916e-01,4.93074e-01,1.09977e+00
1.11650e+03,-1.00667e+01,-5.78858e+01,7.11119e-01,4.99669e-01,1.12013e+00
1.11650e+03,-9.52550e+00,-5.48391e+01,7.26450e-01,5.06339e-01,1.13880e+00
1.11650e+03,-8.94594e+00,-5.17925e+01,7.39985e-01,5.13066e-01,1.15641e+00
1.11650e+03,-8.32904e+00,-4.87459e+01,7.51772e-01,5.19837e-01,1.17297e+00
1.11650e+03,-7.67495e+00,-4.56993e+01,7.61818e-01,5.26637e-01,1.18845e+00
1.11650e+03,-6.99754e+00,-4.26527e+01,7.70773e-01,5.33455e-01,1.20325e+00
1.11650e+03,-6.29027e+00,-3.96060e+01,7.78328e-01,5.40281e-01,1.21717e+00
1.11650e+03,-5.56387e+00,-3.65594e+01,7.84988e-01,5.47103e-01,1.23052e+00
1.11650e+03,-4.82031e+00,-3.35128e+01,7.90846e-01,5.53916e-01,1.24334e+00
1.11650e+03,-4.06146e+00,-3.04662e+01,7.95986e-01,5.60711e-01,1.25570e+00
1.11650e+03,-3.29611e+00,-2.74196e+01,8.00823e-01,5.67483e-01,1.26784e+00
1.11650e+03,-2.52072e+00,-2.43730e+01,8.05189e-01,5.74228e-01,1.27967e+00
1.11650e+03,-1.74366e+00,-2.13263e+01,8.09477e-01,5.80945e-01,1.29141e+00
1.11650e+03,-9.60599e-01,-1.82797e+01,8.13484e-01,5.87630e-01,1.30295e+00
1.11650e+03,-1.77618e-01,-1.52331e+01,8.17495e-01,5.94281e-01,1.31446e+00
1.11650e+03,6.02404e-01,-1.21865e+01,8.21645e-01,6.00899e-01,1.32602e+00
1.11650e+03,1.38243e+00,-9.13986e+00,8.25794e-01,6.07481e-01,1.33755e+00
1.11650e+03,2.14398e+00,-6.09324e+00,8.30809e-01,6.14032e-01,1.34957e+00
1.11650e+03,2.90209e+00,-3.04662e+00,8.35984e-01,6.20554e-01,1.36167e+00
1.20500e+03,3.76912e+01,0.00000e+00,-9.07924e-01,6.08228e-01,1.39074e+00
1.20500e+03,3.75014e+01,-2.86413e+00,-9.40304e-01,6.00577e-01,1.40223e+00
1.20500e+03,3.72488e+01,-5.72827e+00,-9.69250e-01,5.92740e-01,1.41190e+00
1.20500e+03,3.69938e+01,-8.59240e+00,-9.98060e-01,5.84724e-01,1.42191e+00
1.20500e+03,3.66834e+01,-1.14565e+01,-1.02384e+00,5.76545e-01,1.43020e+00
1.20500e+03,3.63602e+01,-1.43207e+01,-1.04891e+00,5.68214e-01,1.43834e+00
1.20500e+03,3.59944e+01,-1.71848e+01,-1.07166e+00,5.59743e-01,1.44513e+00
1.20500e+03,3.56080e+01,-2.00489e+01,-1.09328e+00,5.51144e-01,1.45140e+00
1.20500e+03,3.51875e+01,-2.29131e+01,-1.11304e+00,5.42429e-01,1.45655e+00
1.20500e+03,3.47390e+01,-2.57772e+01,-1.13125e+00,5.33610e-01,1.46080e+00
1.20500e+03,3.42596e+01,-2.86413e+01,-1.14778e+00,5.24697e-01,1.46401e+00
1.20500e+03,3.37428e+01,-3.15055e+01,-1.16226e+00,5.15702e-01,1.46584e+00
1.20500e+03,3.31878e+01,-3.43696e+01,-1.17465e+00,5.06638e-01,1.46624e+00
1.20500e+03,3.25787e+01,-3.72337e+01,-1.18408e+00,4.97520e-01,1.46445e+00
1.20500e+03,3.19168e+01,-4.00979e+01,-1.19062e+00,4.88366e-01,1.46050e+00
1.20500e+03,3.11919e+01,-4.29620e+01,-1.19370e+00,4.79188e-01,1.45389e+00
1.20500e+03,3.03815e+01,-4.58261e+01,-1.19212e+00,4.70020e-01,1.44357e+00
1.20500e+03,2.95118e+01,-4.86903e+01,-1.18728e+00,4.60869e-01,1.43067e+00
1.20500e+03,2.85084e+01,-5.15544e+01,-1.17512e+00,4.51782e-01,1.41182e+00
1.20500e+03,2.74495e+01,-5.44186e+01,-1.15993e+00,4.42782e-01,1.39054e+00
1.20500e+03,2.62363e+01,-5.72827e+01,-1.13629e+00,4.33890e-01,1.36233e+00
1.20500e+03,2.48993e+01,-6.01468e+01,-1.10587e+00,4.25183e-01,1.32865e+00
1.20500e+03,2.34365e+01,-6.30110e+01,-1.06857e+00,4.16673e-01,1.28945e+00
1.20500e+03,2.17623e+01,-6.58751e+01,-1.01970e+00,4.08394e-01,1.24102e+00
1.20500e+03,1.98433e+01,-6.87392e+01,-9.57421e-01,4.00444e-01,1.18225e+00
1.20500e+03,1.76476e+01,-7.16034e+01,-8.80000e-01,3.92920e-01,1.11246e+00
1.20500e+03,1.50506e+01,-7.44675e+01,-7.80612e-01,3.85884e-01,1.02765e+00
1.20500e+03,1.17172e+01,-7.73316e+01,-6.40912e-01,3.79679e-01,9.18280e-01
1.20500e+03,7.20885e+00,-8.01958e+01,-4.36897e-01,3.75885e-01,7.84058e-01
1.20500e+03,-2.92097e+00,-8.30599e+01,7.48348e-02,3.77381e-01,6.57914e-01
1.20500e+03,-3.65204e+00,-8.30665e+01,1.14754e-01,3.82041e-01,6.71591e-01
1.20500e+03,-1.03126e+01,-8.00999e+01,5.23653e-01,3.90879e-01,8.55904e-01
1.20500e+03,-1.11191e+01,-7.71332e+01,6.12098e-01,3.97410e-01,9.21123e-01
1.20500e+03,-1.13974e+01,-7.41666e+01,6.71632e-01,4.04282e-01,9.70269e-01
1.20500e+03,-1.14396e+01,-7.11999e+01,7.18245e-01,4.11474e-01,1.01183e+00
1.20500e+03,-1.13040e+01,-6.82332e+01,7.55122e-01,4.18928e-01,1.04724e+00
1.20500e+03,-1.10567e+01,-6.52666e+01,7.85891e-01,4.26601e-01,1.07870e+00
1.20500e+03,-1.06975e+01,-6.22999e+01,8.10525e-01,4.34448e-01,1.10598e+00
1.20500e+03,-1.02698e+01,-5.93332e+01,8.31417e-01,4.42431e-01,1.13070e+00
1.20500e+03,-9.80253e+00,-5.63666e+01,8.50139e-01,4.50529e-01,1.15398e+00
1.20500e+03,-9.27551e+00,-5.33999e+01,8.65591e-01,4.58720e-01,1.17495e+00
1.20500e+03,-8.71115e+00,-5.04333e+01,8.78999e-01,4.66981e-01,1.19451e+00
1.20500e+03,-8.11045e+00,-4.74666e+01,8.90418e-01,4.75297e-01,1.21267e+00
1.20500e+03,-7.47352e+00,-4.44999e+01,8.99854e-01,4.83650e-01,1.22943e+00
1.20500e+03,-6.81389e+00,-4.15333e+01,9.08048e-01,4.92025e-01,1.24532e+00
1.20500e+03,-6.12518e+00,-3.85666e+01,9.14649e-01,5.00410e-01,1.26008e+00
1.20500e+03,-5.41785e+00,-3.55999e+01,9.20231e-01,5.08792e-01,1.27414e+00
1.20500e+03,-4.69381e+00,-3.26333e+01,9.24898e-01,5.17162e-01,1.28756e+00
1.20500e+03,-3.95486e+00,-2.96666e+01,9.28750e-01,5.25510e-01,1.30041e+00
1.20500e+03,-3.20961e+00,-2.67000e+01,9.32256e-01,5.33832e-01,1.31302e+00
1.20500e+03,-2.45457e+00,-2.37333e+01,9.35227e-01,5.42121e-01,1.32527e+00
1.20500e+03,-1.69790e+00,-2.07666e+01,9.38108e-01,5.50375e-01,1.33745e+00
1.20500e+03,-9.35389e-01,-1.78000e+01,9.40670e-01,5.58591e-01,1.34942e+00
1.20500e+03,-1.72956e-01,-1.48333e+01,9.43236e-01,5.66766e-01,1.36138e+00
1.20500e+03,5.86594e-01,-1.18666e+01,9.45959e-01,5.74901e-01,1.37345e+00
1.20500e+03,1.34615e+00,-8.89999e+00,9.48683e-01,5.82993e-01,1.38551e+00
1.20500e+03,2.08771e+00,-5.93332e+00,9.52391e-01,5.91046e-01,1.39823e+00
1.20500e+03,2.82592e+00,-2.96666e+00,9.56283e-01,5.99065e-01,1.41107e+00
1.29010e+03,3.63234e+01,0.00000e+00,-7.35591e-01,5.44938e-01,1.19665e+00
1.29010e+03,3.61405e+01,-2.76019e+00,-7.62070e-01,5.38273e-01,1.20414e+00
1.29010e+03,3.58971e+01,-5.52039e+00,-7.85769e-01,5.31445e-01,1.21026e+00
1.29010e+03,3.56513e+01,-8.28058e+00,-8.09356e-01,5.24462e-01,1.21665e+00
1.29010e+03,3.53522e+01,-1.10408e+01,-8.30487e-01,5.17337e-01,1.22173e+00
1.29010e+03,3.50407e+01,-1.38010e+01,-8.51048e-01,5.10079e-01,1.22671e+00
1.29010e+03,3.46882e+01,-1.65612e+01,-8.69724e-01,5.02699e-01,1.23067e+00
1.29010e+03,3.43158e+01,-1.93214e+01,-8.87486e-01,4.95209e-01,1.23423e+00
1.29010e+03,3.39106e+01,-2.20816e+01,-9.03733e-01,4.87617e-01,1.23695e+00
1.29010e+03,3.34783e+01,-2.48418e+01,-9.18736e-01,4.79934e-01,1.23899e+00
1.29010e+03,3.30163e+01,-2.76019e+01,-9.32370e-01,4.72170e-01,1.24022e+00
1.29010e+03,3.25183e+01,-3.03621e+01,-9.44348e-01,4.64335e-01,1.24041e+00
1.29010e+03,3.19834e+01,-3.31223e+01,-9.54630e-01,4.56440e-01,1.23949e+00
1.29010e+03,3.13964e+01,-3.58825e+01,-9.62510e-01,4.48497e-01,1.23688e+00
1.29010e+03,3.07585e+01,-3.86427e+01,-9.68051e-01,4.40522e-01,1.23260e+00
1.29010e+03,3.00599e+01,-4.14029e+01,-9.70794e-01,4.32528e-01,1.22625e+00
1.29010e+03,2.92790e+01,-4.41631e+01,-9.69750e-01,4.24542e-01,1.21701e+00
1.29010e+03,2.84408e+01,-4.69233e+01,-9.66070e-01,4.16570e-01,1.20577e+00
1.29010e+03,2.74738e+01,-4.96835e+01,-9.56461e-01,4.08655e-01,1.18988e+00
1.29010e+03,2.64534e+01,-5.24437e+01,-9.44393e-01,4.00815e-01,1.17211e+00
1.29010e+03,2.52842e+01,-5.52039e+01,-9.25478e-01,3.93071e-01,1.14892e+00
1.29010e+03,2.39957e+01,-5.79641e+01,-9.01075e-01,3.85486e-01,1.12149e+00
1.29010e+03,2.25860e+01,-6.07243e+01,-8.71087e-01,3.78074e-01,1.08978e+00
1.29010e+03,2.09725e+01,-6.34845e+01,-8.31725e-01,3.70862e-01,1.05090e+00
1.29010e+03,1.91232e+01,-6.62447e+01,-7.81504e-01,3.63938e-01,1.00404e+00
1.29010e+03,1.70072e+01,-6.90049e+01,-7.19010e-01,3.57384e-01,9.48761e-01
1.29010e+03,1.45045e+01,-7.17651e+01,-6.38716e-01,3.51256e-01,8.82100e-01
1.29010e+03,1.12920e+01,-7.45253e+01,-5.25755e-01,3.45852e-01,7.97032e-01
1.29010e+03,6.94724e+00,-7.72855e+01,-3.60678e-01,3.42548e-01,6.94338e-01
1.29010e+03,-2.81497e+00,-8.00457e+01,5.37500e-02,3.43853e-01,5.97991e-01
1.29010e+03,-3.51951e+00,-8.00521e+01,8.60971e-02,3.47912e-01,6.08720e-01
1.29010e+03,-9.93839e+00,-7.71931e+01,4.17689e-01,3.55611e-01,7.44206e-01
1.29010e+03,-1.07156e+01,-7.43341e+01,4.89609e-01,3.61300e-01,7.94563e-01
1.29010e+03,-1.09838e+01,-7.14751e+01,5.38102e-01,3.67287e-01,8.33218e-01
1.29010e+03,-1.10244e+01,-6.86160e+01,5.76124e-01,3.73551e-01,8.66338e-01
1.29010e+03,-1.08937e+01,-6.57570e+01,6.06257e-01,3.80045e-01,8.94902e-01
1.29010e+03,-1.06555e+01,-6.28980e+01,6.31440e-01,3.86728e-01,9.20539e-01
1.29010e+03,-1.03093e+01,-6.00390e+01,6.51652e-01,3.93563e-01,9.43041e-01
1.29010e+03,-9.89713e+00,-5.71800e+01,6.68832e-01,4.00517e-01,9.63627e-01
1.29010e+03,-9.44680e+00,-5.43210e+01,6.84253e-01,4.07571e-01,9.83130e-01
1.29010e+03,-8.93890e+00,-5.14620e+01,6.97025e-01,4.14706e-01,1.00089e+00
1.29010e+03,-8.39503e+00,-4.86030e+01,7.08141e-01,4.21902e-01,1.01758e+00
1.29010e+03,-7.81612e+00,-4.57440e+01,7.17645e-01,4.29145e-01,1.03320e+00
1.29010e+03,-7.20231e+00,-4.28850e+01,7.25541e-01,4.36420e-01,1.04776e+00
1.29010e+03,-6.56662e+00,-4.00260e+01,7.32431e-01,4.43715e-01,1.06165e+00
1.29010e+03,-5.90290e+00,-3.71670e+01,7.38031e-01,4.51019e-01,1.07468e+00
1.29010e+03,-5.22123e+00,-3.43080e+01,7.42805e-01,4.58319e-01,1.08717e+00
1.29010e+03,-4.52347e+00,-3.14490e+01,7.46838e-01,4.65610e-01,1.09916e+00
1.29010e+03,-3.81134e+00,-2.85900e+01,7.50209e-01,4.72881e-01,1.11070e+00
1.29010e+03,-3.09313e+00,-2.57310e+01,7.53301e-01,4.80129e-01,1.12207e+00
1.29010e+03,-2.36549e+00,-2.28720e+01,7.55959e-01,4.87349e-01,1.13314e+00
1.29010e+03,-1.63628e+00,-2.00130e+01,7.58544e-01,4.94538e-01,1.14416e+00
1.29010e+03,-9.01444e-01,-1.71540e+01,7.60870e-01,5.01694e-01,1.15499e+00
1.29010e+03,-1.66680e-01,-1.42950e+01,7.63200e-01,5.08814e-01,1.16583e+00
1.29010e+03,5.65307e-01,-1.14360e+01,7.65658e-01,5.15899e-01,1.17673e+00
1.29010e+03,1.29729e+00,-8.57701e+00,7.68115e-01,5.22946e-01,1.18761e+00
1.29010e+03,2.01195e+00,-5.71800e+00,7.71371e-01,5.29960e-01,1.19899e+00
1.29010e+03,2.72337e+00,-2.85900e+00,7.74775e-01,5.36944e-01,1.21046e+00
1.37170e+03,3.50118e+01,0.00000e+00,-5.84627e-01,4.81561e-01,1.01857e+00
1.37170e+03,3.48355e+01,-2.66053e+00,-6.05878e-01,4.75824e-01,1.02289e+00
1.37170e+03,3.46009e+01,-5.32106e+00,-6.24919e-01,4.69947e-01,1.02619e+00
1.37170e+03,3.43640e+01,-7.98159e+00,-6.43871e-01,4.63936e-01,1.02970e+00
1.37170e+03,3.40757e+01,-1.06421e+01,-6.60871e-01,4.57803e-01,1.03223e+00
1.37170e+03,3.37754e+01,-1.33027e+01,-6.77418e-01,4.51555e-01,1.03470e+00
1.37170e+03,3.34357e+01,-1.59632e+01,-6.92466e-01,4.45204e-01,1.03640e+00
1.37170e+03,3.30768e+01,-1.86237e+01,-7.06787e-01,4.38756e-01,1.03782e+00
1.37170e+03,3.26861e+01,-2.12842e+01,-7.19905e-01,4.32222e-01,1.03861e+00
1.37170e+03,3.22695e+01,-2.39448e+01,-7.32033e-01,4.25609e-01,1.03889e+00
1.37170e+03,3.18241e+01,-2.66053e+01,-7.43073e-01,4.18926e-01,1.03858e+00
1.37170e+03,3.13441e+01,-2.92658e+01,-7.52797e-01,4.12183e-01,1.03749e+00
1.37170e+03,3.08286e+01,-3.19264e+01,-7.61173e-01,4.05387e-01,1.03557e+00
1.37170e+03,3.02627e+01,-3.45869e+01,-7.67639e-01,3.98550e-01,1.03237e+00
1.37170e+03,2.96479e+01,-3.72474e+01,-7.72246e-01,3.91687e-01,1.02792e+00
1.37170e+03,2.89745e+01,-3.99080e+01,-7.74629e-01,3.84806e-01,1.02190e+00
1.37170e+03,2.82218e+01,-4.25685e+01,-7.74001e-01,3.77933e-01,1.01369e+00
1.37170e+03,2.74139e+01,-4.52290e+01,-7.71279e-01,3.71072e-01,1.00397e+00
1.37170e+03,2.64818e+01,-4.78895e+01,-7.63842e-01,3.64259e-01,9.90712e-01
1.37170e+03,2.54982e+01,-5.05501e+01,-7.54452e-01,3.57512e-01,9.76034e-01
1.37170e+03,2.43712e+01,-5.32106e+01,-7.39618e-01,3.50846e-01,9.57243e-01
1.37170e+03,2.31293e+01,-5.58711e+01,-7.20422e-01,3.44319e-01,9.35240e-01
1.37170e+03,2.17704e+01,-5.85317e+01,-6.96786e-01,3.37939e-01,9.10011e-01
1.37170e+03,2.02153e+01,-6.11922e+01,-6.65699e-01,3.31733e-01,8.79372e-01
1.37170e+03,1.84327e+01,-6.38527e+01,-6.25980e-01,3.25773e-01,8.42755e-01
1.37170e+03,1.63931e+01,-6.65133e+01,-5.76505e-01,3.20133e-01,7.99883e-01
1.37170e+03,1.39807e+01,-6.91738e+01,-5.12879e-01,3.14859e-01,7.48635e-01
1.37170e+03,1.08843e+01,-7.18343e+01,-4.23287e-01,3.10209e-01,6.84003e-01
1.37170e+03,6.69639e+00,-7.44949e+01,-2.92266e-01,3.07366e-01,6.07323e-01
1.37170e+03,-2.71333e+00,-7.71554e+01,3.69674e-02,3.08490e-01,5.35597e-01
1.37170e+03,-3.39243e+00,-7.71616e+01,6.26803e-02,3.11984e-01,5.43995e-01
1.37170e+03,-9.57954e+00,-7.44058e+01,3.26478e-01,3.18611e-01,6.41192e-01
1.37170e+03,-1.03287e+01,-7.16500e+01,3.83859e-01,3.23508e-01,6.79204e-01
1.37170e+03,-1.05872e+01,-6.88942e+01,4.22616e-01,3.28660e-01,7.08983e-01
1.37170e+03,-1.06264e+01,-6.61385e+01,4.53050e-01,3.34052e-01,7.34865e-01
1.37170e+03,-1.05004e+01,-6.33827e+01,4.77213e-01,3.39641e-01,7.57496e-01
1.37170e+03,-1.02708e+01,-6.06269e+01,4.97441e-01,3.45393e-01,7.78034e-01
1.37170e+03,-9.93701e+00,-5.78712e+01,5.13717e-01,3.51276e-01,7.96298e-01
1.37170e+03,-9.53977e+00,-5.51154e+01,5.27584e-01,3.57261e-01,8.13173e-01
1.37170e+03,-9.10569e+00,-5.23596e+01,5.40052e-01,3.63332e-01,8.29269e-01
1.37170e+03,-8.61613e+00,-4.96039e+01,5.50414e-01,3.69473e-01,8.44089e-01
1.37170e+03,-8.09190e+00,-4.68481e+01,5.59460e-01,3.75666e-01,8.58120e-01
1.37170e+03,-7.53389e+00,-4.40923e+01,5.67224e-01,3.81900e-01,8.71370e-01
1.37170e+03,-6.94225e+00,-4.13365e+01,5.73711e-01,3.88161e-01,8.83828e-01
1.37170e+03,-6.32951e+00,-3.85808e+01,5.79397e-01,3.94440e-01,8.95795e-01
1.37170e+03,-5.68976e+00,-3.58250e+01,5.84058e-01,4.00725e-01,9.07119e-01
1.37170e+03,-5.03271e+00,-3.30692e+01,5.88062e-01,4.07008e-01,9.18033e-01
1.37170e+03,-4.36014e+00,-3.03135e+01,5.91478e-01,4.13282e-01,9.28576e-01
1.37170e+03,-3.67372e+00,-2.75577e+01,5.94367e-01,4.19540e-01,9.38784e-01
1.37170e+03,-2.98144e+00,-2.48019e+01,5.97034e-01,4.25778e-01,9.48847e-01
1.37170e+03,-2.28008e+00,-2.20462e+01,5.99357e-01,4.31991e-01,9.58685e-01
1.37170e+03,-1.57720e+00,-1.92904e+01,6.01621e-01,4.38178e-01,9.68477e-01
1.37170e+03,-8.68894e-01,-1.65346e+01,6.03680e-01,4.44336e-01,9.78127e-01
1.37170e+03,-1.60661e-01,-1.37788e+01,6.05742e-01,4.50463e-01,9.87762e-01
1.37170e+03,5.44895e-01,-1.10231e+01,6.07905e-01,4.56560e-01,9.97442e-01
1.37170e+03,1.25045e+00,-8.26731e+00,6.10068e-01,4.62625e-01,1.00710e+00
1.37170e+03,1.93930e+00,-5.51154e+00,6.12865e-01,4.68661e-01,1.01712e+00
1.37170e+03,2.62503e+00,-2.75577e+00,6.15781e-01,4.74671e-01,1.02719e+00
1.44960e+03,3.37597e+01,0.00000e+00,-4.54547e-01,4.20264e-01,8.58183e-01
1.44960e+03,3.35897e+01,-2.56538e+00,-4.71236e-01,4.15382e-01,8.60053e-01
1.44960e+03,3.33635e+01,-5.13077e+00,-4.86205e-01,4.10382e-01,8.61183e-01
1.44960e+03,3.31351e+01,-7.69615e+00,-5.01106e-01,4.05268e-01,8.62457e-01
1.44960e+03,3.28571e+01,-1.02615e+01,-5.14489e-01,4.00049e-01,8.63028e-01
1.44960e+03,3.25675e+01,-1.28269e+01,-5.27519e-01,3.94734e-01,8.63551e-01
1.44960e+03,3.22399e+01,-1.53923e+01,-5.39384e-01,3.89330e-01,8.63521e-01
1.44960e+03,3.18939e+01,-1.79577e+01,-5.50684e-01,3.83844e-01,8.63285e-01
1.44960e+03,3.15172e+01,-2.05231e+01,-5.61047e-01,3.78284e-01,8.62596e-01
1.44960e+03,3.11155e+01,-2.30885e+01,-5.70641e-01,3.72658e-01,8.61542e-01
1.44960e+03,3.06860e+01,-2.56538e+01,-5.79389e-01,3.66973e-01,8.60058e-01
1.44960e+03,3.02232e+01,-2.82192e+01,-5.87114e-01,3.61235e-01,8.58007e-01
1.44960e+03,2.97261e+01,-3.07846e+01,-5.93790e-01,3.55453e-01,8.55352e-01
1.44960e+03,2.91805e+01,-3.33500e+01,-5.98981e-01,3.49637e-01,8.51773e-01
1.44960e+03,2.85877e+01,-3.59154e+01,-6.02726e-01,3.43798e-01,8.47272e-01
1.44960e+03,2.79383e+01,-3.84808e+01,-6.04742e-01,3.37944e-01,8.41624e-01
1.44960e+03,2.72125e+01,-4.10462e+01,-6.04417e-01,3.32096e-01,8.34376e-01
1.44960e+03,2.64335e+01,-4.36115e+01,-6.02462e-01,3.26259e-01,8.26012e-01
1.44960e+03,2.55347e+01,-4.61769e+01,-5.96842e-01,3.20463e-01,8.15053e-01
1.44960e+03,2.45863e+01,-4.87423e+01,-5.89702e-01,3.14723e-01,8.03057e-01
1.44960e+03,2.34997e+01,-5.13077e+01,-5.78330e-01,3.09052e-01,7.88039e-01
1.44960e+03,2.23022e+01,-5.38731e+01,-5.63565e-01,3.03499e-01,7.70675e-01
1.44960e+03,2.09919e+01,-5.64385e+01,-5.45347e-01,2.98072e-01,7.50962e-01
1.44960e+03,1.94923e+01,-5.90039e+01,-5.21335e-01,2.92792e-01,7.27304e-01
1.44960e+03,1.77735e+01,-6.15692e+01,-4.90611e-01,2.87722e-01,6.99321e-01
1.44960e+03,1.58069e+01,-6.41346e+01,-4.52299e-01,2.82924e-01,6.66868e-01
1.44960e+03,1.34808e+01,-6.67000e+01,-4.02984e-01,2.78437e-01,6.28473e-01
1.44960e+03,1.04950e+01,-6.92654e+01,-3.33476e-01,2.74481e-01,5.80712e-01
1.44960e+03,6.45692e+00,-7.18308e+01,-2.31751e-01,2.72064e-01,5.25133e-01
1.44960e+03,-2.61629e+00,-7.43962e+01,2.41127e-02,2.73020e-01,4.73499e-01
1.44960e+03,-3.27111e+00,-7.44021e+01,4.41077e-02,2.75993e-01,4.80065e-01
1.44960e+03,-9.23696e+00,-7.17449e+01,2.49417e-01,2.81632e-01,5.47868e-01
1.44960e+03,-9.95928e+00,-6.90877e+01,2.94207e-01,2.85798e-01,5.75847e-01
1.44960e+03,-1.02085e+01,-6.64305e+01,3.24515e-01,2.90182e-01,5.98270e-01
1.44960e+03,-1.02464e+01,-6.37732e+01,3.48350e-01,2.94769e-01,6.18074e-01
1.44960e+03,-1.01249e+01,-6.11160e+01,3.67309e-01,2.99524e-01,6.35657e-01
1.44960e+03,-9.90345e+00,-5.84588e+01,3.83208e-01,3.04418e-01,6.51812e-01
1.44960e+03,-9.58164e+00,-5.58016e+01,3.96034e-01,3.09423e-01,6.66386e-01
1.44960e+03,-9.19861e+00,-5.31444e+01,4.06985e-01,3.14515e-01,6.79997e-01
1.44960e+03,-8.78006e+00,-5.04872e+01,4.16850e-01,3.19680e-01,6.93072e-01
1.44960e+03,-8.30801e+00,-4.78299e+01,4.25076e-01,3.24904e-01,7.05250e-01
1.44960e+03,-7.80252e+00,-4.51727e+01,4.32279e-01,3.30172e-01,7.16873e-01
1.44960e+03,-7.26447e+00,-4.25155e+01,4.38486e-01,3.35476e-01,7.27944e-01
1.44960e+03,-6.69398e+00,-3.98583e+01,4.43699e-01,3.40803e-01,7.38450e-01
1.44960e+03,-6.10316e+00,-3.72011e+01,4.48289e-01,3.46144e-01,7.48605e-01
1.44960e+03,-5.48628e+00,-3.45438e+01,4.52082e-01,3.51491e-01,7.58298e-01
1.44960e+03,-4.85273e+00,-3.18866e+01,4.55365e-01,3.56836e-01,7.67693e-01
1.44960e+03,-4.20421e+00,-2.92294e+01,4.58189e-01,3.62173e-01,7.76818e-01
1.44960e+03,-3.54234e+00,-2.65722e+01,4.60605e-01,3.67497e-01,7.85696e-01
1.44960e+03,-2.87482e+00,-2.39150e+01,4.62848e-01,3.72803e-01,7.94465e-01
1.44960e+03,-2.19854e+00,-2.12577e+01,4.64822e-01,3.78089e-01,8.03064e-01
1.44960e+03,-1.52080e+00,-1.86005e+01,4.66752e-01,3.83351e-01,8.11623e-01
1.44960e+03,-8.37821e-01,-1.59433e+01,4.68521e-01,3.88590e-01,8.20072e-01
1.44960e+03,-1.54916e-01,-1.32861e+01,4.70293e-01,3.93802e-01,8.28502e-01
1.44960e+03,5.25408e-01,-1.06289e+01,4.72144e-01,3.98989e-01,8.36956e-01
1.44960e+03,1.20573e+00,-7.97166e+00,4.73995e-01,4.04148e-01,8.45386e-01
1.44960e+03,1.86995e+00,-5.31444e+00,4.76338e-01,4.09282e-01,8.54069e-01
1.44960e+03,2.53116e+00,-2.65722e+00,4.78774e-01,4.14394e-01,8.62782e-01
1.52340e+03,3.25736e+01,0.00000e+00,-3.44912e-01,3.60439e-01,7.13241e-01
1.52340e+03,3.24095e+01,-2.47525e+00,-3.57702e-01,3.56352e-01,7.13381e-01
1.52340e+03,3.21913e+01,-4.95049e+00,-3.69188e-01,3.52167e-01,7.12996e-01
1.52340e+03,3.19709e+01,-7.42574e+00,-3.80621e-01,3.47886e-01,7.12703e-01
1.52340e+03,3.17026e+01,-9.90099e+00,-3.90902e-01,3.43517e-01,7.11911e-01
1.52340e+03,3.14232e+01,-1.23762e+01,-4.00916e-01,3.39068e-01,7.11080e-01
1.52340e+03,3.11072e+01,-1.48515e+01,-4.10045e-01,3.34544e-01,7.09857e-01
1.52340e+03,3.07733e+01,-1.73267e+01,-4.18746e-01,3.29953e-01,7.08487e-01
1.52340e+03,3.04098e+01,-1.98020e+01,-4.26735e-01,3.25299e-01,7.06797e-01
1.52340e+03,3.00222e+01,-2.22772e+01,-4.34141e-01,3.20590e-01,7.04849e-01
1.52340e+03,2.96079e+01,-2.47525e+01,-4.40905e-01,3.15831e-01,7.02598e-01
1.52340e+03,2.91613e+01,-2.72277e+01,-4.46893e-01,3.11028e-01,6.99949e-01
1.52340e+03,2.86816e+01,-2.97030e+01,-4.52084e-01,3.06189e-01,6.96875e-01
1.52340e+03,2.81552e+01,-3.21782e+01,-4.56148e-01,3.01320e-01,6.93147e-01
1.52340e+03,2.75832e+01,-3.46535e+01,-4.59115e-01,2.96433e-01,6.88770e-01
1.52340e+03,2.69567e+01,-3.71287e+01,-4.60770e-01,2.91533e-01,6.83581e-01
1.52340e+03,2.62564e+01,-3.96040e+01,-4.60647e-01,2.86638e-01,6.77260e-01
1.52340e+03,2.55047e+01,-4.20792e+01,-4.59289e-01,2.81753e-01,6.70149e-01
1.52340e+03,2.46375e+01,-4.45544e+01,-4.55148e-01,2.76902e-01,6.61199e-01
1.52340e+03,2.37225e+01,-4.70297e+01,-4.49854e-01,2.72097e-01,6.51521e-01
1.52340e+03,2.26740e+01,-4.95049e+01,-4.41348e-01,2.67351e-01,6.39701e-01
1.52340e+03,2.15185e+01,-5.19802e+01,-4.30267e-01,2.62703e-01,6.26233e-01
1.52340e+03,2.02543e+01,-5.44554e+01,-4.16566e-01,2.58160e-01,6.11120e-01
1.52340e+03,1.88075e+01,-5.69307e+01,-3.98467e-01,2.53741e-01,5.93237e-01
1.52340e+03,1.71490e+01,-5.94059e+01,-3.75274e-01,2.49498e-01,5.72344e-01
1.52340e+03,1.52515e+01,-6.18812e+01,-3.46323e-01,2.45482e-01,5.48383e-01
1.52340e+03,1.30071e+01,-6.43564e+01,-3.09021e-01,2.41727e-01,5.20375e-01
1.52340e+03,1.01263e+01,-6.68317e+01,-2.56393e-01,2.38417e-01,4.86071e-01
1.52340e+03,6.23005e+00,-6.93069e+01,-1.79316e-01,2.36394e-01,4.46990e-01
1.52340e+03,-2.52437e+00,-7.17822e+01,1.47425e-02,2.37195e-01,4.11098e-01
1.52340e+03,-3.15618e+00,-7.17879e+01,2.99171e-02,2.39684e-01,4.16221e-01
1.52340e+03,-8.91241e+00,-6.92241e+01,1.85862e-01,2.44404e-01,4.62325e-01
1.52340e+03,-9.60935e+00,-6.66602e+01,2.19984e-01,2.47891e-01,4.82434e-01
1.52340e+03,-9.84985e+00,-6.40963e+01,2.43115e-01,2.51560e-01,4.98951e-01
1.52340e+03,-9.88634e+00,-6.15325e+01,2.61333e-01,2.55400e-01,5.13792e-01
1.52340e+03,-9.76914e+00,-5.89686e+01,2.75851e-01,2.59380e-01,5.27188e-01
1.52340e+03,-9.55548e+00,-5.64048e+01,2.88046e-01,2.63476e-01,5.39657e-01
1.52340e+03,-9.24498e+00,-5.38409e+01,2.97909e-01,2.67665e-01,5.51075e-01
1.52340e+03,-8.87540e+00,-5.12771e+01,3.06350e-01,2.71927e-01,5.61856e-01
1.52340e+03,-8.47156e+00,-4.87132e+01,3.13965e-01,2.76250e-01,5.72290e-01
1.52340e+03,-8.01609e+00,-4.61494e+01,3.20338e-01,2.80622e-01,5.82119e-01
1.52340e+03,-7.52837e+00,-4.35855e+01,3.25934e-01,2.85032e-01,5.91576e-01
1.52340e+03,-7.00922e+00,-4.10217e+01,3.30773e-01,2.89471e-01,6.00659e-01
1.52340e+03,-6.45878e+00,-3.84578e+01,3.34858e-01,2.93929e-01,6.09355e-01
1.52340e+03,-5.88872e+00,-3.58940e+01,3.38471e-01,2.98400e-01,6.17810e-01
1.52340e+03,-5.29352e+00,-3.33301e+01,3.41479e-01,3.02875e-01,6.25945e-01
1.52340e+03,-4.68222e+00,-3.07662e+01,3.44099e-01,3.07348e-01,6.33872e-01
1.52340e+03,-4.05649e+00,-2.82024e+01,3.46372e-01,3.11816e-01,6.41608e-01
1.52340e+03,-3.41788e+00,-2.56385e+01,3.48335e-01,3.16271e-01,6.49168e-01
1.52340e+03,-2.77381e+00,-2.30747e+01,3.50166e-01,3.20712e-01,6.56647e-01
1.52340e+03,-2.12129e+00,-2.05108e+01,3.51794e-01,3.25136e-01,6.64002e-01
1.52340e+03,-1.46736e+00,-1.79470e+01,3.53387e-01,3.29540e-01,6.71321e-01
1.52340e+03,-8.08383e-01,-1.53831e+01,3.54859e-01,3.33924e-01,6.78558e-01
1.52340e+03,-1.49473e-01,-1.28193e+01,3.56333e-01,3.38286e-01,6.85774e-01
1.52340e+03,5.06948e-01,-1.02554e+01,3.57867e-01,3.42627e-01,6.93000e-01
1.52340e+03,1.16337e+00,-7.69156e+00,3.59401e-01,3.46945e-01,7.00200e-01
1.52340e+03,1.80424e+00,-5.12771e+00,3.61309e-01,3.51241e-01,7.07570e-01
1.52340e+03,2.44222e+00,-2.56385e+00,3.63286e-01,3.55520e-01,7.14954e-01
1.59310e+03,3.14533e+01,0.00000e+00,-2.54465e-01,3.04062e-01,5.84904e-01
1.59310e+03,3.12949e+01,-2.39012e+00,-2.64002e-01,3.00703e-01,5.83921e-01
1.59310e+03,3.10841e+01,-4.78023e+00,-2.72575e-01,2.97263e-01,5.82574e-01
1.59310e+03,3.08713e+01,-7.17035e+00,-2.81110e-01,2.93744e-01,5.81274e-01
1.59310e+03,3.06123e+01,-9.56047e+00,-2.88795e-01,2.90154e-01,5.79629e-01
1.59310e+03,3.03425e+01,-1.19506e+01,-2.96283e-01,2.86497e-01,5.77949e-01
1.59310e+03,3.00373e+01,-1.43407e+01,-3.03118e-01,2.82779e-01,5.75996e-01
1.59310e+03,2.97149e+01,-1.67308e+01,-3.09636e-01,2.79005e-01,5.73939e-01
1.59310e+03,2.93640e+01,-1.91209e+01,-3.15630e-01,2.75180e-01,5.71659e-01
1.59310e+03,2.89896e+01,-2.15111e+01,-3.21193e-01,2.71310e-01,5.69203e-01
1.59310e+03,2.85896e+01,-2.39012e+01,-3.26283e-01,2.67398e-01,5.66538e-01
1.59310e+03,2.81583e+01,-2.62913e+01,-3.30799e-01,2.63451e-01,5.63602e-01
1.59310e+03,2.76952e+01,-2.86814e+01,-3.34728e-01,2.59474e-01,5.60377e-01
1.59310e+03,2.71869e+01,-3.10715e+01,-3.37825e-01,2.55473e-01,5.56709e-01
1.59310e+03,2.66345e+01,-3.34616e+01,-3.40113e-01,2.51456e-01,5.52600e-01
1.59310e+03,2.60296e+01,-3.58518e+01,-3.41432e-01,2.47429e-01,5.47940e-01
1.59310e+03,2.53533e+01,-3.82419e+01,-3.41439e-01,2.43406e-01,5.42513e-01
1.59310e+03,2.46276e+01,-4.06320e+01,-3.40535e-01,2.39391e-01,5.36552e-01
1.59310e+03,2.37902e+01,-4.30221e+01,-3.37578e-01,2.35404e-01,5.29343e-01
1.59310e+03,2.29066e+01,-4.54122e+01,-3.33769e-01,2.31456e-01,5.21648e-01
1.59310e+03,2.18941e+01,-4.78023e+01,-3.27590e-01,2.27555e-01,5.12503e-01
1.59310e+03,2.07785e+01,-5.01925e+01,-3.19511e-01,2.23735e-01,5.02255e-01
1.59310e+03,1.95577e+01,-5.25826e+01,-3.09499e-01,2.20002e-01,4.90910e-01
1.59310e+03,1.81606e+01,-5.49727e+01,-2.96242e-01,2.16370e-01,4.77711e-01
1.59310e+03,1.65592e+01,-5.73628e+01,-2.79225e-01,2.12883e-01,4.62520e-01
1.59310e+03,1.47269e+01,-5.97529e+01,-2.57959e-01,2.09583e-01,4.45329e-01
1.59310e+03,1.25597e+01,-6.21430e+01,-2.30531e-01,2.06497e-01,4.25521e-01
1.59310e+03,9.77800e+00,-6.45332e+01,-1.91794e-01,2.03777e-01,4.01697e-01
1.59310e+03,6.01578e+00,-6.69233e+01,-1.35015e-01,2.02115e-01,3.75207e-01
1.59310e+03,-2.43755e+00,-6.93134e+01,8.08810e-03,2.02774e-01,3.51308e-01
1.59310e+03,-3.04763e+00,-6.93189e+01,1.92856e-02,2.04819e-01,3.55281e-01
1.59310e+03,-8.60589e+00,-6.68433e+01,1.34463e-01,2.08699e-01,3.85676e-01
1.59310e+03,-9.27886e+00,-6.43676e+01,1.59744e-01,2.11565e-01,3.99746e-01
1.59310e+03,-9.51109e+00,-6.18919e+01,1.76915e-01,2.14581e-01,4.11623e-01
1.59310e+03,-9.54632e+00,-5.94162e+01,1.90460e-01,2.17736e-01,4.22496e-01
1.59310e+03,-9.43315e+00,-5.69406e+01,2.01275e-01,2.21007e-01,4.32486e-01
1.59310e+03,-9.22684e+00,-5.44649e+01,2.10376e-01,2.24374e-01,4.41915e-01
1.59310e+03,-8.92702e+00,-5.19892e+01,2.17755e-01,2.27817e-01,4.50687e-01
1.59310e+03,-8.57016e+00,-4.95135e+01,2.24086e-01,2.31319e-01,4.59064e-01
1.59310e+03,-8.18020e+00,-4.70379e+01,2.29807e-01,2.34872e-01,4.67232e-01
1.59310e+03,-7.74040e+00,-4.45622e+01,2.34611e-01,2.38465e-01,4.75015e-01
1.59310e+03,-7.26945e+00,-4.20865e+01,2.38842e-01,2.42089e-01,4.82563e-01
1.59310e+03,-6.76816e+00,-3.96108e+01,2.42515e-01,2.45737e-01,4.89871e-01
1.59310e+03,-6.23665e+00,-3.71351e+01,2.45631e-01,2.49401e-01,4.96928e-01
1.59310e+03,-5.68619e+00,-3.46595e+01,2.48399e-01,2.53075e-01,5.03828e-01
1.59310e+03,-5.11146e+00,-3.21838e+01,2.50720e-01,2.56753e-01,5.10516e-01
1.59310e+03,-4.52119e+00,-2.97081e+01,2.52755e-01,2.60429e-01,5.17064e-01
1.59310e+03,-3.91698e+00,-2.72324e+01,2.54534e-01,2.64100e-01,5.23483e-01
1.59310e+03,-3.30033e+00,-2.47568e+01,2.56084e-01,2.67762e-01,5.29781e-01
1.59310e+03,-2.67841e+00,-2.22811e+01,2.57537e-01,2.71411e-01,5.36020e-01
1.59310e+03,-2.04833e+00,-1.98054e+01,2.58839e-01,2.75046e-01,5.42171e-01
1.59310e+03,-1.41689e+00,-1.73297e+01,2.60117e-01,2.78666e-01,5.48293e-01
1.59310e+03,-7.80581e-01,-1.48541e+01,2.61305e-01,2.82269e-01,5.54353e-01
1.59310e+03,-1.44332e-01,-1.23784e+01,2.62494e-01,2.85853e-01,5.60392e-01
1.59310e+03,4.89512e-01,-9.90271e+00,2.63728e-01,2.89420e-01,5.66431e-01
1.59310e+03,1.12336e+00,-7.42703e+00,2.64961e-01,2.92968e-01,5.72447e-01
1.59310e+03,1.74219e+00,-4.95135e+00,2.66471e-01,2.96499e-01,5.78568e-01
1.59310e+03,2.35823e+00,-2.47568e+00,2.68032e-01,3.00015e-01,5.84694e-01
1.65850e+03,3.04021e+01,0.00000e+00,-1.81806e-01,2.50502e-01,4.70433e-01
1.65850e+03,3.02490e+01,-2.31024e+00,-1.88698e-01,2.47795e-01,4.68843e-01
1.65850e+03,3.00453e+01,-4.62048e+00,-1.94902e-01,2.45021e-01,4.67005e-01
1.65850e+03,2.98396e+01,-6.93072e+00,-2.01078e-01,2.42185e-01,4.65181e-01
1.65850e+03,2.95892e+01,-9.24096e+00,-2.06647e-01,2.39291e-01,4.63124e-01
1.65850e+03,2.93285e+01,-1.15512e+01,-2.12075e-01,2.36343e-01,4.61031e-01
1.65850e+03,2.90335e+01,-1.38614e+01,-2.17037e-01,2.33346e-01,4.58755e-01
1.65850e+03,2.87218e+01,-1.61717e+01,-2.21772e-01,2.30304e-01,4.56402e-01
1.65850e+03,2.83826e+01,-1.84819e+01,-2.26133e-01,2.27221e-01,4.53898e-01
1.65850e+03,2.80208e+01,-2.07921e+01,-2.30185e-01,2.24101e-01,4.51275e-01
1.65850e+03,2.76341e+01,-2.31024e+01,-2.33899e-01,2.20948e-01,4.48512e-01
1.65850e+03,2.72173e+01,-2.54126e+01,-2.37204e-01,2.17766e-01,4.45569e-01
1.65850e+03,2.67696e+01,-2.77229e+01,-2.40088e-01,2.14560e-01,4.42437e-01
1.65850e+03,2.62783e+01,-3.00331e+01,-2.42379e-01,2.11335e-01,4.39016e-01
1.65850e+03,2.57444e+01,-3.23433e+01,-2.44091e-01,2.08097e-01,4.35308e-01
1.65850e+03,2.51597e+01,-3.46536e+01,-2.45110e-01,2.04851e-01,4.31243e-01
1.65850e+03,2.45060e+01,-3.69638e+01,-2.45192e-01,2.01609e-01,4.26682e-01
1.65850e+03,2.38045e+01,-3.92741e+01,-2.44623e-01,1.98372e-01,4.21776e-01
1.65850e+03,2.29951e+01,-4.15843e+01,-2.42586e-01,1.95159e-01,4.16063e-01
1.65850e+03,2.21410e+01,-4.38945e+01,-2.39941e-01,1.91976e-01,4.10044e-01
1.65850e+03,2.11624e+01,-4.62048e+01,-2.35602e-01,1.88832e-01,4.03089e-01
1.65850e+03,2.00840e+01,-4.85150e+01,-2.29905e-01,1.85753e-01,3.95435e-01
1.65850e+03,1.89041e+01,-5.08253e+01,-2.22826e-01,1.82744e-01,3.87089e-01
1.65850e+03,1.75537e+01,-5.31355e+01,-2.13428e-01,1.79817e-01,3.77563e-01
1.65850e+03,1.60058e+01,-5.54457e+01,-2.01344e-01,1.77006e-01,3.66787e-01
1.65850e+03,1.42348e+01,-5.77560e+01,-1.86223e-01,1.74346e-01,3.54780e-01
1.65850e+03,1.21400e+01,-6.00662e+01,-1.66697e-01,1.71859e-01,3.41166e-01
1.65850e+03,9.45122e+00,-6.23764e+01,-1.39090e-01,1.69666e-01,3.25125e-01
1.65850e+03,5.81473e+00,-6.46867e+01,-9.85877e-02,1.68327e-01,3.07769e-01
1.65850e+03,-2.35608e+00,-6.69969e+01,3.60734e-03,1.68859e-01,2.92494e-01
1.65850e+03,-2.94577e+00,-6.70023e+01,1.16097e-02,1.70508e-01,2.95556e-01
1.65850e+03,-8.31828e+00,-6.46093e+01,9.40038e-02,1.73635e-01,3.15094e-01
1.65850e+03,-8.96876e+00,-6.22164e+01,1.12151e-01,1.75945e-01,3.24727e-01
1.65850e+03,-9.19322e+00,-5.98235e+01,1.24502e-01,1.78376e-01,3.33099e-01
1.65850e+03,-9.22728e+00,-5.74305e+01,1.34262e-01,1.80920e-01,3.40914e-01
1.65850e+03,-9.11789e+00,-5.50376e+01,1.42070e-01,1.83556e-01,3.48228e-01
1.65850e+03,-8.91848e+00,-5.26447e+01,1.48654e-01,1.86270e-01,3.55229e-01
1.65850e+03,-8.62868e+00,-5.02517e+01,1.54008e-01,1.89045e-01,3.61846e-01
1.65850e+03,-8.28374e+00,-4.78588e+01,1.58611e-01,1.91868e-01,3.68236e-01
1.65850e+03,-7.90682e+00,-4.54658e+01,1.62780e-01,1.94732e-01,3.74512e-01
1.65850e+03,-7.48171e+00,-4.30729e+01,1.66293e-01,1.97628e-01,3.80558e-01
1.65850e+03,-7.02650e+00,-4.06800e+01,1.69396e-01,2.00550e-01,3.86465e-01
1.65850e+03,-6.54196e+00,-3.82870e+01,1.72100e-01,2.03490e-01,3.92228e-01
1.65850e+03,-6.02822e+00,-3.58941e+01,1.74407e-01,2.06443e-01,3.97837e-01
1.65850e+03,-5.49615e+00,-3.35011e+01,1.76465e-01,2.09404e-01,4.03349e-01
1.65850e+03,-4.94063e+00,-3.11082e+01,1.78203e-01,2.12369e-01,4.08727e-01
1.65850e+03,-4.37009e+00,-2.87153e+01,1.79737e-01,2.15332e-01,4.14015e-01
1.65850e+03,-3.78607e+00,-2.63223e+01,1.81088e-01,2.18291e-01,4.19220e-01
1.65850e+03,-3.19003e+00,-2.39294e+01,1.82275e-01,2.21242e-01,4.24344e-01
1.65850e+03,-2.58890e+00,-2.15364e+01,1.83393e-01,2.24183e-01,4.29427e-01
1.65850e+03,-1.97988e+00,-1.91435e+01,1.84403e-01,2.27113e-01,4.34449e-01
1.65850e+03,-1.36954e+00,-1.67506e+01,1.85396e-01,2.30031e-01,4.39447e-01
1.65850e+03,-7.54494e-01,-1.43576e+01,1.86325e-01,2.32934e-01,4.44401e-01
1.65850e+03,-1.39508e-01,-1.19647e+01,1.87254e-01,2.35823e-01,4.49335e-01
1.65850e+03,4.73153e-01,-9.57176e+00,1.88215e-01,2.38698e-01,4.54264e-01
1.65850e+03,1.08581e+00,-7.17882e+00,1.89176e-01,2.41558e-01,4.59171e-01
1.65850e+03,1.68397e+00,-4.78588e+00,1.90334e-01,2.44403e-01,4.64140e-01
1.65850e+03,2.27942e+00,-2.39294e+00,1.91530e-01,2.47237e-01,4.69107e-01
1.71930e+03,2.94249e+01,0.00000e+00,-1.25281e-01,2.00689e-01,3.69491e-01
1.71930e+03,2.92767e+01,-2.23598e+00,-1.30085e-01,1.98557e-01,3.67691e-01
1.71930e+03,2.90795e+01,-4.47196e+00,-1.34415e-01,1.96373e-01,3.65725e-01
1.71930e+03,2.88804e+01,-6.70794e+00,-1.38726e-01,1.94139e-01,3.63751e-01
1.71930e+03,2.86381e+01,-8.94392e+00,-1.42619e-01,1.91860e-01,3.61623e-01
1.71930e+03,2.83857e+01,-1.11799e+01,-1.46414e-01,1.89539e-01,3.59460e-01
1.71930e+03,2.81002e+01,-1.34159e+01,-1.49888e-01,1.87178e-01,3.57174e-01
1.71930e+03,2.77986e+01,-1.56519e+01,-1.53205e-01,1.84783e-01,3.54832e-01
1.71930e+03,2.74703e+01,-1.78878e+01,-1.56264e-01,1.82355e-01,3.52390e-01
1.71930e+03,2.71201e+01,-2.01238e+01,-1.59112e-01,1.79898e-01,3.49866e-01
1.71930e+03,2.67458e+01,-2.23598e+01,-1.61725e-01,1.77415e-01,3.47251e-01
1.71930e+03,2.63424e+01,-2.45958e+01,-1.64057e-01,1.74910e-01,3.44521e-01
1.71930e+03,2.59091e+01,-2.68317e+01,-1.66099e-01,1.72385e-01,3.41670e-01
1.71930e+03,2.54336e+01,-2.90677e+01,-1.67731e-01,1.69845e-01,3.38639e-01
1.71930e+03,2.49169e+01,-3.13037e+01,-1.68965e-01,1.67296e-01,3.35429e-01
1.71930e+03,2.43509e+01,-3.35397e+01,-1.69721e-01,1.64740e-01,3.31998e-01
1.71930e+03,2.37183e+01,-3.57757e+01,-1.69831e-01,1.62186e-01,3.28262e-01
1.71930e+03,2.30393e+01,-3.80116e+01,-1.69493e-01,1.59638e-01,3.24315e-01
1.71930e+03,2.22560e+01,-4.02476e+01,-1.68142e-01,1.57107e-01,3.19875e-01
1.71930e+03,2.14293e+01,-4.24836e+01,-1.66373e-01,1.54601e-01,3.15253e-01
1.71930e+03,2.04822e+01,-4.47196e+01,-1.63435e-01,1.52125e-01,3.10061e-01
1.71930e+03,1.94385e+01,-4.69556e+01,-1.59562e-01,1.49701e-01,3.04452e-01
1.71930e+03,1.82964e+01,-4.91915e+01,-1.54736e-01,1.47332e-01,2.98435e-01
1.71930e+03,1.69894e+01,-5.14275e+01,-1.48312e-01,1.45027e-01,2.91710e-01
1.71930e+03,1.54913e+01,-5.36635e+01,-1.40036e-01,1.42814e-01,2.84248e-01
1.71930e+03,1.37772e+01,-5.58995e+01,-1.29666e-01,1.40719e-01,2.76078e-01
1.71930e+03,1.17498e+01,-5.81355e+01,-1.16261e-01,1.38761e-01,2.66984e-01
1.71930e+03,9.14742e+00,-6.03714e+01,-9.72849e-02,1.37035e-01,2.56515e-01
1.71930e+03,5.62782e+00,-6.26074e+01,-6.94206e-02,1.35980e-01,2.45543e-01
1.71930e+03,-2.28035e+00,-6.48434e+01,9.68796e-04,1.36399e-01,2.36252e-01
1.71930e+03,-2.85109e+00,-6.48486e+01,6.48472e-03,1.37698e-01,2.38587e-01
1.71930e+03,-8.05090e+00,-6.25326e+01,6.33344e-02,1.40160e-01,2.50890e-01
1.71930e+03,-8.68047e+00,-6.02165e+01,7.58988e-02,1.41980e-01,2.57362e-01
1.71930e+03,-8.89772e+00,-5.79005e+01,8.44677e-02,1.43894e-01,2.63156e-01
1.71930e+03,-8.93068e+00,-5.55845e+01,9.12510e-02,1.45897e-01,2.68672e-01
1.71930e+03,-8.82481e+00,-5.32685e+01,9.66888e-02,1.47973e-01,2.73929e-01
1.71930e+03,-8.63181e+00,-5.09525e+01,1.01282e-01,1.50110e-01,2.79029e-01
1.71930e+03,-8.35132e+00,-4.86364e+01,1.05028e-01,1.52295e-01,2.83924e-01
1.71930e+03,-8.01747e+00,-4.63204e+01,1.08257e-01,1.54518e-01,2.88700e-01
1.71930e+03,-7.65266e+00,-4.40044e+01,1.11186e-01,1.56773e-01,2.93421e-01
1.71930e+03,-7.24122e+00,-4.16884e+01,1.13663e-01,1.59054e-01,2.98017e-01
1.71930e+03,-6.80064e+00,-3.93724e+01,1.15858e-01,1.61354e-01,3.02537e-01
1.71930e+03,-6.33168e+00,-3.70563e+01,1.17777e-01,1.63670e-01,3.06977e-01
1.71930e+03,-5.83445e+00,-3.47403e+01,1.19423e-01,1.65995e-01,3.11328e-01
1.71930e+03,-5.31949e+00,-3.24243e+01,1.20897e-01,1.68327e-01,3.15623e-01
1.71930e+03,-4.78182e+00,-3.01083e+01,1.22151e-01,1.70661e-01,3.19838e-01
1.71930e+03,-4.22962e+00,-2.77922e+01,1.23264e-01,1.72994e-01,3.23998e-01
1.71930e+03,-3.66437e+00,-2.54762e+01,1.24250e-01,1.75324e-01,3.28106e-01
1.71930e+03,-3.08749e+00,-2.31602e+01,1.25124e-01,1.77648e-01,3.32163e-01
1.71930e+03,-2.50568e+00,-2.08442e+01,1.25950e-01,1.79964e-01,3.36191e-01
1.71930e+03,-1.91624e+00,-1.85282e+01,1.26702e-01,1.82271e-01,3.40178e-01
1.71930e+03,-1.32552e+00,-1.62121e+01,1.27442e-01,1.84568e-01,3.44147e-01
1.71930e+03,-7.30242e-01,-1.38961e+01,1.28138e-01,1.86854e-01,3.48084e-01
1.71930e+03,-1.35024e-01,-1.15801e+01,1.28834e-01,1.89129e-01,3.52005e-01
1.71930e+03,4.57944e-01,-9.26408e+00,1.29552e-01,1.91393e-01,3.55917e-01
1.71930e+03,1.05091e+00,-6.94806e+00,1.30270e-01,1.93644e-01,3.59811e-01
1.71930e+03,1.62984e+00,-4.63204e+00,1.31124e-01,1.95885e-01,3.63739e-01
1.71930e+03,2.20615e+00,-2.31602e+00,1.32003e-01,1.98115e-01,3.67660e-01
1.77540e+03,2.77303e+01,0.00000e+00,-1.47586e-01,1.88464e-01,3.58242e-01
1.77540e+03,2.75906e+01,-2.10721e+00,-1.52812e-01,1.85616e-01,3.55965e-01
1.77540e+03,2.74048e+01,-4.21442e+00,-1.57474e-01,1.82698e-01,3.53460e-01
1.77540e+03,2.72172e+01,-6.32163e+00,-1.62115e-01,1.79713e-01,3.50959e-01
1.77540e+03,2.69888e+01,-8.42884e+00,-1.66259e-01,1.76668e-01,3.48247e-01
1.77540e+03,2.67510e+01,-1.05361e+01,-1.70287e-01,1.73565e-01,3.45502e-01
1.77540e+03,2.64819e+01,-1.26433e+01,-1.73935e-01,1.70409e-01,3.42595e-01
1.77540e+03,2.61977e+01,-1.47505e+01,-1.77397e-01,1.67206e-01,3.39623e-01
1.77540e+03,2.58883e+01,-1.68577e+01,-1.80554e-01,1.63959e-01,3.36523e-01
1.77540e+03,2.55583e+01,-1.89649e+01,-1.83458e-01,1.60673e-01,3.33324e-01
1.77540e+03,2.52056e+01,-2.10721e+01,-1.86086e-01,1.57352e-01,3.30011e-01
1.77540e+03,2.48254e+01,-2.31793e+01,-1.88380e-01,1.54000e-01,3.26550e-01
1.77540e+03,2.44171e+01,-2.52865e+01,-1.90330e-01,1.50622e-01,3.22934e-01
1.77540e+03,2.39689e+01,-2.73937e+01,-1.91795e-01,1.47224e-01,3.19076e-01
1.77540e+03,2.34819e+01,-2.95009e+01,-1.92786e-01,1.43811e-01,3.14979e-01
1.77540e+03,2.29486e+01,-3.16082e+01,-1.93212e-01,1.40390e-01,3.10579e-01
1.77540e+03,2.23524e+01,-3.37154e+01,-1.92873e-01,1.36972e-01,3.05751e-01
1.77540e+03,2.17125e+01,-3.58226e+01,-1.92000e-01,1.33560e-01,3.00631e-01
1.77540e+03,2.09743e+01,-3.79298e+01,-1.89929e-01,1.30172e-01,2.94800e-01
1.77540e+03,2.01952e+01,-4.00370e+01,-1.87360e-01,1.26815e-01,2.88705e-01
1.77540e+03,1.93026e+01,-4.21442e+01,-1.83407e-01,1.23500e-01,2.81771e-01
1.77540e+03,1.83190e+01,-4.42514e+01,-1.78345e-01,1.20252e-01,2.74205e-01
1.77540e+03,1.72428e+01,-4.63586e+01,-1.72153e-01,1.17078e-01,2.66004e-01
1.77540e+03,1.60110e+01,-4.84658e+01,-1.64066e-01,1.13989e-01,2.56707e-01
1.77540e+03,1.45992e+01,-5.05731e+01,-1.53784e-01,1.11023e-01,2.46227e-01
1.77540e+03,1.29838e+01,-5.26803e+01,-1.41020e-01,1.08215e-01,2.34560e-01
1.77540e+03,1.10731e+01,-5.47875e+01,-1.24657e-01,1.05589e-01,2.21329e-01
1.77540e+03,8.62063e+00,-5.68947e+01,-1.01690e-01,1.03272e-01,2.05757e-01
1.77540e+03,5.30372e+00,-5.90019e+01,-6.81851e-02,1.01850e-01,1.89129e-01
1.77540e+03,-2.14903e+00,-6.11091e+01,1.57343e-02,1.02404e-01,1.78065e-01
1.77540e+03,-2.68689e+00,-6.11140e+01,2.22747e-02,1.04138e-01,1.81743e-01
1.77540e+03,-7.58725e+00,-5.89314e+01,8.91843e-02,1.07431e-01,2.06344e-01
1.77540e+03,-8.18057e+00,-5.67487e+01,1.03592e-01,1.09864e-01,2.16661e-01
1.77540e+03,-8.38530e+00,-5.45661e+01,1.13264e-01,1.12426e-01,2.25272e-01
1.77540e+03,-8.41637e+00,-5.23834e+01,1.20818e-01,1.15106e-01,2.33121e-01
1.77540e+03,-8.31659e+00,-5.02008e+01,1.26777e-01,1.17885e-01,2.40340e-01
1.77540e+03,-8.13471e+00,-4.80181e+01,1.31736e-01,1.20746e-01,2.47170e-01
1.77540e+03,-7.87037e+00,-4.58355e+01,1.35689e-01,1.23672e-01,2.53567e-01
1.77540e+03,-7.55575e+00,-4.36529e+01,1.39029e-01,1.26649e-01,2.59710e-01
1.77540e+03,-7.21195e+00,-4.14702e+01,1.42014e-01,1.29669e-01,2.65726e-01
1.77540e+03,-6.82421e+00,-3.92876e+01,1.44463e-01,1.32725e-01,2.71509e-01
1.77540e+03,-6.40900e+00,-3.71049e+01,1.46578e-01,1.35807e-01,2.77156e-01
1.77540e+03,-5.96704e+00,-3.49223e+01,1.48366e-01,1.38909e-01,2.82665e-01
1.77540e+03,-5.49844e+00,-3.27396e+01,1.49829e-01,1.42025e-01,2.88032e-01
1.77540e+03,-5.01314e+00,-3.05570e+01,1.51089e-01,1.45150e-01,2.93315e-01
1.77540e+03,-4.50644e+00,-2.83744e+01,1.52088e-01,1.48280e-01,2.98482e-01
1.77540e+03,-3.98604e+00,-2.61917e+01,1.52920e-01,1.51408e-01,3.03575e-01
1.77540e+03,-3.45334e+00,-2.40091e+01,1.53603e-01,1.54532e-01,3.08600e-01
1.77540e+03,-2.90969e+00,-2.18264e+01,1.54151e-01,1.57648e-01,3.13563e-01
1.77540e+03,-2.36138e+00,-1.96438e+01,1.54643e-01,1.60755e-01,3.18498e-01
1.77540e+03,-1.80588e+00,-1.74611e+01,1.55047e-01,1.63850e-01,3.23388e-01
1.77540e+03,-1.24918e+00,-1.52785e+01,1.55437e-01,1.66932e-01,3.28267e-01
1.77540e+03,-6.88187e-01,-1.30959e+01,1.55774e-01,1.70000e-01,3.33115e-01
1.77540e+03,-1.27248e-01,-1.09132e+01,1.56112e-01,1.73053e-01,3.37955e-01
1.77540e+03,4.31571e-01,-8.73057e+00,1.56476e-01,1.76092e-01,3.42797e-01
1.77540e+03,9.90390e-01,-6.54793e+00,1.56839e-01,1.79115e-01,3.47627e-01
1.77540e+03,1.53598e+00,-4.36529e+00,1.57364e-01,1.82123e-01,3.52520e-01
1.77540e+03,2.07910e+00,-2.18264e+00,1.57919e-01,1.85120e-01,3.57416e-01
1.82660e+03,2.53092e+01,0.00000e+00,-1.00624e-01,1.53996e-01,2.85079e-01
1.82660e+03,2.51817e+01,-1.92323e+00,-1.04251e-01,1.51828e-01,2.82884e-01
1.82660e+03,2.50121e+01,-3.84646e+00,-1.07494e-01,1.49606e-01,2.80537e-01
1.82660e+03,2.48409e+01,-5.76969e+00,-1.10722e-01,1.47334e-01,2.78175e-01
1.82660e+03,2.46324e+01,-7.69292e+00,-1.13611e-01,1.45015e-01,2.75673e-01
1.82660e+03,2.44154e+01,-9.61614e+00,-1.16422e-01,1.42652e-01,2.73136e-01
1.82660e+03,2.41698e+01,-1.15394e+01,-1.18972e-01,1.40250e-01,2.70490e-01
1.82660e+03,2.39103e+01,-1.34626e+01,-1.21397e-01,1.37812e-01,2.67794e-01
1.82660e+03,2.36280e+01,-1.53858e+01,-1.23613e-01,1.35340e-01,2.65011e-01
1.82660e+03,2.33268e+01,-1.73091e+01,-1.25657e-01,1.32839e-01,2.62160e-01
1.82660e+03,2.30049e+01,-1.92323e+01,-1.27513e-01,1.30310e-01,2.59234e-01
1.82660e+03,2.26579e+01,-2.11555e+01,-1.29140e-01,1.27759e-01,2.56212e-01
1.82660e+03,2.22852e+01,-2.30787e+01,-1.30534e-01,1.25188e-01,2.53091e-01
1.82660e+03,2.18762e+01,-2.50020e+01,-1.31596e-01,1.22601e-01,2.49821e-01
1.82660e+03,2.14317e+01,-2.69252e+01,-1.32336e-01,1.20003e-01,2.46405e-01
1.82660e+03,2.09449e+01,-2.88484e+01,-1.32690e-01,1.17399e-01,2.42806e-01
1.82660e+03,2.04008e+01,-3.07717e+01,-1.32522e-01,1.14798e-01,2.38951e-01
1.82660e+03,1.98168e+01,-3.26949e+01,-1.31991e-01,1.12201e-01,2.34923e-01
1.82660e+03,1.91430e+01,-3.46181e+01,-1.30642e-01,1.09622e-01,2.30474e-01
1.82660e+03,1.84320e+01,-3.65413e+01,-1.28954e-01,1.07068e-01,2.25875e-01
1.82660e+03,1.76173e+01,-3.84646e+01,-1.26323e-01,1.04544e-01,2.20785e-01
1.82660e+03,1.67196e+01,-4.03878e+01,-1.22934e-01,1.02072e-01,2.15335e-01
1.82660e+03,1.57373e+01,-4.23110e+01,-1.18776e-01,9.96569e-02,2.09529e-01
1.82660e+03,1.46131e+01,-4.42343e+01,-1.13325e-01,9.73064e-02,2.03097e-01
1.82660e+03,1.33245e+01,-4.61575e+01,-1.06378e-01,9.50492e-02,1.96008e-01
1.82660e+03,1.18502e+01,-4.80807e+01,-9.77379e-02,9.29127e-02,1.88284e-01
1.82660e+03,1.01063e+01,-5.00040e+01,-8.66441e-02,9.09143e-02,1.79732e-01
1.82660e+03,7.86795e+00,-5.19272e+01,-7.10467e-02,8.91515e-02,1.69975e-01
1.82660e+03,4.84065e+00,-5.38504e+01,-4.82643e-02,8.80709e-02,1.59997e-01
1.82660e+03,-1.96139e+00,-5.57736e+01,8.89470e-03,8.84931e-02,1.53532e-01
1.82660e+03,-2.45230e+00,-5.57781e+01,1.33543e-02,8.98137e-02,1.56134e-01
1.82660e+03,-6.92480e+00,-5.37860e+01,5.90443e-02,9.23201e-02,1.70456e-01
1.82660e+03,-7.46632e+00,-5.17940e+01,6.89346e-02,9.41726e-02,1.77080e-01
1.82660e+03,-7.65318e+00,-4.98019e+01,7.55952e-02,9.61223e-02,1.82847e-01
1.82660e+03,-7.68153e+00,-4.78098e+01,8.08122e-02,9.81627e-02,1.88251e-01
1.82660e+03,-7.59047e+00,-4.58177e+01,8.49416e-02,1.00278e-01,1.93344e-01
1.82660e+03,-7.42446e+00,-4.38257e+01,8.83886e-02,1.02455e-01,1.98252e-01
1.82660e+03,-7.18321e+00,-4.18336e+01,9.11503e-02,1.04682e-01,2.02937e-01
1.82660e+03,-6.89605e+00,-3.98415e+01,9.34939e-02,1.06948e-01,2.07496e-01
1.82660e+03,-6.58227e+00,-3.78494e+01,9.55951e-02,1.09246e-01,2.11997e-01
1.82660e+03,-6.22838e+00,-3.58574e+01,9.73310e-02,1.11571e-01,2.16374e-01
1.82660e+03,-5.84943e+00,-3.38653e+01,9.88386e-02,1.13917e-01,2.20681e-01
1.82660e+03,-5.44606e+00,-3.18732e+01,1.00124e-01,1.16278e-01,2.24914e-01
1.82660e+03,-5.01837e+00,-2.98811e+01,1.01188e-01,1.18649e-01,2.29067e-01
1.82660e+03,-4.57544e+00,-2.78891e+01,1.02113e-01,1.21027e-01,2.33173e-01
1.82660e+03,-4.11298e+00,-2.58970e+01,1.02860e-01,1.23408e-01,2.37210e-01
1.82660e+03,-3.63801e+00,-2.39049e+01,1.03493e-01,1.25788e-01,2.41203e-01
1.82660e+03,-3.15183e+00,-2.19128e+01,1.04024e-01,1.28165e-01,2.45153e-01
1.82660e+03,-2.65564e+00,-1.99208e+01,1.04464e-01,1.30537e-01,2.49063e-01
1.82660e+03,-2.15521e+00,-1.79287e+01,1.04865e-01,1.32900e-01,2.52951e-01
1.82660e+03,-1.64821e+00,-1.59366e+01,1.05207e-01,1.35255e-01,2.56808e-01
1.82660e+03,-1.14012e+00,-1.39445e+01,1.05539e-01,1.37600e-01,2.60652e-01
1.82660e+03,-6.28101e-01,-1.19525e+01,1.05834e-01,1.39934e-01,2.64472e-01
1.82660e+03,-1.16138e-01,-9.96038e+00,1.06131e-01,1.42257e-01,2.68281e-01
1.82660e+03,3.93890e-01,-7.96830e+00,1.06445e-01,1.44568e-01,2.72086e-01
1.82660e+03,9.03919e-01,-5.97623e+00,1.06759e-01,1.46868e-01,2.75877e-01
1.82660e+03,1.40187e+00,-3.98415e+00,1.07182e-01,1.49157e-01,2.79698e-01
1.82660e+03,1.89757e+00,-1.99208e+00,1.07627e-01,1.51436e-01,2.83517e-01
1.87280e+03,2.31244e+01,0.00000e+00,-6.44801e-02,1.22419e-01,2.21623e-01
1.87280e+03,2.30080e+01,-1.75721e+00,-6.68671e-02,1.20827e-01,2.19701e-01
1.87280e+03,2.28531e+01,-3.51443e+00,-6.90082e-02,1.19195e-01,2.17680e-01
1.87280e+03,2.26966e+01,-5.27164e+00,-7.11394e-02,1.17527e-01,2.15635e-01
1.87280e+03,2.25061e+01,-7.02886e+00,-7.30534e-02,1.15824e-01,2.13500e-01
1.87280e+03,2.23078e+01,-8.78607e+00,-7.49170e-02,1.14089e-01,2.11333e-01
1.87280e+03,2.20834e+01,-1.05433e+01,-7.66139e-02,1.12326e-01,2.09095e-01
1.87280e+03,2.18464e+01,-1.23005e+01,-7.82299e-02,1.10535e-01,2.06819e-01
1.87280e+03,2.15884e+01,-1.40577e+01,-7.97119e-02,1.08721e-01,2.04486e-01
1.87280e+03,2.13132e+01,-1.58149e+01,-8.10840e-02,1.06884e-01,2.02107e-01
1.87280e+03,2.10191e+01,-1.75721e+01,-8.23350e-02,1.05028e-01,1.99679e-01
1.87280e+03,2.07020e+01,-1.93294e+01,-8.34395e-02,1.03155e-01,1.97193e-01
1.87280e+03,2.03615e+01,-2.10866e+01,-8.43940e-02,1.01267e-01,1.94647e-01
1.87280e+03,1.99878e+01,-2.28438e+01,-8.51361e-02,9.93681e-02,1.92016e-01
1.87280e+03,1.95817e+01,-2.46010e+01,-8.56714e-02,9.74615e-02,1.89303e-01
1.87280e+03,1.91369e+01,-2.63582e+01,-8.59592e-02,9.55499e-02,1.86489e-01
1.87280e+03,1.86398e+01,-2.81154e+01,-8.59120e-02,9.36403e-02,1.83538e-01
1.87280e+03,1.81062e+01,-2.98726e+01,-8.56319e-02,9.17339e-02,1.80494e-01
1.87280e+03,1.74905e+01,-3.16299e+01,-8.48272e-02,8.98410e-02,1.77228e-01
1.87280e+03,1.68409e+01,-3.33871e+01,-8.38052e-02,8.79661e-02,1.73889e-01
1.87280e+03,1.60966e+01,-3.51443e+01,-8.21776e-02,8.61138e-02,1.70294e-01
1.87280e+03,1.52763e+01,-3.69015e+01,-8.00647e-02,8.42996e-02,1.66522e-01
1.87280e+03,1.43788e+01,-3.86587e+01,-7.74578e-02,8.25266e-02,1.62578e-01
1.87280e+03,1.33517e+01,-4.04159e+01,-7.40220e-02,8.08014e-02,1.58322e-01
1.87280e+03,1.21743e+01,-4.21731e+01,-6.96258e-02,7.91449e-02,1.53751e-01
1.87280e+03,1.08272e+01,-4.39304e+01,-6.41442e-02,7.75769e-02,1.48893e-01
1.87280e+03,9.23393e+00,-4.56876e+01,-5.70884e-02,7.61104e-02,1.43657e-01
1.87280e+03,7.18879e+00,-4.74448e+01,-4.71436e-02,7.48169e-02,1.37896e-01
1.87280e+03,4.42280e+00,-4.92020e+01,-3.25898e-02,7.40246e-02,1.32291e-01
1.87280e+03,-1.79208e+00,-5.09592e+01,4.01599e-03,7.43350e-02,1.28815e-01
1.87280e+03,-2.24062e+00,-5.09633e+01,6.87659e-03,7.53048e-02,1.30613e-01
1.87280e+03,-6.32705e+00,-4.91432e+01,3.62486e-02,7.71450e-02,1.38449e-01
1.87280e+03,-6.82182e+00,-4.73231e+01,4.26559e-02,7.85049e-02,1.42508e-01
1.87280e+03,-6.99255e+00,-4.55029e+01,4.69913e-02,7.99362e-02,1.46211e-01
1.87280e+03,-7.01846e+00,-4.36828e+01,5.04007e-02,8.14341e-02,1.49782e-01
1.87280e+03,-6.93525e+00,-4.18627e+01,5.31125e-02,8.29867e-02,1.53236e-01
1.87280e+03,-6.78358e+00,-4.00426e+01,5.53864e-02,8.45849e-02,1.56625e-01
1.87280e+03,-6.56315e+00,-3.82225e+01,5.72208e-02,8.62196e-02,1.59924e-01
1.87280e+03,-6.30078e+00,-3.64024e+01,5.87870e-02,8.78825e-02,1.63175e-01
1.87280e+03,-6.01408e+00,-3.45822e+01,6.01976e-02,8.95697e-02,1.66409e-01
1.87280e+03,-5.69074e+00,-3.27621e+01,6.13740e-02,9.12762e-02,1.69590e-01
1.87280e+03,-5.34450e+00,-3.09420e+01,6.24039e-02,9.29975e-02,1.72742e-01
1.87280e+03,-4.97595e+00,-2.91219e+01,6.32911e-02,9.47303e-02,1.75861e-01
1.87280e+03,-4.58518e+00,-2.73018e+01,6.40364e-02,9.64707e-02,1.78943e-01
1.87280e+03,-4.18049e+00,-2.54816e+01,6.46925e-02,9.82159e-02,1.82001e-01
1.87280e+03,-3.75794e+00,-2.36615e+01,6.52346e-02,9.99633e-02,1.85023e-01
1.87280e+03,-3.32398e+00,-2.18414e+01,6.57036e-02,1.01710e-01,1.88021e-01
1.87280e+03,-2.87976e+00,-2.00213e+01,6.61071e-02,1.03455e-01,1.90994e-01
1.87280e+03,-2.42640e+00,-1.82012e+01,6.64521e-02,1.05195e-01,1.93942e-01
1.87280e+03,-1.96917e+00,-1.63811e+01,6.67724e-02,1.06929e-01,1.96876e-01
1.87280e+03,-1.50594e+00,-1.45609e+01,6.70542e-02,1.08657e-01,1.99788e-01
1.87280e+03,-1.04170e+00,-1.27408e+01,6.73297e-02,1.10378e-01,2.02689e-01
1.87280e+03,-5.73883e-01,-1.09207e+01,6.75823e-02,1.12090e-01,2.05573e-01
1.87280e+03,-1.06113e-01,-9.10059e+00,6.78352e-02,1.13795e-01,2.08445e-01
1.87280e+03,3.59890e-01,-7.28047e+00,6.80993e-02,1.15491e-01,2.11310e-01
1.87280e+03,8.25892e-01,-5.46035e+00,6.83635e-02,1.17178e-01,2.14162e-01
1.87280e+03,1.28086e+00,-3.64024e+00,6.86983e-02,1.18857e-01,2.17026e-01
1.87280e+03,1.73377e+00,-1.82012e+00,6.90461e-02,1.20529e-01,2.19885e-01
1.91380e+03,2.11856e+01,0.00000e+00,-3.82201e-02,9.40611e-02,1.67342e-01
1.91380e+03,2.10789e+01,-1.60989e+00,-3.96882e-02,9.29410e-02,1.65799e-01
1.91380e+03,2.09370e+01,-3.21977e+00,-4.10102e-02,9.17934e-02,1.64195e-01
1.91380e+03,2.07936e+01,-4.82966e+00,-4.23264e-02,9.06196e-02,1.62565e-01
1.91380e+03,2.06192e+01,-6.43954e+00,-4.35136e-02,8.94218e-02,1.60880e-01
1.91380e+03,2.04375e+01,-8.04943e+00,-4.46708e-02,8.82017e-02,1.59167e-01
1.91380e+03,2.02319e+01,-9.65931e+00,-4.57290e-02,8.69612e-02,1.57410e-01
1.91380e+03,2.00147e+01,-1.12692e+01,-4.67391e-02,8.57019e-02,1.55625e-01
1.91380e+03,1.97784e+01,-1.28791e+01,-4.76697e-02,8.44255e-02,1.53803e-01
1.91380e+03,1.95262e+01,-1.44890e+01,-4.85350e-02,8.31338e-02,1.51952e-01
1.91380e+03,1.92568e+01,-1.60989e+01,-4.93283e-02,8.18284e-02,1.50070e-01
1.91380e+03,1.89663e+01,-1.77087e+01,-5.00347e-02,8.05110e-02,1.48154e-01
1.91380e+03,1.86544e+01,-1.93186e+01,-5.06519e-02,7.91834e-02,1.46204e-01
1.91380e+03,1.83120e+01,-2.09285e+01,-5.11430e-02,7.78478e-02,1.44210e-01
1.91380e+03,1.79399e+01,-2.25384e+01,-5.15112e-02,7.65069e-02,1.42174e-01
1.91380e+03,1.75325e+01,-2.41483e+01,-5.17324e-02,7.51625e-02,1.40087e-01
1.91380e+03,1.70770e+01,-2.57582e+01,-5.17547e-02,7.38196e-02,1.37937e-01
1.91380e+03,1.65881e+01,-2.73680e+01,-5.16385e-02,7.24790e-02,1.35743e-01
1.91380e+03,1.60241e+01,-2.89779e+01,-5.12109e-02,7.11479e-02,1.33449e-01
1.91380e+03,1.54289e+01,-3.05878e+01,-5.06541e-02,6.98293e-02,1.31127e-01
1.91380e+03,1.47470e+01,-3.21977e+01,-4.97376e-02,6.85268e-02,1.28692e-01
1.91380e+03,1.39955e+01,-3.38076e+01,-4.85328e-02,6.72511e-02,1.26189e-01
1.91380e+03,1.31733e+01,-3.54175e+01,-4.70347e-02,6.60044e-02,1.23620e-01
1.91380e+03,1.22322e+01,-3.70274e+01,-4.50441e-02,6.47913e-02,1.20924e-01
1.91380e+03,1.11536e+01,-3.86372e+01,-4.24831e-02,6.36266e-02,1.18109e-01
1.91380e+03,9.91946e+00,-4.02471e+01,-3.92774e-02,6.25241e-02,1.15198e-01
1.91380e+03,8.45973e+00,-4.18570e+01,-3.51366e-02,6.14930e-02,1.12155e-01
1.91380e+03,6.58606e+00,-4.34669e+01,-2.92799e-02,6.05837e-02,1.08943e-01
1.91380e+03,4.05198e+00,-4.50768e+01,-2.06854e-02,6.00271e-02,1.06008e-01
1.91380e+03,-1.64183e+00,-4.66867e+01,1.00748e-03,6.02458e-02,1.04354e-01
1.91380e+03,-2.05276e+00,-4.66904e+01,2.70651e-03,6.09280e-02,1.05565e-01
1.91380e+03,-5.79657e+00,-4.50229e+01,2.02051e-02,6.22223e-02,1.09650e-01
1.91380e+03,-6.24986e+00,-4.33554e+01,2.40630e-02,6.31788e-02,1.12043e-01
1.91380e+03,-6.40628e+00,-4.16879e+01,2.66902e-02,6.41854e-02,1.14331e-01
1.91380e+03,-6.43001e+00,-4.00204e+01,2.87674e-02,6.52388e-02,1.16601e-01
1.91380e+03,-6.35378e+00,-3.83528e+01,3.04302e-02,6.63307e-02,1.18850e-01
1.91380e+03,-6.21483e+00,-3.66853e+01,3.18330e-02,6.74546e-02,1.21094e-01
1.91380e+03,-6.01288e+00,-3.50178e+01,3.29746e-02,6.86041e-02,1.23316e-01
1.91380e+03,-5.77251e+00,-3.33503e+01,3.39570e-02,6.97736e-02,1.25531e-01
1.91380e+03,-5.50985e+00,-3.16828e+01,3.48469e-02,7.09599e-02,1.27751e-01
1.91380e+03,-5.21362e+00,-3.00153e+01,3.55977e-02,7.21599e-02,1.29955e-01
1.91380e+03,-4.89640e+00,-2.83477e+01,3.62616e-02,7.33703e-02,1.32153e-01
1.91380e+03,-4.55876e+00,-2.66802e+01,3.68407e-02,7.45887e-02,1.34342e-01
1.91380e+03,-4.20075e+00,-2.50127e+01,3.73354e-02,7.58124e-02,1.36516e-01
1.91380e+03,-3.82998e+00,-2.33452e+01,3.77772e-02,7.70395e-02,1.38681e-01
1.91380e+03,-3.44287e+00,-2.16777e+01,3.81513e-02,7.82681e-02,1.40830e-01
1.91380e+03,-3.04529e+00,-2.00102e+01,3.84819e-02,7.94962e-02,1.42968e-01
1.91380e+03,-2.63832e+00,-1.83427e+01,3.87737e-02,8.07227e-02,1.45093e-01
1.91380e+03,-2.22297e+00,-1.66751e+01,3.90307e-02,8.19461e-02,1.47203e-01
1.91380e+03,-1.80407e+00,-1.50076e+01,3.92730e-02,8.31655e-02,1.49305e-01
1.91380e+03,-1.37967e+00,-1.33401e+01,3.94925e-02,8.43802e-02,1.51393e-01
1.91380e+03,-9.54362e-01,-1.16726e+01,3.97082e-02,8.55898e-02,1.53472e-01
1.91380e+03,-5.25768e-01,-1.00051e+01,3.99103e-02,8.67939e-02,1.55539e-01
1.91380e+03,-9.72161e-02,-8.33757e+00,4.01125e-02,8.79919e-02,1.57597e-01
1.91380e+03,3.29716e-01,-6.67006e+00,4.03215e-02,8.91842e-02,1.59647e-01
1.91380e+03,7.56647e-01,-5.00254e+00,4.05305e-02,9.03702e-02,1.61688e-01
1.91380e+03,1.17347e+00,-3.33503e+00,4.07814e-02,9.15505e-02,1.63730e-01
1.91380e+03,1.58841e+00,-1.66751e+00,4.10401e-02,9.27259e-02,1.65767e-01
1.94970e+03,1.94880e+01,0.00000e+00,-2.03750e-02,6.85926e-02,1.20540e-01
1.94970e+03,1.93899e+01,-1.48088e+00,-2.11977e-02,6.78502e-02,1.19416e-01
1.94970e+03,1.92593e+01,-2.96177e+00,-2.19422e-02,6.70896e-02,1.18256e-01
1.94970e+03,1.91274e+01,-4.44265e+00,-2.26836e-02,6.63117e-02,1.17074e-01
1.94970e+03,1.89669e+01,-5.92353e+00,-2.33559e-02,6.55179e-02,1.15859e-01
1.94970e+03,1.87998e+01,-7.40441e+00,-2.40123e-02,6.47093e-02,1.14623e-01
1.94970e+03,1.86107e+01,-8.88530e+00,-2.46157e-02,6.38872e-02,1.13361e-01
1.94970e+03,1.84109e+01,-1.03662e+01,-2.51934e-02,6.30527e-02,1.12079e-01
1.94970e+03,1.81935e+01,-1.18471e+01,-2.57285e-02,6.22069e-02,1.10775e-01
1.94970e+03,1.79616e+01,-1.33279e+01,-2.62287e-02,6.13509e-02,1.09452e-01
1.94970e+03,1.77137e+01,-1.48088e+01,-2.66904e-02,6.04859e-02,1.08111e-01
1.94970e+03,1.74465e+01,-1.62897e+01,-2.71055e-02,5.96130e-02,1.06751e-01
1.94970e+03,1.71596e+01,-1.77706e+01,-2.74730e-02,5.87332e-02,1.05373e-01
1.94970e+03,1.68446e+01,-1.92515e+01,-2.77731e-02,5.78482e-02,1.03974e-01
1.94970e+03,1.65024e+01,-2.07324e+01,-2.80073e-02,5.69597e-02,1.02556e-01
1.94970e+03,1.61276e+01,-2.22132e+01,-2.81630e-02,5.60690e-02,1.01116e-01
1.94970e+03,1.57086e+01,-2.36941e+01,-2.82123e-02,5.51792e-02,9.96502e-02
1.94970e+03,1.52589e+01,-2.51750e+01,-2.81875e-02,5.42909e-02,9.81684e-02
1.94970e+03,1.47401e+01,-2.66559e+01,-2.79960e-02,5.34090e-02,9.66505e-02
1.94970e+03,1.41926e+01,-2.81368e+01,-2.77355e-02,5.25354e-02,9.51270e-02
1.94970e+03,1.35653e+01,-2.96177e+01,-2.72826e-02,5.16724e-02,9.35652e-02
1.94970e+03,1.28740e+01,-3.10985e+01,-2.66755e-02,5.08272e-02,9.19880e-02
1.94970e+03,1.21177e+01,-3.25794e+01,-2.59114e-02,5.00012e-02,9.03978e-02
1.94970e+03,1.12521e+01,-3.40603e+01,-2.48839e-02,4.91976e-02,8.87717e-02
1.94970e+03,1.02599e+01,-3.55412e+01,-2.35513e-02,4.84259e-02,8.71199e-02
1.94970e+03,9.12460e+00,-3.70221e+01,-2.18739e-02,4.76956e-02,8.54580e-02
1.94970e+03,7.78184e+00,-3.85029e+01,-1.96962e-02,4.70126e-02,8.37764e-02
1.94970e+03,6.05831e+00,-3.99838e+01,-1.66006e-02,4.64103e-02,8.20812e-02
1.94970e+03,3.72729e+00,-4.14647e+01,-1.20406e-02,4.60418e-02,8.06506e-02
1.94970e+03,-1.51027e+00,-4.29456e+01,-4.73908e-04,4.61869e-02,7.99995e-02
1.94970e+03,-1.88827e+00,-4.29490e+01,4.34853e-04,4.66391e-02,8.07824e-02
1.94970e+03,-5.33209e+00,-4.14151e+01,9.83388e-03,4.74968e-02,8.28526e-02
1.94970e+03,-5.74905e+00,-3.98812e+01,1.19362e-02,4.81306e-02,8.42149e-02
1.94970e+03,-5.89293e+00,-3.83473e+01,1.33802e-02,4.87977e-02,8.55726e-02
1.94970e+03,-5.91477e+00,-3.68135e+01,1.45300e-02,4.94956e-02,8.69516e-02
1.94970e+03,-5.84465e+00,-3.52796e+01,1.54582e-02,5.02191e-02,8.83449e-02
1.94970e+03,-5.71682e+00,-3.37457e+01,1.62472e-02,5.09638e-02,8.97546e-02
1.94970e+03,-5.53106e+00,-3.22118e+01,1.68966e-02,5.17254e-02,9.11704e-02
1.94970e+03,-5.30995e+00,-3.06779e+01,1.74607e-02,5.25002e-02,9.25942e-02
1.94970e+03,-5.06834e+00,-2.91440e+01,1.79755e-02,5.32862e-02,9.40286e-02
1.94970e+03,-4.79584e+00,-2.76101e+01,1.84157e-02,5.40812e-02,9.54646e-02
1.94970e+03,-4.50405e+00,-2.60762e+01,1.88095e-02,5.48831e-02,9.69034e-02
1.94970e+03,-4.19345e+00,-2.45423e+01,1.91579e-02,5.56903e-02,9.83425e-02
1.94970e+03,-3.86414e+00,-2.30084e+01,1.94612e-02,5.65010e-02,9.97789e-02
1.94970e+03,-3.52308e+00,-2.14745e+01,1.97363e-02,5.73139e-02,1.01214e-01
1.94970e+03,-3.16699e+00,-1.99406e+01,1.99750e-02,5.81278e-02,1.02643e-01
1.94970e+03,-2.80126e+00,-1.84067e+01,2.01905e-02,5.89414e-02,1.04067e-01
1.94970e+03,-2.42690e+00,-1.68728e+01,2.03853e-02,5.97539e-02,1.05485e-01
1.94970e+03,-2.04484e+00,-1.53389e+01,2.05614e-02,6.05642e-02,1.06896e-01
1.94970e+03,-1.65951e+00,-1.38050e+01,2.07297e-02,6.13720e-02,1.08302e-01
1.94970e+03,-1.26912e+00,-1.22712e+01,2.08858e-02,6.21766e-02,1.09700e-01
1.94970e+03,-8.77888e-01,-1.07373e+01,2.10398e-02,6.29778e-02,1.11091e-01
1.94970e+03,-4.83637e-01,-9.20336e+00,2.11866e-02,6.37754e-02,1.12476e-01
1.94970e+03,-8.94260e-02,-7.66947e+00,2.13335e-02,6.45689e-02,1.13853e-01
1.94970e+03,3.03295e-01,-6.13558e+00,2.14839e-02,6.53586e-02,1.15225e-01
1.94970e+03,6.96016e-01,-4.60168e+00,2.16344e-02,6.61441e-02,1.16590e-01
1.94970e+03,1.07944e+00,-3.06779e+00,2.18073e-02,6.69259e-02,1.17952e-01
1.94970e+03,1.46113e+00,-1.53389e+00,2.19843e-02,6.77043e-02,1.19310e-01
1.98010e+03,1.80504e+01,0.00000e+00,-9.46588e-03,4.64806e-02,8.10613e-02
1.98010e+03,1.79595e+01,-1.37164e+00,-9.87495e-03,4.60245e-02,8.03260e-02
1.98010e+03,1.78386e+01,-2.74329e+00,-1.02475e-02,4.55572e-02,7.95700e-02
1.98010e+03,1.77165e+01,-4.11493e+00,-1.06186e-02,4.50793e-02,7.87984e-02
1.98010e+03,1.75678e+01,-5.48657e+00,-1.09575e-02,4.45916e-02,7.80084e-02
1.98010e+03,1.74130e+01,-6.85822e+00,-1.12889e-02,4.40949e-02,7.72044e-02
1.98010e+03,1.72378e+01,-8.22986e+00,-1.15955e-02,4.35899e-02,7.63851e-02
1.98010e+03,1.70528e+01,-9.60150e+00,-1.18901e-02,4.30772e-02,7.55534e-02
1.98010e+03,1.68514e+01,-1.09731e+01,-1.21649e-02,4.25577e-02,7.47091e-02
1.98010e+03,1.66366e+01,-1.23448e+01,-1.24233e-02,4.20319e-02,7.38537e-02
1.98010e+03,1.64070e+01,-1.37164e+01,-1.26638e-02,4.15005e-02,7.29880e-02
1.98010e+03,1.61595e+01,-1.50881e+01,-1.28825e-02,4.09643e-02,7.21123e-02
1.98010e+03,1.58938e+01,-1.64597e+01,-1.30790e-02,4.04239e-02,7.12274e-02
1.98010e+03,1.56020e+01,-1.78314e+01,-1.32439e-02,3.98803e-02,7.03329e-02
1.98010e+03,1.52851e+01,-1.92030e+01,-1.33782e-02,3.93346e-02,6.94305e-02
1.98010e+03,1.49379e+01,-2.05747e+01,-1.34757e-02,3.87874e-02,6.85200e-02
1.98010e+03,1.45498e+01,-2.19463e+01,-1.35235e-02,3.82409e-02,6.76017e-02
1.98010e+03,1.41333e+01,-2.33179e+01,-1.35367e-02,3.76953e-02,6.66787e-02
1.98010e+03,1.36527e+01,-2.46896e+01,-1.34720e-02,3.71536e-02,6.57470e-02
1.98010e+03,1.31457e+01,-2.60612e+01,-1.33752e-02,3.66171e-02,6.48176e-02
1.98010e+03,1.25646e+01,-2.74329e+01,-1.31884e-02,3.60870e-02,6.38808e-02
1.98010e+03,1.19244e+01,-2.88045e+01,-1.29296e-02,3.55680e-02,6.29477e-02
1.98010e+03,1.12238e+01,-3.01762e+01,-1.25975e-02,3.50607e-02,6.20197e-02
1.98010e+03,1.04220e+01,-3.15478e+01,-1.21423e-02,3.45671e-02,6.10908e-02
1.98010e+03,9.50303e+00,-3.29194e+01,-1.15446e-02,3.40932e-02,6.01691e-02
1.98010e+03,8.45151e+00,-3.42911e+01,-1.07859e-02,3.36447e-02,5.92641e-02
1.98010e+03,7.20780e+00,-3.56627e+01,-9.79345e-03,3.32253e-02,5.83752e-02
1.98010e+03,5.61141e+00,-3.70344e+01,-8.37227e-03,3.28554e-02,5.75199e-02
1.98010e+03,3.45234e+00,-3.84060e+01,-6.26702e-03,3.26293e-02,5.68620e-02
1.98010e+03,-1.39886e+00,-3.97777e+01,-8.88865e-04,3.27186e-02,5.66772e-02
1.98010e+03,-1.74898e+00,-3.97808e+01,-4.64429e-04,3.29963e-02,5.71532e-02
1.98010e+03,-4.93876e+00,-3.83601e+01,3.95166e-03,3.35233e-02,5.81983e-02
1.98010e+03,-5.32496e+00,-3.69394e+01,4.95937e-03,3.39126e-02,5.89473e-02
1.98010e+03,-5.45823e+00,-3.55186e+01,5.65957e-03,3.43223e-02,5.97168e-02
1.98010e+03,-5.47846e+00,-3.40979e+01,6.22235e-03,3.47510e-02,6.05113e-02
1.98010e+03,-5.41351e+00,-3.26771e+01,6.68157e-03,3.51954e-02,6.13253e-02
1.98010e+03,-5.29511e+00,-3.12564e+01,7.07582e-03,3.56528e-02,6.21565e-02
1.98010e+03,-5.12305e+00,-2.98356e+01,7.40483e-03,3.61206e-02,6.29994e-02
1.98010e+03,-4.91825e+00,-2.84149e+01,7.69404e-03,3.65965e-02,6.38522e-02
1.98010e+03,-4.69446e+00,-2.69941e+01,7.96016e-03,3.70792e-02,6.47145e-02
1.98010e+03,-4.44207e+00,-2.55734e+01,8.19150e-03,3.75675e-02,6.55824e-02
1.98010e+03,-4.17180e+00,-2.41527e+01,8.40111e-03,3.80600e-02,6.64550e-02
1.98010e+03,-3.88412e+00,-2.27319e+01,8.58956e-03,3.85557e-02,6.73306e-02
1.98010e+03,-3.57909e+00,-2.13112e+01,8.75692e-03,3.90536e-02,6.82073e-02
1.98010e+03,-3.26320e+00,-1.98904e+01,8.91106e-03,3.95528e-02,6.90847e-02
1.98010e+03,-2.93337e+00,-1.84697e+01,9.04827e-03,4.00527e-02,6.99608e-02
1.98010e+03,-2.59462e+00,-1.70489e+01,9.17463e-03,4.05523e-02,7.08353e-02
1.98010e+03,-2.24788e+00,-1.56282e+01,9.29127e-03,4.10512e-02,7.17073e-02
1.98010e+03,-1.89400e+00,-1.42074e+01,9.39923e-03,4.15489e-02,7.25760e-02
1.98010e+03,-1.53709e+00,-1.27867e+01,9.50352e-03,4.20449e-02,7.34414e-02
1.98010e+03,-1.17550e+00,-1.13660e+01,9.60211e-03,4.25390e-02,7.43028e-02
1.98010e+03,-8.13129e-01,-9.94521e+00,9.69975e-03,4.30310e-02,7.51604e-02
1.98010e+03,-4.47961e-01,-8.52447e+00,9.79400e-03,4.35207e-02,7.60137e-02
1.98010e+03,-8.28294e-02,-7.10372e+00,9.88828e-03,4.40080e-02,7.68628e-02
1.98010e+03,2.80922e-01,-5.68298e+00,9.98425e-03,4.44929e-02,7.77080e-02
1.98010e+03,6.44673e-01,-4.26223e+00,1.00802e-02,4.49752e-02,7.85488e-02
1.98010e+03,9.99811e-01,-2.84149e+00,1.01866e-02,4.54552e-02,7.93870e-02
1.98010e+03,1.35334e+00,-1.42074e+00,1.02950e-02,4.59332e-02,8.02219e-02
2.00520e+03,1.68635e+01,0.00000e+00,-3.58122e-03,2.82560e-02,4.90717e-02
2.00520e+03,1.67786e+01,-1.28145e+00,-3.75100e-03,2.80063e-02,4.86531e-02
2.00520e+03,1.66656e+01,-2.56290e+00,-3.90686e-03,2.77505e-02,4.82237e-02
2.00520e+03,1.65515e+01,-3.84435e+00,-4.06216e-03,2.74888e-02,4.77850e-02
2.00520e+03,1.64126e+01,-5.12580e+00,-4.20515e-03,2.72219e-02,4.73368e-02
2.00520e+03,1.62680e+01,-6.40725e+00,-4.34530e-03,2.69500e-02,4.68805e-02
2.00520e+03,1.61044e+01,-7.68870e+00,-4.47601e-03,2.66735e-02,4.64162e-02
2.00520e+03,1.59315e+01,-8.97015e+00,-4.60213e-03,2.63929e-02,4.59449e-02
2.00520e+03,1.57433e+01,-1.02516e+01,-4.72067e-03,2.61084e-02,4.54669e-02
2.00520e+03,1.55427e+01,-1.15330e+01,-4.83298e-03,2.58206e-02,4.49830e-02
2.00520e+03,1.53282e+01,-1.28145e+01,-4.93843e-03,2.55298e-02,4.44938e-02
2.00520e+03,1.50970e+01,-1.40959e+01,-5.03559e-03,2.52363e-02,4.39996e-02
2.00520e+03,1.48486e+01,-1.53774e+01,-5.12426e-03,2.49405e-02,4.35010e-02
2.00520e+03,1.45761e+01,-1.66588e+01,-5.20090e-03,2.46429e-02,4.29985e-02
2.00520e+03,1.42800e+01,-1.79403e+01,-5.26582e-03,2.43442e-02,4.24929e-02
2.00520e+03,1.39556e+01,-1.92217e+01,-5.31673e-03,2.40447e-02,4.19847e-02
2.00520e+03,1.35931e+01,-2.05032e+01,-5.34868e-03,2.37456e-02,4.14749e-02
2.00520e+03,1.32039e+01,-2.17846e+01,-5.36743e-03,2.34469e-02,4.09645e-02
2.00520e+03,1.27550e+01,-2.30661e+01,-5.35648e-03,2.31505e-02,4.04540e-02
2.00520e+03,1.22812e+01,-2.43475e+01,-5.33322e-03,2.28568e-02,3.99467e-02
2.00520e+03,1.17384e+01,-2.56290e+01,-5.27566e-03,2.25667e-02,3.94411e-02
2.00520e+03,1.11403e+01,-2.69104e+01,-5.19063e-03,2.22826e-02,3.89420e-02
2.00520e+03,1.04858e+01,-2.81919e+01,-5.07762e-03,2.20049e-02,3.84504e-02
2.00520e+03,9.73672e+00,-2.94733e+01,-4.91768e-03,2.17348e-02,3.79656e-02
2.00520e+03,8.87814e+00,-3.07548e+01,-4.70334e-03,2.14754e-02,3.74927e-02
2.00520e+03,7.89577e+00,-3.20362e+01,-4.42755e-03,2.12300e-02,3.70370e-02
2.00520e+03,6.73385e+00,-3.33177e+01,-4.06261e-03,2.10005e-02,3.66000e-02
2.00520e+03,5.24243e+00,-3.45991e+01,-3.53408e-03,2.07981e-02,3.61963e-02
2.00520e+03,3.22533e+00,-3.58806e+01,-2.74455e-03,2.06744e-02,3.59141e-02
2.00520e+03,-1.30688e+00,-3.71620e+01,-7.06280e-04,2.07233e-02,3.59007e-02
2.00520e+03,-1.63397e+00,-3.71650e+01,-5.44373e-04,2.08754e-02,3.61613e-02
2.00520e+03,-4.61400e+00,-3.58377e+01,1.15474e-03,2.11638e-02,3.66750e-02
2.00520e+03,-4.97481e+00,-3.45104e+01,1.55342e-03,2.13769e-02,3.70585e-02
2.00520e+03,-5.09932e+00,-3.31830e+01,1.83477e-03,2.16012e-02,3.74594e-02
2.00520e+03,-5.11821e+00,-3.18557e+01,2.06369e-03,2.18359e-02,3.78771e-02
2.00520e+03,-5.05754e+00,-3.05284e+01,2.25311e-03,2.20791e-02,3.83085e-02
2.00520e+03,-4.94693e+00,-2.92011e+01,2.41773e-03,2.23295e-02,3.87513e-02
2.00520e+03,-4.78618e+00,-2.78738e+01,2.55745e-03,2.25855e-02,3.92028e-02
2.00520e+03,-4.59485e+00,-2.65464e+01,2.68200e-03,2.28460e-02,3.96612e-02
2.00520e+03,-4.38577e+00,-2.52191e+01,2.79773e-03,2.31102e-02,4.01257e-02
2.00520e+03,-4.14998e+00,-2.38918e+01,2.90020e-03,2.33774e-02,4.05946e-02
2.00520e+03,-3.89748e+00,-2.25645e+01,2.99437e-03,2.36470e-02,4.10671e-02
2.00520e+03,-3.62871e+00,-2.12371e+01,3.08047e-03,2.39183e-02,4.15421e-02
2.00520e+03,-3.34375e+00,-1.99098e+01,3.15852e-03,2.41908e-02,4.20186e-02
2.00520e+03,-3.04862e+00,-1.85825e+01,3.23153e-03,2.44640e-02,4.24960e-02
2.00520e+03,-2.74048e+00,-1.72552e+01,3.29808e-03,2.47376e-02,4.29735e-02
2.00520e+03,-2.42401e+00,-1.59279e+01,3.36049e-03,2.50110e-02,4.34505e-02
2.00520e+03,-2.10007e+00,-1.46005e+01,3.41920e-03,2.52841e-02,4.39265e-02
2.00520e+03,-1.76946e+00,-1.32732e+01,3.47459e-03,2.55564e-02,4.44011e-02
2.00520e+03,-1.43602e+00,-1.19459e+01,3.52858e-03,2.58278e-02,4.48741e-02
2.00520e+03,-1.09820e+00,-1.06186e+01,3.58039e-03,2.60982e-02,4.53451e-02
2.00520e+03,-7.59661e-01,-9.29125e+00,3.63184e-03,2.63675e-02,4.58140e-02
2.00520e+03,-4.18505e-01,-7.96393e+00,3.68200e-03,2.66355e-02,4.62807e-02
2.00520e+03,-7.73829e-02,-6.63661e+00,3.73217e-03,2.69021e-02,4.67451e-02
2.00520e+03,2.62450e-01,-5.30929e+00,3.78299e-03,2.71675e-02,4.72072e-02
2.00520e+03,6.02282e-01,-3.98196e+00,3.83380e-03,2.74314e-02,4.76670e-02
2.00520e+03,9.34067e-01,-2.65464e+00,3.88861e-03,2.76940e-02,4.81248e-02
2.00520e+03,1.26435e+00,-1.32732e+00,3.94416e-03,2.79556e-02,4.85808e-02
2.02480e+03,1.59367e+01,0.00000e+00,-9.92413e-04,1.45379e-02,2.51998e-02
2.02480e+03,1.58564e+01,-1.21102e+00,-1.04605e-03,1.44237e-02,2.50044e-02
2.02480e+03,1.57496e+01,-2.42204e+00,-1.09578e-03,1.43067e-02,2.48042e-02
2.02480e+03,1.56418e+01,-3.63306e+00,-1.14534e-03,1.41871e-02,2.45995e-02
2.02480e+03,1.55106e+01,-4.84408e+00,-1.19146e-03,1.40651e-02,2.43905e-02
2.02480e+03,1.53739e+01,-6.05509e+00,-1.23677e-03,1.39407e-02,2.41777e-02
2.02480e+03,1.52192e+01,-7.26611e+00,-1.27942e-03,1.38144e-02,2.39613e-02
2.02480e+03,1.50559e+01,-8.47713e+00,-1.32080e-03,1.36861e-02,2.37417e-02
2.02480e+03,1.48781e+01,-9.68815e+00,-1.36003e-03,1.35560e-02,2.35191e-02
2.02480e+03,1.46884e+01,-1.08992e+01,-1.39752e-03,1.34245e-02,2.32938e-02
2.02480e+03,1.44857e+01,-1.21102e+01,-1.43309e-03,1.32915e-02,2.30661e-02
2.02480e+03,1.42672e+01,-1.33212e+01,-1.46632e-03,1.31573e-02,2.28362e-02
2.02480e+03,1.40325e+01,-1.45322e+01,-1.49716e-03,1.30221e-02,2.26046e-02
2.02480e+03,1.37750e+01,-1.57432e+01,-1.52463e-03,1.28861e-02,2.23713e-02
2.02480e+03,1.34951e+01,-1.69543e+01,-1.54880e-03,1.27495e-02,2.21370e-02
2.02480e+03,1.31886e+01,-1.81653e+01,-1.56904e-03,1.26126e-02,2.19020e-02
2.02480e+03,1.28460e+01,-1.93763e+01,-1.58395e-03,1.24759e-02,2.16668e-02
2.02480e+03,1.24782e+01,-2.05873e+01,-1.59515e-03,1.23394e-02,2.14318e-02
2.02480e+03,1.20540e+01,-2.17983e+01,-1.59800e-03,1.22038e-02,2.11980e-02
2.02480e+03,1.16063e+01,-2.30094e+01,-1.59740e-03,1.20696e-02,2.09661e-02
2.02480e+03,1.10933e+01,-2.42204e+01,-1.58716e-03,1.19370e-02,2.07363e-02
2.02480e+03,1.05280e+01,-2.54314e+01,-1.56919e-03,1.18071e-02,2.05106e-02
2.02480e+03,9.90946e+00,-2.66424e+01,-1.54337e-03,1.16802e-02,2.02895e-02
2.02480e+03,9.20158e+00,-2.78534e+01,-1.50436e-03,1.15567e-02,2.00733e-02
2.02480e+03,8.39019e+00,-2.90645e+01,-1.45007e-03,1.14382e-02,1.98645e-02
2.02480e+03,7.46181e+00,-3.02755e+01,-1.37850e-03,1.13260e-02,1.96655e-02
2.02480e+03,6.36374e+00,-3.14865e+01,-1.28189e-03,1.12211e-02,1.94777e-02
2.02480e+03,4.95429e+00,-3.26975e+01,-1.13931e-03,1.11286e-02,1.93089e-02
2.02480e+03,3.04806e+00,-3.39085e+01,-9.23392e-04,1.10720e-02,1.91996e-02
2.02480e+03,-1.23505e+00,-3.51195e+01,-3.56593e-04,1.10944e-02,1.92194e-02
2.02480e+03,-1.54416e+00,-3.51224e+01,-3.11112e-04,1.11640e-02,1.93391e-02
2.02480e+03,-4.36041e+00,-3.38680e+01,1.72462e-04,1.12958e-02,1.95657e-02
2.02480e+03,-4.70139e+00,-3.26136e+01,2.90630e-04,1.13933e-02,1.97359e-02
2.02480e+03,-4.81905e+00,-3.13592e+01,3.75831e-04,1.14958e-02,1.99148e-02
2.02480e+03,-4.83691e+00,-3.01049e+01,4.46298e-04,1.16031e-02,2.01021e-02
2.02480e+03,-4.77957e+00,-2.88505e+01,5.05665e-04,1.17143e-02,2.02960e-02
2.02480e+03,-4.67504e+00,-2.75961e+01,5.58065e-04,1.18287e-02,2.04955e-02
2.02480e+03,-4.52312e+00,-2.63418e+01,6.03470e-04,1.19457e-02,2.06994e-02
2.02480e+03,-4.34231e+00,-2.50874e+01,6.44609e-04,1.20648e-02,2.09068e-02
2.02480e+03,-4.14473e+00,-2.38330e+01,6.83272e-04,1.21856e-02,2.11171e-02
2.02480e+03,-3.92189e+00,-2.25787e+01,7.18208e-04,1.23078e-02,2.13297e-02
2.02480e+03,-3.68327e+00,-2.13243e+01,7.50813e-04,1.24310e-02,2.15441e-02
2.02480e+03,-3.42927e+00,-2.00699e+01,7.81149e-04,1.25550e-02,2.17599e-02
2.02480e+03,-3.15997e+00,-1.88155e+01,8.09225e-04,1.26795e-02,2.19765e-02
2.02480e+03,-2.88106e+00,-1.75612e+01,8.35883e-04,1.28044e-02,2.21937e-02
2.02480e+03,-2.58986e+00,-1.63068e+01,8.60726e-04,1.29295e-02,2.24110e-02
2.02480e+03,-2.29078e+00,-1.50524e+01,8.84407e-04,1.30544e-02,2.26282e-02
2.02480e+03,-1.98465e+00,-1.37981e+01,9.07045e-04,1.31792e-02,2.28451e-02
2.02480e+03,-1.67220e+00,-1.25437e+01,9.28752e-04,1.33037e-02,2.30614e-02
2.02480e+03,-1.35709e+00,-1.12893e+01,9.50066e-04,1.34278e-02,2.32770e-02
2.02480e+03,-1.03784e+00,-1.00350e+01,9.70769e-04,1.35514e-02,2.34917e-02
2.02480e+03,-7.17909e-01,-8.78059e+00,9.91370e-04,1.36744e-02,2.37055e-02
2.02480e+03,-3.95503e-01,-7.52622e+00,1.01161e-03,1.37969e-02,2.39184e-02
2.02480e+03,-7.31298e-02,-6.27185e+00,1.03185e-03,1.39188e-02,2.41301e-02
2.02480e+03,2.48025e-01,-5.01748e+00,1.05227e-03,1.40401e-02,2.43408e-02
2.02480e+03,5.69180e-01,-3.76311e+00,1.07269e-03,1.41607e-02,2.45505e-02
2.02480e+03,8.82730e-01,-2.50874e+00,1.09424e-03,1.42807e-02,2.47591e-02
2.02480e+03,1.19486e+00,-1.25437e+00,1.11599e-03,1.44002e-02,2.49669e-02
2.03880e+03,1.52746e+01,0.00000e+00,-1.65986e-04,5.61802e-03,9.73211e-03
2.03880e+03,1.51977e+01,-1.16071e+00,-1.77047e-04,5.58032e-03,9.66703e-03
2.03880e+03,1.50954e+01,-2.32142e+00,-1.87435e-04,5.54171e-03,9.60036e-03
2.03880e+03,1.49920e+01,-3.48213e+00,-1.97796e-04,5.50223e-03,9.53219e-03
2.03880e+03,1.48662e+01,-4.64285e+00,-2.07564e-04,5.46193e-03,9.46263e-03
2.03880e+03,1.47352e+01,-5.80356e+00,-2.17194e-04,5.42090e-03,9.39178e-03
2.03880e+03,1.45870e+01,-6.96427e+00,-2.26368e-04,5.37917e-03,9.31975e-03
2.03880e+03,1.44304e+01,-8.12498e+00,-2.35320e-04,5.33682e-03,9.24664e-03
2.03880e+03,1.42600e+01,-9.28569e+00,-2.43907e-04,5.29390e-03,9.17254e-03
2.03880e+03,1.40782e+01,-1.04464e+01,-2.52193e-04,5.25046e-03,9.09756e-03
2.03880e+03,1.38839e+01,-1.16071e+01,-2.60148e-04,5.20657e-03,9.02179e-03
2.03880e+03,1.36745e+01,-1.27678e+01,-2.67702e-04,5.16227e-03,8.94533e-03
2.03880e+03,1.34496e+01,-1.39285e+01,-2.74846e-04,5.11764e-03,8.86827e-03
2.03880e+03,1.32028e+01,-1.50892e+01,-2.81410e-04,5.07274e-03,8.79074e-03
2.03880e+03,1.29345e+01,-1.62500e+01,-2.87408e-04,5.02766e-03,8.71290e-03
2.03880e+03,1.26407e+01,-1.74107e+01,-2.92729e-04,4.98247e-03,8.63485e-03
2.03880e+03,1.23123e+01,-1.85714e+01,-2.97135e-04,4.93733e-03,8.55687e-03
2.03880e+03,1.19599e+01,-1.97321e+01,-3.00904e-04,4.89227e-03,8.47900e-03
2.03880e+03,1.15532e+01,-2.08928e+01,-3.03238e-04,4.84753e-03,8.40165e-03
2.03880e+03,1.11241e+01,-2.20535e+01,-3.04979e-04,4.80322e-03,8.32501e-03
2.03880e+03,1.06324e+01,-2.32142e+01,-3.05063e-04,4.75945e-03,8.24925e-03
2.03880e+03,1.00906e+01,-2.43749e+01,-3.03821e-04,4.71658e-03,8.17501e-03
2.03880e+03,9.49781e+00,-2.55357e+01,-3.01229e-04,4.67469e-03,8.10240e-03
2.03880e+03,8.81933e+00,-2.66964e+01,-2.96370e-04,4.63394e-03,8.03168e-03
2.03880e+03,8.04165e+00,-2.78571e+01,-2.88885e-04,4.59481e-03,7.96368e-03
2.03880e+03,7.15183e+00,-2.90178e+01,-2.78433e-04,4.55777e-03,7.89920e-03
2.03880e+03,6.09938e+00,-3.01785e+01,-2.63676e-04,4.52315e-03,7.83876e-03
2.03880e+03,4.74849e+00,-3.13392e+01,-2.41022e-04,4.49262e-03,7.78518e-03
2.03880e+03,2.92144e+00,-3.24999e+01,-2.05766e-04,4.47397e-03,7.75188e-03
2.03880e+03,-1.18374e+00,-3.36606e+01,-1.10220e-04,4.48136e-03,7.76273e-03
2.03880e+03,-1.48002e+00,-3.36633e+01,-1.02409e-04,4.50432e-03,7.80238e-03
2.03880e+03,-4.17927e+00,-3.24611e+01,-1.74088e-05,4.54786e-03,7.87714e-03
2.03880e+03,-4.50609e+00,-3.12588e+01,4.80570e-06,4.58002e-03,7.93282e-03
2.03880e+03,-4.61886e+00,-3.00565e+01,2.13557e-05,4.61386e-03,7.99147e-03
2.03880e+03,-4.63598e+00,-2.88543e+01,3.53740e-05,4.64927e-03,8.05286e-03
2.03880e+03,-4.58102e+00,-2.76520e+01,4.74849e-05,4.68598e-03,8.11649e-03
2.03880e+03,-4.48083e+00,-2.64498e+01,5.83988e-05,4.72375e-03,8.18199e-03
2.03880e+03,-4.33523e+00,-2.52475e+01,6.81109e-05,4.76239e-03,8.24898e-03
2.03880e+03,-4.16192e+00,-2.40452e+01,7.70898e-05,4.80169e-03,8.31713e-03
2.03880e+03,-3.97255e+00,-2.28430e+01,8.56435e-05,4.84156e-03,8.38626e-03
2.03880e+03,-3.75897e+00,-2.16407e+01,9.35566e-05,4.88188e-03,8.45618e-03
2.03880e+03,-3.53026e+00,-2.04384e+01,1.01069e-04,4.92255e-03,8.52671e-03
2.03880e+03,-3.28682e+00,-1.92362e+01,1.08192e-04,4.96349e-03,8.59769e-03
2.03880e+03,-3.02870e+00,-1.80339e+01,1.14926e-04,5.00460e-03,8.66898e-03
2.03880e+03,-2.76138e+00,-1.68317e+01,1.21417e-04,5.04582e-03,8.74046e-03
2.03880e+03,-2.48228e+00,-1.56294e+01,1.27596e-04,5.08709e-03,8.81202e-03
2.03880e+03,-2.19562e+00,-1.44271e+01,1.33575e-04,5.12834e-03,8.88356e-03
2.03880e+03,-1.90220e+00,-1.32249e+01,1.39376e-04,5.16954e-03,8.95499e-03
2.03880e+03,-1.60274e+00,-1.20226e+01,1.45016e-04,5.21062e-03,9.02623e-03
2.03880e+03,-1.30072e+00,-1.08204e+01,1.50588e-04,5.25157e-03,9.09724e-03
2.03880e+03,-9.94731e-01,-9.61809e+00,1.56056e-04,5.29236e-03,9.16797e-03
2.03880e+03,-6.88086e-01,-8.41583e+00,1.61506e-04,5.33298e-03,9.23840e-03
2.03880e+03,-3.79073e-01,-7.21357e+00,1.66893e-04,5.37341e-03,9.30851e-03
2.03880e+03,-7.00919e-02,-6.01131e+00,1.72282e-04,5.41363e-03,9.37826e-03
2.03880e+03,2.37722e-01,-4.80905e+00,1.77701e-04,5.45365e-03,9.44768e-03
2.03880e+03,5.45535e-01,-3.60678e+00,1.83120e-04,5.49346e-03,9.51672e-03
2.03880e+03,8.46060e-01,-2.40452e+00,1.88732e-04,5.53308e-03,9.58544e-03
2.03880e+03,1.14523e+00,-1.20226e+00,1.94380e-04,5.57253e-03,9.65386e-03
2.04720e+03,1.48774e+01,0.00000e+00,-1.89606e-05,1.09944e-03,1.90437e-03
2.04720e+03,1.48025e+01,-1.13053e+00,-2.06927e-05,1.09393e-03,1.89486e-03
2.04720e+03,1.47028e+01,-2.26105e+00,-2.23439e-05,1.08829e-03,1.88511e-03
2.04720e+03,1.46021e+01,-3.39158e+00,-2.39919e-05,1.08252e-03,1.87514e-03
2.04720e+03,1.44796e+01,-4.52211e+00,-2.55685e-05,1.07664e-03,1.86497e-03
2.04720e+03,1.43520e+01,-5.65264e+00,-2.71284e-05,1.07064e-03,1.85461e-03
2.04720e+03,1.42077e+01,-6.78316e+00,-2.86335e-05,1.06455e-03,1.84408e-03
2.04720e+03,1.40552e+01,-7.91369e+00,-3.01120e-05,1.05836e-03,1.83339e-03
2.04720e+03,1.38892e+01,-9.04422e+00,-3.15464e-05,1.05210e-03,1.82256e-03
2.04720e+03,1.37121e+01,-1.01747e+01,-3.29447e-05,1.04575e-03,1.81159e-03
2.04720e+03,1.35229e+01,-1.13053e+01,-3.43031e-05,1.03934e-03,1.80052e-03
2.04720e+03,1.33189e+01,-1.24358e+01,-3.56133e-05,1.03287e-03,1.78934e-03
2.04720e+03,1.30998e+01,-1.35663e+01,-3.68742e-05,1.02635e-03,1.77808e-03
2.04720e+03,1.28594e+01,-1.46969e+01,-3.80651e-05,1.01979e-03,1.76675e-03
2.04720e+03,1.25982e+01,-1.58274e+01,-3.91881e-05,1.01321e-03,1.75537e-03
2.04720e+03,1.23120e+01,-1.69579e+01,-4.02296e-05,1.00661e-03,1.74396e-03
2.04720e+03,1.19922e+01,-1.80884e+01,-4.11609e-05,1.00002e-03,1.73257e-03
2.04720e+03,1.16489e+01,-1.92190e+01,-4.20156e-05,9.93437e-04,1.72120e-03
2.04720e+03,1.12528e+01,-2.03495e+01,-4.26978e-05,9.86903e-04,1.70990e-03
2.04720e+03,1.08348e+01,-2.14800e+01,-4.33084e-05,9.80431e-04,1.69871e-03
2.04720e+03,1.03559e+01,-2.26105e+01,-4.37198e-05,9.74038e-04,1.68765e-03
2.04720e+03,9.82823e+00,-2.37411e+01,-4.39715e-05,9.67778e-04,1.67682e-03
2.04720e+03,9.25081e+00,-2.48716e+01,-4.40607e-05,9.61660e-04,1.66623e-03
2.04720e+03,8.58998e+00,-2.60021e+01,-4.38772e-05,9.55708e-04,1.65592e-03
2.04720e+03,7.83252e+00,-2.71326e+01,-4.33777e-05,9.49993e-04,1.64601e-03
2.04720e+03,6.96585e+00,-2.82632e+01,-4.25212e-05,9.44585e-04,1.63662e-03
2.04720e+03,5.94077e+00,-2.93937e+01,-4.11468e-05,9.39528e-04,1.62783e-03
2.04720e+03,4.62500e+00,-3.05242e+01,-3.88219e-05,9.35070e-04,1.62005e-03
2.04720e+03,2.84547e+00,-3.16548e+01,-3.49807e-05,9.32347e-04,1.61525e-03
2.04720e+03,-1.15296e+00,-3.27853e+01,-2.38847e-05,9.33427e-04,1.61692e-03
2.04720e+03,-1.44153e+00,-3.27879e+01,-2.29458e-05,9.36780e-04,1.62271e-03
2.04720e+03,-4.07059e+00,-3.16169e+01,-1.23020e-05,9.43139e-04,1.63361e-03
2.04720e+03,-4.38891e+00,-3.04459e+01,-9.21338e-06,9.47836e-04,1.64173e-03
2.04720e+03,-4.49875e+00,-2.92749e+01,-6.80634e-06,9.52779e-04,1.65028e-03
2.04720e+03,-4.51542e+00,-2.81039e+01,-4.70395e-06,9.57951e-04,1.65923e-03
2.04720e+03,-4.46189e+00,-2.69329e+01,-2.83108e-06,9.63312e-04,1.66851e-03
2.04720e+03,-4.36430e+00,-2.57619e+01,-1.10224e-06,9.68829e-04,1.67806e-03
2.04720e+03,-4.22249e+00,-2.45909e+01,4.81981e-07,9.74472e-04,1.68783e-03
2.04720e+03,-4.05369e+00,-2.34199e+01,1.97798e-06,9.80212e-04,1.69778e-03
2.04720e+03,-3.86924e+00,-2.22489e+01,3.42281e-06,9.86034e-04,1.70787e-03
2.04720e+03,-3.66121e+00,-2.10779e+01,4.79055e-06,9.91924e-04,1.71807e-03
2.04720e+03,-3.43845e+00,-1.99069e+01,6.11012e-06,9.97863e-04,1.72836e-03
2.04720e+03,-3.20134e+00,-1.87359e+01,7.38276e-06,1.00384e-03,1.73872e-03
2.04720e+03,-2.94994e+00,-1.75649e+01,8.60867e-06,1.00985e-03,1.74913e-03
2.04720e+03,-2.68957e+00,-1.63940e+01,9.80528e-06,1.01587e-03,1.75956e-03
2.04720e+03,-2.41772e+00,-1.52230e+01,1.09644e-05,1.02189e-03,1.77001e-03
2.04720e+03,-2.13852e+00,-1.40520e+01,1.20994e-05,1.02792e-03,1.78045e-03
2.04720e+03,-1.85273e+00,-1.28810e+01,1.32129e-05,1.03393e-03,1.79088e-03
2.04720e+03,-1.56106e+00,-1.17100e+01,1.43071e-05,1.03993e-03,1.80128e-03
2.04720e+03,-1.26689e+00,-1.05390e+01,1.53932e-05,1.04592e-03,1.81164e-03
2.04720e+03,-9.68863e-01,-9.36797e+00,1.64667e-05,1.05187e-03,1.82197e-03
2.04720e+03,-6.70192e-01,-8.19698e+00,1.75381e-05,1.05780e-03,1.83225e-03
2.04720e+03,-3.69215e-01,-7.02598e+00,1.86019e-05,1.06371e-03,1.84249e-03
2.04720e+03,-6.82691e-02,-5.85498e+00,1.96658e-05,1.06958e-03,1.85267e-03
2.04720e+03,2.31540e-01,-4.68399e+00,2.07335e-05,1.07543e-03,1.86281e-03
2.04720e+03,5.31348e-01,-3.51299e+00,2.18011e-05,1.08124e-03,1.87289e-03
2.04720e+03,8.24058e-01,-2.34199e+00,2.28920e-05,1.08703e-03,1.88292e-03
2.04720e+03,1.11544e+00,-1.17100e+00,2.39872e-05,1.09279e-03,1.89291e-03
2.05000e+03,1.47450e+01,0.00000e+00,0.00000e+00,0.00000e+00,0.00000e+00
2.05000e+03,1.46708e+01,-1.12047e+00,0.00000e+00,0.00000e+00,0.00000e+00
2.05000e+03,1.45720e+01,-2.24093e+00,0.00000e+00,0.00000e+00,0.00000e+00
2.05000e+03,1.44722e+01,-3.36140e+00,0.00000e+00,0.00000e+00,0.00000e+00
2.05000e+03,1.43508e+01,-4.48186e+00,0.00000e+00,0.00000e+00,0.00000e+00
2.05000e+03,1.42243e+01,-5.60233e+00,0.00000e+00,0.00000e+00,0.00000e+00
2.05000e+03,1.40812e+01,-6.72279e+00,0.00000e+00,0.00000e+00,0.00000e+00
2.05000e+03,1.39301e+01,-7.84326e+00,0.00000e+00,0.00000e+00,0.00000e+00
2.05000e+03,1.37656e+01,-8.96372e+00,0.00000e+00,0.00000e+00,0.00000e+00
2.05000e+03,1.35901e+01,-1.00842e+01,0.00000e+00,0.00000e+00,0.00000e+00
2.05000e+03,1.34025e+01,-1.12047e+01,0.00000e+00,0.00000e+00,0.00000e+00
2.05000e+03,1.32004e+01,-1.23251e+01,0.00000e+00,0.00000e+00,0.00000e+00
2.05000e+03,1.29833e+01,-1.34456e+01,0.00000e+00,0.00000e+00,0.00000e+00
2.05000e+03,1.27450e+01,-1.45661e+01,0.00000e+00,0.00000e+00,0.00000e+00
2.05000e+03,1.24860e+01,-1.56865e+01,0.00000e+00,0.00000e+00,0.00000e+00
2.05000e+03,1.22024e+01,-1.68070e+01,0.00000e+00,0.00000e+00,0.00000e+00
2.05000e+03,1.18854e+01,-1.79274e+01,0.00000e+00,0.00000e+00,0.00000e+00
2.05000e+03,1.15452e+01,-1.90479e+01,0.00000e+00,0.00000e+00,0.00000e+00
2.05000e+03,1.11526e+01,-2.01684e+01,0.00000e+00,0.00000e+00,0.00000e+00
2.05000e+03,1.07384e+01,-2.12888e+01,0.00000e+00,0.00000e+00,0.00000e+00
2.05000e+03,1.02638e+01,-2.24093e+01,0.00000e+00,0.00000e+00,0.00000e+00
2.05000e+03,9.74076e+00,-2.35298e+01,0.00000e+00,0.00000e+00,0.00000e+00
2.05000e+03,9.16848e+00,-2.46502e+01,0.00000e+00,0.00000e+00,0.00000e+00
2.05000e+03,8.51353e+00,-2.57707e+01,0.00000e+00,0.00000e+00,0.00000e+00
2.05000e+03,7.76281e+00,-2.68912e+01,0.00000e+00,0.00000e+00,0.00000e+00
2.05000e+03,6.90385e+00,-2.80116e+01,0.00000e+00,0.00000e+00,0.00000e+00
2.05000e+03,5.88790e+00,-2.91321e+01,0.00000e+00,0.00000e+00,0.00000e+00
2.05000e+03,4.58384e+00,-3.02526e+01,0.00000e+00,0.00000e+00,0.00000e+00
2.05000e+03,2.82014e+00,-3.13730e+01,0.00000e+00,0.00000e+00,0.00000e+00
2.05000e+03,-1.14270e+00,-3.24935e+01,0.00000e+00,0.00000e+00,0.00000e+00
2.05000e+03,-1.42870e+00,-3.24961e+01,0.00000e+00,0.00000e+00,0.00000e+00
2.05000e+03,-4.03436e+00,-3.13355e+01,0.00000e+00,0.00000e+00,0.00000e+00
2.05000e+03,-4.34985e+00,-3.01749e+01,0.00000e+00,0.00000e+00,0.00000e+00
2.05000e+03,-4.45871e+00,-2.90144e+01,0.00000e+00,0.00000e+00,0.00000e+00
2.05000e+03,-4.47523e+00,-2.78538e+01,0.00000e+00,0.00000e+00,0.00000e+00
2.05000e+03,-4.42218e+00,-2.66932e+01,0.00000e+00,0.00000e+00,0.00000e+00
2.05000e+03,-4.32546e+00,-2.55327e+01,0.00000e+00,0.00000e+00,0.00000e+00
2.05000e+03,-4.18491e+00,-2.43721e+01,0.00000e+00,0.00000e+00,0.00000e+00
2.05000e+03,-4.01761e+00,-2.32115e+01,0.00000e+00,0.00000e+00,0.00000e+00
2.05000e+03,-3.83480e+00,-2.20509e+01,0.00000e+00,0.00000e+00,0.00000e+00
2.05000e+03,-3.62863e+00,-2.08903e+01,0.00000e+00,0.00000e+00,0.00000e+00
2.05000e+03,-3.40785e+00,-1.97298e+01,0.00000e+00,0.00000e+00,0.00000e+00
2.05000e+03,-3.17285e+00,-1.85692e+01,0.00000e+00,0.00000e+00,0.00000e+00
2.05000e+03,-2.92368e+00,-1.74086e+01,0.00000e+00,0.00000e+00,0.00000e+00
2.05000e+03,-2.66563e+00,-1.62480e+01,0.00000e+00,0.00000e+00,0.00000e+00
2.05000e+03,-2.39621e+00,-1.50875e+01,0.00000e+00,0.00000e+00,0.00000e+00
2.05000e+03,-2.11949e+00,-1.39269e+01,0.00000e+00,0.00000e+00,0.00000e+00
2.05000e+03,-1.83624e+00,-1.27663e+01,0.00000e+00,0.00000e+00,0.00000e+00
2.05000e+03,-1.54717e+00,-1.16057e+01,0.00000e+00,0.00000e+00,0.00000e+00
2.05000e+03,-1.25562e+00,-1.04452e+01,0.00000e+00,0.00000e+00,0.00000e+00
2.05000e+03,-9.60241e-01,-9.28460e+00,0.00000e+00,0.00000e+00,0.00000e+00
2.05000e+03,-6.64227e-01,-8.12402e+00,0.00000e+00,0.00000e+00,0.00000e+00
2.05000e+03,-3.65929e-01,-6.96345e+00,0.00000e+00,0.00000e+00,0.00000e+00
2.05000e+03,-6.76615e-02,-5.80287e+00,0.00000e+00,0.00000e+00,0.00000e+00
2.05000e+03,2.29479e-01,-4.64230e+00,0.00000e+00,0.00000e+00,0.00000e+00
2.05000e+03,5.26620e-01,-3.48173e+00,0.00000e+00,0.00000e+00,0.00000e+00
2.05000e+03,8.16724e-01,-2.32115e+00,0.00000e+00,0.00000e+00,0.00000e+00
2.05000e+03,1.10552e+00,-1.16058e+00,0.00000e+00,0.00000e+00,0.00000e+00
--------------------------------------------------------------------------------------------------------------------------------------------------------------------------------------------------------------------------------------------------------------------------------------------------------------------------------------------------------------------------------

LAMINADO 
--------------------------------------------------------------------------------------------------------------------------------------------------------------------------------------------------------------------------------------------------------------------------------------------------------------------------------------------------------------------------------
X,Y,Z,Sigma,Tau,Von Mises
0.00000e+00,4.31008e+01,0.00000e+00,0.00000e+00,0.00000e+00,0.00000e+00
0.00000e+00,4.28837e+01,-3.27521e+00,0.00000e+00,0.00000e+00,0.00000e+00
0.00000e+00,4.25950e+01,-6.55041e+00,0.00000e+00,0.00000e+00,0.00000e+00
0.00000e+00,4.23033e+01,-9.82562e+00,0.00000e+00,0.00000e+00,0.00000e+00
0.00000e+00,4.19484e+01,-1.31008e+01,0.00000e+00,0.00000e+00,0.00000e+00
0.00000e+00,4.15787e+01,-1.63760e+01,0.00000e+00,0.00000e+00,0.00000e+00
0.00000e+00,4.11605e+01,-1.96512e+01,0.00000e+00,0.00000e+00,0.00000e+00
0.00000e+00,4.07187e+01,-2.29264e+01,0.00000e+00,0.00000e+00,0.00000e+00
0.00000e+00,4.02378e+01,-2.62017e+01,0.00000e+00,0.00000e+00,0.00000e+00
0.00000e+00,3.97249e+01,-2.94769e+01,0.00000e+00,0.00000e+00,0.00000e+00
0.00000e+00,3.91766e+01,-3.27521e+01,0.00000e+00,0.00000e+00,0.00000e+00
0.00000e+00,3.85857e+01,-3.60273e+01,0.00000e+00,0.00000e+00,0.00000e+00
0.00000e+00,3.79511e+01,-3.93025e+01,0.00000e+00,0.00000e+00,0.00000e+00
0.00000e+00,3.72545e+01,-4.25777e+01,0.00000e+00,0.00000e+00,0.00000e+00
0.00000e+00,3.64976e+01,-4.58529e+01,0.00000e+00,0.00000e+00,0.00000e+00
0.00000e+00,3.56687e+01,-4.91281e+01,0.00000e+00,0.00000e+00,0.00000e+00
0.00000e+00,3.47420e+01,-5.24033e+01,0.00000e+00,0.00000e+00,0.00000e+00
0.00000e+00,3.37474e+01,-5.56785e+01,0.00000e+00,0.00000e+00,0.00000e+00
0.00000e+00,3.26000e+01,-5.89537e+01,0.00000e+00,0.00000e+00,0.00000e+00
0.00000e+00,3.13892e+01,-6.22289e+01,0.00000e+00,0.00000e+00,0.00000e+00
0.00000e+00,3.00018e+01,-6.55041e+01,0.00000e+00,0.00000e+00,0.00000e+00
0.00000e+00,2.84730e+01,-6.87793e+01,0.00000e+00,0.00000e+00,0.00000e+00
0.00000e+00,2.68002e+01,-7.20546e+01,0.00000e+00,0.00000e+00,0.00000e+00
0.00000e+00,2.48857e+01,-7.53298e+01,0.00000e+00,0.00000e+00,0.00000e+00
0.00000e+00,2.26913e+01,-7.86050e+01,0.00000e+00,0.00000e+00,0.00000e+00
0.00000e+00,2.01805e+01,-8.18802e+01,0.00000e+00,0.00000e+00,0.00000e+00
0.00000e+00,1.72108e+01,-8.51554e+01,0.00000e+00,0.00000e+00,0.00000e+00
0.00000e+00,1.33989e+01,-8.84306e+01,0.00000e+00,0.00000e+00,0.00000e+00
0.00000e+00,8.24350e+00,-9.17058e+01,0.00000e+00,0.00000e+00,0.00000e+00
0.00000e+00,-3.34020e+00,-9.49810e+01,0.00000e+00,0.00000e+00,0.00000e+00
0.00000e+00,-4.17620e+00,-9.49886e+01,0.00000e+00,0.00000e+00,0.00000e+00
0.00000e+00,-1.17928e+01,-9.15961e+01,0.00000e+00,0.00000e+00,0.00000e+00
0.00000e+00,-1.27149e+01,-8.82037e+01,0.00000e+00,0.00000e+00,0.00000e+00
0.00000e+00,-1.30332e+01,-8.48113e+01,0.00000e+00,0.00000e+00,0.00000e+00
0.00000e+00,-1.30814e+01,-8.14188e+01,0.00000e+00,0.00000e+00,0.00000e+00
0.00000e+00,-1.29264e+01,-7.80264e+01,0.00000e+00,0.00000e+00,0.00000e+00
0.00000e+00,-1.26437e+01,-7.46339e+01,0.00000e+00,0.00000e+00,0.00000e+00
0.00000e+00,-1.22328e+01,-7.12415e+01,0.00000e+00,0.00000e+00,0.00000e+00
0.00000e+00,-1.17438e+01,-6.78490e+01,0.00000e+00,0.00000e+00,0.00000e+00
0.00000e+00,-1.12094e+01,-6.44565e+01,0.00000e+00,0.00000e+00,0.00000e+00
0.00000e+00,-1.06068e+01,-6.10641e+01,0.00000e+00,0.00000e+00,0.00000e+00
0.00000e+00,-9.96142e+00,-5.76716e+01,0.00000e+00,0.00000e+00,0.00000e+00
0.00000e+00,-9.27449e+00,-5.42792e+01,0.00000e+00,0.00000e+00,0.00000e+00
0.00000e+00,-8.54615e+00,-5.08867e+01,0.00000e+00,0.00000e+00,0.00000e+00
0.00000e+00,-7.79185e+00,-4.74943e+01,0.00000e+00,0.00000e+00,0.00000e+00
0.00000e+00,-7.00429e+00,-4.41018e+01,0.00000e+00,0.00000e+00,0.00000e+00
0.00000e+00,-6.19544e+00,-4.07094e+01,0.00000e+00,0.00000e+00,0.00000e+00
0.00000e+00,-5.36748e+00,-3.73169e+01,0.00000e+00,0.00000e+00,0.00000e+00
0.00000e+00,-4.52248e+00,-3.39245e+01,0.00000e+00,0.00000e+00,0.00000e+00
0.00000e+00,-3.67026e+00,-3.05320e+01,0.00000e+00,0.00000e+00,0.00000e+00
0.00000e+00,-2.80686e+00,-2.71396e+01,0.00000e+00,0.00000e+00,0.00000e+00
0.00000e+00,-1.94159e+00,-2.37472e+01,0.00000e+00,0.00000e+00,0.00000e+00
0.00000e+00,-1.06964e+00,-2.03547e+01,0.00000e+00,0.00000e+00,0.00000e+00
0.00000e+00,-1.97780e-01,-1.69622e+01,0.00000e+00,0.00000e+00,0.00000e+00
0.00000e+00,6.70785e-01,-1.35698e+01,0.00000e+00,0.00000e+00,0.00000e+00
0.00000e+00,1.53935e+00,-1.01774e+01,0.00000e+00,0.00000e+00,0.00000e+00
0.00000e+00,2.38735e+00,-6.78490e+00,0.00000e+00,0.00000e+00,0.00000e+00
0.00000e+00,3.23151e+00,-3.39245e+00,0.00000e+00,0.00000e+00,0.00000e+00
1.07300e+02,4.26785e+01,0.00000e+00,0.00000e+00,0.00000e+00,0.00000e+00
1.07300e+02,4.24636e+01,-3.24312e+00,0.00000e+00,0.00000e+00,0.00000e+00
1.07300e+02,4.21777e+01,-6.48624e+00,0.00000e+00,0.00000e+00,0.00000e+00
1.07300e+02,4.18889e+01,-9.72936e+00,0.00000e+00,0.00000e+00,0.00000e+00
1.07300e+02,4.15374e+01,-1.29725e+01,0.00000e+00,0.00000e+00,0.00000e+00
1.07300e+02,4.11714e+01,-1.62156e+01,0.00000e+00,0.00000e+00,0.00000e+00
1.07300e+02,4.07572e+01,-1.94587e+01,0.00000e+00,0.00000e+00,0.00000e+00
1.07300e+02,4.03197e+01,-2.27018e+01,0.00000e+00,0.00000e+00,0.00000e+00
1.07300e+02,3.98436e+01,-2.59450e+01,0.00000e+00,0.00000e+00,0.00000e+00
1.07300e+02,3.93357e+01,-2.91881e+01,0.00000e+00,0.00000e+00,0.00000e+00
1.07300e+02,3.87928e+01,-3.24312e+01,0.00000e+00,0.00000e+00,0.00000e+00
1.07300e+02,3.82077e+01,-3.56743e+01,0.00000e+00,0.00000e+00,0.00000e+00
1.07300e+02,3.75793e+01,-3.89174e+01,0.00000e+00,0.00000e+00,0.00000e+00
1.07300e+02,3.68895e+01,-4.21606e+01,0.00000e+00,0.00000e+00,0.00000e+00
1.07300e+02,3.61401e+01,-4.54037e+01,0.00000e+00,0.00000e+00,0.00000e+00
1.07300e+02,3.53192e+01,-4.86468e+01,0.00000e+00,0.00000e+00,0.00000e+00
1.07300e+02,3.44016e+01,-5.18899e+01,0.00000e+00,0.00000e+00,0.00000e+00
1.07300e+02,3.34168e+01,-5.51330e+01,0.00000e+00,0.00000e+00,0.00000e+00
1.07300e+02,3.22806e+01,-5.83762e+01,0.00000e+00,0.00000e+00,0.00000e+00
1.07300e+02,3.10816e+01,-6.16193e+01,0.00000e+00,0.00000e+00,0.00000e+00
1.07300e+02,2.97079e+01,-6.48624e+01,0.00000e+00,0.00000e+00,0.00000e+00
1.07300e+02,2.81940e+01,-6.81055e+01,0.00000e+00,0.00000e+00,0.00000e+00
1.07300e+02,2.65376e+01,-7.13486e+01,0.00000e+00,0.00000e+00,0.00000e+00
1.07300e+02,2.46419e+01,-7.45918e+01,0.00000e+00,0.00000e+00,0.00000e+00
1.07300e+02,2.24690e+01,-7.78349e+01,0.00000e+00,0.00000e+00,0.00000e+00
1.07300e+02,1.99828e+01,-8.10780e+01,0.00000e+00,0.00000e+00,0.00000e+00
1.07300e+02,1.70422e+01,-8.43211e+01,0.00000e+00,0.00000e+00,0.00000e+00
1.07300e+02,1.32676e+01,-8.75642e+01,0.00000e+00,0.00000e+00,0.00000e+00
1.07300e+02,8.16273e+00,-9.08074e+01,0.00000e+00,0.00000e+00,0.00000e+00
1.07300e+02,-3.30748e+00,-9.40505e+01,0.00000e+00,0.00000e+00,0.00000e+00
1.07300e+02,-4.13529e+00,-9.40580e+01,0.00000e+00,0.00000e+00,0.00000e+00
1.07300e+02,-1.16772e+01,-9.06988e+01,0.00000e+00,0.00000e+00,0.00000e+00
1.07300e+02,-1.25904e+01,-8.73396e+01,0.00000e+00,0.00000e+00,0.00000e+00
1.07300e+02,-1.29055e+01,-8.39804e+01,0.00000e+00,0.00000e+00,0.00000e+00
1.07300e+02,-1.29533e+01,-8.06211e+01,0.00000e+00,0.00000e+00,0.00000e+00
1.07300e+02,-1.27997e+01,-7.72619e+01,0.00000e+00,0.00000e+00,0.00000e+00
1.07300e+02,-1.25198e+01,-7.39027e+01,0.00000e+00,0.00000e+00,0.00000e+00
1.07300e+02,-1.21130e+01,-7.05435e+01,0.00000e+00,0.00000e+00,0.00000e+00
1.07300e+02,-1.16287e+01,-6.71843e+01,0.00000e+00,0.00000e+00,0.00000e+00
1.07300e+02,-1.10996e+01,-6.38251e+01,0.00000e+00,0.00000e+00,0.00000e+00
1.07300e+02,-1.05029e+01,-6.04659e+01,0.00000e+00,0.00000e+00,0.00000e+00
1.07300e+02,-9.86382e+00,-5.71066e+01,0.00000e+00,0.00000e+00,0.00000e+00
1.07300e+02,-9.18363e+00,-5.37474e+01,0.00000e+00,0.00000e+00,0.00000e+00
1.07300e+02,-8.46243e+00,-5.03882e+01,0.00000e+00,0.00000e+00,0.00000e+00
1.07300e+02,-7.71552e+00,-4.70290e+01,0.00000e+00,0.00000e+00,0.00000e+00
1.07300e+02,-6.93567e+00,-4.36698e+01,0.00000e+00,0.00000e+00,0.00000e+00
1.07300e+02,-6.13474e+00,-4.03106e+01,0.00000e+00,0.00000e+00,0.00000e+00
1.07300e+02,-5.31490e+00,-3.69514e+01,0.00000e+00,0.00000e+00,0.00000e+00
1.07300e+02,-4.47818e+00,-3.35921e+01,0.00000e+00,0.00000e+00,0.00000e+00
1.07300e+02,-3.63431e+00,-3.02329e+01,0.00000e+00,0.00000e+00,0.00000e+00
1.07300e+02,-2.77936e+00,-2.68737e+01,0.00000e+00,0.00000e+00,0.00000e+00
1.07300e+02,-1.92257e+00,-2.35145e+01,0.00000e+00,0.00000e+00,0.00000e+00
1.07300e+02,-1.05916e+00,-2.01553e+01,0.00000e+00,0.00000e+00,0.00000e+00
1.07300e+02,-1.95842e-01,-1.67961e+01,0.00000e+00,0.00000e+00,0.00000e+00
1.07300e+02,6.64213e-01,-1.34369e+01,0.00000e+00,0.00000e+00,0.00000e+00
1.07300e+02,1.52427e+00,-1.00776e+01,0.00000e+00,0.00000e+00,0.00000e+00
1.07300e+02,2.36396e+00,-6.71843e+00,0.00000e+00,0.00000e+00,0.00000e+00
1.07300e+02,3.19985e+00,-3.35921e+00,0.00000e+00,0.00000e+00,0.00000e+00
2.14300e+02,4.22575e+01,0.00000e+00,0.00000e+00,0.00000e+00,0.00000e+00
2.14300e+02,4.20447e+01,-3.21112e+00,0.00000e+00,0.00000e+00,0.00000e+00
2.14300e+02,4.17615e+01,-6.42224e+00,0.00000e+00,0.00000e+00,0.00000e+00
2.14300e+02,4.14756e+01,-9.63337e+00,0.00000e+00,0.00000e+00,0.00000e+00
2.14300e+02,4.11276e+01,-1.28445e+01,0.00000e+00,0.00000e+00,0.00000e+00
2.14300e+02,4.07652e+01,-1.60556e+01,0.00000e+00,0.00000e+00,0.00000e+00
2.14300e+02,4.03551e+01,-1.92667e+01,0.00000e+00,0.00000e+00,0.00000e+00
2.14300e+02,3.99219e+01,-2.24779e+01,0.00000e+00,0.00000e+00,0.00000e+00
2.14300e+02,3.94505e+01,-2.56890e+01,0.00000e+00,0.00000e+00,0.00000e+00
2.14300e+02,3.89476e+01,-2.89001e+01,0.00000e+00,0.00000e+00,0.00000e+00
2.14300e+02,3.84101e+01,-3.21112e+01,0.00000e+00,0.00000e+00,0.00000e+00
2.14300e+02,3.78307e+01,-3.53223e+01,0.00000e+00,0.00000e+00,0.00000e+00
2.14300e+02,3.72085e+01,-3.85335e+01,0.00000e+00,0.00000e+00,0.00000e+00
2.14300e+02,3.65256e+01,-4.17446e+01,0.00000e+00,0.00000e+00,0.00000e+00
2.14300e+02,3.57835e+01,-4.49557e+01,0.00000e+00,0.00000e+00,0.00000e+00
2.14300e+02,3.49707e+01,-4.81668e+01,0.00000e+00,0.00000e+00,0.00000e+00
2.14300e+02,3.40622e+01,-5.13780e+01,0.00000e+00,0.00000e+00,0.00000e+00
2.14300e+02,3.30871e+01,-5.45891e+01,0.00000e+00,0.00000e+00,0.00000e+00
2.14300e+02,3.19621e+01,-5.78002e+01,0.00000e+00,0.00000e+00,0.00000e+00
2.14300e+02,3.07750e+01,-6.10113e+01,0.00000e+00,0.00000e+00,0.00000e+00
2.14300e+02,2.94148e+01,-6.42224e+01,0.00000e+00,0.00000e+00,0.00000e+00
2.14300e+02,2.79159e+01,-6.74336e+01,0.00000e+00,0.00000e+00,0.00000e+00
2.14300e+02,2.62758e+01,-7.06447e+01,0.00000e+00,0.00000e+00,0.00000e+00
2.14300e+02,2.43988e+01,-7.38558e+01,0.00000e+00,0.00000e+00,0.00000e+00
2.14300e+02,2.22473e+01,-7.70669e+01,0.00000e+00,0.00000e+00,0.00000e+00
2.14300e+02,1.97856e+01,-8.02781e+01,0.00000e+00,0.00000e+00,0.00000e+00
2.14300e+02,1.68740e+01,-8.34892e+01,0.00000e+00,0.00000e+00,0.00000e+00
2.14300e+02,1.31367e+01,-8.67003e+01,0.00000e+00,0.00000e+00,0.00000e+00
2.14300e+02,8.08220e+00,-8.99114e+01,0.00000e+00,0.00000e+00,0.00000e+00
2.14300e+02,-3.27484e+00,-9.31226e+01,0.00000e+00,0.00000e+00,0.00000e+00
2.14300e+02,-4.09449e+00,-9.31300e+01,0.00000e+00,0.00000e+00,0.00000e+00
2.14300e+02,-1.15620e+01,-8.98039e+01,0.00000e+00,0.00000e+00,0.00000e+00
2.14300e+02,-1.24661e+01,-8.64779e+01,0.00000e+00,0.00000e+00,0.00000e+00
2.14300e+02,-1.27781e+01,-8.31518e+01,0.00000e+00,0.00000e+00,0.00000e+00
2.14300e+02,-1.28255e+01,-7.98257e+01,0.00000e+00,0.00000e+00,0.00000e+00
2.14300e+02,-1.26734e+01,-7.64996e+01,0.00000e+00,0.00000e+00,0.00000e+00
2.14300e+02,-1.23963e+01,-7.31736e+01,0.00000e+00,0.00000e+00,0.00000e+00
2.14300e+02,-1.19935e+01,-6.98475e+01,0.00000e+00,0.00000e+00,0.00000e+00
2.14300e+02,-1.15140e+01,-6.65214e+01,0.00000e+00,0.00000e+00,0.00000e+00
2.14300e+02,-1.09901e+01,-6.31954e+01,0.00000e+00,0.00000e+00,0.00000e+00
2.14300e+02,-1.03992e+01,-5.98693e+01,0.00000e+00,0.00000e+00,0.00000e+00
2.14300e+02,-9.76651e+00,-5.65432e+01,0.00000e+00,0.00000e+00,0.00000e+00
2.14300e+02,-9.09302e+00,-5.32171e+01,0.00000e+00,0.00000e+00,0.00000e+00
2.14300e+02,-8.37893e+00,-4.98911e+01,0.00000e+00,0.00000e+00,0.00000e+00
2.14300e+02,-7.63939e+00,-4.65650e+01,0.00000e+00,0.00000e+00,0.00000e+00
2.14300e+02,-6.86724e+00,-4.32389e+01,0.00000e+00,0.00000e+00,0.00000e+00
2.14300e+02,-6.07421e+00,-3.99129e+01,0.00000e+00,0.00000e+00,0.00000e+00
2.14300e+02,-5.26246e+00,-3.65868e+01,0.00000e+00,0.00000e+00,0.00000e+00
2.14300e+02,-4.43399e+00,-3.32607e+01,0.00000e+00,0.00000e+00,0.00000e+00
2.14300e+02,-3.59845e+00,-2.99346e+01,0.00000e+00,0.00000e+00,0.00000e+00
2.14300e+02,-2.75194e+00,-2.66086e+01,0.00000e+00,0.00000e+00,0.00000e+00
2.14300e+02,-1.90360e+00,-2.32825e+01,0.00000e+00,0.00000e+00,0.00000e+00
2.14300e+02,-1.04871e+00,-1.99564e+01,0.00000e+00,0.00000e+00,0.00000e+00
2.14300e+02,-1.93910e-01,-1.66304e+01,0.00000e+00,0.00000e+00,0.00000e+00
2.14300e+02,6.57660e-01,-1.33043e+01,0.00000e+00,0.00000e+00,0.00000e+00
2.14300e+02,1.50923e+00,-9.97821e+00,0.00000e+00,0.00000e+00,0.00000e+00
2.14300e+02,2.34063e+00,-6.65214e+00,0.00000e+00,0.00000e+00,0.00000e+00
2.14300e+02,3.16828e+00,-3.32607e+00,0.00000e+00,0.00000e+00,0.00000e+00
3.20700e+02,4.18388e+01,0.00000e+00,0.00000e+00,0.00000e+00,0.00000e+00
3.20700e+02,4.16280e+01,-3.17930e+00,0.00000e+00,0.00000e+00,0.00000e+00
3.20700e+02,4.13477e+01,-6.35861e+00,0.00000e+00,0.00000e+00,0.00000e+00
3.20700e+02,4.10646e+01,-9.53791e+00,0.00000e+00,0.00000e+00,0.00000e+00
3.20700e+02,4.07201e+01,-1.27172e+01,0.00000e+00,0.00000e+00,0.00000e+00
3.20700e+02,4.03613e+01,-1.58965e+01,0.00000e+00,0.00000e+00,0.00000e+00
3.20700e+02,3.99553e+01,-1.90758e+01,0.00000e+00,0.00000e+00,0.00000e+00
3.20700e+02,3.95264e+01,-2.22551e+01,0.00000e+00,0.00000e+00,0.00000e+00
3.20700e+02,3.90596e+01,-2.54344e+01,0.00000e+00,0.00000e+00,0.00000e+00
3.20700e+02,3.85617e+01,-2.86137e+01,0.00000e+00,0.00000e+00,0.00000e+00
3.20700e+02,3.80295e+01,-3.17930e+01,0.00000e+00,0.00000e+00,0.00000e+00
3.20700e+02,3.74559e+01,-3.49724e+01,0.00000e+00,0.00000e+00,0.00000e+00
3.20700e+02,3.68398e+01,-3.81517e+01,0.00000e+00,0.00000e+00,0.00000e+00
3.20700e+02,3.61637e+01,-4.13310e+01,0.00000e+00,0.00000e+00,0.00000e+00
3.20700e+02,3.54289e+01,-4.45103e+01,0.00000e+00,0.00000e+00,0.00000e+00
3.20700e+02,3.46242e+01,-4.76896e+01,0.00000e+00,0.00000e+00,0.00000e+00
3.20700e+02,3.37247e+01,-5.08689e+01,0.00000e+00,0.00000e+00,0.00000e+00
3.20700e+02,3.27593e+01,-5.40482e+01,0.00000e+00,0.00000e+00,0.00000e+00
3.20700e+02,3.16454e+01,-5.72275e+01,0.00000e+00,0.00000e+00,0.00000e+00
3.20700e+02,3.04701e+01,-6.04068e+01,0.00000e+00,0.00000e+00,0.00000e+00
3.20700e+02,2.91233e+01,-6.35861e+01,0.00000e+00,0.00000e+00,0.00000e+00
3.20700e+02,2.76393e+01,-6.67654e+01,0.00000e+00,0.00000e+00,0.00000e+00
3.20700e+02,2.60154e+01,-6.99447e+01,0.00000e+00,0.00000e+00,0.00000e+00
3.20700e+02,2.41570e+01,-7.31240e+01,0.00000e+00,0.00000e+00,0.00000e+00
3.20700e+02,2.20269e+01,-7.63033e+01,0.00000e+00,0.00000e+00,0.00000e+00
3.20700e+02,1.95896e+01,-7.94826e+01,0.00000e+00,0.00000e+00,0.00000e+00
3.20700e+02,1.67068e+01,-8.26619e+01,0.00000e+00,0.00000e+00,0.00000e+00
3.20700e+02,1.30066e+01,-8.58412e+01,0.00000e+00,0.00000e+00,0.00000e+00
3.20700e+02,8.00212e+00,-8.90205e+01,0.00000e+00,0.00000e+00,0.00000e+00
3.20700e+02,-3.24239e+00,-9.21998e+01,0.00000e+00,0.00000e+00,0.00000e+00
3.20700e+02,-4.05392e+00,-9.22072e+01,0.00000e+00,0.00000e+00,0.00000e+00
3.20700e+02,-1.14474e+01,-8.89141e+01,0.00000e+00,0.00000e+00,0.00000e+00
3.20700e+02,-1.23426e+01,-8.56210e+01,0.00000e+00,0.00000e+00,0.00000e+00
3.20700e+02,-1.26515e+01,-8.23279e+01,0.00000e+00,0.00000e+00,0.00000e+00
3.20700e+02,-1.26984e+01,-7.90348e+01,0.00000e+00,0.00000e+00,0.00000e+00
3.20700e+02,-1.25479e+01,-7.57416e+01,0.00000e+00,0.00000e+00,0.00000e+00
3.20700e+02,-1.22734e+01,-7.24485e+01,0.00000e+00,0.00000e+00,0.00000e+00
3.20700e+02,-1.18746e+01,-6.91554e+01,0.00000e+00,0.00000e+00,0.00000e+00
3.20700e+02,-1.13999e+01,-6.58623e+01,0.00000e+00,0.00000e+00,0.00000e+00
3.20700e+02,-1.08812e+01,-6.25692e+01,0.00000e+00,0.00000e+00,0.00000e+00
3.20700e+02,-1.02962e+01,-5.92761e+01,0.00000e+00,0.00000e+00,0.00000e+00
3.20700e+02,-9.66973e+00,-5.59829e+01,0.00000e+00,0.00000e+00,0.00000e+00
3.20700e+02,-9.00292e+00,-5.26898e+01,0.00000e+00,0.00000e+00,0.00000e+00
3.20700e+02,-8.29591e+00,-4.93967e+01,0.00000e+00,0.00000e+00,0.00000e+00
3.20700e+02,-7.56370e+00,-4.61036e+01,0.00000e+00,0.00000e+00,0.00000e+00
3.20700e+02,-6.79920e+00,-4.28105e+01,0.00000e+00,0.00000e+00,0.00000e+00
3.20700e+02,-6.01403e+00,-3.95174e+01,0.00000e+00,0.00000e+00,0.00000e+00
3.20700e+02,-5.21032e+00,-3.62243e+01,0.00000e+00,0.00000e+00,0.00000e+00
3.20700e+02,-4.39006e+00,-3.29311e+01,0.00000e+00,0.00000e+00,0.00000e+00
3.20700e+02,-3.56279e+00,-2.96380e+01,0.00000e+00,0.00000e+00,0.00000e+00
3.20700e+02,-2.72467e+00,-2.63449e+01,0.00000e+00,0.00000e+00,0.00000e+00
3.20700e+02,-1.88474e+00,-2.30518e+01,0.00000e+00,0.00000e+00,0.00000e+00
3.20700e+02,-1.03832e+00,-1.97587e+01,0.00000e+00,0.00000e+00,0.00000e+00
3.20700e+02,-1.91989e-01,-1.64656e+01,0.00000e+00,0.00000e+00,0.00000e+00
3.20700e+02,6.51143e-01,-1.31725e+01,0.00000e+00,0.00000e+00,0.00000e+00
3.20700e+02,1.49428e+00,-9.87934e+00,0.00000e+00,0.00000e+00,0.00000e+00
3.20700e+02,2.31744e+00,-6.58623e+00,0.00000e+00,0.00000e+00,0.00000e+00
3.20700e+02,3.13689e+00,-3.29311e+00,0.00000e+00,0.00000e+00,0.00000e+00
4.26200e+02,4.14236e+01,0.00000e+00,0.00000e+00,0.00000e+00,0.00000e+00
4.26200e+02,4.12150e+01,-3.14776e+00,0.00000e+00,0.00000e+00,0.00000e+00
4.26200e+02,4.09374e+01,-6.29551e+00,0.00000e+00,0.00000e+00,0.00000e+00
4.26200e+02,4.06571e+01,-9.44327e+00,0.00000e+00,0.00000e+00,0.00000e+00
4.26200e+02,4.03160e+01,-1.25910e+01,0.00000e+00,0.00000e+00,0.00000e+00
4.26200e+02,3.99607e+01,-1.57388e+01,0.00000e+00,0.00000e+00,0.00000e+00
4.26200e+02,3.95588e+01,-1.88865e+01,0.00000e+00,0.00000e+00,0.00000e+00
4.26200e+02,3.91341e+01,-2.20343e+01,0.00000e+00,0.00000e+00,0.00000e+00
4.26200e+02,3.86720e+01,-2.51820e+01,0.00000e+00,0.00000e+00,0.00000e+00
4.26200e+02,3.81790e+01,-2.83298e+01,0.00000e+00,0.00000e+00,0.00000e+00
4.26200e+02,3.76521e+01,-3.14776e+01,0.00000e+00,0.00000e+00,0.00000e+00
4.26200e+02,3.70842e+01,-3.46253e+01,0.00000e+00,0.00000e+00,0.00000e+00
4.26200e+02,3.64743e+01,-3.77731e+01,0.00000e+00,0.00000e+00,0.00000e+00
4.26200e+02,3.58048e+01,-4.09208e+01,0.00000e+00,0.00000e+00,0.00000e+00
4.26200e+02,3.50774e+01,-4.40686e+01,0.00000e+00,0.00000e+00,0.00000e+00
4.26200e+02,3.42806e+01,-4.72163e+01,0.00000e+00,0.00000e+00,0.00000e+00
4.26200e+02,3.33901e+01,-5.03641e+01,0.00000e+00,0.00000e+00,0.00000e+00
4.26200e+02,3.24342e+01,-5.35118e+01,0.00000e+00,0.00000e+00,0.00000e+00
4.26200e+02,3.13314e+01,-5.66596e+01,0.00000e+00,0.00000e+00,0.00000e+00
4.26200e+02,3.01677e+01,-5.98074e+01,0.00000e+00,0.00000e+00,0.00000e+00
4.26200e+02,2.88343e+01,-6.29551e+01,0.00000e+00,0.00000e+00,0.00000e+00
4.26200e+02,2.73650e+01,-6.61029e+01,0.00000e+00,0.00000e+00,0.00000e+00
4.26200e+02,2.57573e+01,-6.92506e+01,0.00000e+00,0.00000e+00,0.00000e+00
4.26200e+02,2.39173e+01,-7.23984e+01,0.00000e+00,0.00000e+00,0.00000e+00
4.26200e+02,2.18083e+01,-7.55461e+01,0.00000e+00,0.00000e+00,0.00000e+00
4.26200e+02,1.93952e+01,-7.86939e+01,0.00000e+00,0.00000e+00,0.00000e+00
4.26200e+02,1.65410e+01,-8.18417e+01,0.00000e+00,0.00000e+00,0.00000e+00
4.26200e+02,1.28775e+01,-8.49894e+01,0.00000e+00,0.00000e+00,0.00000e+00
4.26200e+02,7.92271e+00,-8.81372e+01,0.00000e+00,0.00000e+00,0.00000e+00
4.26200e+02,-3.21022e+00,-9.12849e+01,0.00000e+00,0.00000e+00,0.00000e+00
4.26200e+02,-4.01369e+00,-9.12922e+01,0.00000e+00,0.00000e+00,0.00000e+00
4.26200e+02,-1.13339e+01,-8.80318e+01,0.00000e+00,0.00000e+00,0.00000e+00
4.26200e+02,-1.22201e+01,-8.47713e+01,0.00000e+00,0.00000e+00,0.00000e+00
4.26200e+02,-1.25260e+01,-8.15109e+01,0.00000e+00,0.00000e+00,0.00000e+00
4.26200e+02,-1.25724e+01,-7.82505e+01,0.00000e+00,0.00000e+00,0.00000e+00
4.26200e+02,-1.24233e+01,-7.49900e+01,0.00000e+00,0.00000e+00,0.00000e+00
4.26200e+02,-1.21516e+01,-7.17296e+01,0.00000e+00,0.00000e+00,0.00000e+00
4.26200e+02,-1.17568e+01,-6.84692e+01,0.00000e+00,0.00000e+00,0.00000e+00
4.26200e+02,-1.12868e+01,-6.52087e+01,0.00000e+00,0.00000e+00,0.00000e+00
4.26200e+02,-1.07732e+01,-6.19483e+01,0.00000e+00,0.00000e+00,0.00000e+00
4.26200e+02,-1.01940e+01,-5.86879e+01,0.00000e+00,0.00000e+00,0.00000e+00
4.26200e+02,-9.57378e+00,-5.54274e+01,0.00000e+00,0.00000e+00,0.00000e+00
4.26200e+02,-8.91358e+00,-5.21670e+01,0.00000e+00,0.00000e+00,0.00000e+00
4.26200e+02,-8.21359e+00,-4.89065e+01,0.00000e+00,0.00000e+00,0.00000e+00
4.26200e+02,-7.48864e+00,-4.56461e+01,0.00000e+00,0.00000e+00,0.00000e+00
4.26200e+02,-6.73173e+00,-4.23857e+01,0.00000e+00,0.00000e+00,0.00000e+00
4.26200e+02,-5.95435e+00,-3.91252e+01,0.00000e+00,0.00000e+00,0.00000e+00
4.26200e+02,-5.15861e+00,-3.58648e+01,0.00000e+00,0.00000e+00,0.00000e+00
4.26200e+02,-4.34650e+00,-3.26044e+01,0.00000e+00,0.00000e+00,0.00000e+00
4.26200e+02,-3.52744e+00,-2.93439e+01,0.00000e+00,0.00000e+00,0.00000e+00
4.26200e+02,-2.69763e+00,-2.60835e+01,0.00000e+00,0.00000e+00,0.00000e+00
4.26200e+02,-1.86603e+00,-2.28231e+01,0.00000e+00,0.00000e+00,0.00000e+00
4.26200e+02,-1.02802e+00,-1.95626e+01,0.00000e+00,0.00000e+00,0.00000e+00
4.26200e+02,-1.90083e-01,-1.63022e+01,0.00000e+00,0.00000e+00,0.00000e+00
4.26200e+02,6.44682e-01,-1.30417e+01,0.00000e+00,0.00000e+00,0.00000e+00
4.26200e+02,1.47945e+00,-9.78131e+00,0.00000e+00,0.00000e+00,0.00000e+00
4.26200e+02,2.29445e+00,-6.52087e+00,0.00000e+00,0.00000e+00,0.00000e+00
4.26200e+02,3.10576e+00,-3.26044e+00,0.00000e+00,0.00000e+00,0.00000e+00
5.30600e+02,4.10127e+01,0.00000e+00,0.00000e+00,0.00000e+00,0.00000e+00
5.30600e+02,4.08062e+01,-3.11654e+00,0.00000e+00,0.00000e+00,0.00000e+00
5.30600e+02,4.05314e+01,-6.23307e+00,0.00000e+00,0.00000e+00,0.00000e+00
5.30600e+02,4.02539e+01,-9.34961e+00,0.00000e+00,0.00000e+00,0.00000e+00
5.30600e+02,3.99161e+01,-1.24661e+01,0.00000e+00,0.00000e+00,0.00000e+00
5.30600e+02,3.95644e+01,-1.55827e+01,0.00000e+00,0.00000e+00,0.00000e+00
5.30600e+02,3.91664e+01,-1.86992e+01,0.00000e+00,0.00000e+00,0.00000e+00
5.30600e+02,3.87460e+01,-2.18158e+01,0.00000e+00,0.00000e+00,0.00000e+00
5.30600e+02,3.82884e+01,-2.49323e+01,0.00000e+00,0.00000e+00,0.00000e+00
5.30600e+02,3.78003e+01,-2.80488e+01,0.00000e+00,0.00000e+00,0.00000e+00
5.30600e+02,3.72787e+01,-3.11654e+01,0.00000e+00,0.00000e+00,0.00000e+00
5.30600e+02,3.67164e+01,-3.42819e+01,0.00000e+00,0.00000e+00,0.00000e+00
5.30600e+02,3.61125e+01,-3.73984e+01,0.00000e+00,0.00000e+00,0.00000e+00
5.30600e+02,3.54497e+01,-4.05150e+01,0.00000e+00,0.00000e+00,0.00000e+00
5.30600e+02,3.47295e+01,-4.36315e+01,0.00000e+00,0.00000e+00,0.00000e+00
5.30600e+02,3.39406e+01,-4.67480e+01,0.00000e+00,0.00000e+00,0.00000e+00
5.30600e+02,3.30589e+01,-4.98646e+01,0.00000e+00,0.00000e+00,0.00000e+00
5.30600e+02,3.21125e+01,-5.29811e+01,0.00000e+00,0.00000e+00,0.00000e+00
5.30600e+02,3.10206e+01,-5.60976e+01,0.00000e+00,0.00000e+00,0.00000e+00
5.30600e+02,2.98685e+01,-5.92142e+01,0.00000e+00,0.00000e+00,0.00000e+00
5.30600e+02,2.85484e+01,-6.23307e+01,0.00000e+00,0.00000e+00,0.00000e+00
5.30600e+02,2.70936e+01,-6.54473e+01,0.00000e+00,0.00000e+00,0.00000e+00
5.30600e+02,2.55018e+01,-6.85638e+01,0.00000e+00,0.00000e+00,0.00000e+00
5.30600e+02,2.36801e+01,-7.16803e+01,0.00000e+00,0.00000e+00,0.00000e+00
5.30600e+02,2.15920e+01,-7.47969e+01,0.00000e+00,0.00000e+00,0.00000e+00
5.30600e+02,1.92028e+01,-7.79134e+01,0.00000e+00,0.00000e+00,0.00000e+00
5.30600e+02,1.63770e+01,-8.10299e+01,0.00000e+00,0.00000e+00,0.00000e+00
5.30600e+02,1.27498e+01,-8.41465e+01,0.00000e+00,0.00000e+00,0.00000e+00
5.30600e+02,7.84413e+00,-8.72630e+01,0.00000e+00,0.00000e+00,0.00000e+00
5.30600e+02,-3.17838e+00,-9.03795e+01,0.00000e+00,0.00000e+00,0.00000e+00
5.30600e+02,-3.97388e+00,-9.03868e+01,0.00000e+00,0.00000e+00,0.00000e+00
5.30600e+02,-1.12214e+01,-8.71587e+01,0.00000e+00,0.00000e+00,0.00000e+00
5.30600e+02,-1.20989e+01,-8.39306e+01,0.00000e+00,0.00000e+00,0.00000e+00
5.30600e+02,-1.24018e+01,-8.07025e+01,0.00000e+00,0.00000e+00,0.00000e+00
5.30600e+02,-1.24477e+01,-7.74744e+01,0.00000e+00,0.00000e+00,0.00000e+00
5.30600e+02,-1.23001e+01,-7.42463e+01,0.00000e+00,0.00000e+00,0.00000e+00
5.30600e+02,-1.20311e+01,-7.10182e+01,0.00000e+00,0.00000e+00,0.00000e+00
5.30600e+02,-1.16402e+01,-6.77901e+01,0.00000e+00,0.00000e+00,0.00000e+00
5.30600e+02,-1.11748e+01,-6.45620e+01,0.00000e+00,0.00000e+00,0.00000e+00
5.30600e+02,-1.06664e+01,-6.13339e+01,0.00000e+00,0.00000e+00,0.00000e+00
5.30600e+02,-1.00929e+01,-5.81058e+01,0.00000e+00,0.00000e+00,0.00000e+00
5.30600e+02,-9.47882e+00,-5.48777e+01,0.00000e+00,0.00000e+00,0.00000e+00
5.30600e+02,-8.82518e+00,-5.16496e+01,0.00000e+00,0.00000e+00,0.00000e+00
5.30600e+02,-8.13212e+00,-4.84215e+01,0.00000e+00,0.00000e+00,0.00000e+00
5.30600e+02,-7.41437e+00,-4.51934e+01,0.00000e+00,0.00000e+00,0.00000e+00
5.30600e+02,-6.66496e+00,-4.19653e+01,0.00000e+00,0.00000e+00,0.00000e+00
5.30600e+02,-5.89529e+00,-3.87372e+01,0.00000e+00,0.00000e+00,0.00000e+00
5.30600e+02,-5.10745e+00,-3.55091e+01,0.00000e+00,0.00000e+00,0.00000e+00
5.30600e+02,-4.30339e+00,-3.22810e+01,0.00000e+00,0.00000e+00,0.00000e+00
5.30600e+02,-3.49245e+00,-2.90529e+01,0.00000e+00,0.00000e+00,0.00000e+00
5.30600e+02,-2.67088e+00,-2.58248e+01,0.00000e+00,0.00000e+00,0.00000e+00
5.30600e+02,-1.84753e+00,-2.25967e+01,0.00000e+00,0.00000e+00,0.00000e+00
5.30600e+02,-1.01782e+00,-1.93686e+01,0.00000e+00,0.00000e+00,0.00000e+00
5.30600e+02,-1.88198e-01,-1.61405e+01,0.00000e+00,0.00000e+00,0.00000e+00
5.30600e+02,6.38288e-01,-1.29124e+01,0.00000e+00,0.00000e+00,0.00000e+00
5.30600e+02,1.46477e+00,-9.68430e+00,0.00000e+00,0.00000e+00,0.00000e+00
5.30600e+02,2.27169e+00,-6.45620e+00,0.00000e+00,0.00000e+00,0.00000e+00
5.30600e+02,3.07496e+00,-3.22810e+00,0.00000e+00,0.00000e+00,0.00000e+00
6.33500e+02,4.06078e+01,0.00000e+00,0.00000e+00,0.00000e+00,0.00000e+00
6.33500e+02,4.04033e+01,-3.08576e+00,0.00000e+00,0.00000e+00,0.00000e+00
6.33500e+02,4.01312e+01,-6.17153e+00,0.00000e+00,0.00000e+00,0.00000e+00
6.33500e+02,3.98564e+01,-9.25729e+00,0.00000e+00,0.00000e+00,0.00000e+00
6.33500e+02,3.95220e+01,-1.23431e+01,0.00000e+00,0.00000e+00,0.00000e+00
6.33500e+02,3.91738e+01,-1.54288e+01,0.00000e+00,0.00000e+00,0.00000e+00
6.33500e+02,3.87797e+01,-1.85146e+01,0.00000e+00,0.00000e+00,0.00000e+00
6.33500e+02,3.83634e+01,-2.16004e+01,0.00000e+00,0.00000e+00,0.00000e+00
6.33500e+02,3.79104e+01,-2.46861e+01,0.00000e+00,0.00000e+00,0.00000e+00
6.33500e+02,3.74271e+01,-2.77719e+01,0.00000e+00,0.00000e+00,0.00000e+00
6.33500e+02,3.69106e+01,-3.08576e+01,0.00000e+00,0.00000e+00,0.00000e+00
6.33500e+02,3.63539e+01,-3.39434e+01,0.00000e+00,0.00000e+00,0.00000e+00
6.33500e+02,3.57559e+01,-3.70292e+01,0.00000e+00,0.00000e+00,0.00000e+00
6.33500e+02,3.50997e+01,-4.01149e+01,0.00000e+00,0.00000e+00,0.00000e+00
6.33500e+02,3.43866e+01,-4.32007e+01,0.00000e+00,0.00000e+00,0.00000e+00
6.33500e+02,3.36055e+01,-4.62865e+01,0.00000e+00,0.00000e+00,0.00000e+00
6.33500e+02,3.27325e+01,-4.93722e+01,0.00000e+00,0.00000e+00,0.00000e+00
6.33500e+02,3.17954e+01,-5.24580e+01,0.00000e+00,0.00000e+00,0.00000e+00
6.33500e+02,3.07144e+01,-5.55438e+01,0.00000e+00,0.00000e+00,0.00000e+00
6.33500e+02,2.95736e+01,-5.86295e+01,0.00000e+00,0.00000e+00,0.00000e+00
6.33500e+02,2.82665e+01,-6.17153e+01,0.00000e+00,0.00000e+00,0.00000e+00
6.33500e+02,2.68261e+01,-6.48011e+01,0.00000e+00,0.00000e+00,0.00000e+00
6.33500e+02,2.52500e+01,-6.78868e+01,0.00000e+00,0.00000e+00,0.00000e+00
6.33500e+02,2.34463e+01,-7.09726e+01,0.00000e+00,0.00000e+00,0.00000e+00
6.33500e+02,2.13788e+01,-7.40584e+01,0.00000e+00,0.00000e+00,0.00000e+00
6.33500e+02,1.90132e+01,-7.71441e+01,0.00000e+00,0.00000e+00,0.00000e+00
6.33500e+02,1.62153e+01,-8.02299e+01,0.00000e+00,0.00000e+00,0.00000e+00
6.33500e+02,1.26239e+01,-8.33156e+01,0.00000e+00,0.00000e+00,0.00000e+00
6.33500e+02,7.76668e+00,-8.64014e+01,0.00000e+00,0.00000e+00,0.00000e+00
6.33500e+02,-3.14700e+00,-8.94872e+01,0.00000e+00,0.00000e+00,0.00000e+00
6.33500e+02,-3.93464e+00,-8.94943e+01,0.00000e+00,0.00000e+00,0.00000e+00
6.33500e+02,-1.11106e+01,-8.62981e+01,0.00000e+00,0.00000e+00,0.00000e+00
6.33500e+02,-1.19795e+01,-8.31019e+01,0.00000e+00,0.00000e+00,0.00000e+00
6.33500e+02,-1.22793e+01,-7.99057e+01,0.00000e+00,0.00000e+00,0.00000e+00
6.33500e+02,-1.23248e+01,-7.67094e+01,0.00000e+00,0.00000e+00,0.00000e+00
6.33500e+02,-1.21787e+01,-7.35132e+01,0.00000e+00,0.00000e+00,0.00000e+00
6.33500e+02,-1.19123e+01,-7.03170e+01,0.00000e+00,0.00000e+00,0.00000e+00
6.33500e+02,-1.15252e+01,-6.71208e+01,0.00000e+00,0.00000e+00,0.00000e+00
6.33500e+02,-1.10645e+01,-6.39245e+01,0.00000e+00,0.00000e+00,0.00000e+00
6.33500e+02,-1.05611e+01,-6.07283e+01,0.00000e+00,0.00000e+00,0.00000e+00
6.33500e+02,-9.99326e+00,-5.75321e+01,0.00000e+00,0.00000e+00,0.00000e+00
6.33500e+02,-9.38524e+00,-5.43358e+01,0.00000e+00,0.00000e+00,0.00000e+00
6.33500e+02,-8.73804e+00,-5.11396e+01,0.00000e+00,0.00000e+00,0.00000e+00
6.33500e+02,-8.05183e+00,-4.79434e+01,0.00000e+00,0.00000e+00,0.00000e+00
6.33500e+02,-7.34116e+00,-4.47472e+01,0.00000e+00,0.00000e+00,0.00000e+00
6.33500e+02,-6.59916e+00,-4.15509e+01,0.00000e+00,0.00000e+00,0.00000e+00
6.33500e+02,-5.83709e+00,-3.83547e+01,0.00000e+00,0.00000e+00,0.00000e+00
6.33500e+02,-5.05702e+00,-3.51585e+01,0.00000e+00,0.00000e+00,0.00000e+00
6.33500e+02,-4.26090e+00,-3.19623e+01,0.00000e+00,0.00000e+00,0.00000e+00
6.33500e+02,-3.45797e+00,-2.87660e+01,0.00000e+00,0.00000e+00,0.00000e+00
6.33500e+02,-2.64450e+00,-2.55698e+01,0.00000e+00,0.00000e+00,0.00000e+00
6.33500e+02,-1.82928e+00,-2.23736e+01,0.00000e+00,0.00000e+00,0.00000e+00
6.33500e+02,-1.00777e+00,-1.91774e+01,0.00000e+00,0.00000e+00,0.00000e+00
6.33500e+02,-1.86340e-01,-1.59811e+01,0.00000e+00,0.00000e+00,0.00000e+00
6.33500e+02,6.31986e-01,-1.27849e+01,0.00000e+00,0.00000e+00,0.00000e+00
6.33500e+02,1.45031e+00,-9.58868e+00,0.00000e+00,0.00000e+00,0.00000e+00
6.33500e+02,2.24926e+00,-6.39245e+00,0.00000e+00,0.00000e+00,0.00000e+00
6.33500e+02,3.04460e+00,-3.19623e+00,0.00000e+00,0.00000e+00,0.00000e+00
7.34700e+02,4.02095e+01,0.00000e+00,0.00000e+00,0.00000e+00,0.00000e+00
7.34700e+02,4.00070e+01,-3.05550e+00,0.00000e+00,0.00000e+00,0.00000e+00
7.34700e+02,3.97376e+01,-6.11100e+00,0.00000e+00,0.00000e+00,0.00000e+00
7.34700e+02,3.94656e+01,-9.16651e+00,0.00000e+00,0.00000e+00,0.00000e+00
7.34700e+02,3.91344e+01,-1.22220e+01,0.00000e+00,0.00000e+00,0.00000e+00
7.34700e+02,3.87896e+01,-1.52775e+01,0.00000e+00,0.00000e+00,0.00000e+00
7.34700e+02,3.83994e+01,-1.83330e+01,0.00000e+00,0.00000e+00,0.00000e+00
7.34700e+02,3.79872e+01,-2.13885e+01,0.00000e+00,0.00000e+00,0.00000e+00
7.34700e+02,3.75386e+01,-2.44440e+01,0.00000e+00,0.00000e+00,0.00000e+00
7.34700e+02,3.70601e+01,-2.74995e+01,0.00000e+00,0.00000e+00,0.00000e+00
7.34700e+02,3.65486e+01,-3.05550e+01,0.00000e+00,0.00000e+00,0.00000e+00
7.34700e+02,3.59973e+01,-3.36105e+01,0.00000e+00,0.00000e+00,0.00000e+00
7.34700e+02,3.54053e+01,-3.66660e+01,0.00000e+00,0.00000e+00,0.00000e+00
7.34700e+02,3.47554e+01,-3.97215e+01,0.00000e+00,0.00000e+00,0.00000e+00
7.34700e+02,3.40493e+01,-4.27770e+01,0.00000e+00,0.00000e+00,0.00000e+00
7.34700e+02,3.32760e+01,-4.58325e+01,0.00000e+00,0.00000e+00,0.00000e+00
7.34700e+02,3.24115e+01,-4.88880e+01,0.00000e+00,0.00000e+00,0.00000e+00
7.34700e+02,3.14836e+01,-5.19435e+01,0.00000e+00,0.00000e+00,0.00000e+00
7.34700e+02,3.04131e+01,-5.49990e+01,0.00000e+00,0.00000e+00,0.00000e+00
7.34700e+02,2.92835e+01,-5.80545e+01,0.00000e+00,0.00000e+00,0.00000e+00
7.34700e+02,2.79893e+01,-6.11100e+01,0.00000e+00,0.00000e+00,0.00000e+00
7.34700e+02,2.65630e+01,-6.41655e+01,0.00000e+00,0.00000e+00,0.00000e+00
7.34700e+02,2.50024e+01,-6.72210e+01,0.00000e+00,0.00000e+00,0.00000e+00
7.34700e+02,2.32164e+01,-7.02765e+01,0.00000e+00,0.00000e+00,0.00000e+00
7.34700e+02,2.11691e+01,-7.33320e+01,0.00000e+00,0.00000e+00,0.00000e+00
7.34700e+02,1.88268e+01,-7.63875e+01,0.00000e+00,0.00000e+00,0.00000e+00
7.34700e+02,1.60563e+01,-7.94430e+01,0.00000e+00,0.00000e+00,0.00000e+00
7.34700e+02,1.25001e+01,-8.24985e+01,0.00000e+00,0.00000e+00,0.00000e+00
7.34700e+02,7.69051e+00,-8.55540e+01,0.00000e+00,0.00000e+00,0.00000e+00
7.34700e+02,-3.11614e+00,-8.86096e+01,0.00000e+00,0.00000e+00,0.00000e+00
7.34700e+02,-3.89606e+00,-8.86166e+01,0.00000e+00,0.00000e+00,0.00000e+00
7.34700e+02,-1.10017e+01,-8.54518e+01,0.00000e+00,0.00000e+00,0.00000e+00
7.34700e+02,-1.18620e+01,-8.22869e+01,0.00000e+00,0.00000e+00,0.00000e+00
7.34700e+02,-1.21589e+01,-7.91220e+01,0.00000e+00,0.00000e+00,0.00000e+00
7.34700e+02,-1.22039e+01,-7.59571e+01,0.00000e+00,0.00000e+00,0.00000e+00
7.34700e+02,-1.20592e+01,-7.27922e+01,0.00000e+00,0.00000e+00,0.00000e+00
7.34700e+02,-1.17955e+01,-6.96274e+01,0.00000e+00,0.00000e+00,0.00000e+00
7.34700e+02,-1.14122e+01,-6.64625e+01,0.00000e+00,0.00000e+00,0.00000e+00
7.34700e+02,-1.09560e+01,-6.32976e+01,0.00000e+00,0.00000e+00,0.00000e+00
7.34700e+02,-1.04575e+01,-6.01327e+01,0.00000e+00,0.00000e+00,0.00000e+00
7.34700e+02,-9.89525e+00,-5.69678e+01,0.00000e+00,0.00000e+00,0.00000e+00
7.34700e+02,-9.29319e+00,-5.38030e+01,0.00000e+00,0.00000e+00,0.00000e+00
7.34700e+02,-8.65235e+00,-5.06381e+01,0.00000e+00,0.00000e+00,0.00000e+00
7.34700e+02,-7.97287e+00,-4.74732e+01,0.00000e+00,0.00000e+00,0.00000e+00
7.34700e+02,-7.26917e+00,-4.43083e+01,0.00000e+00,0.00000e+00,0.00000e+00
7.34700e+02,-6.53444e+00,-4.11434e+01,0.00000e+00,0.00000e+00,0.00000e+00
7.34700e+02,-5.77984e+00,-3.79786e+01,0.00000e+00,0.00000e+00,0.00000e+00
7.34700e+02,-5.00742e+00,-3.48137e+01,0.00000e+00,0.00000e+00,0.00000e+00
7.34700e+02,-4.21911e+00,-3.16488e+01,0.00000e+00,0.00000e+00,0.00000e+00
7.34700e+02,-3.42406e+00,-2.84839e+01,0.00000e+00,0.00000e+00,0.00000e+00
7.34700e+02,-2.61857e+00,-2.53190e+01,0.00000e+00,0.00000e+00,0.00000e+00
7.34700e+02,-1.81134e+00,-2.21542e+01,0.00000e+00,0.00000e+00,0.00000e+00
7.34700e+02,-9.97887e-01,-1.89893e+01,0.00000e+00,0.00000e+00,0.00000e+00
7.34700e+02,-1.84513e-01,-1.58244e+01,0.00000e+00,0.00000e+00,0.00000e+00
7.34700e+02,6.25788e-01,-1.26595e+01,0.00000e+00,0.00000e+00,0.00000e+00
7.34700e+02,1.43609e+00,-9.49464e+00,0.00000e+00,0.00000e+00,0.00000e+00
7.34700e+02,2.22720e+00,-6.32976e+00,0.00000e+00,0.00000e+00,0.00000e+00
7.34700e+02,3.01474e+00,-3.16488e+00,0.00000e+00,0.00000e+00,0.00000e+00
8.33800e+02,3.98196e+01,0.00000e+00,0.00000e+00,0.00000e+00,0.00000e+00
8.33800e+02,3.96190e+01,-3.02587e+00,0.00000e+00,0.00000e+00,0.00000e+00
8.33800e+02,3.93522e+01,-6.05173e+00,0.00000e+00,0.00000e+00,0.00000e+00
8.33800e+02,3.90828e+01,-9.07760e+00,0.00000e+00,0.00000e+00,0.00000e+00
8.33800e+02,3.87549e+01,-1.21035e+01,0.00000e+00,0.00000e+00,0.00000e+00
8.33800e+02,3.84134e+01,-1.51293e+01,0.00000e+00,0.00000e+00,0.00000e+00
8.33800e+02,3.80270e+01,-1.81552e+01,0.00000e+00,0.00000e+00,0.00000e+00
8.33800e+02,3.76188e+01,-2.11811e+01,0.00000e+00,0.00000e+00,0.00000e+00
8.33800e+02,3.71745e+01,-2.42069e+01,0.00000e+00,0.00000e+00,0.00000e+00
8.33800e+02,3.67006e+01,-2.72328e+01,0.00000e+00,0.00000e+00,0.00000e+00
8.33800e+02,3.61941e+01,-3.02587e+01,0.00000e+00,0.00000e+00,0.00000e+00
8.33800e+02,3.56482e+01,-3.32845e+01,0.00000e+00,0.00000e+00,0.00000e+00
8.33800e+02,3.50619e+01,-3.63104e+01,0.00000e+00,0.00000e+00,0.00000e+00
8.33800e+02,3.44183e+01,-3.93363e+01,0.00000e+00,0.00000e+00,0.00000e+00
8.33800e+02,3.37191e+01,-4.23621e+01,0.00000e+00,0.00000e+00,0.00000e+00
8.33800e+02,3.29532e+01,-4.53880e+01,0.00000e+00,0.00000e+00,0.00000e+00
8.33800e+02,3.20971e+01,-4.84139e+01,0.00000e+00,0.00000e+00,0.00000e+00
8.33800e+02,3.11783e+01,-5.14397e+01,0.00000e+00,0.00000e+00,0.00000e+00
8.33800e+02,3.01182e+01,-5.44656e+01,0.00000e+00,0.00000e+00,0.00000e+00
8.33800e+02,2.89995e+01,-5.74915e+01,0.00000e+00,0.00000e+00,0.00000e+00
8.33800e+02,2.77178e+01,-6.05173e+01,0.00000e+00,0.00000e+00,0.00000e+00
8.33800e+02,2.63054e+01,-6.35432e+01,0.00000e+00,0.00000e+00,0.00000e+00
8.33800e+02,2.47599e+01,-6.65691e+01,0.00000e+00,0.00000e+00,0.00000e+00
8.33800e+02,2.29912e+01,-6.95949e+01,0.00000e+00,0.00000e+00,0.00000e+00
8.33800e+02,2.09638e+01,-7.26208e+01,0.00000e+00,0.00000e+00,0.00000e+00
8.33800e+02,1.86442e+01,-7.56467e+01,0.00000e+00,0.00000e+00,0.00000e+00
8.33800e+02,1.59005e+01,-7.86725e+01,0.00000e+00,0.00000e+00,0.00000e+00
8.33800e+02,1.23789e+01,-8.16984e+01,0.00000e+00,0.00000e+00,0.00000e+00
8.33800e+02,7.61592e+00,-8.47243e+01,0.00000e+00,0.00000e+00,0.00000e+00
8.33800e+02,-3.08591e+00,-8.77501e+01,0.00000e+00,0.00000e+00,0.00000e+00
8.33800e+02,-3.85827e+00,-8.77572e+01,0.00000e+00,0.00000e+00,0.00000e+00
8.33800e+02,-1.08950e+01,-8.46230e+01,0.00000e+00,0.00000e+00,0.00000e+00
8.33800e+02,-1.17470e+01,-8.14888e+01,0.00000e+00,0.00000e+00,0.00000e+00
8.33800e+02,-1.20409e+01,-7.83546e+01,0.00000e+00,0.00000e+00,0.00000e+00
8.33800e+02,-1.20856e+01,-7.52204e+01,0.00000e+00,0.00000e+00,0.00000e+00
8.33800e+02,-1.19423e+01,-7.20862e+01,0.00000e+00,0.00000e+00,0.00000e+00
8.33800e+02,-1.16811e+01,-6.89521e+01,0.00000e+00,0.00000e+00,0.00000e+00
8.33800e+02,-1.13015e+01,-6.58179e+01,0.00000e+00,0.00000e+00,0.00000e+00
8.33800e+02,-1.08497e+01,-6.26837e+01,0.00000e+00,0.00000e+00,0.00000e+00
8.33800e+02,-1.03561e+01,-5.95495e+01,0.00000e+00,0.00000e+00,0.00000e+00
8.33800e+02,-9.79928e+00,-5.64153e+01,0.00000e+00,0.00000e+00,0.00000e+00
8.33800e+02,-9.20306e+00,-5.32811e+01,0.00000e+00,0.00000e+00,0.00000e+00
8.33800e+02,-8.56843e+00,-5.01469e+01,0.00000e+00,0.00000e+00,0.00000e+00
8.33800e+02,-7.89554e+00,-4.70128e+01,0.00000e+00,0.00000e+00,0.00000e+00
8.33800e+02,-7.19866e+00,-4.38786e+01,0.00000e+00,0.00000e+00,0.00000e+00
8.33800e+02,-6.47106e+00,-4.07444e+01,0.00000e+00,0.00000e+00,0.00000e+00
8.33800e+02,-5.72378e+00,-3.76102e+01,0.00000e+00,0.00000e+00,0.00000e+00
8.33800e+02,-4.95886e+00,-3.44760e+01,0.00000e+00,0.00000e+00,0.00000e+00
8.33800e+02,-4.17819e+00,-3.13418e+01,0.00000e+00,0.00000e+00,0.00000e+00
8.33800e+02,-3.39085e+00,-2.82077e+01,0.00000e+00,0.00000e+00,0.00000e+00
8.33800e+02,-2.59317e+00,-2.50735e+01,0.00000e+00,0.00000e+00,0.00000e+00
8.33800e+02,-1.79378e+00,-2.19393e+01,0.00000e+00,0.00000e+00,0.00000e+00
8.33800e+02,-9.88209e-01,-1.88051e+01,0.00000e+00,0.00000e+00,0.00000e+00
8.33800e+02,-1.82723e-01,-1.56709e+01,0.00000e+00,0.00000e+00,0.00000e+00
8.33800e+02,6.19718e-01,-1.25367e+01,0.00000e+00,0.00000e+00,0.00000e+00
8.33800e+02,1.42216e+00,-9.40255e+00,0.00000e+00,0.00000e+00,0.00000e+00
8.33800e+02,2.20560e+00,-6.26837e+00,0.00000e+00,0.00000e+00,0.00000e+00
8.33800e+02,2.98550e+00,-3.13418e+00,0.00000e+00,0.00000e+00,0.00000e+00
9.30700e+02,3.94382e+01,0.00000e+00,0.00000e+00,0.00000e+00,0.00000e+00
9.30700e+02,3.92396e+01,-2.99689e+00,0.00000e+00,0.00000e+00,0.00000e+00
9.30700e+02,3.89754e+01,-5.99378e+00,0.00000e+00,0.00000e+00,0.00000e+00
9.30700e+02,3.87085e+01,-8.99067e+00,0.00000e+00,0.00000e+00,0.00000e+00
9.30700e+02,3.83837e+01,-1.19876e+01,0.00000e+00,0.00000e+00,0.00000e+00
9.30700e+02,3.80455e+01,-1.49844e+01,0.00000e+00,0.00000e+00,0.00000e+00
9.30700e+02,3.76628e+01,-1.79813e+01,0.00000e+00,0.00000e+00,0.00000e+00
9.30700e+02,3.72585e+01,-2.09782e+01,0.00000e+00,0.00000e+00,0.00000e+00
9.30700e+02,3.68185e+01,-2.39751e+01,0.00000e+00,0.00000e+00,0.00000e+00
9.30700e+02,3.63492e+01,-2.69720e+01,0.00000e+00,0.00000e+00,0.00000e+00
9.30700e+02,3.58475e+01,-2.99689e+01,0.00000e+00,0.00000e+00,0.00000e+00
9.30700e+02,3.53068e+01,-3.29658e+01,0.00000e+00,0.00000e+00,0.00000e+00
9.30700e+02,3.47261e+01,-3.59627e+01,0.00000e+00,0.00000e+00,0.00000e+00
9.30700e+02,3.40887e+01,-3.89596e+01,0.00000e+00,0.00000e+00,0.00000e+00
9.30700e+02,3.33962e+01,-4.19565e+01,0.00000e+00,0.00000e+00,0.00000e+00
9.30700e+02,3.26376e+01,-4.49533e+01,0.00000e+00,0.00000e+00,0.00000e+00
9.30700e+02,3.17897e+01,-4.79502e+01,0.00000e+00,0.00000e+00,0.00000e+00
9.30700e+02,3.08797e+01,-5.09471e+01,0.00000e+00,0.00000e+00,0.00000e+00
9.30700e+02,2.98297e+01,-5.39440e+01,0.00000e+00,0.00000e+00,0.00000e+00
9.30700e+02,2.87218e+01,-5.69409e+01,0.00000e+00,0.00000e+00,0.00000e+00
9.30700e+02,2.74524e+01,-5.99378e+01,0.00000e+00,0.00000e+00,0.00000e+00
9.30700e+02,2.60534e+01,-6.29347e+01,0.00000e+00,0.00000e+00,0.00000e+00
9.30700e+02,2.45228e+01,-6.59316e+01,0.00000e+00,0.00000e+00,0.00000e+00
9.30700e+02,2.27710e+01,-6.89285e+01,0.00000e+00,0.00000e+00,0.00000e+00
9.30700e+02,2.07631e+01,-7.19254e+01,0.00000e+00,0.00000e+00,0.00000e+00
9.30700e+02,1.84656e+01,-7.49222e+01,0.00000e+00,0.00000e+00,0.00000e+00
9.30700e+02,1.57483e+01,-7.79191e+01,0.00000e+00,0.00000e+00,0.00000e+00
9.30700e+02,1.22603e+01,-8.09160e+01,0.00000e+00,0.00000e+00,0.00000e+00
9.30700e+02,7.54299e+00,-8.39129e+01,0.00000e+00,0.00000e+00,0.00000e+00
9.30700e+02,-3.05636e+00,-8.69098e+01,0.00000e+00,0.00000e+00,0.00000e+00
9.30700e+02,-3.82132e+00,-8.69168e+01,0.00000e+00,0.00000e+00,0.00000e+00
9.30700e+02,-1.07906e+01,-8.38126e+01,0.00000e+00,0.00000e+00,0.00000e+00
9.30700e+02,-1.16345e+01,-8.07084e+01,0.00000e+00,0.00000e+00,0.00000e+00
9.30700e+02,-1.19256e+01,-7.76042e+01,0.00000e+00,0.00000e+00,0.00000e+00
9.30700e+02,-1.19698e+01,-7.45001e+01,0.00000e+00,0.00000e+00,0.00000e+00
9.30700e+02,-1.18279e+01,-7.13959e+01,0.00000e+00,0.00000e+00,0.00000e+00
9.30700e+02,-1.15692e+01,-6.82917e+01,0.00000e+00,0.00000e+00,0.00000e+00
9.30700e+02,-1.11933e+01,-6.51876e+01,0.00000e+00,0.00000e+00,0.00000e+00
9.30700e+02,-1.07458e+01,-6.20834e+01,0.00000e+00,0.00000e+00,0.00000e+00
9.30700e+02,-1.02569e+01,-5.89792e+01,0.00000e+00,0.00000e+00,0.00000e+00
9.30700e+02,-9.70544e+00,-5.58751e+01,0.00000e+00,0.00000e+00,0.00000e+00
9.30700e+02,-9.11493e+00,-5.27709e+01,0.00000e+00,0.00000e+00,0.00000e+00
9.30700e+02,-8.48637e+00,-4.96667e+01,0.00000e+00,0.00000e+00,0.00000e+00
9.30700e+02,-7.81993e+00,-4.65625e+01,0.00000e+00,0.00000e+00,0.00000e+00
9.30700e+02,-7.12973e+00,-4.34584e+01,0.00000e+00,0.00000e+00,0.00000e+00
9.30700e+02,-6.40909e+00,-4.03542e+01,0.00000e+00,0.00000e+00,0.00000e+00
9.30700e+02,-5.66897e+00,-3.72500e+01,0.00000e+00,0.00000e+00,0.00000e+00
9.30700e+02,-4.91137e+00,-3.41459e+01,0.00000e+00,0.00000e+00,0.00000e+00
9.30700e+02,-4.13818e+00,-3.10417e+01,0.00000e+00,0.00000e+00,0.00000e+00
9.30700e+02,-3.35837e+00,-2.79375e+01,0.00000e+00,0.00000e+00,0.00000e+00
9.30700e+02,-2.56834e+00,-2.48334e+01,0.00000e+00,0.00000e+00,0.00000e+00
9.30700e+02,-1.77660e+00,-2.17292e+01,0.00000e+00,0.00000e+00,0.00000e+00
9.30700e+02,-9.78745e-01,-1.86250e+01,0.00000e+00,0.00000e+00,0.00000e+00
9.30700e+02,-1.80973e-01,-1.55208e+01,0.00000e+00,0.00000e+00,0.00000e+00
9.30700e+02,6.13784e-01,-1.24167e+01,0.00000e+00,0.00000e+00,0.00000e+00
9.30700e+02,1.40854e+00,-9.31251e+00,0.00000e+00,0.00000e+00,0.00000e+00
9.30700e+02,2.18448e+00,-6.20834e+00,0.00000e+00,0.00000e+00,0.00000e+00
9.30700e+02,2.95691e+00,-3.10417e+00,0.00000e+00,0.00000e+00,0.00000e+00
1.02500e+03,3.90671e+01,0.00000e+00,0.00000e+00,0.00000e+00,0.00000e+00
1.02500e+03,3.88704e+01,-2.96869e+00,0.00000e+00,0.00000e+00,0.00000e+00
1.02500e+03,3.86086e+01,-5.93738e+00,0.00000e+00,0.00000e+00,0.00000e+00
1.02500e+03,3.83443e+01,-8.90607e+00,0.00000e+00,0.00000e+00,0.00000e+00
1.02500e+03,3.80226e+01,-1.18748e+01,0.00000e+00,0.00000e+00,0.00000e+00
1.02500e+03,3.76875e+01,-1.48435e+01,0.00000e+00,0.00000e+00,0.00000e+00
1.02500e+03,3.73084e+01,-1.78121e+01,0.00000e+00,0.00000e+00,0.00000e+00
1.02500e+03,3.69079e+01,-2.07808e+01,0.00000e+00,0.00000e+00,0.00000e+00
1.02500e+03,3.64721e+01,-2.37495e+01,0.00000e+00,0.00000e+00,0.00000e+00
1.02500e+03,3.60071e+01,-2.67182e+01,0.00000e+00,0.00000e+00,0.00000e+00
1.02500e+03,3.55102e+01,-2.96869e+01,0.00000e+00,0.00000e+00,0.00000e+00
1.02500e+03,3.49746e+01,-3.26556e+01,0.00000e+00,0.00000e+00,0.00000e+00
1.02500e+03,3.43994e+01,-3.56243e+01,0.00000e+00,0.00000e+00,0.00000e+00
1.02500e+03,3.37680e+01,-3.85930e+01,0.00000e+00,0.00000e+00,0.00000e+00
1.02500e+03,3.30819e+01,-4.15617e+01,0.00000e+00,0.00000e+00,0.00000e+00
1.02500e+03,3.23305e+01,-4.45304e+01,0.00000e+00,0.00000e+00,0.00000e+00
1.02500e+03,3.14906e+01,-4.74990e+01,0.00000e+00,0.00000e+00,0.00000e+00
1.02500e+03,3.05891e+01,-5.04677e+01,0.00000e+00,0.00000e+00,0.00000e+00
1.02500e+03,2.95491e+01,-5.34364e+01,0.00000e+00,0.00000e+00,0.00000e+00
1.02500e+03,2.84516e+01,-5.64051e+01,0.00000e+00,0.00000e+00,0.00000e+00
1.02500e+03,2.71940e+01,-5.93738e+01,0.00000e+00,0.00000e+00,0.00000e+00
1.02500e+03,2.58083e+01,-6.23425e+01,0.00000e+00,0.00000e+00,0.00000e+00
1.02500e+03,2.42920e+01,-6.53112e+01,0.00000e+00,0.00000e+00,0.00000e+00
1.02500e+03,2.25567e+01,-6.82799e+01,0.00000e+00,0.00000e+00,0.00000e+00
1.02500e+03,2.05677e+01,-7.12486e+01,0.00000e+00,0.00000e+00,0.00000e+00
1.02500e+03,1.82919e+01,-7.42173e+01,0.00000e+00,0.00000e+00,0.00000e+00
1.02500e+03,1.56001e+01,-7.71859e+01,0.00000e+00,0.00000e+00,0.00000e+00
1.02500e+03,1.21450e+01,-8.01546e+01,0.00000e+00,0.00000e+00,0.00000e+00
1.02500e+03,7.47201e+00,-8.31233e+01,0.00000e+00,0.00000e+00,0.00000e+00
1.02500e+03,-3.02760e+00,-8.60920e+01,0.00000e+00,0.00000e+00,0.00000e+00
1.02500e+03,-3.78536e+00,-8.60989e+01,0.00000e+00,0.00000e+00,0.00000e+00
1.02500e+03,-1.06891e+01,-8.30239e+01,0.00000e+00,0.00000e+00,0.00000e+00
1.02500e+03,-1.15250e+01,-7.99490e+01,0.00000e+00,0.00000e+00,0.00000e+00
1.02500e+03,-1.18134e+01,-7.68740e+01,0.00000e+00,0.00000e+00,0.00000e+00
1.02500e+03,-1.18572e+01,-7.37991e+01,0.00000e+00,0.00000e+00,0.00000e+00
1.02500e+03,-1.17166e+01,-7.07241e+01,0.00000e+00,0.00000e+00,0.00000e+00
1.02500e+03,-1.14604e+01,-6.76491e+01,0.00000e+00,0.00000e+00,0.00000e+00
1.02500e+03,-1.10880e+01,-6.45742e+01,0.00000e+00,0.00000e+00,0.00000e+00
1.02500e+03,-1.06447e+01,-6.14992e+01,0.00000e+00,0.00000e+00,0.00000e+00
1.02500e+03,-1.01604e+01,-5.84243e+01,0.00000e+00,0.00000e+00,0.00000e+00
1.02500e+03,-9.61411e+00,-5.53493e+01,0.00000e+00,0.00000e+00,0.00000e+00
1.02500e+03,-9.02916e+00,-5.22743e+01,0.00000e+00,0.00000e+00,0.00000e+00
1.02500e+03,-8.40652e+00,-4.91994e+01,0.00000e+00,0.00000e+00,0.00000e+00
1.02500e+03,-7.74634e+00,-4.61244e+01,0.00000e+00,0.00000e+00,0.00000e+00
1.02500e+03,-7.06264e+00,-4.30495e+01,0.00000e+00,0.00000e+00,0.00000e+00
1.02500e+03,-6.34878e+00,-3.99745e+01,0.00000e+00,0.00000e+00,0.00000e+00
1.02500e+03,-5.61563e+00,-3.68995e+01,0.00000e+00,0.00000e+00,0.00000e+00
1.02500e+03,-4.86516e+00,-3.38246e+01,0.00000e+00,0.00000e+00,0.00000e+00
1.02500e+03,-4.09924e+00,-3.07496e+01,0.00000e+00,0.00000e+00,0.00000e+00
1.02500e+03,-3.32677e+00,-2.76746e+01,0.00000e+00,0.00000e+00,0.00000e+00
1.02500e+03,-2.54417e+00,-2.45997e+01,0.00000e+00,0.00000e+00,0.00000e+00
1.02500e+03,-1.75988e+00,-2.15247e+01,0.00000e+00,0.00000e+00,0.00000e+00
1.02500e+03,-9.69535e-01,-1.84498e+01,0.00000e+00,0.00000e+00,0.00000e+00
1.02500e+03,-1.79270e-01,-1.53748e+01,0.00000e+00,0.00000e+00,0.00000e+00
1.02500e+03,6.08008e-01,-1.22998e+01,0.00000e+00,0.00000e+00,0.00000e+00
1.02500e+03,1.39529e+00,-9.22488e+00,0.00000e+00,0.00000e+00,0.00000e+00
1.02500e+03,2.16392e+00,-6.14992e+00,0.00000e+00,0.00000e+00,0.00000e+00
1.02500e+03,2.92908e+00,-3.07496e+00,0.00000e+00,0.00000e+00,0.00000e+00
1.11650e+03,3.87070e+01,0.00000e+00,0.00000e+00,0.00000e+00,0.00000e+00
1.11650e+03,3.85121e+01,-2.94133e+00,0.00000e+00,0.00000e+00,0.00000e+00
1.11650e+03,3.82528e+01,-5.88266e+00,0.00000e+00,0.00000e+00,0.00000e+00
1.11650e+03,3.79909e+01,-8.82398e+00,0.00000e+00,0.00000e+00,0.00000e+00
1.11650e+03,3.76721e+01,-1.17653e+01,0.00000e+00,0.00000e+00,0.00000e+00
1.11650e+03,3.73401e+01,-1.47066e+01,0.00000e+00,0.00000e+00,0.00000e+00
1.11650e+03,3.69645e+01,-1.76480e+01,0.00000e+00,0.00000e+00,0.00000e+00
1.11650e+03,3.65678e+01,-2.05893e+01,0.00000e+00,0.00000e+00,0.00000e+00
1.11650e+03,3.61359e+01,-2.35306e+01,0.00000e+00,0.00000e+00,0.00000e+00
1.11650e+03,3.56753e+01,-2.64720e+01,0.00000e+00,0.00000e+00,0.00000e+00
1.11650e+03,3.51829e+01,-2.94133e+01,0.00000e+00,0.00000e+00,0.00000e+00
1.11650e+03,3.46522e+01,-3.23546e+01,0.00000e+00,0.00000e+00,0.00000e+00
1.11650e+03,3.40823e+01,-3.52959e+01,0.00000e+00,0.00000e+00,0.00000e+00
1.11650e+03,3.34567e+01,-3.82373e+01,0.00000e+00,0.00000e+00,0.00000e+00
1.11650e+03,3.27770e+01,-4.11786e+01,0.00000e+00,0.00000e+00,0.00000e+00
1.11650e+03,3.20325e+01,-4.41199e+01,0.00000e+00,0.00000e+00,0.00000e+00
1.11650e+03,3.12004e+01,-4.70612e+01,0.00000e+00,0.00000e+00,0.00000e+00
1.11650e+03,3.03072e+01,-5.00026e+01,0.00000e+00,0.00000e+00,0.00000e+00
1.11650e+03,2.92767e+01,-5.29439e+01,0.00000e+00,0.00000e+00,0.00000e+00
1.11650e+03,2.81893e+01,-5.58852e+01,0.00000e+00,0.00000e+00,0.00000e+00
1.11650e+03,2.69434e+01,-5.88266e+01,0.00000e+00,0.00000e+00,0.00000e+00
1.11650e+03,2.55704e+01,-6.17679e+01,0.00000e+00,0.00000e+00,0.00000e+00
1.11650e+03,2.40681e+01,-6.47092e+01,0.00000e+00,0.00000e+00,0.00000e+00
1.11650e+03,2.23488e+01,-6.76505e+01,0.00000e+00,0.00000e+00,0.00000e+00
1.11650e+03,2.03781e+01,-7.05919e+01,0.00000e+00,0.00000e+00,0.00000e+00
1.11650e+03,1.81233e+01,-7.35332e+01,0.00000e+00,0.00000e+00,0.00000e+00
1.11650e+03,1.54563e+01,-7.64745e+01,0.00000e+00,0.00000e+00,0.00000e+00
1.11650e+03,1.20330e+01,-7.94159e+01,0.00000e+00,0.00000e+00,0.00000e+00
1.11650e+03,7.40314e+00,-8.23572e+01,0.00000e+00,0.00000e+00,0.00000e+00
1.11650e+03,-2.99970e+00,-8.52985e+01,0.00000e+00,0.00000e+00,0.00000e+00
1.11650e+03,-3.75047e+00,-8.53053e+01,0.00000e+00,0.00000e+00,0.00000e+00
1.11650e+03,-1.05906e+01,-8.22587e+01,0.00000e+00,0.00000e+00,0.00000e+00
1.11650e+03,-1.14188e+01,-7.92121e+01,0.00000e+00,0.00000e+00,0.00000e+00
1.11650e+03,-1.17045e+01,-7.61655e+01,0.00000e+00,0.00000e+00,0.00000e+00
1.11650e+03,-1.17479e+01,-7.31189e+01,0.00000e+00,0.00000e+00,0.00000e+00
1.11650e+03,-1.16086e+01,-7.00722e+01,0.00000e+00,0.00000e+00,0.00000e+00
1.11650e+03,-1.13547e+01,-6.70256e+01,0.00000e+00,0.00000e+00,0.00000e+00
1.11650e+03,-1.09858e+01,-6.39790e+01,0.00000e+00,0.00000e+00,0.00000e+00
1.11650e+03,-1.05466e+01,-6.09324e+01,0.00000e+00,0.00000e+00,0.00000e+00
1.11650e+03,-1.00667e+01,-5.78858e+01,0.00000e+00,0.00000e+00,0.00000e+00
1.11650e+03,-9.52550e+00,-5.48391e+01,0.00000e+00,0.00000e+00,0.00000e+00
1.11650e+03,-8.94594e+00,-5.17925e+01,0.00000e+00,0.00000e+00,0.00000e+00
1.11650e+03,-8.32904e+00,-4.87459e+01,0.00000e+00,0.00000e+00,0.00000e+00
1.11650e+03,-7.67495e+00,-4.56993e+01,0.00000e+00,0.00000e+00,0.00000e+00
1.11650e+03,-6.99754e+00,-4.26527e+01,0.00000e+00,0.00000e+00,0.00000e+00
1.11650e+03,-6.29027e+00,-3.96060e+01,0.00000e+00,0.00000e+00,0.00000e+00
1.11650e+03,-5.56387e+00,-3.65594e+01,0.00000e+00,0.00000e+00,0.00000e+00
1.11650e+03,-4.82031e+00,-3.35128e+01,0.00000e+00,0.00000e+00,0.00000e+00
1.11650e+03,-4.06146e+00,-3.04662e+01,0.00000e+00,0.00000e+00,0.00000e+00
1.11650e+03,-3.29611e+00,-2.74196e+01,0.00000e+00,0.00000e+00,0.00000e+00
1.11650e+03,-2.52072e+00,-2.43730e+01,0.00000e+00,0.00000e+00,0.00000e+00
1.11650e+03,-1.74366e+00,-2.13263e+01,0.00000e+00,0.00000e+00,0.00000e+00
1.11650e+03,-9.60599e-01,-1.82797e+01,0.00000e+00,0.00000e+00,0.00000e+00
1.11650e+03,-1.77618e-01,-1.52331e+01,0.00000e+00,0.00000e+00,0.00000e+00
1.11650e+03,6.02404e-01,-1.21865e+01,0.00000e+00,0.00000e+00,0.00000e+00
1.11650e+03,1.38243e+00,-9.13986e+00,0.00000e+00,0.00000e+00,0.00000e+00
1.11650e+03,2.14398e+00,-6.09324e+00,0.00000e+00,0.00000e+00,0.00000e+00
1.11650e+03,2.90209e+00,-3.04662e+00,0.00000e+00,0.00000e+00,0.00000e+00
1.20500e+03,3.76912e+01,0.00000e+00,0.00000e+00,0.00000e+00,0.00000e+00
1.20500e+03,3.75014e+01,-2.86413e+00,0.00000e+00,0.00000e+00,0.00000e+00
1.20500e+03,3.72488e+01,-5.72827e+00,0.00000e+00,0.00000e+00,0.00000e+00
1.20500e+03,3.69938e+01,-8.59240e+00,0.00000e+00,0.00000e+00,0.00000e+00
1.20500e+03,3.66834e+01,-1.14565e+01,0.00000e+00,0.00000e+00,0.00000e+00
1.20500e+03,3.63602e+01,-1.43207e+01,0.00000e+00,0.00000e+00,0.00000e+00
1.20500e+03,3.59944e+01,-1.71848e+01,0.00000e+00,0.00000e+00,0.00000e+00
1.20500e+03,3.56080e+01,-2.00489e+01,0.00000e+00,0.00000e+00,0.00000e+00
1.20500e+03,3.51875e+01,-2.29131e+01,0.00000e+00,0.00000e+00,0.00000e+00
1.20500e+03,3.47390e+01,-2.57772e+01,0.00000e+00,0.00000e+00,0.00000e+00
1.20500e+03,3.42596e+01,-2.86413e+01,0.00000e+00,0.00000e+00,0.00000e+00
1.20500e+03,3.37428e+01,-3.15055e+01,0.00000e+00,0.00000e+00,0.00000e+00
1.20500e+03,3.31878e+01,-3.43696e+01,0.00000e+00,0.00000e+00,0.00000e+00
1.20500e+03,3.25787e+01,-3.72337e+01,0.00000e+00,0.00000e+00,0.00000e+00
1.20500e+03,3.19168e+01,-4.00979e+01,0.00000e+00,0.00000e+00,0.00000e+00
1.20500e+03,3.11919e+01,-4.29620e+01,0.00000e+00,0.00000e+00,0.00000e+00
1.20500e+03,3.03815e+01,-4.58261e+01,0.00000e+00,0.00000e+00,0.00000e+00
1.20500e+03,2.95118e+01,-4.86903e+01,0.00000e+00,0.00000e+00,0.00000e+00
1.20500e+03,2.85084e+01,-5.15544e+01,0.00000e+00,0.00000e+00,0.00000e+00
1.20500e+03,2.74495e+01,-5.44186e+01,0.00000e+00,0.00000e+00,0.00000e+00
1.20500e+03,2.62363e+01,-5.72827e+01,0.00000e+00,0.00000e+00,0.00000e+00
1.20500e+03,2.48993e+01,-6.01468e+01,0.00000e+00,0.00000e+00,0.00000e+00
1.20500e+03,2.34365e+01,-6.30110e+01,0.00000e+00,0.00000e+00,0.00000e+00
1.20500e+03,2.17623e+01,-6.58751e+01,0.00000e+00,0.00000e+00,0.00000e+00
1.20500e+03,1.98433e+01,-6.87392e+01,0.00000e+00,0.00000e+00,0.00000e+00
1.20500e+03,1.76476e+01,-7.16034e+01,0.00000e+00,0.00000e+00,0.00000e+00
1.20500e+03,1.50506e+01,-7.44675e+01,0.00000e+00,0.00000e+00,0.00000e+00
1.20500e+03,1.17172e+01,-7.73316e+01,0.00000e+00,0.00000e+00,0.00000e+00
1.20500e+03,7.20885e+00,-8.01958e+01,0.00000e+00,0.00000e+00,0.00000e+00
1.20500e+03,-2.92097e+00,-8.30599e+01,0.00000e+00,0.00000e+00,0.00000e+00
1.20500e+03,-3.65204e+00,-8.30665e+01,0.00000e+00,0.00000e+00,0.00000e+00
1.20500e+03,-1.03126e+01,-8.00999e+01,0.00000e+00,0.00000e+00,0.00000e+00
1.20500e+03,-1.11191e+01,-7.71332e+01,0.00000e+00,0.00000e+00,0.00000e+00
1.20500e+03,-1.13974e+01,-7.41666e+01,0.00000e+00,0.00000e+00,0.00000e+00
1.20500e+03,-1.14396e+01,-7.11999e+01,0.00000e+00,0.00000e+00,0.00000e+00
1.20500e+03,-1.13040e+01,-6.82332e+01,0.00000e+00,0.00000e+00,0.00000e+00
1.20500e+03,-1.10567e+01,-6.52666e+01,0.00000e+00,0.00000e+00,0.00000e+00
1.20500e+03,-1.06975e+01,-6.22999e+01,0.00000e+00,0.00000e+00,0.00000e+00
1.20500e+03,-1.02698e+01,-5.93332e+01,0.00000e+00,0.00000e+00,0.00000e+00
1.20500e+03,-9.80253e+00,-5.63666e+01,0.00000e+00,0.00000e+00,0.00000e+00
1.20500e+03,-9.27551e+00,-5.33999e+01,0.00000e+00,0.00000e+00,0.00000e+00
1.20500e+03,-8.71115e+00,-5.04333e+01,0.00000e+00,0.00000e+00,0.00000e+00
1.20500e+03,-8.11045e+00,-4.74666e+01,0.00000e+00,0.00000e+00,0.00000e+00
1.20500e+03,-7.47352e+00,-4.44999e+01,0.00000e+00,0.00000e+00,0.00000e+00
1.20500e+03,-6.81389e+00,-4.15333e+01,0.00000e+00,0.00000e+00,0.00000e+00
1.20500e+03,-6.12518e+00,-3.85666e+01,0.00000e+00,0.00000e+00,0.00000e+00
1.20500e+03,-5.41785e+00,-3.55999e+01,0.00000e+00,0.00000e+00,0.00000e+00
1.20500e+03,-4.69381e+00,-3.26333e+01,0.00000e+00,0.00000e+00,0.00000e+00
1.20500e+03,-3.95486e+00,-2.96666e+01,0.00000e+00,0.00000e+00,0.00000e+00
1.20500e+03,-3.20961e+00,-2.67000e+01,0.00000e+00,0.00000e+00,0.00000e+00
1.20500e+03,-2.45457e+00,-2.37333e+01,0.00000e+00,0.00000e+00,0.00000e+00
1.20500e+03,-1.69790e+00,-2.07666e+01,0.00000e+00,0.00000e+00,0.00000e+00
1.20500e+03,-9.35389e-01,-1.78000e+01,0.00000e+00,0.00000e+00,0.00000e+00
1.20500e+03,-1.72956e-01,-1.48333e+01,0.00000e+00,0.00000e+00,0.00000e+00
1.20500e+03,5.86594e-01,-1.18666e+01,0.00000e+00,0.00000e+00,0.00000e+00
1.20500e+03,1.34615e+00,-8.89999e+00,0.00000e+00,0.00000e+00,0.00000e+00
1.20500e+03,2.08771e+00,-5.93332e+00,0.00000e+00,0.00000e+00,0.00000e+00
1.20500e+03,2.82592e+00,-2.96666e+00,0.00000e+00,0.00000e+00,0.00000e+00
1.29010e+03,3.63234e+01,0.00000e+00,0.00000e+00,0.00000e+00,0.00000e+00
1.29010e+03,3.61405e+01,-2.76019e+00,0.00000e+00,0.00000e+00,0.00000e+00
1.29010e+03,3.58971e+01,-5.52039e+00,0.00000e+00,0.00000e+00,0.00000e+00
1.29010e+03,3.56513e+01,-8.28058e+00,0.00000e+00,0.00000e+00,0.00000e+00
1.29010e+03,3.53522e+01,-1.10408e+01,0.00000e+00,0.00000e+00,0.00000e+00
1.29010e+03,3.50407e+01,-1.38010e+01,0.00000e+00,0.00000e+00,0.00000e+00
1.29010e+03,3.46882e+01,-1.65612e+01,0.00000e+00,0.00000e+00,0.00000e+00
1.29010e+03,3.43158e+01,-1.93214e+01,0.00000e+00,0.00000e+00,0.00000e+00
1.29010e+03,3.39106e+01,-2.20816e+01,0.00000e+00,0.00000e+00,0.00000e+00
1.29010e+03,3.34783e+01,-2.48418e+01,0.00000e+00,0.00000e+00,0.00000e+00
1.29010e+03,3.30163e+01,-2.76019e+01,0.00000e+00,0.00000e+00,0.00000e+00
1.29010e+03,3.25183e+01,-3.03621e+01,0.00000e+00,0.00000e+00,0.00000e+00
1.29010e+03,3.19834e+01,-3.31223e+01,0.00000e+00,0.00000e+00,0.00000e+00
1.29010e+03,3.13964e+01,-3.58825e+01,0.00000e+00,0.00000e+00,0.00000e+00
1.29010e+03,3.07585e+01,-3.86427e+01,0.00000e+00,0.00000e+00,0.00000e+00
1.29010e+03,3.00599e+01,-4.14029e+01,0.00000e+00,0.00000e+00,0.00000e+00
1.29010e+03,2.92790e+01,-4.41631e+01,0.00000e+00,0.00000e+00,0.00000e+00
1.29010e+03,2.84408e+01,-4.69233e+01,0.00000e+00,0.00000e+00,0.00000e+00
1.29010e+03,2.74738e+01,-4.96835e+01,0.00000e+00,0.00000e+00,0.00000e+00
1.29010e+03,2.64534e+01,-5.24437e+01,0.00000e+00,0.00000e+00,0.00000e+00
1.29010e+03,2.52842e+01,-5.52039e+01,0.00000e+00,0.00000e+00,0.00000e+00
1.29010e+03,2.39957e+01,-5.79641e+01,0.00000e+00,0.00000e+00,0.00000e+00
1.29010e+03,2.25860e+01,-6.07243e+01,0.00000e+00,0.00000e+00,0.00000e+00
1.29010e+03,2.09725e+01,-6.34845e+01,0.00000e+00,0.00000e+00,0.00000e+00
1.29010e+03,1.91232e+01,-6.62447e+01,0.00000e+00,0.00000e+00,0.00000e+00
1.29010e+03,1.70072e+01,-6.90049e+01,0.00000e+00,0.00000e+00,0.00000e+00
1.29010e+03,1.45045e+01,-7.17651e+01,0.00000e+00,0.00000e+00,0.00000e+00
1.29010e+03,1.12920e+01,-7.45253e+01,0.00000e+00,0.00000e+00,0.00000e+00
1.29010e+03,6.94724e+00,-7.72855e+01,0.00000e+00,0.00000e+00,0.00000e+00
1.29010e+03,-2.81497e+00,-8.00457e+01,0.00000e+00,0.00000e+00,0.00000e+00
1.29010e+03,-3.51951e+00,-8.00521e+01,0.00000e+00,0.00000e+00,0.00000e+00
1.29010e+03,-9.93839e+00,-7.71931e+01,0.00000e+00,0.00000e+00,0.00000e+00
1.29010e+03,-1.07156e+01,-7.43341e+01,0.00000e+00,0.00000e+00,0.00000e+00
1.29010e+03,-1.09838e+01,-7.14751e+01,0.00000e+00,0.00000e+00,0.00000e+00
1.29010e+03,-1.10244e+01,-6.86160e+01,0.00000e+00,0.00000e+00,0.00000e+00
1.29010e+03,-1.08937e+01,-6.57570e+01,0.00000e+00,0.00000e+00,0.00000e+00
1.29010e+03,-1.06555e+01,-6.28980e+01,0.00000e+00,0.00000e+00,0.00000e+00
1.29010e+03,-1.03093e+01,-6.00390e+01,0.00000e+00,0.00000e+00,0.00000e+00
1.29010e+03,-9.89713e+00,-5.71800e+01,0.00000e+00,0.00000e+00,0.00000e+00
1.29010e+03,-9.44680e+00,-5.43210e+01,0.00000e+00,0.00000e+00,0.00000e+00
1.29010e+03,-8.93890e+00,-5.14620e+01,0.00000e+00,0.00000e+00,0.00000e+00
1.29010e+03,-8.39503e+00,-4.86030e+01,0.00000e+00,0.00000e+00,0.00000e+00
1.29010e+03,-7.81612e+00,-4.57440e+01,0.00000e+00,0.00000e+00,0.00000e+00
1.29010e+03,-7.20231e+00,-4.28850e+01,0.00000e+00,0.00000e+00,0.00000e+00
1.29010e+03,-6.56662e+00,-4.00260e+01,0.00000e+00,0.00000e+00,0.00000e+00
1.29010e+03,-5.90290e+00,-3.71670e+01,0.00000e+00,0.00000e+00,0.00000e+00
1.29010e+03,-5.22123e+00,-3.43080e+01,0.00000e+00,0.00000e+00,0.00000e+00
1.29010e+03,-4.52347e+00,-3.14490e+01,0.00000e+00,0.00000e+00,0.00000e+00
1.29010e+03,-3.81134e+00,-2.85900e+01,0.00000e+00,0.00000e+00,0.00000e+00
1.29010e+03,-3.09313e+00,-2.57310e+01,0.00000e+00,0.00000e+00,0.00000e+00
1.29010e+03,-2.36549e+00,-2.28720e+01,0.00000e+00,0.00000e+00,0.00000e+00
1.29010e+03,-1.63628e+00,-2.00130e+01,0.00000e+00,0.00000e+00,0.00000e+00
1.29010e+03,-9.01444e-01,-1.71540e+01,0.00000e+00,0.00000e+00,0.00000e+00
1.29010e+03,-1.66680e-01,-1.42950e+01,0.00000e+00,0.00000e+00,0.00000e+00
1.29010e+03,5.65307e-01,-1.14360e+01,0.00000e+00,0.00000e+00,0.00000e+00
1.29010e+03,1.29729e+00,-8.57701e+00,0.00000e+00,0.00000e+00,0.00000e+00
1.29010e+03,2.01195e+00,-5.71800e+00,0.00000e+00,0.00000e+00,0.00000e+00
1.29010e+03,2.72337e+00,-2.85900e+00,0.00000e+00,0.00000e+00,0.00000e+00
1.37170e+03,3.50118e+01,0.00000e+00,0.00000e+00,0.00000e+00,0.00000e+00
1.37170e+03,3.48355e+01,-2.66053e+00,0.00000e+00,0.00000e+00,0.00000e+00
1.37170e+03,3.46009e+01,-5.32106e+00,0.00000e+00,0.00000e+00,0.00000e+00
1.37170e+03,3.43640e+01,-7.98159e+00,0.00000e+00,0.00000e+00,0.00000e+00
1.37170e+03,3.40757e+01,-1.06421e+01,0.00000e+00,0.00000e+00,0.00000e+00
1.37170e+03,3.37754e+01,-1.33027e+01,0.00000e+00,0.00000e+00,0.00000e+00
1.37170e+03,3.34357e+01,-1.59632e+01,0.00000e+00,0.00000e+00,0.00000e+00
1.37170e+03,3.30768e+01,-1.86237e+01,0.00000e+00,0.00000e+00,0.00000e+00
1.37170e+03,3.26861e+01,-2.12842e+01,0.00000e+00,0.00000e+00,0.00000e+00
1.37170e+03,3.22695e+01,-2.39448e+01,0.00000e+00,0.00000e+00,0.00000e+00
1.37170e+03,3.18241e+01,-2.66053e+01,0.00000e+00,0.00000e+00,0.00000e+00
1.37170e+03,3.13441e+01,-2.92658e+01,0.00000e+00,0.00000e+00,0.00000e+00
1.37170e+03,3.08286e+01,-3.19264e+01,0.00000e+00,0.00000e+00,0.00000e+00
1.37170e+03,3.02627e+01,-3.45869e+01,0.00000e+00,0.00000e+00,0.00000e+00
1.37170e+03,2.96479e+01,-3.72474e+01,0.00000e+00,0.00000e+00,0.00000e+00
1.37170e+03,2.89745e+01,-3.99080e+01,0.00000e+00,0.00000e+00,0.00000e+00
1.37170e+03,2.82218e+01,-4.25685e+01,0.00000e+00,0.00000e+00,0.00000e+00
1.37170e+03,2.74139e+01,-4.52290e+01,0.00000e+00,0.00000e+00,0.00000e+00
1.37170e+03,2.64818e+01,-4.78895e+01,0.00000e+00,0.00000e+00,0.00000e+00
1.37170e+03,2.54982e+01,-5.05501e+01,0.00000e+00,0.00000e+00,0.00000e+00
1.37170e+03,2.43712e+01,-5.32106e+01,0.00000e+00,0.00000e+00,0.00000e+00
1.37170e+03,2.31293e+01,-5.58711e+01,0.00000e+00,0.00000e+00,0.00000e+00
1.37170e+03,2.17704e+01,-5.85317e+01,0.00000e+00,0.00000e+00,0.00000e+00
1.37170e+03,2.02153e+01,-6.11922e+01,0.00000e+00,0.00000e+00,0.00000e+00
1.37170e+03,1.84327e+01,-6.38527e+01,0.00000e+00,0.00000e+00,0.00000e+00
1.37170e+03,1.63931e+01,-6.65133e+01,0.00000e+00,0.00000e+00,0.00000e+00
1.37170e+03,1.39807e+01,-6.91738e+01,0.00000e+00,0.00000e+00,0.00000e+00
1.37170e+03,1.08843e+01,-7.18343e+01,0.00000e+00,0.00000e+00,0.00000e+00
1.37170e+03,6.69639e+00,-7.44949e+01,0.00000e+00,0.00000e+00,0.00000e+00
1.37170e+03,-2.71333e+00,-7.71554e+01,0.00000e+00,0.00000e+00,0.00000e+00
1.37170e+03,-3.39243e+00,-7.71616e+01,0.00000e+00,0.00000e+00,0.00000e+00
1.37170e+03,-9.57954e+00,-7.44058e+01,0.00000e+00,0.00000e+00,0.00000e+00
1.37170e+03,-1.03287e+01,-7.16500e+01,0.00000e+00,0.00000e+00,0.00000e+00
1.37170e+03,-1.05872e+01,-6.88942e+01,0.00000e+00,0.00000e+00,0.00000e+00
1.37170e+03,-1.06264e+01,-6.61385e+01,0.00000e+00,0.00000e+00,0.00000e+00
1.37170e+03,-1.05004e+01,-6.33827e+01,0.00000e+00,0.00000e+00,0.00000e+00
1.37170e+03,-1.02708e+01,-6.06269e+01,0.00000e+00,0.00000e+00,0.00000e+00
1.37170e+03,-9.93701e+00,-5.78712e+01,0.00000e+00,0.00000e+00,0.00000e+00
1.37170e+03,-9.53977e+00,-5.51154e+01,0.00000e+00,0.00000e+00,0.00000e+00
1.37170e+03,-9.10569e+00,-5.23596e+01,0.00000e+00,0.00000e+00,0.00000e+00
1.37170e+03,-8.61613e+00,-4.96039e+01,0.00000e+00,0.00000e+00,0.00000e+00
1.37170e+03,-8.09190e+00,-4.68481e+01,0.00000e+00,0.00000e+00,0.00000e+00
1.37170e+03,-7.53389e+00,-4.40923e+01,0.00000e+00,0.00000e+00,0.00000e+00
1.37170e+03,-6.94225e+00,-4.13365e+01,0.00000e+00,0.00000e+00,0.00000e+00
1.37170e+03,-6.32951e+00,-3.85808e+01,0.00000e+00,0.00000e+00,0.00000e+00
1.37170e+03,-5.68976e+00,-3.58250e+01,0.00000e+00,0.00000e+00,0.00000e+00
1.37170e+03,-5.03271e+00,-3.30692e+01,0.00000e+00,0.00000e+00,0.00000e+00
1.37170e+03,-4.36014e+00,-3.03135e+01,0.00000e+00,0.00000e+00,0.00000e+00
1.37170e+03,-3.67372e+00,-2.75577e+01,0.00000e+00,0.00000e+00,0.00000e+00
1.37170e+03,-2.98144e+00,-2.48019e+01,0.00000e+00,0.00000e+00,0.00000e+00
1.37170e+03,-2.28008e+00,-2.20462e+01,0.00000e+00,0.00000e+00,0.00000e+00
1.37170e+03,-1.57720e+00,-1.92904e+01,0.00000e+00,0.00000e+00,0.00000e+00
1.37170e+03,-8.68894e-01,-1.65346e+01,0.00000e+00,0.00000e+00,0.00000e+00
1.37170e+03,-1.60661e-01,-1.37788e+01,0.00000e+00,0.00000e+00,0.00000e+00
1.37170e+03,5.44895e-01,-1.10231e+01,0.00000e+00,0.00000e+00,0.00000e+00
1.37170e+03,1.25045e+00,-8.26731e+00,0.00000e+00,0.00000e+00,0.00000e+00
1.37170e+03,1.93930e+00,-5.51154e+00,0.00000e+00,0.00000e+00,0.00000e+00
1.37170e+03,2.62503e+00,-2.75577e+00,0.00000e+00,0.00000e+00,0.00000e+00
1.44960e+03,3.37597e+01,0.00000e+00,0.00000e+00,0.00000e+00,0.00000e+00
1.44960e+03,3.35897e+01,-2.56538e+00,0.00000e+00,0.00000e+00,0.00000e+00
1.44960e+03,3.33635e+01,-5.13077e+00,0.00000e+00,0.00000e+00,0.00000e+00
1.44960e+03,3.31351e+01,-7.69615e+00,0.00000e+00,0.00000e+00,0.00000e+00
1.44960e+03,3.28571e+01,-1.02615e+01,0.00000e+00,0.00000e+00,0.00000e+00
1.44960e+03,3.25675e+01,-1.28269e+01,0.00000e+00,0.00000e+00,0.00000e+00
1.44960e+03,3.22399e+01,-1.53923e+01,0.00000e+00,0.00000e+00,0.00000e+00
1.44960e+03,3.18939e+01,-1.79577e+01,0.00000e+00,0.00000e+00,0.00000e+00
1.44960e+03,3.15172e+01,-2.05231e+01,0.00000e+00,0.00000e+00,0.00000e+00
1.44960e+03,3.11155e+01,-2.30885e+01,0.00000e+00,0.00000e+00,0.00000e+00
1.44960e+03,3.06860e+01,-2.56538e+01,0.00000e+00,0.00000e+00,0.00000e+00
1.44960e+03,3.02232e+01,-2.82192e+01,0.00000e+00,0.00000e+00,0.00000e+00
1.44960e+03,2.97261e+01,-3.07846e+01,0.00000e+00,0.00000e+00,0.00000e+00
1.44960e+03,2.91805e+01,-3.33500e+01,0.00000e+00,0.00000e+00,0.00000e+00
1.44960e+03,2.85877e+01,-3.59154e+01,0.00000e+00,0.00000e+00,0.00000e+00
1.44960e+03,2.79383e+01,-3.84808e+01,0.00000e+00,0.00000e+00,0.00000e+00
1.44960e+03,2.72125e+01,-4.10462e+01,0.00000e+00,0.00000e+00,0.00000e+00
1.44960e+03,2.64335e+01,-4.36115e+01,0.00000e+00,0.00000e+00,0.00000e+00
1.44960e+03,2.55347e+01,-4.61769e+01,0.00000e+00,0.00000e+00,0.00000e+00
1.44960e+03,2.45863e+01,-4.87423e+01,0.00000e+00,0.00000e+00,0.00000e+00
1.44960e+03,2.34997e+01,-5.13077e+01,0.00000e+00,0.00000e+00,0.00000e+00
1.44960e+03,2.23022e+01,-5.38731e+01,0.00000e+00,0.00000e+00,0.00000e+00
1.44960e+03,2.09919e+01,-5.64385e+01,0.00000e+00,0.00000e+00,0.00000e+00
1.44960e+03,1.94923e+01,-5.90039e+01,0.00000e+00,0.00000e+00,0.00000e+00
1.44960e+03,1.77735e+01,-6.15692e+01,0.00000e+00,0.00000e+00,0.00000e+00
1.44960e+03,1.58069e+01,-6.41346e+01,0.00000e+00,0.00000e+00,0.00000e+00
1.44960e+03,1.34808e+01,-6.67000e+01,0.00000e+00,0.00000e+00,0.00000e+00
1.44960e+03,1.04950e+01,-6.92654e+01,0.00000e+00,0.00000e+00,0.00000e+00
1.44960e+03,6.45692e+00,-7.18308e+01,0.00000e+00,0.00000e+00,0.00000e+00
1.44960e+03,-2.61629e+00,-7.43962e+01,0.00000e+00,0.00000e+00,0.00000e+00
1.44960e+03,-3.27111e+00,-7.44021e+01,0.00000e+00,0.00000e+00,0.00000e+00
1.44960e+03,-9.23696e+00,-7.17449e+01,0.00000e+00,0.00000e+00,0.00000e+00
1.44960e+03,-9.95928e+00,-6.90877e+01,0.00000e+00,0.00000e+00,0.00000e+00
1.44960e+03,-1.02085e+01,-6.64305e+01,0.00000e+00,0.00000e+00,0.00000e+00
1.44960e+03,-1.02464e+01,-6.37732e+01,0.00000e+00,0.00000e+00,0.00000e+00
1.44960e+03,-1.01249e+01,-6.11160e+01,0.00000e+00,0.00000e+00,0.00000e+00
1.44960e+03,-9.90345e+00,-5.84588e+01,0.00000e+00,0.00000e+00,0.00000e+00
1.44960e+03,-9.58164e+00,-5.58016e+01,0.00000e+00,0.00000e+00,0.00000e+00
1.44960e+03,-9.19861e+00,-5.31444e+01,0.00000e+00,0.00000e+00,0.00000e+00
1.44960e+03,-8.78006e+00,-5.04872e+01,0.00000e+00,0.00000e+00,0.00000e+00
1.44960e+03,-8.30801e+00,-4.78299e+01,0.00000e+00,0.00000e+00,0.00000e+00
1.44960e+03,-7.80252e+00,-4.51727e+01,0.00000e+00,0.00000e+00,0.00000e+00
1.44960e+03,-7.26447e+00,-4.25155e+01,0.00000e+00,0.00000e+00,0.00000e+00
1.44960e+03,-6.69398e+00,-3.98583e+01,0.00000e+00,0.00000e+00,0.00000e+00
1.44960e+03,-6.10316e+00,-3.72011e+01,0.00000e+00,0.00000e+00,0.00000e+00
1.44960e+03,-5.48628e+00,-3.45438e+01,0.00000e+00,0.00000e+00,0.00000e+00
1.44960e+03,-4.85273e+00,-3.18866e+01,0.00000e+00,0.00000e+00,0.00000e+00
1.44960e+03,-4.20421e+00,-2.92294e+01,0.00000e+00,0.00000e+00,0.00000e+00
1.44960e+03,-3.54234e+00,-2.65722e+01,0.00000e+00,0.00000e+00,0.00000e+00
1.44960e+03,-2.87482e+00,-2.39150e+01,0.00000e+00,0.00000e+00,0.00000e+00
1.44960e+03,-2.19854e+00,-2.12577e+01,0.00000e+00,0.00000e+00,0.00000e+00
1.44960e+03,-1.52080e+00,-1.86005e+01,0.00000e+00,0.00000e+00,0.00000e+00
1.44960e+03,-8.37821e-01,-1.59433e+01,0.00000e+00,0.00000e+00,0.00000e+00
1.44960e+03,-1.54916e-01,-1.32861e+01,0.00000e+00,0.00000e+00,0.00000e+00
1.44960e+03,5.25408e-01,-1.06289e+01,0.00000e+00,0.00000e+00,0.00000e+00
1.44960e+03,1.20573e+00,-7.97166e+00,0.00000e+00,0.00000e+00,0.00000e+00
1.44960e+03,1.86995e+00,-5.31444e+00,0.00000e+00,0.00000e+00,0.00000e+00
1.44960e+03,2.53116e+00,-2.65722e+00,0.00000e+00,0.00000e+00,0.00000e+00
1.52340e+03,3.25736e+01,0.00000e+00,0.00000e+00,0.00000e+00,0.00000e+00
1.52340e+03,3.24095e+01,-2.47525e+00,0.00000e+00,0.00000e+00,0.00000e+00
1.52340e+03,3.21913e+01,-4.95049e+00,0.00000e+00,0.00000e+00,0.00000e+00
1.52340e+03,3.19709e+01,-7.42574e+00,0.00000e+00,0.00000e+00,0.00000e+00
1.52340e+03,3.17026e+01,-9.90099e+00,0.00000e+00,0.00000e+00,0.00000e+00
1.52340e+03,3.14232e+01,-1.23762e+01,0.00000e+00,0.00000e+00,0.00000e+00
1.52340e+03,3.11072e+01,-1.48515e+01,0.00000e+00,0.00000e+00,0.00000e+00
1.52340e+03,3.07733e+01,-1.73267e+01,0.00000e+00,0.00000e+00,0.00000e+00
1.52340e+03,3.04098e+01,-1.98020e+01,0.00000e+00,0.00000e+00,0.00000e+00
1.52340e+03,3.00222e+01,-2.22772e+01,0.00000e+00,0.00000e+00,0.00000e+00
1.52340e+03,2.96079e+01,-2.47525e+01,0.00000e+00,0.00000e+00,0.00000e+00
1.52340e+03,2.91613e+01,-2.72277e+01,0.00000e+00,0.00000e+00,0.00000e+00
1.52340e+03,2.86816e+01,-2.97030e+01,0.00000e+00,0.00000e+00,0.00000e+00
1.52340e+03,2.81552e+01,-3.21782e+01,0.00000e+00,0.00000e+00,0.00000e+00
1.52340e+03,2.75832e+01,-3.46535e+01,0.00000e+00,0.00000e+00,0.00000e+00
1.52340e+03,2.69567e+01,-3.71287e+01,0.00000e+00,0.00000e+00,0.00000e+00
1.52340e+03,2.62564e+01,-3.96040e+01,0.00000e+00,0.00000e+00,0.00000e+00
1.52340e+03,2.55047e+01,-4.20792e+01,0.00000e+00,0.00000e+00,0.00000e+00
1.52340e+03,2.46375e+01,-4.45544e+01,0.00000e+00,0.00000e+00,0.00000e+00
1.52340e+03,2.37225e+01,-4.70297e+01,0.00000e+00,0.00000e+00,0.00000e+00
1.52340e+03,2.26740e+01,-4.95049e+01,0.00000e+00,0.00000e+00,0.00000e+00
1.52340e+03,2.15185e+01,-5.19802e+01,0.00000e+00,0.00000e+00,0.00000e+00
1.52340e+03,2.02543e+01,-5.44554e+01,0.00000e+00,0.00000e+00,0.00000e+00
1.52340e+03,1.88075e+01,-5.69307e+01,0.00000e+00,0.00000e+00,0.00000e+00
1.52340e+03,1.71490e+01,-5.94059e+01,0.00000e+00,0.00000e+00,0.00000e+00
1.52340e+03,1.52515e+01,-6.18812e+01,0.00000e+00,0.00000e+00,0.00000e+00
1.52340e+03,1.30071e+01,-6.43564e+01,0.00000e+00,0.00000e+00,0.00000e+00
1.52340e+03,1.01263e+01,-6.68317e+01,0.00000e+00,0.00000e+00,0.00000e+00
1.52340e+03,6.23005e+00,-6.93069e+01,0.00000e+00,0.00000e+00,0.00000e+00
1.52340e+03,-2.52437e+00,-7.17822e+01,0.00000e+00,0.00000e+00,0.00000e+00
1.52340e+03,-3.15618e+00,-7.17879e+01,0.00000e+00,0.00000e+00,0.00000e+00
1.52340e+03,-8.91241e+00,-6.92241e+01,0.00000e+00,0.00000e+00,0.00000e+00
1.52340e+03,-9.60935e+00,-6.66602e+01,0.00000e+00,0.00000e+00,0.00000e+00
1.52340e+03,-9.84985e+00,-6.40963e+01,0.00000e+00,0.00000e+00,0.00000e+00
1.52340e+03,-9.88634e+00,-6.15325e+01,0.00000e+00,0.00000e+00,0.00000e+00
1.52340e+03,-9.76914e+00,-5.89686e+01,0.00000e+00,0.00000e+00,0.00000e+00
1.52340e+03,-9.55548e+00,-5.64048e+01,0.00000e+00,0.00000e+00,0.00000e+00
1.52340e+03,-9.24498e+00,-5.38409e+01,0.00000e+00,0.00000e+00,0.00000e+00
1.52340e+03,-8.87540e+00,-5.12771e+01,0.00000e+00,0.00000e+00,0.00000e+00
1.52340e+03,-8.47156e+00,-4.87132e+01,0.00000e+00,0.00000e+00,0.00000e+00
1.52340e+03,-8.01609e+00,-4.61494e+01,0.00000e+00,0.00000e+00,0.00000e+00
1.52340e+03,-7.52837e+00,-4.35855e+01,0.00000e+00,0.00000e+00,0.00000e+00
1.52340e+03,-7.00922e+00,-4.10217e+01,0.00000e+00,0.00000e+00,0.00000e+00
1.52340e+03,-6.45878e+00,-3.84578e+01,0.00000e+00,0.00000e+00,0.00000e+00
1.52340e+03,-5.88872e+00,-3.58940e+01,0.00000e+00,0.00000e+00,0.00000e+00
1.52340e+03,-5.29352e+00,-3.33301e+01,0.00000e+00,0.00000e+00,0.00000e+00
1.52340e+03,-4.68222e+00,-3.07662e+01,0.00000e+00,0.00000e+00,0.00000e+00
1.52340e+03,-4.05649e+00,-2.82024e+01,0.00000e+00,0.00000e+00,0.00000e+00
1.52340e+03,-3.41788e+00,-2.56385e+01,0.00000e+00,0.00000e+00,0.00000e+00
1.52340e+03,-2.77381e+00,-2.30747e+01,0.00000e+00,0.00000e+00,0.00000e+00
1.52340e+03,-2.12129e+00,-2.05108e+01,0.00000e+00,0.00000e+00,0.00000e+00
1.52340e+03,-1.46736e+00,-1.79470e+01,0.00000e+00,0.00000e+00,0.00000e+00
1.52340e+03,-8.08383e-01,-1.53831e+01,0.00000e+00,0.00000e+00,0.00000e+00
1.52340e+03,-1.49473e-01,-1.28193e+01,0.00000e+00,0.00000e+00,0.00000e+00
1.52340e+03,5.06948e-01,-1.02554e+01,0.00000e+00,0.00000e+00,0.00000e+00
1.52340e+03,1.16337e+00,-7.69156e+00,0.00000e+00,0.00000e+00,0.00000e+00
1.52340e+03,1.80424e+00,-5.12771e+00,0.00000e+00,0.00000e+00,0.00000e+00
1.52340e+03,2.44222e+00,-2.56385e+00,0.00000e+00,0.00000e+00,0.00000e+00
1.59310e+03,3.14533e+01,0.00000e+00,0.00000e+00,0.00000e+00,0.00000e+00
1.59310e+03,3.12949e+01,-2.39012e+00,0.00000e+00,0.00000e+00,0.00000e+00
1.59310e+03,3.10841e+01,-4.78023e+00,0.00000e+00,0.00000e+00,0.00000e+00
1.59310e+03,3.08713e+01,-7.17035e+00,0.00000e+00,0.00000e+00,0.00000e+00
1.59310e+03,3.06123e+01,-9.56047e+00,0.00000e+00,0.00000e+00,0.00000e+00
1.59310e+03,3.03425e+01,-1.19506e+01,0.00000e+00,0.00000e+00,0.00000e+00
1.59310e+03,3.00373e+01,-1.43407e+01,0.00000e+00,0.00000e+00,0.00000e+00
1.59310e+03,2.97149e+01,-1.67308e+01,0.00000e+00,0.00000e+00,0.00000e+00
1.59310e+03,2.93640e+01,-1.91209e+01,0.00000e+00,0.00000e+00,0.00000e+00
1.59310e+03,2.89896e+01,-2.15111e+01,0.00000e+00,0.00000e+00,0.00000e+00
1.59310e+03,2.85896e+01,-2.39012e+01,0.00000e+00,0.00000e+00,0.00000e+00
1.59310e+03,2.81583e+01,-2.62913e+01,0.00000e+00,0.00000e+00,0.00000e+00
1.59310e+03,2.76952e+01,-2.86814e+01,0.00000e+00,0.00000e+00,0.00000e+00
1.59310e+03,2.71869e+01,-3.10715e+01,0.00000e+00,0.00000e+00,0.00000e+00
1.59310e+03,2.66345e+01,-3.34616e+01,0.00000e+00,0.00000e+00,0.00000e+00
1.59310e+03,2.60296e+01,-3.58518e+01,0.00000e+00,0.00000e+00,0.00000e+00
1.59310e+03,2.53533e+01,-3.82419e+01,0.00000e+00,0.00000e+00,0.00000e+00
1.59310e+03,2.46276e+01,-4.06320e+01,0.00000e+00,0.00000e+00,0.00000e+00
1.59310e+03,2.37902e+01,-4.30221e+01,0.00000e+00,0.00000e+00,0.00000e+00
1.59310e+03,2.29066e+01,-4.54122e+01,0.00000e+00,0.00000e+00,0.00000e+00
1.59310e+03,2.18941e+01,-4.78023e+01,0.00000e+00,0.00000e+00,0.00000e+00
1.59310e+03,2.07785e+01,-5.01925e+01,0.00000e+00,0.00000e+00,0.00000e+00
1.59310e+03,1.95577e+01,-5.25826e+01,0.00000e+00,0.00000e+00,0.00000e+00
1.59310e+03,1.81606e+01,-5.49727e+01,0.00000e+00,0.00000e+00,0.00000e+00
1.59310e+03,1.65592e+01,-5.73628e+01,0.00000e+00,0.00000e+00,0.00000e+00
1.59310e+03,1.47269e+01,-5.97529e+01,0.00000e+00,0.00000e+00,0.00000e+00
1.59310e+03,1.25597e+01,-6.21430e+01,0.00000e+00,0.00000e+00,0.00000e+00
1.59310e+03,9.77800e+00,-6.45332e+01,0.00000e+00,0.00000e+00,0.00000e+00
1.59310e+03,6.01578e+00,-6.69233e+01,0.00000e+00,0.00000e+00,0.00000e+00
1.59310e+03,-2.43755e+00,-6.93134e+01,0.00000e+00,0.00000e+00,0.00000e+00
1.59310e+03,-3.04763e+00,-6.93189e+01,0.00000e+00,0.00000e+00,0.00000e+00
1.59310e+03,-8.60589e+00,-6.68433e+01,0.00000e+00,0.00000e+00,0.00000e+00
1.59310e+03,-9.27886e+00,-6.43676e+01,0.00000e+00,0.00000e+00,0.00000e+00
1.59310e+03,-9.51109e+00,-6.18919e+01,0.00000e+00,0.00000e+00,0.00000e+00
1.59310e+03,-9.54632e+00,-5.94162e+01,0.00000e+00,0.00000e+00,0.00000e+00
1.59310e+03,-9.43315e+00,-5.69406e+01,0.00000e+00,0.00000e+00,0.00000e+00
1.59310e+03,-9.22684e+00,-5.44649e+01,0.00000e+00,0.00000e+00,0.00000e+00
1.59310e+03,-8.92702e+00,-5.19892e+01,0.00000e+00,0.00000e+00,0.00000e+00
1.59310e+03,-8.57016e+00,-4.95135e+01,0.00000e+00,0.00000e+00,0.00000e+00
1.59310e+03,-8.18020e+00,-4.70379e+01,0.00000e+00,0.00000e+00,0.00000e+00
1.59310e+03,-7.74040e+00,-4.45622e+01,0.00000e+00,0.00000e+00,0.00000e+00
1.59310e+03,-7.26945e+00,-4.20865e+01,0.00000e+00,0.00000e+00,0.00000e+00
1.59310e+03,-6.76816e+00,-3.96108e+01,0.00000e+00,0.00000e+00,0.00000e+00
1.59310e+03,-6.23665e+00,-3.71351e+01,0.00000e+00,0.00000e+00,0.00000e+00
1.59310e+03,-5.68619e+00,-3.46595e+01,0.00000e+00,0.00000e+00,0.00000e+00
1.59310e+03,-5.11146e+00,-3.21838e+01,0.00000e+00,0.00000e+00,0.00000e+00
1.59310e+03,-4.52119e+00,-2.97081e+01,0.00000e+00,0.00000e+00,0.00000e+00
1.59310e+03,-3.91698e+00,-2.72324e+01,0.00000e+00,0.00000e+00,0.00000e+00
1.59310e+03,-3.30033e+00,-2.47568e+01,0.00000e+00,0.00000e+00,0.00000e+00
1.59310e+03,-2.67841e+00,-2.22811e+01,0.00000e+00,0.00000e+00,0.00000e+00
1.59310e+03,-2.04833e+00,-1.98054e+01,0.00000e+00,0.00000e+00,0.00000e+00
1.59310e+03,-1.41689e+00,-1.73297e+01,0.00000e+00,0.00000e+00,0.00000e+00
1.59310e+03,-7.80581e-01,-1.48541e+01,0.00000e+00,0.00000e+00,0.00000e+00
1.59310e+03,-1.44332e-01,-1.23784e+01,0.00000e+00,0.00000e+00,0.00000e+00
1.59310e+03,4.89512e-01,-9.90271e+00,0.00000e+00,0.00000e+00,0.00000e+00
1.59310e+03,1.12336e+00,-7.42703e+00,0.00000e+00,0.00000e+00,0.00000e+00
1.59310e+03,1.74219e+00,-4.95135e+00,0.00000e+00,0.00000e+00,0.00000e+00
1.59310e+03,2.35823e+00,-2.47568e+00,0.00000e+00,0.00000e+00,0.00000e+00
1.65850e+03,3.04021e+01,0.00000e+00,0.00000e+00,0.00000e+00,0.00000e+00
1.65850e+03,3.02490e+01,-2.31024e+00,0.00000e+00,0.00000e+00,0.00000e+00
1.65850e+03,3.00453e+01,-4.62048e+00,0.00000e+00,0.00000e+00,0.00000e+00
1.65850e+03,2.98396e+01,-6.93072e+00,0.00000e+00,0.00000e+00,0.00000e+00
1.65850e+03,2.95892e+01,-9.24096e+00,0.00000e+00,0.00000e+00,0.00000e+00
1.65850e+03,2.93285e+01,-1.15512e+01,0.00000e+00,0.00000e+00,0.00000e+00
1.65850e+03,2.90335e+01,-1.38614e+01,0.00000e+00,0.00000e+00,0.00000e+00
1.65850e+03,2.87218e+01,-1.61717e+01,0.00000e+00,0.00000e+00,0.00000e+00
1.65850e+03,2.83826e+01,-1.84819e+01,0.00000e+00,0.00000e+00,0.00000e+00
1.65850e+03,2.80208e+01,-2.07921e+01,0.00000e+00,0.00000e+00,0.00000e+00
1.65850e+03,2.76341e+01,-2.31024e+01,0.00000e+00,0.00000e+00,0.00000e+00
1.65850e+03,2.72173e+01,-2.54126e+01,0.00000e+00,0.00000e+00,0.00000e+00
1.65850e+03,2.67696e+01,-2.77229e+01,0.00000e+00,0.00000e+00,0.00000e+00
1.65850e+03,2.62783e+01,-3.00331e+01,0.00000e+00,0.00000e+00,0.00000e+00
1.65850e+03,2.57444e+01,-3.23433e+01,0.00000e+00,0.00000e+00,0.00000e+00
1.65850e+03,2.51597e+01,-3.46536e+01,0.00000e+00,0.00000e+00,0.00000e+00
1.65850e+03,2.45060e+01,-3.69638e+01,0.00000e+00,0.00000e+00,0.00000e+00
1.65850e+03,2.38045e+01,-3.92741e+01,0.00000e+00,0.00000e+00,0.00000e+00
1.65850e+03,2.29951e+01,-4.15843e+01,0.00000e+00,0.00000e+00,0.00000e+00
1.65850e+03,2.21410e+01,-4.38945e+01,0.00000e+00,0.00000e+00,0.00000e+00
1.65850e+03,2.11624e+01,-4.62048e+01,0.00000e+00,0.00000e+00,0.00000e+00
1.65850e+03,2.00840e+01,-4.85150e+01,0.00000e+00,0.00000e+00,0.00000e+00
1.65850e+03,1.89041e+01,-5.08253e+01,0.00000e+00,0.00000e+00,0.00000e+00
1.65850e+03,1.75537e+01,-5.31355e+01,0.00000e+00,0.00000e+00,0.00000e+00
1.65850e+03,1.60058e+01,-5.54457e+01,0.00000e+00,0.00000e+00,0.00000e+00
1.65850e+03,1.42348e+01,-5.77560e+01,0.00000e+00,0.00000e+00,0.00000e+00
1.65850e+03,1.21400e+01,-6.00662e+01,0.00000e+00,0.00000e+00,0.00000e+00
1.65850e+03,9.45122e+00,-6.23764e+01,0.00000e+00,0.00000e+00,0.00000e+00
1.65850e+03,5.81473e+00,-6.46867e+01,0.00000e+00,0.00000e+00,0.00000e+00
1.65850e+03,-2.35608e+00,-6.69969e+01,0.00000e+00,0.00000e+00,0.00000e+00
1.65850e+03,-2.94577e+00,-6.70023e+01,0.00000e+00,0.00000e+00,0.00000e+00
1.65850e+03,-8.31828e+00,-6.46093e+01,0.00000e+00,0.00000e+00,0.00000e+00
1.65850e+03,-8.96876e+00,-6.22164e+01,0.00000e+00,0.00000e+00,0.00000e+00
1.65850e+03,-9.19322e+00,-5.98235e+01,0.00000e+00,0.00000e+00,0.00000e+00
1.65850e+03,-9.22728e+00,-5.74305e+01,0.00000e+00,0.00000e+00,0.00000e+00
1.65850e+03,-9.11789e+00,-5.50376e+01,0.00000e+00,0.00000e+00,0.00000e+00
1.65850e+03,-8.91848e+00,-5.26447e+01,0.00000e+00,0.00000e+00,0.00000e+00
1.65850e+03,-8.62868e+00,-5.02517e+01,0.00000e+00,0.00000e+00,0.00000e+00
1.65850e+03,-8.28374e+00,-4.78588e+01,0.00000e+00,0.00000e+00,0.00000e+00
1.65850e+03,-7.90682e+00,-4.54658e+01,0.00000e+00,0.00000e+00,0.00000e+00
1.65850e+03,-7.48171e+00,-4.30729e+01,0.00000e+00,0.00000e+00,0.00000e+00
1.65850e+03,-7.02650e+00,-4.06800e+01,0.00000e+00,0.00000e+00,0.00000e+00
1.65850e+03,-6.54196e+00,-3.82870e+01,0.00000e+00,0.00000e+00,0.00000e+00
1.65850e+03,-6.02822e+00,-3.58941e+01,0.00000e+00,0.00000e+00,0.00000e+00
1.65850e+03,-5.49615e+00,-3.35011e+01,0.00000e+00,0.00000e+00,0.00000e+00
1.65850e+03,-4.94063e+00,-3.11082e+01,0.00000e+00,0.00000e+00,0.00000e+00
1.65850e+03,-4.37009e+00,-2.87153e+01,0.00000e+00,0.00000e+00,0.00000e+00
1.65850e+03,-3.78607e+00,-2.63223e+01,0.00000e+00,0.00000e+00,0.00000e+00
1.65850e+03,-3.19003e+00,-2.39294e+01,0.00000e+00,0.00000e+00,0.00000e+00
1.65850e+03,-2.58890e+00,-2.15364e+01,0.00000e+00,0.00000e+00,0.00000e+00
1.65850e+03,-1.97988e+00,-1.91435e+01,0.00000e+00,0.00000e+00,0.00000e+00
1.65850e+03,-1.36954e+00,-1.67506e+01,0.00000e+00,0.00000e+00,0.00000e+00
1.65850e+03,-7.54494e-01,-1.43576e+01,0.00000e+00,0.00000e+00,0.00000e+00
1.65850e+03,-1.39508e-01,-1.19647e+01,0.00000e+00,0.00000e+00,0.00000e+00
1.65850e+03,4.73153e-01,-9.57176e+00,0.00000e+00,0.00000e+00,0.00000e+00
1.65850e+03,1.08581e+00,-7.17882e+00,0.00000e+00,0.00000e+00,0.00000e+00
1.65850e+03,1.68397e+00,-4.78588e+00,0.00000e+00,0.00000e+00,0.00000e+00
1.65850e+03,2.27942e+00,-2.39294e+00,0.00000e+00,0.00000e+00,0.00000e+00
1.71930e+03,2.94249e+01,0.00000e+00,0.00000e+00,0.00000e+00,0.00000e+00
1.71930e+03,2.92767e+01,-2.23598e+00,0.00000e+00,0.00000e+00,0.00000e+00
1.71930e+03,2.90795e+01,-4.47196e+00,0.00000e+00,0.00000e+00,0.00000e+00
1.71930e+03,2.88804e+01,-6.70794e+00,0.00000e+00,0.00000e+00,0.00000e+00
1.71930e+03,2.86381e+01,-8.94392e+00,0.00000e+00,0.00000e+00,0.00000e+00
1.71930e+03,2.83857e+01,-1.11799e+01,0.00000e+00,0.00000e+00,0.00000e+00
1.71930e+03,2.81002e+01,-1.34159e+01,0.00000e+00,0.00000e+00,0.00000e+00
1.71930e+03,2.77986e+01,-1.56519e+01,0.00000e+00,0.00000e+00,0.00000e+00
1.71930e+03,2.74703e+01,-1.78878e+01,0.00000e+00,0.00000e+00,0.00000e+00
1.71930e+03,2.71201e+01,-2.01238e+01,0.00000e+00,0.00000e+00,0.00000e+00
1.71930e+03,2.67458e+01,-2.23598e+01,0.00000e+00,0.00000e+00,0.00000e+00
1.71930e+03,2.63424e+01,-2.45958e+01,0.00000e+00,0.00000e+00,0.00000e+00
1.71930e+03,2.59091e+01,-2.68317e+01,0.00000e+00,0.00000e+00,0.00000e+00
1.71930e+03,2.54336e+01,-2.90677e+01,0.00000e+00,0.00000e+00,0.00000e+00
1.71930e+03,2.49169e+01,-3.13037e+01,0.00000e+00,0.00000e+00,0.00000e+00
1.71930e+03,2.43509e+01,-3.35397e+01,0.00000e+00,0.00000e+00,0.00000e+00
1.71930e+03,2.37183e+01,-3.57757e+01,0.00000e+00,0.00000e+00,0.00000e+00
1.71930e+03,2.30393e+01,-3.80116e+01,0.00000e+00,0.00000e+00,0.00000e+00
1.71930e+03,2.22560e+01,-4.02476e+01,0.00000e+00,0.00000e+00,0.00000e+00
1.71930e+03,2.14293e+01,-4.24836e+01,0.00000e+00,0.00000e+00,0.00000e+00
1.71930e+03,2.04822e+01,-4.47196e+01,0.00000e+00,0.00000e+00,0.00000e+00
1.71930e+03,1.94385e+01,-4.69556e+01,0.00000e+00,0.00000e+00,0.00000e+00
1.71930e+03,1.82964e+01,-4.91915e+01,0.00000e+00,0.00000e+00,0.00000e+00
1.71930e+03,1.69894e+01,-5.14275e+01,0.00000e+00,0.00000e+00,0.00000e+00
1.71930e+03,1.54913e+01,-5.36635e+01,0.00000e+00,0.00000e+00,0.00000e+00
1.71930e+03,1.37772e+01,-5.58995e+01,0.00000e+00,0.00000e+00,0.00000e+00
1.71930e+03,1.17498e+01,-5.81355e+01,0.00000e+00,0.00000e+00,0.00000e+00
1.71930e+03,9.14742e+00,-6.03714e+01,0.00000e+00,0.00000e+00,0.00000e+00
1.71930e+03,5.62782e+00,-6.26074e+01,0.00000e+00,0.00000e+00,0.00000e+00
1.71930e+03,-2.28035e+00,-6.48434e+01,0.00000e+00,0.00000e+00,0.00000e+00
1.71930e+03,-2.85109e+00,-6.48486e+01,0.00000e+00,0.00000e+00,0.00000e+00
1.71930e+03,-8.05090e+00,-6.25326e+01,0.00000e+00,0.00000e+00,0.00000e+00
1.71930e+03,-8.68047e+00,-6.02165e+01,0.00000e+00,0.00000e+00,0.00000e+00
1.71930e+03,-8.89772e+00,-5.79005e+01,0.00000e+00,0.00000e+00,0.00000e+00
1.71930e+03,-8.93068e+00,-5.55845e+01,0.00000e+00,0.00000e+00,0.00000e+00
1.71930e+03,-8.82481e+00,-5.32685e+01,0.00000e+00,0.00000e+00,0.00000e+00
1.71930e+03,-8.63181e+00,-5.09525e+01,0.00000e+00,0.00000e+00,0.00000e+00
1.71930e+03,-8.35132e+00,-4.86364e+01,0.00000e+00,0.00000e+00,0.00000e+00
1.71930e+03,-8.01747e+00,-4.63204e+01,0.00000e+00,0.00000e+00,0.00000e+00
1.71930e+03,-7.65266e+00,-4.40044e+01,0.00000e+00,0.00000e+00,0.00000e+00
1.71930e+03,-7.24122e+00,-4.16884e+01,0.00000e+00,0.00000e+00,0.00000e+00
1.71930e+03,-6.80064e+00,-3.93724e+01,0.00000e+00,0.00000e+00,0.00000e+00
1.71930e+03,-6.33168e+00,-3.70563e+01,0.00000e+00,0.00000e+00,0.00000e+00
1.71930e+03,-5.83445e+00,-3.47403e+01,0.00000e+00,0.00000e+00,0.00000e+00
1.71930e+03,-5.31949e+00,-3.24243e+01,0.00000e+00,0.00000e+00,0.00000e+00
1.71930e+03,-4.78182e+00,-3.01083e+01,0.00000e+00,0.00000e+00,0.00000e+00
1.71930e+03,-4.22962e+00,-2.77922e+01,0.00000e+00,0.00000e+00,0.00000e+00
1.71930e+03,-3.66437e+00,-2.54762e+01,0.00000e+00,0.00000e+00,0.00000e+00
1.71930e+03,-3.08749e+00,-2.31602e+01,0.00000e+00,0.00000e+00,0.00000e+00
1.71930e+03,-2.50568e+00,-2.08442e+01,0.00000e+00,0.00000e+00,0.00000e+00
1.71930e+03,-1.91624e+00,-1.85282e+01,0.00000e+00,0.00000e+00,0.00000e+00
1.71930e+03,-1.32552e+00,-1.62121e+01,0.00000e+00,0.00000e+00,0.00000e+00
1.71930e+03,-7.30242e-01,-1.38961e+01,0.00000e+00,0.00000e+00,0.00000e+00
1.71930e+03,-1.35024e-01,-1.15801e+01,0.00000e+00,0.00000e+00,0.00000e+00
1.71930e+03,4.57944e-01,-9.26408e+00,0.00000e+00,0.00000e+00,0.00000e+00
1.71930e+03,1.05091e+00,-6.94806e+00,0.00000e+00,0.00000e+00,0.00000e+00
1.71930e+03,1.62984e+00,-4.63204e+00,0.00000e+00,0.00000e+00,0.00000e+00
1.71930e+03,2.20615e+00,-2.31602e+00,0.00000e+00,0.00000e+00,0.00000e+00
1.77540e+03,2.77303e+01,0.00000e+00,0.00000e+00,0.00000e+00,0.00000e+00
1.77540e+03,2.75906e+01,-2.10721e+00,0.00000e+00,0.00000e+00,0.00000e+00
1.77540e+03,2.74048e+01,-4.21442e+00,0.00000e+00,0.00000e+00,0.00000e+00
1.77540e+03,2.72172e+01,-6.32163e+00,0.00000e+00,0.00000e+00,0.00000e+00
1.77540e+03,2.69888e+01,-8.42884e+00,0.00000e+00,0.00000e+00,0.00000e+00
1.77540e+03,2.67510e+01,-1.05361e+01,0.00000e+00,0.00000e+00,0.00000e+00
1.77540e+03,2.64819e+01,-1.26433e+01,0.00000e+00,0.00000e+00,0.00000e+00
1.77540e+03,2.61977e+01,-1.47505e+01,0.00000e+00,0.00000e+00,0.00000e+00
1.77540e+03,2.58883e+01,-1.68577e+01,0.00000e+00,0.00000e+00,0.00000e+00
1.77540e+03,2.55583e+01,-1.89649e+01,0.00000e+00,0.00000e+00,0.00000e+00
1.77540e+03,2.52056e+01,-2.10721e+01,0.00000e+00,0.00000e+00,0.00000e+00
1.77540e+03,2.48254e+01,-2.31793e+01,0.00000e+00,0.00000e+00,0.00000e+00
1.77540e+03,2.44171e+01,-2.52865e+01,0.00000e+00,0.00000e+00,0.00000e+00
1.77540e+03,2.39689e+01,-2.73937e+01,0.00000e+00,0.00000e+00,0.00000e+00
1.77540e+03,2.34819e+01,-2.95009e+01,0.00000e+00,0.00000e+00,0.00000e+00
1.77540e+03,2.29486e+01,-3.16082e+01,0.00000e+00,0.00000e+00,0.00000e+00
1.77540e+03,2.23524e+01,-3.37154e+01,0.00000e+00,0.00000e+00,0.00000e+00
1.77540e+03,2.17125e+01,-3.58226e+01,0.00000e+00,0.00000e+00,0.00000e+00
1.77540e+03,2.09743e+01,-3.79298e+01,0.00000e+00,0.00000e+00,0.00000e+00
1.77540e+03,2.01952e+01,-4.00370e+01,0.00000e+00,0.00000e+00,0.00000e+00
1.77540e+03,1.93026e+01,-4.21442e+01,0.00000e+00,0.00000e+00,0.00000e+00
1.77540e+03,1.83190e+01,-4.42514e+01,0.00000e+00,0.00000e+00,0.00000e+00
1.77540e+03,1.72428e+01,-4.63586e+01,0.00000e+00,0.00000e+00,0.00000e+00
1.77540e+03,1.60110e+01,-4.84658e+01,0.00000e+00,0.00000e+00,0.00000e+00
1.77540e+03,1.45992e+01,-5.05731e+01,0.00000e+00,0.00000e+00,0.00000e+00
1.77540e+03,1.29838e+01,-5.26803e+01,0.00000e+00,0.00000e+00,0.00000e+00
1.77540e+03,1.10731e+01,-5.47875e+01,0.00000e+00,0.00000e+00,0.00000e+00
1.77540e+03,8.62063e+00,-5.68947e+01,0.00000e+00,0.00000e+00,0.00000e+00
1.77540e+03,5.30372e+00,-5.90019e+01,0.00000e+00,0.00000e+00,0.00000e+00
1.77540e+03,-2.14903e+00,-6.11091e+01,0.00000e+00,0.00000e+00,0.00000e+00
1.77540e+03,-2.68689e+00,-6.11140e+01,0.00000e+00,0.00000e+00,0.00000e+00
1.77540e+03,-7.58725e+00,-5.89314e+01,0.00000e+00,0.00000e+00,0.00000e+00
1.77540e+03,-8.18057e+00,-5.67487e+01,0.00000e+00,0.00000e+00,0.00000e+00
1.77540e+03,-8.38530e+00,-5.45661e+01,0.00000e+00,0.00000e+00,0.00000e+00
1.77540e+03,-8.41637e+00,-5.23834e+01,0.00000e+00,0.00000e+00,0.00000e+00
1.77540e+03,-8.31659e+00,-5.02008e+01,0.00000e+00,0.00000e+00,0.00000e+00
1.77540e+03,-8.13471e+00,-4.80181e+01,0.00000e+00,0.00000e+00,0.00000e+00
1.77540e+03,-7.87037e+00,-4.58355e+01,0.00000e+00,0.00000e+00,0.00000e+00
1.77540e+03,-7.55575e+00,-4.36529e+01,0.00000e+00,0.00000e+00,0.00000e+00
1.77540e+03,-7.21195e+00,-4.14702e+01,0.00000e+00,0.00000e+00,0.00000e+00
1.77540e+03,-6.82421e+00,-3.92876e+01,0.00000e+00,0.00000e+00,0.00000e+00
1.77540e+03,-6.40900e+00,-3.71049e+01,0.00000e+00,0.00000e+00,0.00000e+00
1.77540e+03,-5.96704e+00,-3.49223e+01,0.00000e+00,0.00000e+00,0.00000e+00
1.77540e+03,-5.49844e+00,-3.27396e+01,0.00000e+00,0.00000e+00,0.00000e+00
1.77540e+03,-5.01314e+00,-3.05570e+01,0.00000e+00,0.00000e+00,0.00000e+00
1.77540e+03,-4.50644e+00,-2.83744e+01,0.00000e+00,0.00000e+00,0.00000e+00
1.77540e+03,-3.98604e+00,-2.61917e+01,0.00000e+00,0.00000e+00,0.00000e+00
1.77540e+03,-3.45334e+00,-2.40091e+01,0.00000e+00,0.00000e+00,0.00000e+00
1.77540e+03,-2.90969e+00,-2.18264e+01,0.00000e+00,0.00000e+00,0.00000e+00
1.77540e+03,-2.36138e+00,-1.96438e+01,0.00000e+00,0.00000e+00,0.00000e+00
1.77540e+03,-1.80588e+00,-1.74611e+01,0.00000e+00,0.00000e+00,0.00000e+00
1.77540e+03,-1.24918e+00,-1.52785e+01,0.00000e+00,0.00000e+00,0.00000e+00
1.77540e+03,-6.88187e-01,-1.30959e+01,0.00000e+00,0.00000e+00,0.00000e+00
1.77540e+03,-1.27248e-01,-1.09132e+01,0.00000e+00,0.00000e+00,0.00000e+00
1.77540e+03,4.31571e-01,-8.73057e+00,0.00000e+00,0.00000e+00,0.00000e+00
1.77540e+03,9.90390e-01,-6.54793e+00,0.00000e+00,0.00000e+00,0.00000e+00
1.77540e+03,1.53598e+00,-4.36529e+00,0.00000e+00,0.00000e+00,0.00000e+00
1.77540e+03,2.07910e+00,-2.18264e+00,0.00000e+00,0.00000e+00,0.00000e+00
1.82660e+03,2.53092e+01,0.00000e+00,0.00000e+00,0.00000e+00,0.00000e+00
1.82660e+03,2.51817e+01,-1.92323e+00,0.00000e+00,0.00000e+00,0.00000e+00
1.82660e+03,2.50121e+01,-3.84646e+00,0.00000e+00,0.00000e+00,0.00000e+00
1.82660e+03,2.48409e+01,-5.76969e+00,0.00000e+00,0.00000e+00,0.00000e+00
1.82660e+03,2.46324e+01,-7.69292e+00,0.00000e+00,0.00000e+00,0.00000e+00
1.82660e+03,2.44154e+01,-9.61614e+00,0.00000e+00,0.00000e+00,0.00000e+00
1.82660e+03,2.41698e+01,-1.15394e+01,0.00000e+00,0.00000e+00,0.00000e+00
1.82660e+03,2.39103e+01,-1.34626e+01,0.00000e+00,0.00000e+00,0.00000e+00
1.82660e+03,2.36280e+01,-1.53858e+01,0.00000e+00,0.00000e+00,0.00000e+00
1.82660e+03,2.33268e+01,-1.73091e+01,0.00000e+00,0.00000e+00,0.00000e+00
1.82660e+03,2.30049e+01,-1.92323e+01,0.00000e+00,0.00000e+00,0.00000e+00
1.82660e+03,2.26579e+01,-2.11555e+01,0.00000e+00,0.00000e+00,0.00000e+00
1.82660e+03,2.22852e+01,-2.30787e+01,0.00000e+00,0.00000e+00,0.00000e+00
1.82660e+03,2.18762e+01,-2.50020e+01,0.00000e+00,0.00000e+00,0.00000e+00
1.82660e+03,2.14317e+01,-2.69252e+01,0.00000e+00,0.00000e+00,0.00000e+00
1.82660e+03,2.09449e+01,-2.88484e+01,0.00000e+00,0.00000e+00,0.00000e+00
1.82660e+03,2.04008e+01,-3.07717e+01,0.00000e+00,0.00000e+00,0.00000e+00
1.82660e+03,1.98168e+01,-3.26949e+01,0.00000e+00,0.00000e+00,0.00000e+00
1.82660e+03,1.91430e+01,-3.46181e+01,0.00000e+00,0.00000e+00,0.00000e+00
1.82660e+03,1.84320e+01,-3.65413e+01,0.00000e+00,0.00000e+00,0.00000e+00
1.82660e+03,1.76173e+01,-3.84646e+01,0.00000e+00,0.00000e+00,0.00000e+00
1.82660e+03,1.67196e+01,-4.03878e+01,0.00000e+00,0.00000e+00,0.00000e+00
1.82660e+03,1.57373e+01,-4.23110e+01,0.00000e+00,0.00000e+00,0.00000e+00
1.82660e+03,1.46131e+01,-4.42343e+01,0.00000e+00,0.00000e+00,0.00000e+00
1.82660e+03,1.33245e+01,-4.61575e+01,0.00000e+00,0.00000e+00,0.00000e+00
1.82660e+03,1.18502e+01,-4.80807e+01,0.00000e+00,0.00000e+00,0.00000e+00
1.82660e+03,1.01063e+01,-5.00040e+01,0.00000e+00,0.00000e+00,0.00000e+00
1.82660e+03,7.86795e+00,-5.19272e+01,0.00000e+00,0.00000e+00,0.00000e+00
1.82660e+03,4.84065e+00,-5.38504e+01,0.00000e+00,0.00000e+00,0.00000e+00
1.82660e+03,-1.96139e+00,-5.57736e+01,0.00000e+00,0.00000e+00,0.00000e+00
1.82660e+03,-2.45230e+00,-5.57781e+01,0.00000e+00,0.00000e+00,0.00000e+00
1.82660e+03,-6.92480e+00,-5.37860e+01,0.00000e+00,0.00000e+00,0.00000e+00
1.82660e+03,-7.46632e+00,-5.17940e+01,0.00000e+00,0.00000e+00,0.00000e+00
1.82660e+03,-7.65318e+00,-4.98019e+01,0.00000e+00,0.00000e+00,0.00000e+00
1.82660e+03,-7.68153e+00,-4.78098e+01,0.00000e+00,0.00000e+00,0.00000e+00
1.82660e+03,-7.59047e+00,-4.58177e+01,0.00000e+00,0.00000e+00,0.00000e+00
1.82660e+03,-7.42446e+00,-4.38257e+01,0.00000e+00,0.00000e+00,0.00000e+00
1.82660e+03,-7.18321e+00,-4.18336e+01,0.00000e+00,0.00000e+00,0.00000e+00
1.82660e+03,-6.89605e+00,-3.98415e+01,0.00000e+00,0.00000e+00,0.00000e+00
1.82660e+03,-6.58227e+00,-3.78494e+01,0.00000e+00,0.00000e+00,0.00000e+00
1.82660e+03,-6.22838e+00,-3.58574e+01,0.00000e+00,0.00000e+00,0.00000e+00
1.82660e+03,-5.84943e+00,-3.38653e+01,0.00000e+00,0.00000e+00,0.00000e+00
1.82660e+03,-5.44606e+00,-3.18732e+01,0.00000e+00,0.00000e+00,0.00000e+00
1.82660e+03,-5.01837e+00,-2.98811e+01,0.00000e+00,0.00000e+00,0.00000e+00
1.82660e+03,-4.57544e+00,-2.78891e+01,0.00000e+00,0.00000e+00,0.00000e+00
1.82660e+03,-4.11298e+00,-2.58970e+01,0.00000e+00,0.00000e+00,0.00000e+00
1.82660e+03,-3.63801e+00,-2.39049e+01,0.00000e+00,0.00000e+00,0.00000e+00
1.82660e+03,-3.15183e+00,-2.19128e+01,0.00000e+00,0.00000e+00,0.00000e+00
1.82660e+03,-2.65564e+00,-1.99208e+01,0.00000e+00,0.00000e+00,0.00000e+00
1.82660e+03,-2.15521e+00,-1.79287e+01,0.00000e+00,0.00000e+00,0.00000e+00
1.82660e+03,-1.64821e+00,-1.59366e+01,0.00000e+00,0.00000e+00,0.00000e+00
1.82660e+03,-1.14012e+00,-1.39445e+01,0.00000e+00,0.00000e+00,0.00000e+00
1.82660e+03,-6.28101e-01,-1.19525e+01,0.00000e+00,0.00000e+00,0.00000e+00
1.82660e+03,-1.16138e-01,-9.96038e+00,0.00000e+00,0.00000e+00,0.00000e+00
1.82660e+03,3.93890e-01,-7.96830e+00,0.00000e+00,0.00000e+00,0.00000e+00
1.82660e+03,9.03919e-01,-5.97623e+00,0.00000e+00,0.00000e+00,0.00000e+00
1.82660e+03,1.40187e+00,-3.98415e+00,0.00000e+00,0.00000e+00,0.00000e+00
1.82660e+03,1.89757e+00,-1.99208e+00,0.00000e+00,0.00000e+00,0.00000e+00
1.87280e+03,2.31244e+01,0.00000e+00,0.00000e+00,0.00000e+00,0.00000e+00
1.87280e+03,2.30080e+01,-1.75721e+00,0.00000e+00,0.00000e+00,0.00000e+00
1.87280e+03,2.28531e+01,-3.51443e+00,0.00000e+00,0.00000e+00,0.00000e+00
1.87280e+03,2.26966e+01,-5.27164e+00,0.00000e+00,0.00000e+00,0.00000e+00
1.87280e+03,2.25061e+01,-7.02886e+00,0.00000e+00,0.00000e+00,0.00000e+00
1.87280e+03,2.23078e+01,-8.78607e+00,0.00000e+00,0.00000e+00,0.00000e+00
1.87280e+03,2.20834e+01,-1.05433e+01,0.00000e+00,0.00000e+00,0.00000e+00
1.87280e+03,2.18464e+01,-1.23005e+01,0.00000e+00,0.00000e+00,0.00000e+00
1.87280e+03,2.15884e+01,-1.40577e+01,0.00000e+00,0.00000e+00,0.00000e+00
1.87280e+03,2.13132e+01,-1.58149e+01,0.00000e+00,0.00000e+00,0.00000e+00
1.87280e+03,2.10191e+01,-1.75721e+01,0.00000e+00,0.00000e+00,0.00000e+00
1.87280e+03,2.07020e+01,-1.93294e+01,0.00000e+00,0.00000e+00,0.00000e+00
1.87280e+03,2.03615e+01,-2.10866e+01,0.00000e+00,0.00000e+00,0.00000e+00
1.87280e+03,1.99878e+01,-2.28438e+01,0.00000e+00,0.00000e+00,0.00000e+00
1.87280e+03,1.95817e+01,-2.46010e+01,0.00000e+00,0.00000e+00,0.00000e+00
1.87280e+03,1.91369e+01,-2.63582e+01,0.00000e+00,0.00000e+00,0.00000e+00
1.87280e+03,1.86398e+01,-2.81154e+01,0.00000e+00,0.00000e+00,0.00000e+00
1.87280e+03,1.81062e+01,-2.98726e+01,0.00000e+00,0.00000e+00,0.00000e+00
1.87280e+03,1.74905e+01,-3.16299e+01,0.00000e+00,0.00000e+00,0.00000e+00
1.87280e+03,1.68409e+01,-3.33871e+01,0.00000e+00,0.00000e+00,0.00000e+00
1.87280e+03,1.60966e+01,-3.51443e+01,0.00000e+00,0.00000e+00,0.00000e+00
1.87280e+03,1.52763e+01,-3.69015e+01,0.00000e+00,0.00000e+00,0.00000e+00
1.87280e+03,1.43788e+01,-3.86587e+01,0.00000e+00,0.00000e+00,0.00000e+00
1.87280e+03,1.33517e+01,-4.04159e+01,0.00000e+00,0.00000e+00,0.00000e+00
1.87280e+03,1.21743e+01,-4.21731e+01,0.00000e+00,0.00000e+00,0.00000e+00
1.87280e+03,1.08272e+01,-4.39304e+01,0.00000e+00,0.00000e+00,0.00000e+00
1.87280e+03,9.23393e+00,-4.56876e+01,0.00000e+00,0.00000e+00,0.00000e+00
1.87280e+03,7.18879e+00,-4.74448e+01,0.00000e+00,0.00000e+00,0.00000e+00
1.87280e+03,4.42280e+00,-4.92020e+01,0.00000e+00,0.00000e+00,0.00000e+00
1.87280e+03,-1.79208e+00,-5.09592e+01,0.00000e+00,0.00000e+00,0.00000e+00
1.87280e+03,-2.24062e+00,-5.09633e+01,0.00000e+00,0.00000e+00,0.00000e+00
1.87280e+03,-6.32705e+00,-4.91432e+01,0.00000e+00,0.00000e+00,0.00000e+00
1.87280e+03,-6.82182e+00,-4.73231e+01,0.00000e+00,0.00000e+00,0.00000e+00
1.87280e+03,-6.99255e+00,-4.55029e+01,0.00000e+00,0.00000e+00,0.00000e+00
1.87280e+03,-7.01846e+00,-4.36828e+01,0.00000e+00,0.00000e+00,0.00000e+00
1.87280e+03,-6.93525e+00,-4.18627e+01,0.00000e+00,0.00000e+00,0.00000e+00
1.87280e+03,-6.78358e+00,-4.00426e+01,0.00000e+00,0.00000e+00,0.00000e+00
1.87280e+03,-6.56315e+00,-3.82225e+01,0.00000e+00,0.00000e+00,0.00000e+00
1.87280e+03,-6.30078e+00,-3.64024e+01,0.00000e+00,0.00000e+00,0.00000e+00
1.87280e+03,-6.01408e+00,-3.45822e+01,0.00000e+00,0.00000e+00,0.00000e+00
1.87280e+03,-5.69074e+00,-3.27621e+01,0.00000e+00,0.00000e+00,0.00000e+00
1.87280e+03,-5.34450e+00,-3.09420e+01,0.00000e+00,0.00000e+00,0.00000e+00
1.87280e+03,-4.97595e+00,-2.91219e+01,0.00000e+00,0.00000e+00,0.00000e+00
1.87280e+03,-4.58518e+00,-2.73018e+01,0.00000e+00,0.00000e+00,0.00000e+00
1.87280e+03,-4.18049e+00,-2.54816e+01,0.00000e+00,0.00000e+00,0.00000e+00
1.87280e+03,-3.75794e+00,-2.36615e+01,0.00000e+00,0.00000e+00,0.00000e+00
1.87280e+03,-3.32398e+00,-2.18414e+01,0.00000e+00,0.00000e+00,0.00000e+00
1.87280e+03,-2.87976e+00,-2.00213e+01,0.00000e+00,0.00000e+00,0.00000e+00
1.87280e+03,-2.42640e+00,-1.82012e+01,0.00000e+00,0.00000e+00,0.00000e+00
1.87280e+03,-1.96917e+00,-1.63811e+01,0.00000e+00,0.00000e+00,0.00000e+00
1.87280e+03,-1.50594e+00,-1.45609e+01,0.00000e+00,0.00000e+00,0.00000e+00
1.87280e+03,-1.04170e+00,-1.27408e+01,0.00000e+00,0.00000e+00,0.00000e+00
1.87280e+03,-5.73883e-01,-1.09207e+01,0.00000e+00,0.00000e+00,0.00000e+00
1.87280e+03,-1.06113e-01,-9.10059e+00,0.00000e+00,0.00000e+00,0.00000e+00
1.87280e+03,3.59890e-01,-7.28047e+00,0.00000e+00,0.00000e+00,0.00000e+00
1.87280e+03,8.25892e-01,-5.46035e+00,0.00000e+00,0.00000e+00,0.00000e+00
1.87280e+03,1.28086e+00,-3.64024e+00,0.00000e+00,0.00000e+00,0.00000e+00
1.87280e+03,1.73377e+00,-1.82012e+00,0.00000e+00,0.00000e+00,0.00000e+00
1.91380e+03,2.11856e+01,0.00000e+00,0.00000e+00,0.00000e+00,0.00000e+00
1.91380e+03,2.10789e+01,-1.60989e+00,0.00000e+00,0.00000e+00,0.00000e+00
1.91380e+03,2.09370e+01,-3.21977e+00,0.00000e+00,0.00000e+00,0.00000e+00
1.91380e+03,2.07936e+01,-4.82966e+00,0.00000e+00,0.00000e+00,0.00000e+00
1.91380e+03,2.06192e+01,-6.43954e+00,0.00000e+00,0.00000e+00,0.00000e+00
1.91380e+03,2.04375e+01,-8.04943e+00,0.00000e+00,0.00000e+00,0.00000e+00
1.91380e+03,2.02319e+01,-9.65931e+00,0.00000e+00,0.00000e+00,0.00000e+00
1.91380e+03,2.00147e+01,-1.12692e+01,0.00000e+00,0.00000e+00,0.00000e+00
1.91380e+03,1.97784e+01,-1.28791e+01,0.00000e+00,0.00000e+00,0.00000e+00
1.91380e+03,1.95262e+01,-1.44890e+01,0.00000e+00,0.00000e+00,0.00000e+00
1.91380e+03,1.92568e+01,-1.60989e+01,0.00000e+00,0.00000e+00,0.00000e+00
1.91380e+03,1.89663e+01,-1.77087e+01,0.00000e+00,0.00000e+00,0.00000e+00
1.91380e+03,1.86544e+01,-1.93186e+01,0.00000e+00,0.00000e+00,0.00000e+00
1.91380e+03,1.83120e+01,-2.09285e+01,0.00000e+00,0.00000e+00,0.00000e+00
1.91380e+03,1.79399e+01,-2.25384e+01,0.00000e+00,0.00000e+00,0.00000e+00
1.91380e+03,1.75325e+01,-2.41483e+01,0.00000e+00,0.00000e+00,0.00000e+00
1.91380e+03,1.70770e+01,-2.57582e+01,0.00000e+00,0.00000e+00,0.00000e+00
1.91380e+03,1.65881e+01,-2.73680e+01,0.00000e+00,0.00000e+00,0.00000e+00
1.91380e+03,1.60241e+01,-2.89779e+01,0.00000e+00,0.00000e+00,0.00000e+00
1.91380e+03,1.54289e+01,-3.05878e+01,0.00000e+00,0.00000e+00,0.00000e+00
1.91380e+03,1.47470e+01,-3.21977e+01,0.00000e+00,0.00000e+00,0.00000e+00
1.91380e+03,1.39955e+01,-3.38076e+01,0.00000e+00,0.00000e+00,0.00000e+00
1.91380e+03,1.31733e+01,-3.54175e+01,0.00000e+00,0.00000e+00,0.00000e+00
1.91380e+03,1.22322e+01,-3.70274e+01,0.00000e+00,0.00000e+00,0.00000e+00
1.91380e+03,1.11536e+01,-3.86372e+01,0.00000e+00,0.00000e+00,0.00000e+00
1.91380e+03,9.91946e+00,-4.02471e+01,0.00000e+00,0.00000e+00,0.00000e+00
1.91380e+03,8.45973e+00,-4.18570e+01,0.00000e+00,0.00000e+00,0.00000e+00
1.91380e+03,6.58606e+00,-4.34669e+01,0.00000e+00,0.00000e+00,0.00000e+00
1.91380e+03,4.05198e+00,-4.50768e+01,0.00000e+00,0.00000e+00,0.00000e+00
1.91380e+03,-1.64183e+00,-4.66867e+01,0.00000e+00,0.00000e+00,0.00000e+00
1.91380e+03,-2.05276e+00,-4.66904e+01,0.00000e+00,0.00000e+00,0.00000e+00
1.91380e+03,-5.79657e+00,-4.50229e+01,0.00000e+00,0.00000e+00,0.00000e+00
1.91380e+03,-6.24986e+00,-4.33554e+01,0.00000e+00,0.00000e+00,0.00000e+00
1.91380e+03,-6.40628e+00,-4.16879e+01,0.00000e+00,0.00000e+00,0.00000e+00
1.91380e+03,-6.43001e+00,-4.00204e+01,0.00000e+00,0.00000e+00,0.00000e+00
1.91380e+03,-6.35378e+00,-3.83528e+01,0.00000e+00,0.00000e+00,0.00000e+00
1.91380e+03,-6.21483e+00,-3.66853e+01,0.00000e+00,0.00000e+00,0.00000e+00
1.91380e+03,-6.01288e+00,-3.50178e+01,0.00000e+00,0.00000e+00,0.00000e+00
1.91380e+03,-5.77251e+00,-3.33503e+01,0.00000e+00,0.00000e+00,0.00000e+00
1.91380e+03,-5.50985e+00,-3.16828e+01,0.00000e+00,0.00000e+00,0.00000e+00
1.91380e+03,-5.21362e+00,-3.00153e+01,0.00000e+00,0.00000e+00,0.00000e+00
1.91380e+03,-4.89640e+00,-2.83477e+01,0.00000e+00,0.00000e+00,0.00000e+00
1.91380e+03,-4.55876e+00,-2.66802e+01,0.00000e+00,0.00000e+00,0.00000e+00
1.91380e+03,-4.20075e+00,-2.50127e+01,0.00000e+00,0.00000e+00,0.00000e+00
1.91380e+03,-3.82998e+00,-2.33452e+01,0.00000e+00,0.00000e+00,0.00000e+00
1.91380e+03,-3.44287e+00,-2.16777e+01,0.00000e+00,0.00000e+00,0.00000e+00
1.91380e+03,-3.04529e+00,-2.00102e+01,0.00000e+00,0.00000e+00,0.00000e+00
1.91380e+03,-2.63832e+00,-1.83427e+01,0.00000e+00,0.00000e+00,0.00000e+00
1.91380e+03,-2.22297e+00,-1.66751e+01,0.00000e+00,0.00000e+00,0.00000e+00
1.91380e+03,-1.80407e+00,-1.50076e+01,0.00000e+00,0.00000e+00,0.00000e+00
1.91380e+03,-1.37967e+00,-1.33401e+01,0.00000e+00,0.00000e+00,0.00000e+00
1.91380e+03,-9.54362e-01,-1.16726e+01,0.00000e+00,0.00000e+00,0.00000e+00
1.91380e+03,-5.25768e-01,-1.00051e+01,0.00000e+00,0.00000e+00,0.00000e+00
1.91380e+03,-9.72161e-02,-8.33757e+00,0.00000e+00,0.00000e+00,0.00000e+00
1.91380e+03,3.29716e-01,-6.67006e+00,0.00000e+00,0.00000e+00,0.00000e+00
1.91380e+03,7.56647e-01,-5.00254e+00,0.00000e+00,0.00000e+00,0.00000e+00
1.91380e+03,1.17347e+00,-3.33503e+00,0.00000e+00,0.00000e+00,0.00000e+00
1.91380e+03,1.58841e+00,-1.66751e+00,0.00000e+00,0.00000e+00,0.00000e+00
1.94970e+03,1.94880e+01,0.00000e+00,0.00000e+00,0.00000e+00,0.00000e+00
1.94970e+03,1.93899e+01,-1.48088e+00,0.00000e+00,0.00000e+00,0.00000e+00
1.94970e+03,1.92593e+01,-2.96177e+00,0.00000e+00,0.00000e+00,0.00000e+00
1.94970e+03,1.91274e+01,-4.44265e+00,0.00000e+00,0.00000e+00,0.00000e+00
1.94970e+03,1.89669e+01,-5.92353e+00,0.00000e+00,0.00000e+00,0.00000e+00
1.94970e+03,1.87998e+01,-7.40441e+00,0.00000e+00,0.00000e+00,0.00000e+00
1.94970e+03,1.86107e+01,-8.88530e+00,0.00000e+00,0.00000e+00,0.00000e+00
1.94970e+03,1.84109e+01,-1.03662e+01,0.00000e+00,0.00000e+00,0.00000e+00
1.94970e+03,1.81935e+01,-1.18471e+01,0.00000e+00,0.00000e+00,0.00000e+00
1.94970e+03,1.79616e+01,-1.33279e+01,0.00000e+00,0.00000e+00,0.00000e+00
1.94970e+03,1.77137e+01,-1.48088e+01,0.00000e+00,0.00000e+00,0.00000e+00
1.94970e+03,1.74465e+01,-1.62897e+01,0.00000e+00,0.00000e+00,0.00000e+00
1.94970e+03,1.71596e+01,-1.77706e+01,0.00000e+00,0.00000e+00,0.00000e+00
1.94970e+03,1.68446e+01,-1.92515e+01,0.00000e+00,0.00000e+00,0.00000e+00
1.94970e+03,1.65024e+01,-2.07324e+01,0.00000e+00,0.00000e+00,0.00000e+00
1.94970e+03,1.61276e+01,-2.22132e+01,0.00000e+00,0.00000e+00,0.00000e+00
1.94970e+03,1.57086e+01,-2.36941e+01,0.00000e+00,0.00000e+00,0.00000e+00
1.94970e+03,1.52589e+01,-2.51750e+01,0.00000e+00,0.00000e+00,0.00000e+00
1.94970e+03,1.47401e+01,-2.66559e+01,0.00000e+00,0.00000e+00,0.00000e+00
1.94970e+03,1.41926e+01,-2.81368e+01,0.00000e+00,0.00000e+00,0.00000e+00
1.94970e+03,1.35653e+01,-2.96177e+01,0.00000e+00,0.00000e+00,0.00000e+00
1.94970e+03,1.28740e+01,-3.10985e+01,0.00000e+00,0.00000e+00,0.00000e+00
1.94970e+03,1.21177e+01,-3.25794e+01,0.00000e+00,0.00000e+00,0.00000e+00
1.94970e+03,1.12521e+01,-3.40603e+01,0.00000e+00,0.00000e+00,0.00000e+00
1.94970e+03,1.02599e+01,-3.55412e+01,0.00000e+00,0.00000e+00,0.00000e+00
1.94970e+03,9.12460e+00,-3.70221e+01,0.00000e+00,0.00000e+00,0.00000e+00
1.94970e+03,7.78184e+00,-3.85029e+01,0.00000e+00,0.00000e+00,0.00000e+00
1.94970e+03,6.05831e+00,-3.99838e+01,0.00000e+00,0.00000e+00,0.00000e+00
1.94970e+03,3.72729e+00,-4.14647e+01,0.00000e+00,0.00000e+00,0.00000e+00
1.94970e+03,-1.51027e+00,-4.29456e+01,0.00000e+00,0.00000e+00,0.00000e+00
1.94970e+03,-1.88827e+00,-4.29490e+01,0.00000e+00,0.00000e+00,0.00000e+00
1.94970e+03,-5.33209e+00,-4.14151e+01,0.00000e+00,0.00000e+00,0.00000e+00
1.94970e+03,-5.74905e+00,-3.98812e+01,0.00000e+00,0.00000e+00,0.00000e+00
1.94970e+03,-5.89293e+00,-3.83473e+01,0.00000e+00,0.00000e+00,0.00000e+00
1.94970e+03,-5.91477e+00,-3.68135e+01,0.00000e+00,0.00000e+00,0.00000e+00
1.94970e+03,-5.84465e+00,-3.52796e+01,0.00000e+00,0.00000e+00,0.00000e+00
1.94970e+03,-5.71682e+00,-3.37457e+01,0.00000e+00,0.00000e+00,0.00000e+00
1.94970e+03,-5.53106e+00,-3.22118e+01,0.00000e+00,0.00000e+00,0.00000e+00
1.94970e+03,-5.30995e+00,-3.06779e+01,0.00000e+00,0.00000e+00,0.00000e+00
1.94970e+03,-5.06834e+00,-2.91440e+01,0.00000e+00,0.00000e+00,0.00000e+00
1.94970e+03,-4.79584e+00,-2.76101e+01,0.00000e+00,0.00000e+00,0.00000e+00
1.94970e+03,-4.50405e+00,-2.60762e+01,0.00000e+00,0.00000e+00,0.00000e+00
1.94970e+03,-4.19345e+00,-2.45423e+01,0.00000e+00,0.00000e+00,0.00000e+00
1.94970e+03,-3.86414e+00,-2.30084e+01,0.00000e+00,0.00000e+00,0.00000e+00
1.94970e+03,-3.52308e+00,-2.14745e+01,0.00000e+00,0.00000e+00,0.00000e+00
1.94970e+03,-3.16699e+00,-1.99406e+01,0.00000e+00,0.00000e+00,0.00000e+00
1.94970e+03,-2.80126e+00,-1.84067e+01,0.00000e+00,0.00000e+00,0.00000e+00
1.94970e+03,-2.42690e+00,-1.68728e+01,0.00000e+00,0.00000e+00,0.00000e+00
1.94970e+03,-2.04484e+00,-1.53389e+01,0.00000e+00,0.00000e+00,0.00000e+00
1.94970e+03,-1.65951e+00,-1.38050e+01,0.00000e+00,0.00000e+00,0.00000e+00
1.94970e+03,-1.26912e+00,-1.22712e+01,0.00000e+00,0.00000e+00,0.00000e+00
1.94970e+03,-8.77888e-01,-1.07373e+01,0.00000e+00,0.00000e+00,0.00000e+00
1.94970e+03,-4.83637e-01,-9.20336e+00,0.00000e+00,0.00000e+00,0.00000e+00
1.94970e+03,-8.94260e-02,-7.66947e+00,0.00000e+00,0.00000e+00,0.00000e+00
1.94970e+03,3.03295e-01,-6.13558e+00,0.00000e+00,0.00000e+00,0.00000e+00
1.94970e+03,6.96016e-01,-4.60168e+00,0.00000e+00,0.00000e+00,0.00000e+00
1.94970e+03,1.07944e+00,-3.06779e+00,0.00000e+00,0.00000e+00,0.00000e+00
1.94970e+03,1.46113e+00,-1.53389e+00,0.00000e+00,0.00000e+00,0.00000e+00
1.98010e+03,1.80504e+01,0.00000e+00,0.00000e+00,0.00000e+00,0.00000e+00
1.98010e+03,1.79595e+01,-1.37164e+00,0.00000e+00,0.00000e+00,0.00000e+00
1.98010e+03,1.78386e+01,-2.74329e+00,0.00000e+00,0.00000e+00,0.00000e+00
1.98010e+03,1.77165e+01,-4.11493e+00,0.00000e+00,0.00000e+00,0.00000e+00
1.98010e+03,1.75678e+01,-5.48657e+00,0.00000e+00,0.00000e+00,0.00000e+00
1.98010e+03,1.74130e+01,-6.85822e+00,0.00000e+00,0.00000e+00,0.00000e+00
1.98010e+03,1.72378e+01,-8.22986e+00,0.00000e+00,0.00000e+00,0.00000e+00
1.98010e+03,1.70528e+01,-9.60150e+00,0.00000e+00,0.00000e+00,0.00000e+00
1.98010e+03,1.68514e+01,-1.09731e+01,0.00000e+00,0.00000e+00,0.00000e+00
1.98010e+03,1.66366e+01,-1.23448e+01,0.00000e+00,0.00000e+00,0.00000e+00
1.98010e+03,1.64070e+01,-1.37164e+01,0.00000e+00,0.00000e+00,0.00000e+00
1.98010e+03,1.61595e+01,-1.50881e+01,0.00000e+00,0.00000e+00,0.00000e+00
1.98010e+03,1.58938e+01,-1.64597e+01,0.00000e+00,0.00000e+00,0.00000e+00
1.98010e+03,1.56020e+01,-1.78314e+01,0.00000e+00,0.00000e+00,0.00000e+00
1.98010e+03,1.52851e+01,-1.92030e+01,0.00000e+00,0.00000e+00,0.00000e+00
1.98010e+03,1.49379e+01,-2.05747e+01,0.00000e+00,0.00000e+00,0.00000e+00
1.98010e+03,1.45498e+01,-2.19463e+01,0.00000e+00,0.00000e+00,0.00000e+00
1.98010e+03,1.41333e+01,-2.33179e+01,0.00000e+00,0.00000e+00,0.00000e+00
1.98010e+03,1.36527e+01,-2.46896e+01,0.00000e+00,0.00000e+00,0.00000e+00
1.98010e+03,1.31457e+01,-2.60612e+01,0.00000e+00,0.00000e+00,0.00000e+00
1.98010e+03,1.25646e+01,-2.74329e+01,0.00000e+00,0.00000e+00,0.00000e+00
1.98010e+03,1.19244e+01,-2.88045e+01,0.00000e+00,0.00000e+00,0.00000e+00
1.98010e+03,1.12238e+01,-3.01762e+01,0.00000e+00,0.00000e+00,0.00000e+00
1.98010e+03,1.04220e+01,-3.15478e+01,0.00000e+00,0.00000e+00,0.00000e+00
1.98010e+03,9.50303e+00,-3.29194e+01,0.00000e+00,0.00000e+00,0.00000e+00
1.98010e+03,8.45151e+00,-3.42911e+01,0.00000e+00,0.00000e+00,0.00000e+00
1.98010e+03,7.20780e+00,-3.56627e+01,0.00000e+00,0.00000e+00,0.00000e+00
1.98010e+03,5.61141e+00,-3.70344e+01,0.00000e+00,0.00000e+00,0.00000e+00
1.98010e+03,3.45234e+00,-3.84060e+01,0.00000e+00,0.00000e+00,0.00000e+00
1.98010e+03,-1.39886e+00,-3.97777e+01,0.00000e+00,0.00000e+00,0.00000e+00
1.98010e+03,-1.74898e+00,-3.97808e+01,0.00000e+00,0.00000e+00,0.00000e+00
1.98010e+03,-4.93876e+00,-3.83601e+01,0.00000e+00,0.00000e+00,0.00000e+00
1.98010e+03,-5.32496e+00,-3.69394e+01,0.00000e+00,0.00000e+00,0.00000e+00
1.98010e+03,-5.45823e+00,-3.55186e+01,0.00000e+00,0.00000e+00,0.00000e+00
1.98010e+03,-5.47846e+00,-3.40979e+01,0.00000e+00,0.00000e+00,0.00000e+00
1.98010e+03,-5.41351e+00,-3.26771e+01,0.00000e+00,0.00000e+00,0.00000e+00
1.98010e+03,-5.29511e+00,-3.12564e+01,0.00000e+00,0.00000e+00,0.00000e+00
1.98010e+03,-5.12305e+00,-2.98356e+01,0.00000e+00,0.00000e+00,0.00000e+00
1.98010e+03,-4.91825e+00,-2.84149e+01,0.00000e+00,0.00000e+00,0.00000e+00
1.98010e+03,-4.69446e+00,-2.69941e+01,0.00000e+00,0.00000e+00,0.00000e+00
1.98010e+03,-4.44207e+00,-2.55734e+01,0.00000e+00,0.00000e+00,0.00000e+00
1.98010e+03,-4.17180e+00,-2.41527e+01,0.00000e+00,0.00000e+00,0.00000e+00
1.98010e+03,-3.88412e+00,-2.27319e+01,0.00000e+00,0.00000e+00,0.00000e+00
1.98010e+03,-3.57909e+00,-2.13112e+01,0.00000e+00,0.00000e+00,0.00000e+00
1.98010e+03,-3.26320e+00,-1.98904e+01,0.00000e+00,0.00000e+00,0.00000e+00
1.98010e+03,-2.93337e+00,-1.84697e+01,0.00000e+00,0.00000e+00,0.00000e+00
1.98010e+03,-2.59462e+00,-1.70489e+01,0.00000e+00,0.00000e+00,0.00000e+00
1.98010e+03,-2.24788e+00,-1.56282e+01,0.00000e+00,0.00000e+00,0.00000e+00
1.98010e+03,-1.89400e+00,-1.42074e+01,0.00000e+00,0.00000e+00,0.00000e+00
1.98010e+03,-1.53709e+00,-1.27867e+01,0.00000e+00,0.00000e+00,0.00000e+00
1.98010e+03,-1.17550e+00,-1.13660e+01,0.00000e+00,0.00000e+00,0.00000e+00
1.98010e+03,-8.13129e-01,-9.94521e+00,0.00000e+00,0.00000e+00,0.00000e+00
1.98010e+03,-4.47961e-01,-8.52447e+00,0.00000e+00,0.00000e+00,0.00000e+00
1.98010e+03,-8.28294e-02,-7.10372e+00,0.00000e+00,0.00000e+00,0.00000e+00
1.98010e+03,2.80922e-01,-5.68298e+00,0.00000e+00,0.00000e+00,0.00000e+00
1.98010e+03,6.44673e-01,-4.26223e+00,0.00000e+00,0.00000e+00,0.00000e+00
1.98010e+03,9.99811e-01,-2.84149e+00,0.00000e+00,0.00000e+00,0.00000e+00
1.98010e+03,1.35334e+00,-1.42074e+00,0.00000e+00,0.00000e+00,0.00000e+00
2.00520e+03,1.68635e+01,0.00000e+00,0.00000e+00,0.00000e+00,0.00000e+00
2.00520e+03,1.67786e+01,-1.28145e+00,0.00000e+00,0.00000e+00,0.00000e+00
2.00520e+03,1.66656e+01,-2.56290e+00,0.00000e+00,0.00000e+00,0.00000e+00
2.00520e+03,1.65515e+01,-3.84435e+00,0.00000e+00,0.00000e+00,0.00000e+00
2.00520e+03,1.64126e+01,-5.12580e+00,0.00000e+00,0.00000e+00,0.00000e+00
2.00520e+03,1.62680e+01,-6.40725e+00,0.00000e+00,0.00000e+00,0.00000e+00
2.00520e+03,1.61044e+01,-7.68870e+00,0.00000e+00,0.00000e+00,0.00000e+00
2.00520e+03,1.59315e+01,-8.97015e+00,0.00000e+00,0.00000e+00,0.00000e+00
2.00520e+03,1.57433e+01,-1.02516e+01,0.00000e+00,0.00000e+00,0.00000e+00
2.00520e+03,1.55427e+01,-1.15330e+01,0.00000e+00,0.00000e+00,0.00000e+00
2.00520e+03,1.53282e+01,-1.28145e+01,0.00000e+00,0.00000e+00,0.00000e+00
2.00520e+03,1.50970e+01,-1.40959e+01,0.00000e+00,0.00000e+00,0.00000e+00
2.00520e+03,1.48486e+01,-1.53774e+01,0.00000e+00,0.00000e+00,0.00000e+00
2.00520e+03,1.45761e+01,-1.66588e+01,0.00000e+00,0.00000e+00,0.00000e+00
2.00520e+03,1.42800e+01,-1.79403e+01,0.00000e+00,0.00000e+00,0.00000e+00
2.00520e+03,1.39556e+01,-1.92217e+01,0.00000e+00,0.00000e+00,0.00000e+00
2.00520e+03,1.35931e+01,-2.05032e+01,0.00000e+00,0.00000e+00,0.00000e+00
2.00520e+03,1.32039e+01,-2.17846e+01,0.00000e+00,0.00000e+00,0.00000e+00
2.00520e+03,1.27550e+01,-2.30661e+01,0.00000e+00,0.00000e+00,0.00000e+00
2.00520e+03,1.22812e+01,-2.43475e+01,0.00000e+00,0.00000e+00,0.00000e+00
2.00520e+03,1.17384e+01,-2.56290e+01,0.00000e+00,0.00000e+00,0.00000e+00
2.00520e+03,1.11403e+01,-2.69104e+01,0.00000e+00,0.00000e+00,0.00000e+00
2.00520e+03,1.04858e+01,-2.81919e+01,0.00000e+00,0.00000e+00,0.00000e+00
2.00520e+03,9.73672e+00,-2.94733e+01,0.00000e+00,0.00000e+00,0.00000e+00
2.00520e+03,8.87814e+00,-3.07548e+01,0.00000e+00,0.00000e+00,0.00000e+00
2.00520e+03,7.89577e+00,-3.20362e+01,0.00000e+00,0.00000e+00,0.00000e+00
2.00520e+03,6.73385e+00,-3.33177e+01,0.00000e+00,0.00000e+00,0.00000e+00
2.00520e+03,5.24243e+00,-3.45991e+01,0.00000e+00,0.00000e+00,0.00000e+00
2.00520e+03,3.22533e+00,-3.58806e+01,0.00000e+00,0.00000e+00,0.00000e+00
2.00520e+03,-1.30688e+00,-3.71620e+01,0.00000e+00,0.00000e+00,0.00000e+00
2.00520e+03,-1.63397e+00,-3.71650e+01,0.00000e+00,0.00000e+00,0.00000e+00
2.00520e+03,-4.61400e+00,-3.58377e+01,0.00000e+00,0.00000e+00,0.00000e+00
2.00520e+03,-4.97481e+00,-3.45104e+01,0.00000e+00,0.00000e+00,0.00000e+00
2.00520e+03,-5.09932e+00,-3.31830e+01,0.00000e+00,0.00000e+00,0.00000e+00
2.00520e+03,-5.11821e+00,-3.18557e+01,0.00000e+00,0.00000e+00,0.00000e+00
2.00520e+03,-5.05754e+00,-3.05284e+01,0.00000e+00,0.00000e+00,0.00000e+00
2.00520e+03,-4.94693e+00,-2.92011e+01,0.00000e+00,0.00000e+00,0.00000e+00
2.00520e+03,-4.78618e+00,-2.78738e+01,0.00000e+00,0.00000e+00,0.00000e+00
2.00520e+03,-4.59485e+00,-2.65464e+01,0.00000e+00,0.00000e+00,0.00000e+00
2.00520e+03,-4.38577e+00,-2.52191e+01,0.00000e+00,0.00000e+00,0.00000e+00
2.00520e+03,-4.14998e+00,-2.38918e+01,0.00000e+00,0.00000e+00,0.00000e+00
2.00520e+03,-3.89748e+00,-2.25645e+01,0.00000e+00,0.00000e+00,0.00000e+00
2.00520e+03,-3.62871e+00,-2.12371e+01,0.00000e+00,0.00000e+00,0.00000e+00
2.00520e+03,-3.34375e+00,-1.99098e+01,0.00000e+00,0.00000e+00,0.00000e+00
2.00520e+03,-3.04862e+00,-1.85825e+01,0.00000e+00,0.00000e+00,0.00000e+00
2.00520e+03,-2.74048e+00,-1.72552e+01,0.00000e+00,0.00000e+00,0.00000e+00
2.00520e+03,-2.42401e+00,-1.59279e+01,0.00000e+00,0.00000e+00,0.00000e+00
2.00520e+03,-2.10007e+00,-1.46005e+01,0.00000e+00,0.00000e+00,0.00000e+00
2.00520e+03,-1.76946e+00,-1.32732e+01,0.00000e+00,0.00000e+00,0.00000e+00
2.00520e+03,-1.43602e+00,-1.19459e+01,0.00000e+00,0.00000e+00,0.00000e+00
2.00520e+03,-1.09820e+00,-1.06186e+01,0.00000e+00,0.00000e+00,0.00000e+00
2.00520e+03,-7.59661e-01,-9.29125e+00,0.00000e+00,0.00000e+00,0.00000e+00
2.00520e+03,-4.18505e-01,-7.96393e+00,0.00000e+00,0.00000e+00,0.00000e+00
2.00520e+03,-7.73829e-02,-6.63661e+00,0.00000e+00,0.00000e+00,0.00000e+00
2.00520e+03,2.62450e-01,-5.30929e+00,0.00000e+00,0.00000e+00,0.00000e+00
2.00520e+03,6.02282e-01,-3.98196e+00,0.00000e+00,0.00000e+00,0.00000e+00
2.00520e+03,9.34067e-01,-2.65464e+00,0.00000e+00,0.00000e+00,0.00000e+00
2.00520e+03,1.26435e+00,-1.32732e+00,0.00000e+00,0.00000e+00,0.00000e+00
2.02480e+03,1.59367e+01,0.00000e+00,0.00000e+00,0.00000e+00,0.00000e+00
2.02480e+03,1.58564e+01,-1.21102e+00,0.00000e+00,0.00000e+00,0.00000e+00
2.02480e+03,1.57496e+01,-2.42204e+00,0.00000e+00,0.00000e+00,0.00000e+00
2.02480e+03,1.56418e+01,-3.63306e+00,0.00000e+00,0.00000e+00,0.00000e+00
2.02480e+03,1.55106e+01,-4.84408e+00,0.00000e+00,0.00000e+00,0.00000e+00
2.02480e+03,1.53739e+01,-6.05509e+00,0.00000e+00,0.00000e+00,0.00000e+00
2.02480e+03,1.52192e+01,-7.26611e+00,0.00000e+00,0.00000e+00,0.00000e+00
2.02480e+03,1.50559e+01,-8.47713e+00,0.00000e+00,0.00000e+00,0.00000e+00
2.02480e+03,1.48781e+01,-9.68815e+00,0.00000e+00,0.00000e+00,0.00000e+00
2.02480e+03,1.46884e+01,-1.08992e+01,0.00000e+00,0.00000e+00,0.00000e+00
2.02480e+03,1.44857e+01,-1.21102e+01,0.00000e+00,0.00000e+00,0.00000e+00
2.02480e+03,1.42672e+01,-1.33212e+01,0.00000e+00,0.00000e+00,0.00000e+00
2.02480e+03,1.40325e+01,-1.45322e+01,0.00000e+00,0.00000e+00,0.00000e+00
2.02480e+03,1.37750e+01,-1.57432e+01,0.00000e+00,0.00000e+00,0.00000e+00
2.02480e+03,1.34951e+01,-1.69543e+01,0.00000e+00,0.00000e+00,0.00000e+00
2.02480e+03,1.31886e+01,-1.81653e+01,0.00000e+00,0.00000e+00,0.00000e+00
2.02480e+03,1.28460e+01,-1.93763e+01,0.00000e+00,0.00000e+00,0.00000e+00
2.02480e+03,1.24782e+01,-2.05873e+01,0.00000e+00,0.00000e+00,0.00000e+00
2.02480e+03,1.20540e+01,-2.17983e+01,0.00000e+00,0.00000e+00,0.00000e+00
2.02480e+03,1.16063e+01,-2.30094e+01,0.00000e+00,0.00000e+00,0.00000e+00
2.02480e+03,1.10933e+01,-2.42204e+01,0.00000e+00,0.00000e+00,0.00000e+00
2.02480e+03,1.05280e+01,-2.54314e+01,0.00000e+00,0.00000e+00,0.00000e+00
2.02480e+03,9.90946e+00,-2.66424e+01,0.00000e+00,0.00000e+00,0.00000e+00
2.02480e+03,9.20158e+00,-2.78534e+01,0.00000e+00,0.00000e+00,0.00000e+00
2.02480e+03,8.39019e+00,-2.90645e+01,0.00000e+00,0.00000e+00,0.00000e+00
2.02480e+03,7.46181e+00,-3.02755e+01,0.00000e+00,0.00000e+00,0.00000e+00
2.02480e+03,6.36374e+00,-3.14865e+01,0.00000e+00,0.00000e+00,0.00000e+00
2.02480e+03,4.95429e+00,-3.26975e+01,0.00000e+00,0.00000e+00,0.00000e+00
2.02480e+03,3.04806e+00,-3.39085e+01,0.00000e+00,0.00000e+00,0.00000e+00
2.02480e+03,-1.23505e+00,-3.51195e+01,0.00000e+00,0.00000e+00,0.00000e+00
2.02480e+03,-1.54416e+00,-3.51224e+01,0.00000e+00,0.00000e+00,0.00000e+00
2.02480e+03,-4.36041e+00,-3.38680e+01,0.00000e+00,0.00000e+00,0.00000e+00
2.02480e+03,-4.70139e+00,-3.26136e+01,0.00000e+00,0.00000e+00,0.00000e+00
2.02480e+03,-4.81905e+00,-3.13592e+01,0.00000e+00,0.00000e+00,0.00000e+00
2.02480e+03,-4.83691e+00,-3.01049e+01,0.00000e+00,0.00000e+00,0.00000e+00
2.02480e+03,-4.77957e+00,-2.88505e+01,0.00000e+00,0.00000e+00,0.00000e+00
2.02480e+03,-4.67504e+00,-2.75961e+01,0.00000e+00,0.00000e+00,0.00000e+00
2.02480e+03,-4.52312e+00,-2.63418e+01,0.00000e+00,0.00000e+00,0.00000e+00
2.02480e+03,-4.34231e+00,-2.50874e+01,0.00000e+00,0.00000e+00,0.00000e+00
2.02480e+03,-4.14473e+00,-2.38330e+01,0.00000e+00,0.00000e+00,0.00000e+00
2.02480e+03,-3.92189e+00,-2.25787e+01,0.00000e+00,0.00000e+00,0.00000e+00
2.02480e+03,-3.68327e+00,-2.13243e+01,0.00000e+00,0.00000e+00,0.00000e+00
2.02480e+03,-3.42927e+00,-2.00699e+01,0.00000e+00,0.00000e+00,0.00000e+00
2.02480e+03,-3.15997e+00,-1.88155e+01,0.00000e+00,0.00000e+00,0.00000e+00
2.02480e+03,-2.88106e+00,-1.75612e+01,0.00000e+00,0.00000e+00,0.00000e+00
2.02480e+03,-2.58986e+00,-1.63068e+01,0.00000e+00,0.00000e+00,0.00000e+00
2.02480e+03,-2.29078e+00,-1.50524e+01,0.00000e+00,0.00000e+00,0.00000e+00
2.02480e+03,-1.98465e+00,-1.37981e+01,0.00000e+00,0.00000e+00,0.00000e+00
2.02480e+03,-1.67220e+00,-1.25437e+01,0.00000e+00,0.00000e+00,0.00000e+00
2.02480e+03,-1.35709e+00,-1.12893e+01,0.00000e+00,0.00000e+00,0.00000e+00
2.02480e+03,-1.03784e+00,-1.00350e+01,0.00000e+00,0.00000e+00,0.00000e+00
2.02480e+03,-7.17909e-01,-8.78059e+00,0.00000e+00,0.00000e+00,0.00000e+00
2.02480e+03,-3.95503e-01,-7.52622e+00,0.00000e+00,0.00000e+00,0.00000e+00
2.02480e+03,-7.31298e-02,-6.27185e+00,0.00000e+00,0.00000e+00,0.00000e+00
2.02480e+03,2.48025e-01,-5.01748e+00,0.00000e+00,0.00000e+00,0.00000e+00
2.02480e+03,5.69180e-01,-3.76311e+00,0.00000e+00,0.00000e+00,0.00000e+00
2.02480e+03,8.82730e-01,-2.50874e+00,0.00000e+00,0.00000e+00,0.00000e+00
2.02480e+03,1.19486e+00,-1.25437e+00,0.00000e+00,0.00000e+00,0.00000e+00
2.03880e+03,1.52746e+01,0.00000e+00,0.00000e+00,0.00000e+00,0.00000e+00
2.03880e+03,1.51977e+01,-1.16071e+00,0.00000e+00,0.00000e+00,0.00000e+00
2.03880e+03,1.50954e+01,-2.32142e+00,0.00000e+00,0.00000e+00,0.00000e+00
2.03880e+03,1.49920e+01,-3.48213e+00,0.00000e+00,0.00000e+00,0.00000e+00
2.03880e+03,1.48662e+01,-4.64285e+00,0.00000e+00,0.00000e+00,0.00000e+00
2.03880e+03,1.47352e+01,-5.80356e+00,0.00000e+00,0.00000e+00,0.00000e+00
2.03880e+03,1.45870e+01,-6.96427e+00,0.00000e+00,0.00000e+00,0.00000e+00
2.03880e+03,1.44304e+01,-8.12498e+00,0.00000e+00,0.00000e+00,0.00000e+00
2.03880e+03,1.42600e+01,-9.28569e+00,0.00000e+00,0.00000e+00,0.00000e+00
2.03880e+03,1.40782e+01,-1.04464e+01,0.00000e+00,0.00000e+00,0.00000e+00
2.03880e+03,1.38839e+01,-1.16071e+01,0.00000e+00,0.00000e+00,0.00000e+00
2.03880e+03,1.36745e+01,-1.27678e+01,0.00000e+00,0.00000e+00,0.00000e+00
2.03880e+03,1.34496e+01,-1.39285e+01,0.00000e+00,0.00000e+00,0.00000e+00
2.03880e+03,1.32028e+01,-1.50892e+01,0.00000e+00,0.00000e+00,0.00000e+00
2.03880e+03,1.29345e+01,-1.62500e+01,0.00000e+00,0.00000e+00,0.00000e+00
2.03880e+03,1.26407e+01,-1.74107e+01,0.00000e+00,0.00000e+00,0.00000e+00
2.03880e+03,1.23123e+01,-1.85714e+01,0.00000e+00,0.00000e+00,0.00000e+00
2.03880e+03,1.19599e+01,-1.97321e+01,0.00000e+00,0.00000e+00,0.00000e+00
2.03880e+03,1.15532e+01,-2.08928e+01,0.00000e+00,0.00000e+00,0.00000e+00
2.03880e+03,1.11241e+01,-2.20535e+01,0.00000e+00,0.00000e+00,0.00000e+00
2.03880e+03,1.06324e+01,-2.32142e+01,0.00000e+00,0.00000e+00,0.00000e+00
2.03880e+03,1.00906e+01,-2.43749e+01,0.00000e+00,0.00000e+00,0.00000e+00
2.03880e+03,9.49781e+00,-2.55357e+01,0.00000e+00,0.00000e+00,0.00000e+00
2.03880e+03,8.81933e+00,-2.66964e+01,0.00000e+00,0.00000e+00,0.00000e+00
2.03880e+03,8.04165e+00,-2.78571e+01,0.00000e+00,0.00000e+00,0.00000e+00
2.03880e+03,7.15183e+00,-2.90178e+01,0.00000e+00,0.00000e+00,0.00000e+00
2.03880e+03,6.09938e+00,-3.01785e+01,0.00000e+00,0.00000e+00,0.00000e+00
2.03880e+03,4.74849e+00,-3.13392e+01,0.00000e+00,0.00000e+00,0.00000e+00
2.03880e+03,2.92144e+00,-3.24999e+01,0.00000e+00,0.00000e+00,0.00000e+00
2.03880e+03,-1.18374e+00,-3.36606e+01,0.00000e+00,0.00000e+00,0.00000e+00
2.03880e+03,-1.48002e+00,-3.36633e+01,0.00000e+00,0.00000e+00,0.00000e+00
2.03880e+03,-4.17927e+00,-3.24611e+01,0.00000e+00,0.00000e+00,0.00000e+00
2.03880e+03,-4.50609e+00,-3.12588e+01,0.00000e+00,0.00000e+00,0.00000e+00
2.03880e+03,-4.61886e+00,-3.00565e+01,0.00000e+00,0.00000e+00,0.00000e+00
2.03880e+03,-4.63598e+00,-2.88543e+01,0.00000e+00,0.00000e+00,0.00000e+00
2.03880e+03,-4.58102e+00,-2.76520e+01,0.00000e+00,0.00000e+00,0.00000e+00
2.03880e+03,-4.48083e+00,-2.64498e+01,0.00000e+00,0.00000e+00,0.00000e+00
2.03880e+03,-4.33523e+00,-2.52475e+01,0.00000e+00,0.00000e+00,0.00000e+00
2.03880e+03,-4.16192e+00,-2.40452e+01,0.00000e+00,0.00000e+00,0.00000e+00
2.03880e+03,-3.97255e+00,-2.28430e+01,0.00000e+00,0.00000e+00,0.00000e+00
2.03880e+03,-3.75897e+00,-2.16407e+01,0.00000e+00,0.00000e+00,0.00000e+00
2.03880e+03,-3.53026e+00,-2.04384e+01,0.00000e+00,0.00000e+00,0.00000e+00
2.03880e+03,-3.28682e+00,-1.92362e+01,0.00000e+00,0.00000e+00,0.00000e+00
2.03880e+03,-3.02870e+00,-1.80339e+01,0.00000e+00,0.00000e+00,0.00000e+00
2.03880e+03,-2.76138e+00,-1.68317e+01,0.00000e+00,0.00000e+00,0.00000e+00
2.03880e+03,-2.48228e+00,-1.56294e+01,0.00000e+00,0.00000e+00,0.00000e+00
2.03880e+03,-2.19562e+00,-1.44271e+01,0.00000e+00,0.00000e+00,0.00000e+00
2.03880e+03,-1.90220e+00,-1.32249e+01,0.00000e+00,0.00000e+00,0.00000e+00
2.03880e+03,-1.60274e+00,-1.20226e+01,0.00000e+00,0.00000e+00,0.00000e+00
2.03880e+03,-1.30072e+00,-1.08204e+01,0.00000e+00,0.00000e+00,0.00000e+00
2.03880e+03,-9.94731e-01,-9.61809e+00,0.00000e+00,0.00000e+00,0.00000e+00
2.03880e+03,-6.88086e-01,-8.41583e+00,0.00000e+00,0.00000e+00,0.00000e+00
2.03880e+03,-3.79073e-01,-7.21357e+00,0.00000e+00,0.00000e+00,0.00000e+00
2.03880e+03,-7.00919e-02,-6.01131e+00,0.00000e+00,0.00000e+00,0.00000e+00
2.03880e+03,2.37722e-01,-4.80905e+00,0.00000e+00,0.00000e+00,0.00000e+00
2.03880e+03,5.45535e-01,-3.60678e+00,0.00000e+00,0.00000e+00,0.00000e+00
2.03880e+03,8.46060e-01,-2.40452e+00,0.00000e+00,0.00000e+00,0.00000e+00
2.03880e+03,1.14523e+00,-1.20226e+00,0.00000e+00,0.00000e+00,0.00000e+00
2.04720e+03,1.48774e+01,0.00000e+00,0.00000e+00,0.00000e+00,0.00000e+00
2.04720e+03,1.48025e+01,-1.13053e+00,0.00000e+00,0.00000e+00,0.00000e+00
2.04720e+03,1.47028e+01,-2.26105e+00,0.00000e+00,0.00000e+00,0.00000e+00
2.04720e+03,1.46021e+01,-3.39158e+00,0.00000e+00,0.00000e+00,0.00000e+00
2.04720e+03,1.44796e+01,-4.52211e+00,0.00000e+00,0.00000e+00,0.00000e+00
2.04720e+03,1.43520e+01,-5.65264e+00,0.00000e+00,0.00000e+00,0.00000e+00
2.04720e+03,1.42077e+01,-6.78316e+00,0.00000e+00,0.00000e+00,0.00000e+00
2.04720e+03,1.40552e+01,-7.91369e+00,0.00000e+00,0.00000e+00,0.00000e+00
2.04720e+03,1.38892e+01,-9.04422e+00,0.00000e+00,0.00000e+00,0.00000e+00
2.04720e+03,1.37121e+01,-1.01747e+01,0.00000e+00,0.00000e+00,0.00000e+00
2.04720e+03,1.35229e+01,-1.13053e+01,0.00000e+00,0.00000e+00,0.00000e+00
2.04720e+03,1.33189e+01,-1.24358e+01,0.00000e+00,0.00000e+00,0.00000e+00
2.04720e+03,1.30998e+01,-1.35663e+01,0.00000e+00,0.00000e+00,0.00000e+00
2.04720e+03,1.28594e+01,-1.46969e+01,0.00000e+00,0.00000e+00,0.00000e+00
2.04720e+03,1.25982e+01,-1.58274e+01,0.00000e+00,0.00000e+00,0.00000e+00
2.04720e+03,1.23120e+01,-1.69579e+01,0.00000e+00,0.00000e+00,0.00000e+00
2.04720e+03,1.19922e+01,-1.80884e+01,0.00000e+00,0.00000e+00,0.00000e+00
2.04720e+03,1.16489e+01,-1.92190e+01,0.00000e+00,0.00000e+00,0.00000e+00
2.04720e+03,1.12528e+01,-2.03495e+01,0.00000e+00,0.00000e+00,0.00000e+00
2.04720e+03,1.08348e+01,-2.14800e+01,0.00000e+00,0.00000e+00,0.00000e+00
2.04720e+03,1.03559e+01,-2.26105e+01,0.00000e+00,0.00000e+00,0.00000e+00
2.04720e+03,9.82823e+00,-2.37411e+01,0.00000e+00,0.00000e+00,0.00000e+00
2.04720e+03,9.25081e+00,-2.48716e+01,0.00000e+00,0.00000e+00,0.00000e+00
2.04720e+03,8.58998e+00,-2.60021e+01,0.00000e+00,0.00000e+00,0.00000e+00
2.04720e+03,7.83252e+00,-2.71326e+01,0.00000e+00,0.00000e+00,0.00000e+00
2.04720e+03,6.96585e+00,-2.82632e+01,0.00000e+00,0.00000e+00,0.00000e+00
2.04720e+03,5.94077e+00,-2.93937e+01,0.00000e+00,0.00000e+00,0.00000e+00
2.04720e+03,4.62500e+00,-3.05242e+01,0.00000e+00,0.00000e+00,0.00000e+00
2.04720e+03,2.84547e+00,-3.16548e+01,0.00000e+00,0.00000e+00,0.00000e+00
2.04720e+03,-1.15296e+00,-3.27853e+01,0.00000e+00,0.00000e+00,0.00000e+00
2.04720e+03,-1.44153e+00,-3.27879e+01,0.00000e+00,0.00000e+00,0.00000e+00
2.04720e+03,-4.07059e+00,-3.16169e+01,0.00000e+00,0.00000e+00,0.00000e+00
2.04720e+03,-4.38891e+00,-3.04459e+01,0.00000e+00,0.00000e+00,0.00000e+00
2.04720e+03,-4.49875e+00,-2.92749e+01,0.00000e+00,0.00000e+00,0.00000e+00
2.04720e+03,-4.51542e+00,-2.81039e+01,0.00000e+00,0.00000e+00,0.00000e+00
2.04720e+03,-4.46189e+00,-2.69329e+01,0.00000e+00,0.00000e+00,0.00000e+00
2.04720e+03,-4.36430e+00,-2.57619e+01,0.00000e+00,0.00000e+00,0.00000e+00
2.04720e+03,-4.22249e+00,-2.45909e+01,0.00000e+00,0.00000e+00,0.00000e+00
2.04720e+03,-4.05369e+00,-2.34199e+01,0.00000e+00,0.00000e+00,0.00000e+00
2.04720e+03,-3.86924e+00,-2.22489e+01,0.00000e+00,0.00000e+00,0.00000e+00
2.04720e+03,-3.66121e+00,-2.10779e+01,0.00000e+00,0.00000e+00,0.00000e+00
2.04720e+03,-3.43845e+00,-1.99069e+01,0.00000e+00,0.00000e+00,0.00000e+00
2.04720e+03,-3.20134e+00,-1.87359e+01,0.00000e+00,0.00000e+00,0.00000e+00
2.04720e+03,-2.94994e+00,-1.75649e+01,0.00000e+00,0.00000e+00,0.00000e+00
2.04720e+03,-2.68957e+00,-1.63940e+01,0.00000e+00,0.00000e+00,0.00000e+00
2.04720e+03,-2.41772e+00,-1.52230e+01,0.00000e+00,0.00000e+00,0.00000e+00
2.04720e+03,-2.13852e+00,-1.40520e+01,0.00000e+00,0.00000e+00,0.00000e+00
2.04720e+03,-1.85273e+00,-1.28810e+01,0.00000e+00,0.00000e+00,0.00000e+00
2.04720e+03,-1.56106e+00,-1.17100e+01,0.00000e+00,0.00000e+00,0.00000e+00
2.04720e+03,-1.26689e+00,-1.05390e+01,0.00000e+00,0.00000e+00,0.00000e+00
2.04720e+03,-9.68863e-01,-9.36797e+00,0.00000e+00,0.00000e+00,0.00000e+00
2.04720e+03,-6.70192e-01,-8.19698e+00,0.00000e+00,0.00000e+00,0.00000e+00
2.04720e+03,-3.69215e-01,-7.02598e+00,0.00000e+00,0.00000e+00,0.00000e+00
2.04720e+03,-6.82691e-02,-5.85498e+00,0.00000e+00,0.00000e+00,0.00000e+00
2.04720e+03,2.31540e-01,-4.68399e+00,0.00000e+00,0.00000e+00,0.00000e+00
2.04720e+03,5.31348e-01,-3.51299e+00,0.00000e+00,0.00000e+00,0.00000e+00
2.04720e+03,8.24058e-01,-2.34199e+00,0.00000e+00,0.00000e+00,0.00000e+00
2.04720e+03,1.11544e+00,-1.17100e+00,0.00000e+00,0.00000e+00,0.00000e+00
2.05000e+03,1.47450e+01,0.00000e+00,0.00000e+00,0.00000e+00,0.00000e+00
2.05000e+03,1.46708e+01,-1.12047e+00,0.00000e+00,0.00000e+00,0.00000e+00
2.05000e+03,1.45720e+01,-2.24093e+00,0.00000e+00,0.00000e+00,0.00000e+00
2.05000e+03,1.44722e+01,-3.36140e+00,0.00000e+00,0.00000e+00,0.00000e+00
2.05000e+03,1.43508e+01,-4.48186e+00,0.00000e+00,0.00000e+00,0.00000e+00
2.05000e+03,1.42243e+01,-5.60233e+00,0.00000e+00,0.00000e+00,0.00000e+00
2.05000e+03,1.40812e+01,-6.72279e+00,0.00000e+00,0.00000e+00,0.00000e+00
2.05000e+03,1.39301e+01,-7.84326e+00,0.00000e+00,0.00000e+00,0.00000e+00
2.05000e+03,1.37656e+01,-8.96372e+00,0.00000e+00,0.00000e+00,0.00000e+00
2.05000e+03,1.35901e+01,-1.00842e+01,0.00000e+00,0.00000e+00,0.00000e+00
2.05000e+03,1.34025e+01,-1.12047e+01,0.00000e+00,0.00000e+00,0.00000e+00
2.05000e+03,1.32004e+01,-1.23251e+01,0.00000e+00,0.00000e+00,0.00000e+00
2.05000e+03,1.29833e+01,-1.34456e+01,0.00000e+00,0.00000e+00,0.00000e+00
2.05000e+03,1.27450e+01,-1.45661e+01,0.00000e+00,0.00000e+00,0.00000e+00
2.05000e+03,1.24860e+01,-1.56865e+01,0.00000e+00,0.00000e+00,0.00000e+00
2.05000e+03,1.22024e+01,-1.68070e+01,0.00000e+00,0.00000e+00,0.00000e+00
2.05000e+03,1.18854e+01,-1.79274e+01,0.00000e+00,0.00000e+00,0.00000e+00
2.05000e+03,1.15452e+01,-1.90479e+01,0.00000e+00,0.00000e+00,0.00000e+00
2.05000e+03,1.11526e+01,-2.01684e+01,0.00000e+00,0.00000e+00,0.00000e+00
2.05000e+03,1.07384e+01,-2.12888e+01,0.00000e+00,0.00000e+00,0.00000e+00
2.05000e+03,1.02638e+01,-2.24093e+01,0.00000e+00,0.00000e+00,0.00000e+00
2.05000e+03,9.74076e+00,-2.35298e+01,0.00000e+00,0.00000e+00,0.00000e+00
2.05000e+03,9.16848e+00,-2.46502e+01,0.00000e+00,0.00000e+00,0.00000e+00
2.05000e+03,8.51353e+00,-2.57707e+01,0.00000e+00,0.00000e+00,0.00000e+00
2.05000e+03,7.76281e+00,-2.68912e+01,0.00000e+00,0.00000e+00,0.00000e+00
2.05000e+03,6.90385e+00,-2.80116e+01,0.00000e+00,0.00000e+00,0.00000e+00
2.05000e+03,5.88790e+00,-2.91321e+01,0.00000e+00,0.00000e+00,0.00000e+00
2.05000e+03,4.58384e+00,-3.02526e+01,0.00000e+00,0.00000e+00,0.00000e+00
2.05000e+03,2.82014e+00,-3.13730e+01,0.00000e+00,0.00000e+00,0.00000e+00
2.05000e+03,-1.14270e+00,-3.24935e+01,0.00000e+00,0.00000e+00,0.00000e+00
2.05000e+03,-1.42870e+00,-3.24961e+01,0.00000e+00,0.00000e+00,0.00000e+00
2.05000e+03,-4.03436e+00,-3.13355e+01,0.00000e+00,0.00000e+00,0.00000e+00
2.05000e+03,-4.34985e+00,-3.01749e+01,0.00000e+00,0.00000e+00,0.00000e+00
2.05000e+03,-4.45871e+00,-2.90144e+01,0.00000e+00,0.00000e+00,0.00000e+00
2.05000e+03,-4.47523e+00,-2.78538e+01,0.00000e+00,0.00000e+00,0.00000e+00
2.05000e+03,-4.42218e+00,-2.66932e+01,0.00000e+00,0.00000e+00,0.00000e+00
2.05000e+03,-4.32546e+00,-2.55327e+01,0.00000e+00,0.00000e+00,0.00000e+00
2.05000e+03,-4.18491e+00,-2.43721e+01,0.00000e+00,0.00000e+00,0.00000e+00
2.05000e+03,-4.01761e+00,-2.32115e+01,0.00000e+00,0.00000e+00,0.00000e+00
2.05000e+03,-3.83480e+00,-2.20509e+01,0.00000e+00,0.00000e+00,0.00000e+00
2.05000e+03,-3.62863e+00,-2.08903e+01,0.00000e+00,0.00000e+00,0.00000e+00
2.05000e+03,-3.40785e+00,-1.97298e+01,0.00000e+00,0.00000e+00,0.00000e+00
2.05000e+03,-3.17285e+00,-1.85692e+01,0.00000e+00,0.00000e+00,0.00000e+00
2.05000e+03,-2.92368e+00,-1.74086e+01,0.00000e+00,0.00000e+00,0.00000e+00
2.05000e+03,-2.66563e+00,-1.62480e+01,0.00000e+00,0.00000e+00,0.00000e+00
2.05000e+03,-2.39621e+00,-1.50875e+01,0.00000e+00,0.00000e+00,0.00000e+00
2.05000e+03,-2.11949e+00,-1.39269e+01,0.00000e+00,0.00000e+00,0.00000e+00
2.05000e+03,-1.83624e+00,-1.27663e+01,0.00000e+00,0.00000e+00,0.00000e+00
2.05000e+03,-1.54717e+00,-1.16057e+01,0.00000e+00,0.00000e+00,0.00000e+00
2.05000e+03,-1.25562e+00,-1.04452e+01,0.00000e+00,0.00000e+00,0.00000e+00
2.05000e+03,-9.60241e-01,-9.28460e+00,0.00000e+00,0.00000e+00,0.00000e+00
2.05000e+03,-6.64227e-01,-8.12402e+00,0.00000e+00,0.00000e+00,0.00000e+00
2.05000e+03,-3.65929e-01,-6.96345e+00,0.00000e+00,0.00000e+00,0.00000e+00
2.05000e+03,-6.76615e-02,-5.80287e+00,0.00000e+00,0.00000e+00,0.00000e+00
2.05000e+03,2.29479e-01,-4.64230e+00,0.00000e+00,0.00000e+00,0.00000e+00
2.05000e+03,5.26620e-01,-3.48173e+00,0.00000e+00,0.00000e+00,0.00000e+00
2.05000e+03,8.16724e-01,-2.32115e+00,0.00000e+00,0.00000e+00,0.00000e+00
2.05000e+03,1.10552e+00,-1.16058e+00,0.00000e+00,0.00000e+00,0.00000e+00
--------------------------------------------------------------------------------------------------------------------------------------------------------------------------------------------------------------------------------------------------------------------------------------------------------------------------------------------------------------------------------

ALMA 
--------------------------------------------------------------------------------------------------------------------------------------------------------------------------------------------------------------------------------------------------------------------------------------------------------------------------------------------------------------------------------
X,Y,Z,Sigma,Tau,Von Mises
0.00000e+00,4.05613e+00,0.00000e+00,3.30465e-01,1.36739e+00,2.39133e+00
0.00000e+00,1.70710e+01,0.00000e+00,1.15113e-01,1.36897e+00,2.37391e+00
0.00000e+00,3.00859e+01,0.00000e+00,-1.00238e-01,1.36897e+00,2.37324e+00
0.00000e+00,4.31008e+01,0.00000e+00,-3.15590e-01,1.36742e+00,2.38938e+00
1.07300e+02,4.01639e+00,0.00000e+00,2.95163e-01,1.29023e+00,2.25415e+00
1.07300e+02,1.69038e+01,0.00000e+00,1.02840e-01,1.29170e+00,2.23966e+00
1.07300e+02,2.97912e+01,0.00000e+00,-8.94831e-02,1.29170e+00,2.23908e+00
1.07300e+02,4.26785e+01,0.00000e+00,-2.81806e-01,1.29026e+00,2.25249e+00
2.14300e+02,3.97676e+00,0.00000e+00,2.61786e-01,1.21241e+00,2.11622e+00
2.14300e+02,1.67370e+01,0.00000e+00,9.12356e-02,1.21379e+00,2.10432e+00
2.14300e+02,2.94972e+01,0.00000e+00,-7.93147e-02,1.21379e+00,2.10384e+00
2.14300e+02,4.22575e+01,0.00000e+00,-2.49865e-01,1.21244e+00,2.11482e+00
3.20700e+02,3.93736e+00,0.00000e+00,2.30458e-01,1.13358e+00,1.97690e+00
3.20700e+02,1.65712e+01,0.00000e+00,8.03427e-02,1.13486e+00,1.96727e+00
3.20700e+02,2.92050e+01,0.00000e+00,-6.97722e-02,1.13486e+00,1.96687e+00
3.20700e+02,4.18388e+01,0.00000e+00,-2.19887e-01,1.13361e+00,1.97574e+00
4.26200e+02,3.89829e+00,0.00000e+00,2.01285e-01,1.05493e+00,1.83825e+00
4.26200e+02,1.64067e+01,0.00000e+00,7.01980e-02,1.05611e+00,1.83059e+00
4.26200e+02,2.89151e+01,0.00000e+00,-6.08896e-02,1.05611e+00,1.83025e+00
4.26200e+02,4.14236e+01,0.00000e+00,-1.91977e-01,1.05496e+00,1.83730e+00
5.30600e+02,3.85963e+00,0.00000e+00,1.74307e-01,9.76742e-01,1.70072e+00
5.30600e+02,1.62440e+01,0.00000e+00,6.08141e-02,9.77823e-01,1.69473e+00
5.30600e+02,2.86284e+01,0.00000e+00,-5.26788e-02,9.77823e-01,1.69446e+00
5.30600e+02,4.10127e+01,0.00000e+00,-1.66172e-01,9.76764e-01,1.69995e+00
6.33500e+02,3.82152e+00,0.00000e+00,1.49584e-01,8.99377e-01,1.56493e+00
6.33500e+02,1.60836e+01,0.00000e+00,5.22125e-02,9.00364e-01,1.56035e+00
6.33500e+02,2.83457e+01,0.00000e+00,-4.51594e-02,9.00364e-01,1.56013e+00
6.33500e+02,4.06078e+01,0.00000e+00,-1.42531e-01,8.99397e-01,1.56431e+00
7.34700e+02,3.78404e+00,0.00000e+00,1.27102e-01,8.23150e-01,1.43139e+00
7.34700e+02,1.59259e+01,0.00000e+00,4.43870e-02,8.24047e-01,1.42798e+00
7.34700e+02,2.80677e+01,0.00000e+00,-3.83275e-02,8.24047e-01,1.42781e+00
7.34700e+02,4.02095e+01,0.00000e+00,-1.21042e-01,8.23168e-01,1.43090e+00
8.33800e+02,3.74734e+00,0.00000e+00,1.06864e-01,7.48536e-01,1.30090e+00
8.33800e+02,1.57714e+01,0.00000e+00,3.73395e-02,7.49345e-01,1.29844e+00
8.33800e+02,2.77955e+01,0.00000e+00,-3.21852e-02,7.49345e-01,1.29830e+00
8.33800e+02,3.98196e+01,0.00000e+00,-1.01710e-01,7.48552e-01,1.30051e+00
9.30700e+02,3.71145e+00,0.00000e+00,8.87953e-02,6.75460e-01,1.17330e+00
9.30700e+02,1.56204e+01,0.00000e+00,3.10434e-02,6.76185e-01,1.17160e+00
9.30700e+02,2.75293e+01,0.00000e+00,-2.67086e-02,6.76185e-01,1.17149e+00
9.30700e+02,3.94382e+01,0.00000e+00,-8.44606e-02,6.75474e-01,1.17300e+00
1.02500e+03,3.67653e+00,0.00000e+00,7.28507e-02,6.04828e-01,1.05012e+00
1.02500e+03,1.54734e+01,0.00000e+00,2.54839e-02,6.05473e-01,1.04902e+00
1.02500e+03,2.72703e+01,0.00000e+00,-2.18829e-02,6.05473e-01,1.04894e+00
1.02500e+03,3.90671e+01,0.00000e+00,-6.92497e-02,6.04840e-01,1.04990e+00
1.11650e+03,3.64264e+00,0.00000e+00,5.89387e-02,5.35791e-01,9.29887e-01
1.11650e+03,1.53308e+01,0.00000e+00,2.06299e-02,5.36360e-01,9.29232e-01
1.11650e+03,2.70189e+01,0.00000e+00,-1.76788e-02,5.36360e-01,9.29171e-01
1.11650e+03,3.87070e+01,0.00000e+00,-5.59876e-02,5.35802e-01,9.29723e-01
1.20500e+03,3.54704e+00,0.00000e+00,6.72777e-02,4.74665e-01,8.24892e-01
1.20500e+03,1.49284e+01,0.00000e+00,2.36669e-02,4.75366e-01,8.23699e-01
1.20500e+03,2.63098e+01,0.00000e+00,-1.99439e-02,4.75366e-01,8.23600e-01
1.20500e+03,3.76912e+01,0.00000e+00,-6.35547e-02,4.74684e-01,8.24629e-01
1.29010e+03,3.41832e+00,0.00000e+00,5.45256e-02,4.27564e-01,7.42567e-01
1.29010e+03,1.43867e+01,0.00000e+00,1.91866e-02,4.28174e-01,7.41868e-01
1.29010e+03,2.53550e+01,0.00000e+00,-1.61524e-02,4.28174e-01,7.41796e-01
1.29010e+03,3.63234e+01,0.00000e+00,-5.14913e-02,4.27580e-01,7.42377e-01
1.37170e+03,3.29489e+00,0.00000e+00,4.33509e-02,3.80251e-01,6.60040e-01
1.37170e+03,1.38672e+01,0.00000e+00,1.52593e-02,3.80777e-01,6.59701e-01
1.37170e+03,2.44395e+01,0.00000e+00,-1.28323e-02,3.80777e-01,6.59650e-01
1.37170e+03,3.50118e+01,0.00000e+00,-4.09239e-02,3.80265e-01,6.59908e-01
1.44960e+03,3.17706e+00,0.00000e+00,3.37175e-02,3.34096e-01,5.79653e-01
1.44960e+03,1.33713e+01,0.00000e+00,1.18722e-02,3.34543e-01,5.79567e-01
1.44960e+03,2.35655e+01,0.00000e+00,-9.97303e-03,3.34543e-01,5.79531e-01
1.44960e+03,3.37597e+01,0.00000e+00,-3.18183e-02,3.34107e-01,5.79564e-01
1.52340e+03,3.06543e+00,0.00000e+00,2.55934e-02,2.88568e-01,5.00468e-01
1.52340e+03,1.29015e+01,0.00000e+00,9.01431e-03,2.88941e-01,5.00542e-01
1.52340e+03,2.27375e+01,0.00000e+00,-7.56476e-03,2.88941e-01,5.00518e-01
1.52340e+03,3.25736e+01,0.00000e+00,-2.41438e-02,2.88576e-01,5.00412e-01
1.59310e+03,2.96000e+00,0.00000e+00,1.88899e-02,2.44779e-01,4.24390e-01
1.59310e+03,1.24578e+01,0.00000e+00,6.65573e-03,2.45086e-01,4.24554e-01
1.59310e+03,2.19555e+01,0.00000e+00,-5.57841e-03,2.45086e-01,4.24538e-01
1.59310e+03,3.14533e+01,0.00000e+00,-1.78126e-02,2.44786e-01,4.24356e-01
1.65850e+03,2.86108e+00,0.00000e+00,1.35039e-02,2.03199e-01,3.52210e-01
1.65850e+03,1.20414e+01,0.00000e+00,4.76045e-03,2.03446e-01,3.52412e-01
1.65850e+03,2.12218e+01,0.00000e+00,-3.98297e-03,2.03446e-01,3.52402e-01
1.65850e+03,3.04021e+01,0.00000e+00,-1.27264e-02,2.03204e-01,3.52190e-01
1.71930e+03,2.76911e+00,0.00000e+00,9.31084e-03,1.64380e-01,2.84866e-01
1.71930e+03,1.16544e+01,0.00000e+00,3.28401e-03,1.64575e-01,2.85070e-01
1.71930e+03,2.05396e+01,0.00000e+00,-2.74282e-03,1.64575e-01,2.85065e-01
1.71930e+03,2.94249e+01,0.00000e+00,-8.76965e-03,1.64384e-01,2.84856e-01
1.77540e+03,2.60964e+00,0.00000e+00,1.11039e-02,2.17598e-01,3.77054e-01
1.77540e+03,1.09832e+01,0.00000e+00,3.95895e-03,2.17861e-01,3.77367e-01
1.77540e+03,1.93567e+01,0.00000e+00,-3.18605e-03,2.17861e-01,3.77360e-01
1.77540e+03,2.77303e+01,0.00000e+00,-1.03310e-02,2.17608e-01,3.77050e-01
1.82660e+03,2.38179e+00,0.00000e+00,7.57231e-03,1.79851e-01,3.11603e-01
1.82660e+03,1.00242e+01,0.00000e+00,2.70030e-03,1.80051e-01,3.11869e-01
1.82660e+03,1.76667e+01,0.00000e+00,-2.17170e-03,1.80051e-01,3.11865e-01
1.82660e+03,2.53092e+01,0.00000e+00,-7.04370e-03,1.79858e-01,3.11603e-01
1.87280e+03,2.17619e+00,0.00000e+00,4.86228e-03,1.43824e-01,2.49158e-01
1.87280e+03,9.15894e+00,0.00000e+00,1.73698e-03,1.43970e-01,2.49370e-01
1.87280e+03,1.61417e+01,0.00000e+00,-1.38831e-03,1.43970e-01,2.49368e-01
1.87280e+03,2.31244e+01,0.00000e+00,-4.51361e-03,1.43829e-01,2.49159e-01
1.91380e+03,1.99374e+00,0.00000e+00,2.89371e-03,1.10434e-01,1.91298e-01
1.91380e+03,8.39104e+00,0.00000e+00,1.03734e-03,1.10536e-01,1.91458e-01
1.91380e+03,1.47883e+01,0.00000e+00,-8.19036e-04,1.10536e-01,1.91456e-01
1.91380e+03,2.11856e+01,0.00000e+00,-2.67541e-03,1.10437e-01,1.91301e-01
1.94970e+03,1.83398e+00,0.00000e+00,1.55279e-03,7.99580e-02,1.38500e-01
1.94970e+03,7.71865e+00,0.00000e+00,5.59774e-04,8.00261e-02,1.38610e-01
1.94970e+03,1.36033e+01,0.00000e+00,-4.33240e-04,8.00261e-02,1.38610e-01
1.94970e+03,1.94880e+01,0.00000e+00,-1.42625e-03,7.99599e-02,1.38502e-01
1.98010e+03,1.69869e+00,0.00000e+00,7.28936e-04,5.35159e-02,9.26952e-02
1.98010e+03,7.14927e+00,0.00000e+00,2.65087e-04,5.35577e-02,9.27651e-02
1.98010e+03,1.25999e+01,0.00000e+00,-1.98762e-04,5.35577e-02,9.27649e-02
1.98010e+03,1.80504e+01,0.00000e+00,-6.62612e-04,5.35170e-02,9.26966e-02
2.00520e+03,1.58699e+00,0.00000e+00,2.80246e-04,3.18638e-02,5.51905e-02
2.00520e+03,6.67917e+00,0.00000e+00,1.03269e-04,3.18867e-02,5.52294e-02
2.00520e+03,1.17713e+01,0.00000e+00,-7.37083e-05,3.18867e-02,5.52294e-02
2.00520e+03,1.68635e+01,0.00000e+00,-2.50685e-04,3.18644e-02,5.51913e-02
2.02480e+03,1.49977e+00,0.00000e+00,7.97166e-05,1.58473e-02,2.74484e-02
2.02480e+03,6.31207e+00,0.00000e+00,2.99881e-05,1.58577e-02,2.74664e-02
2.02480e+03,1.11244e+01,0.00000e+00,-1.97404e-05,1.58577e-02,2.74663e-02
2.02480e+03,1.59367e+01,0.00000e+00,-6.94689e-05,1.58475e-02,2.74488e-02
2.03880e+03,1.43746e+00,0.00000e+00,1.40148e-05,5.76322e-03,9.98219e-03
2.03880e+03,6.04986e+00,0.00000e+00,5.47019e-06,5.76666e-03,9.98815e-03
2.03880e+03,1.06622e+01,0.00000e+00,-3.07442e-06,5.76666e-03,9.98815e-03
2.03880e+03,1.52746e+01,0.00000e+00,-1.16190e-05,5.76329e-03,9.98232e-03
2.04720e+03,1.40008e+00,0.00000e+00,1.75731e-06,9.92684e-04,1.71938e-03
2.04720e+03,5.89253e+00,0.00000e+00,7.29126e-07,9.93187e-04,1.72025e-03
2.04720e+03,1.03850e+01,0.00000e+00,-2.99057e-07,9.93187e-04,1.72025e-03
2.04720e+03,1.48774e+01,0.00000e+00,-1.32724e-06,9.92695e-04,1.71940e-03
2.05000e+03,1.38762e+00,0.00000e+00,0.00000e+00,0.00000e+00,0.00000e+00
2.05000e+03,5.84009e+00,0.00000e+00,0.00000e+00,0.00000e+00,0.00000e+00
2.05000e+03,1.02925e+01,0.00000e+00,0.00000e+00,0.00000e+00,0.00000e+00
2.05000e+03,1.47450e+01,0.00000e+00,0.00000e+00,0.00000e+00,0.00000e+00
MESA INFERIOR 
--------------------------------------------------------------------------------------------------------------------------------------------------------------------------------------------------------------------------------------------------------------------------------------------------------------------------------------------------------------------------------
X,Y,Z,Sigma,Von Mises
0.00000e+00,4.05613e+00,0.00000e+00,0.00000e+00,0.00000e+00
1.07300e+02,4.01639e+00,0.00000e+00,0.00000e+00,0.00000e+00
2.14300e+02,3.97676e+00,0.00000e+00,0.00000e+00,0.00000e+00
3.20700e+02,3.93736e+00,0.00000e+00,0.00000e+00,0.00000e+00
4.26200e+02,3.89829e+00,0.00000e+00,0.00000e+00,0.00000e+00
5.30600e+02,3.85963e+00,0.00000e+00,0.00000e+00,0.00000e+00
6.33500e+02,3.82152e+00,0.00000e+00,0.00000e+00,0.00000e+00
7.34700e+02,3.78404e+00,0.00000e+00,0.00000e+00,0.00000e+00
8.33800e+02,3.74734e+00,0.00000e+00,0.00000e+00,0.00000e+00
9.30700e+02,3.71145e+00,0.00000e+00,0.00000e+00,0.00000e+00
1.02500e+03,3.67653e+00,0.00000e+00,0.00000e+00,0.00000e+00
1.11650e+03,3.64264e+00,0.00000e+00,0.00000e+00,0.00000e+00
1.20500e+03,3.54704e+00,0.00000e+00,0.00000e+00,0.00000e+00
1.29010e+03,3.41832e+00,0.00000e+00,0.00000e+00,0.00000e+00
1.37170e+03,3.29489e+00,0.00000e+00,0.00000e+00,0.00000e+00
1.44960e+03,3.17706e+00,0.00000e+00,0.00000e+00,0.00000e+00
1.52340e+03,3.06543e+00,0.00000e+00,0.00000e+00,0.00000e+00
1.59310e+03,2.96000e+00,0.00000e+00,0.00000e+00,0.00000e+00
1.65850e+03,2.86108e+00,0.00000e+00,0.00000e+00,0.00000e+00
1.71930e+03,2.76911e+00,0.00000e+00,0.00000e+00,0.00000e+00
1.77540e+03,2.60964e+00,0.00000e+00,0.00000e+00,0.00000e+00
1.82660e+03,2.38179e+00,0.00000e+00,0.00000e+00,0.00000e+00
1.87280e+03,2.17619e+00,0.00000e+00,0.00000e+00,0.00000e+00
1.91380e+03,1.99374e+00,0.00000e+00,0.00000e+00,0.00000e+00
1.94970e+03,1.83398e+00,0.00000e+00,0.00000e+00,0.00000e+00
1.98010e+03,1.69869e+00,0.00000e+00,0.00000e+00,0.00000e+00
2.00520e+03,1.58699e+00,0.00000e+00,0.00000e+00,0.00000e+00
2.02480e+03,1.49977e+00,0.00000e+00,0.00000e+00,0.00000e+00
2.03880e+03,1.43746e+00,0.00000e+00,0.00000e+00,0.00000e+00
2.04720e+03,1.40008e+00,0.00000e+00,0.00000e+00,0.00000e+00
2.05000e+03,1.38762e+00,0.00000e+00,0.00000e+00,0.00000e+00
--------------------------------------------------------------------------------------------------------------------------------------------------------------------------------------------------------------------------------------------------------------------------------------------------------------------------------------------------------------------------------

MESA SUPERIOR 
--------------------------------------------------------------------------------------------------------------------------------------------------------------------------------------------------------------------------------------------------------------------------------------------------------------------------------------------------------------------------------
X,Y,Z,Sigma,Von Mises
0.00000e+00,4.31008e+01,0.00000e+00,0.00000e+00,0.00000e+00
1.07300e+02,4.26785e+01,0.00000e+00,0.00000e+00,0.00000e+00
2.14300e+02,4.22575e+01,0.00000e+00,0.00000e+00,0.00000e+00
3.20700e+02,4.18388e+01,0.00000e+00,0.00000e+00,0.00000e+00
4.26200e+02,4.14236e+01,0.00000e+00,0.00000e+00,0.00000e+00
5.30600e+02,4.10127e+01,0.00000e+00,0.00000e+00,0.00000e+00
6.33500e+02,4.06078e+01,0.00000e+00,0.00000e+00,0.00000e+00
7.34700e+02,4.02095e+01,0.00000e+00,0.00000e+00,0.00000e+00
8.33800e+02,3.98196e+01,0.00000e+00,0.00000e+00,0.00000e+00
9.30700e+02,3.94382e+01,0.00000e+00,0.00000e+00,0.00000e+00
1.02500e+03,3.90671e+01,0.00000e+00,0.00000e+00,0.00000e+00
1.11650e+03,3.87070e+01,0.00000e+00,0.00000e+00,0.00000e+00
1.20500e+03,3.76912e+01,0.00000e+00,0.00000e+00,0.00000e+00
1.29010e+03,3.63234e+01,0.00000e+00,0.00000e+00,0.00000e+00
1.37170e+03,3.50118e+01,0.00000e+00,0.00000e+00,0.00000e+00
1.44960e+03,3.37597e+01,0.00000e+00,0.00000e+00,0.00000e+00
1.52340e+03,3.25736e+01,0.00000e+00,0.00000e+00,0.00000e+00
1.59310e+03,3.14533e+01,0.00000e+00,0.00000e+00,0.00000e+00
1.65850e+03,3.04021e+01,0.00000e+00,0.00000e+00,0.00000e+00
1.71930e+03,2.94249e+01,0.00000e+00,0.00000e+00,0.00000e+00
1.77540e+03,2.77303e+01,0.00000e+00,0.00000e+00,0.00000e+00
1.82660e+03,2.53092e+01,0.00000e+00,0.00000e+00,0.00000e+00
1.87280e+03,2.31244e+01,0.00000e+00,0.00000e+00,0.00000e+00
1.91380e+03,2.11856e+01,0.00000e+00,0.00000e+00,0.00000e+00
1.94970e+03,1.94880e+01,0.00000e+00,0.00000e+00,0.00000e+00
1.98010e+03,1.80504e+01,0.00000e+00,0.00000e+00,0.00000e+00
2.00520e+03,1.68635e+01,0.00000e+00,0.00000e+00,0.00000e+00
2.02480e+03,1.59367e+01,0.00000e+00,0.00000e+00,0.00000e+00
2.03880e+03,1.52746e+01,0.00000e+00,0.00000e+00,0.00000e+00
2.04720e+03,1.48774e+01,0.00000e+00,0.00000e+00,0.00000e+00
2.05000e+03,1.47450e+01,0.00000e+00,0.00000e+00,0.00000e+00
--------------------------------------------------------------------------------------------------------------------------------------------------------------------------------------------------------------------------------------------------------------------------------------------------------------------------------------------------------------------------------

