----------------------------------------------
LOG MATLAB Estruturas Copyright Charles 2020
----------------------------------------------

VISÃO GERAL POR SEÇÃO
--------------------------------------------------------------------------------------------------------------------------------------------------------------------------------------------------------------------------------------------------------------------------------------------------------------------------------------------------------------------------------
SEÇÃO,POSIÇÃO .25c,, ESFORÇOS,,,,,INÉRCIAS,,,,CENTROS GEOMÉTRICOS,,,DEFLEXÇOES,,,,,TENSÕES NORMAIS,,,,,,,,TENSÕES CISALHAMENTO,,,TENSÕES DE VON MISES
NUMERO,X,Y,MFz,MFy,MTx,Vz,Vy,EIzz,EIyy,EIzy,GJ,Zcg,Ycg,Zcc,Z,Y,Z´,Y´,Theta,Sigma_Chap+,Sigma_Chap-,Sigma_Lam+,Sigma_Lam-,Sigma_Mesa+,Sigma_Mesa-,Sigma_Alma+,Sigma_Alma-,  Tau_Alma,  Tau_Chap,  Tau_Lam, Von Mises_Alma,  Von Mises_Chap,  Von Mises_Lam
--------------------------------------------------------------------------------------------------------------------------------------------------------------------------------------------------------------------------------------------------------------------------------------------------------------------------------------------------------------------------------
01,0.00000e+00,0.00000e+00,2.08326e+05,-3.07181e+04,-8.68201e+03,-3.85959e+01,2.37239e+02,2.43720e+09,3.02407e+09,6.88619e+08,3.53358e+07,8.66395e+01,2.17434e+01,7.43235e+01,0.00000e+00,0.00000e+00,0.00000e+00,0.00000e+00,0.00000e+00,3.56517e+00,-2.74651e+00,0.00000e+00,0.00000e+00,1.38049e+02,-1.51286e+02,1.72697e-01,-1.89257e-01,6.97101e-01,6.13319e-01,0.00000e+00,1.22059e+00,3.62244e+00,0.00000e+00
02,1.07300e+02,0.00000e+00,1.83696e+05,-2.67212e+04,-8.06831e+03,-3.59029e+01,2.21846e+02,2.38487e+09,2.93941e+09,6.69313e+08,3.43686e+07,8.58583e+01,2.15452e+01,7.36225e+01,-1.73007e-01,5.16464e-01,-3.22473e-03,9.62655e-03,-2.57766e-02,3.17594e+00,-2.45051e+00,0.00000e+00,0.00000e+00,1.23272e+02,-1.34902e+02,1.54211e-01,-1.68760e-01,6.58938e-01,5.78800e-01,0.00000e+00,1.15225e+00,3.23394e+00,0.00000e+00
03,2.14300e+02,0.00000e+00,1.60764e+05,-2.30226e+04,-7.47021e+03,-3.32309e+01,2.06789e+02,2.33333e+09,2.85653e+09,6.50412e+08,3.34155e+07,8.50782e+01,2.13473e+01,7.29231e+01,-6.72054e-01,2.00726e+00,-6.10327e-03,1.82388e-02,-5.02964e-02,2.80677e+00,-2.17059e+00,0.00000e+00,0.00000e+00,1.09276e+02,-1.19395e+02,1.36703e-01,-1.49361e-01,6.20869e-01,5.44365e-01,0.00000e+00,1.08433e+00,2.86598e+00,0.00000e+00
04,3.20700e+02,0.00000e+00,1.39567e+05,-1.96324e+04,-6.88815e+03,-3.04950e+01,1.91648e+02,2.28273e+09,2.77562e+09,6.31961e+08,3.25041e+07,8.43013e+01,2.11503e+01,7.22271e+01,-1.45662e+00,4.35347e+00,-8.64426e-03,2.58629e-02,-7.34635e-02,2.45935e+00,-1.90763e+00,0.00000e+00,0.00000e+00,9.61126e+01,-1.04825e+02,1.20235e-01,-1.31135e-01,5.81837e-01,5.09628e-01,0.00000e+00,1.01499e+00,2.51977e+00,0.00000e+00
05,4.26200e+02,0.00000e+00,1.20134e+05,-1.65578e+04,-6.32225e+03,-2.77904e+01,1.76753e+02,2.23318e+09,2.69686e+09,6.14002e+08,3.16190e+07,8.35299e+01,2.09548e+01,7.15366e+01,-2.48552e+00,7.43410e+00,-1.08609e-02,3.25375e-02,-9.51894e-02,2.13531e+00,-1.66257e+00,0.00000e+00,0.00000e+00,8.38300e+01,-9.12482e+01,1.04870e-01,-1.14150e-01,5.42647e-01,4.74898e-01,0.00000e+00,9.45617e-01,2.19687e+00,0.00000e+00
06,5.30600e+02,0.00000e+00,1.02444e+05,-1.37952e+04,-5.77298e+03,-2.51343e+01,1.62149e+02,2.18477e+09,2.62035e+09,5.96558e+08,3.07599e+07,8.27655e+01,2.07610e+01,7.08528e+01,-3.71916e+00,1.11327e+01,-1.27720e-02,3.83170e-02,-1.15424e-01,1.83539e+00,-1.43577e+00,0.00000e+00,0.00000e+00,7.24482e+01,-7.86859e+01,9.06315e-02,-9.84347e-02,5.03414e-01,4.40244e-01,0.00000e+00,8.76392e-01,1.89799e+00,0.00000e+00
07,6.33500e+02,0.00000e+00,8.64910e+04,-1.13425e+04,-5.24472e+03,-2.25361e+01,1.47913e+02,2.13765e+09,2.54632e+09,5.79679e+08,2.99334e+07,8.20110e+01,2.05698e+01,7.01785e+01,-5.11694e+00,1.53295e+01,-1.43958e-02,4.32532e-02,-1.34095e-01,1.56064e+00,-1.22780e+00,0.00000e+00,0.00000e+00,6.19988e+01,-6.71731e+01,7.75595e-02,-8.40325e-02,4.64407e-01,4.05961e-01,0.00000e+00,8.07761e-01,1.62419e+00,0.00000e+00
08,7.34700e+02,0.00000e+00,7.22226e+04,-9.18982e+03,-4.73727e+03,-2.00073e+01,1.34071e+02,2.09189e+09,2.47483e+09,5.63383e+08,2.91395e+07,8.12680e+01,2.03815e+01,6.95148e+01,-6.64266e+00,1.99173e+01,-1.57566e-02,4.74153e-02,-1.51186e-01,1.31167e+00,-1.03862e+00,0.00000e+00,0.00000e+00,5.24821e+01,-5.67098e+01,6.56542e-02,-7.09430e-02,4.25714e-01,3.72094e-01,0.00000e+00,7.39861e-01,1.37562e+00,0.00000e+00
09,8.33800e+02,0.00000e+00,5.95995e+04,-7.32753e+03,-4.25000e+03,-1.75767e+01,1.20685e+02,2.04762e+09,2.40610e+09,5.47713e+08,2.83758e+07,8.05393e+01,2.01969e+01,6.88645e+01,-8.25969e+00,2.47873e+01,-1.68778e-02,5.08693e-02,-1.66663e-01,1.08835e+00,-8.68382e-01,0.00000e+00,0.00000e+00,4.39079e+01,-4.73056e+01,5.49281e-02,-5.91785e-02,3.87508e-01,3.38694e-01,0.00000e+00,6.72974e-01,1.15339e+00,0.00000e+00
10,9.30700e+02,0.00000e+00,4.85324e+04,-5.73678e+03,-3.77994e+03,-1.52560e+01,1.07738e+02,2.00486e+09,2.34009e+09,5.32666e+08,2.76369e+07,7.98259e+01,2.00162e+01,6.82283e+01,-9.93921e+00,2.98535e+01,-1.77873e-02,5.36949e-02,-1.80547e-01,8.90082e-01,-7.16795e-01,0.00000e+00,0.00000e+00,3.62524e+01,-3.89317e+01,4.53511e-02,-4.87029e-02,3.49746e-01,3.05632e-01,0.00000e+00,6.07004e-01,9.56047e-01,0.00000e+00
11,1.02500e+03,0.00000e+00,3.89525e+04,-4.39907e+03,-3.32576e+03,-1.31155e+01,9.54409e+01,1.96375e+09,2.27699e+09,5.18282e+08,2.69001e+07,7.91308e+01,1.98401e+01,6.76088e+01,-1.16506e+01,3.50238e+01,-1.85103e-02,5.59631e-02,-1.92825e-01,7.16455e-01,-5.83408e-01,0.00000e+00,0.00000e+00,2.95043e+01,-3.15719e+01,3.69094e-02,-3.94958e-02,3.13004e-01,2.73062e-01,0.00000e+00,5.42929e-01,7.83256e-01,0.00000e+00
12,1.11650e+03,0.00000e+00,3.07664e+04,-3.29128e+03,-2.88535e+03,-1.10985e+01,8.34897e+01,1.92432e+09,2.21681e+09,5.04566e+08,2.61828e+07,7.84554e+01,1.96691e+01,6.70073e+01,-1.33701e+01,4.02262e+01,-1.90734e-02,5.77502e-02,-2.03523e-01,5.66500e-01,-4.67678e-01,0.00000e+00,0.00000e+00,2.36340e+01,-2.51888e+01,2.95658e-02,-3.15107e-02,2.76483e-01,2.40617e-01,0.00000e+00,4.79351e-01,6.33360e-01,0.00000e+00
13,1.20500e+03,0.00000e+00,2.38757e+04,-2.38928e+03,-2.46443e+03,-9.28561e+00,7.22340e+01,1.32148e+09,1.95268e+09,4.45208e+08,2.38393e+07,7.39632e+01,1.86188e+01,6.42675e+01,-1.50801e+01,4.54104e+01,-1.95706e-02,5.94067e-02,-2.12973e-01,5.92972e-01,-5.40830e-01,0.00000e+00,0.00000e+00,2.65919e+01,-2.82150e+01,3.32661e-02,-3.52965e-02,2.43004e-01,2.41896e-01,0.00000e+00,4.21688e-01,6.56929e-01,0.00000e+00
14,1.29010e+03,0.00000e+00,1.81739e+04,-1.67108e+03,-2.08468e+03,-7.59325e+00,6.17664e+01,1.21619e+09,1.75686e+09,4.00479e+08,2.15774e+07,7.15330e+01,1.79989e+01,6.20379e+01,-1.67645e+01,5.05320e+01,-2.00173e-02,6.09602e-02,-2.21483e-01,4.68851e-01,-4.32249e-01,0.00000e+00,0.00000e+00,2.12576e+01,-2.24279e+01,2.65929e-02,-2.80569e-02,2.16950e-01,2.15522e-01,0.00000e+00,3.76224e-01,5.48143e-01,0.00000e+00
15,1.37170e+03,0.00000e+00,1.35285e+04,-1.11621e+03,-1.74937e+03,-6.00656e+00,5.20929e+01,1.12002e+09,1.58132e+09,3.60391e+08,1.95729e+07,6.91884e+01,1.74013e+01,5.98941e+01,-1.84120e+01,5.55559e+01,-2.03618e-02,6.21750e-02,-2.29071e-01,3.61480e-01,-3.38400e-01,0.00000e+00,0.00000e+00,1.66229e+01,-1.74246e+01,2.07950e-02,-2.17979e-02,1.91211e-01,1.90159e-01,0.00000e+00,3.31401e-01,4.53266e-01,0.00000e+00
16,1.44960e+03,0.00000e+00,9.81234e+03,-7.03900e+02,-1.45244e+03,-4.57908e+00,4.33150e+01,1.03251e+09,1.42458e+09,3.24609e+08,1.77861e+07,6.69366e+01,1.68278e+01,5.78421e+01,-2.00082e+01,6.04353e+01,-2.06187e-02,6.30975e-02,-2.35733e-01,2.70675e-01,-2.58410e-01,0.00000e+00,0.00000e+00,1.26666e+01,-1.31808e+01,1.58457e-02,-1.64890e-02,1.66206e-01,1.65846e-01,0.00000e+00,2.87934e-01,3.71486e-01,0.00000e+00
17,1.52340e+03,0.00000e+00,6.91351e+03,-4.12933e+02,-1.18699e+03,-3.30620e+00,3.52441e+01,9.53418e+08,1.28561e+09,2.92889e+08,1.62142e+07,6.47909e+01,1.62818e+01,5.58929e+01,-2.15367e+01,6.51168e+01,-2.08027e-02,6.37731e-02,-2.41448e-01,1.96290e-01,-1.91986e-01,0.00000e+00,0.00000e+00,9.37292e+00,-9.67534e+00,1.17254e-02,-1.21037e-02,1.41444e-01,1.42086e-01,0.00000e+00,2.45024e-01,3.00771e-01,0.00000e+00
18,1.59310e+03,0.00000e+00,4.71210e+03,-2.20752e+02,-9.49433e+02,-2.20833e+00,2.79240e+01,8.82075e+08,1.16263e+09,2.64824e+08,1.48279e+07,6.27531e+01,1.57637e+01,5.40474e+01,-2.29910e+01,6.95784e+01,-2.09293e-02,6.42504e-02,-2.46231e-01,1.37282e-01,-1.38086e-01,0.00000e+00,0.00000e+00,6.70483e+00,-6.86250e+00,8.38763e-03,-8.58486e-03,1.17246e-01,1.18938e-01,0.00000e+00,2.03097e-01,2.39748e-01,0.00000e+00
19,1.65850e+03,0.00000e+00,3.09962e+03,-1.05212e+02,-7.35071e+02,-1.32499e+00,2.13875e+01,8.18049e+08,1.05434e+09,2.40117e+08,1.35942e+07,6.08309e+01,1.52752e+01,5.23116e+01,-2.43625e+01,7.37910e+01,-2.10124e-02,6.45738e-02,-2.50093e-01,9.24685e-02,-9.58950e-02,0.00000e+00,0.00000e+00,4.62235e+00,-4.69139e+00,5.78248e-03,-5.86884e-03,9.38848e-02,9.63000e-02,0.00000e+00,1.62625e-01,1.86682e-01,0.00000e+00
20,1.71930e+03,0.00000e+00,1.97403e+03,-4.48387e+01,-5.41582e+02,-6.60980e-01,1.56383e+01,7.61023e+08,9.59670e+08,2.18523e+08,1.24889e+07,5.90349e+01,1.48192e+01,5.06943e+01,-2.56417e+01,7.77234e+01,-2.10645e-02,6.47830e-02,-2.53055e-01,6.03303e-02,-6.42709e-02,0.00000e+00,0.00000e+00,3.07691e+00,-3.10041e+00,3.84917e-03,-3.87856e-03,7.16215e-02,7.42076e-02,0.00000e+00,1.24059e-01,1.39966e-01,0.00000e+00
21,1.77540e+03,0.00000e+00,1.23134e+03,-1.89313e+01,-3.69223e+02,-2.62633e-01,1.08394e+01,3.98519e+08,7.29057e+08,1.66652e+08,8.68453e+06,5.21005e+01,1.31900e+01,4.07358e+01,-2.68245e+01,8.13627e+01,-2.11063e-02,6.49574e-02,-2.55464e-01,6.86700e-02,-7.57735e-02,0.00000e+00,0.00000e+00,3.59277e+00,-3.58521e+00,4.49449e-03,-4.48504e-03,8.64120e-02,6.67572e-02,0.00000e+00,1.49677e-01,1.32192e-01,0.00000e+00
22,1.82660e+03,0.00000e+00,7.72739e+02,-1.08048e+01,-2.30479e+02,-5.48106e-02,7.07452e+00,3.22692e+08,5.63581e+08,1.28741e+08,6.74011e+06,4.80842e+01,1.21552e+01,3.73499e+01,-2.79061e+01,8.46925e+01,-2.11430e-02,6.51128e-02,-2.57427e-01,4.83335e-02,-5.33686e-02,0.00000e+00,0.00000e+00,2.52986e+00,-2.52429e+00,3.16481e-03,-3.15785e-03,6.27416e-02,4.78642e-02,0.00000e+00,1.08677e-01,9.43825e-02,0.00000e+00
23,1.87280e+03,0.00000e+00,4.99937e+02,-8.11048e+00,-1.36113e+02,-6.18260e-02,4.73510e+00,2.62353e+08,4.36581e+08,9.96683e+07,5.09232e+06,4.43938e+01,1.12070e+01,3.42731e+01,-2.88835e+01,8.77032e+01,-2.11689e-02,6.52222e-02,-2.58835e-01,3.50671e-02,-3.85081e-02,0.00000e+00,0.00000e+00,1.82741e+00,-1.82773e+00,2.28606e-03,-2.28646e-03,4.57643e-02,3.34442e-02,0.00000e+00,7.92698e-02,6.65016e-02,0.00000e+00
24,1.91380e+03,0.00000e+00,3.05714e+02,-5.55472e+00,-1.36113e+02,-6.28451e-02,4.73918e+00,2.14932e+08,3.40501e+08,7.76906e+07,4.05058e+06,4.10625e+01,1.03532e+01,3.15244e+01,-2.97518e+01,9.03788e+01,-2.11867e-02,6.52971e-02,-2.60072e-01,2.39375e-02,-2.61373e-02,0.00000e+00,0.00000e+00,1.24204e+00,-1.24480e+00,1.55377e-03,-1.55723e-03,5.12299e-02,3.77675e-02,0.00000e+00,8.87342e-02,6.90944e-02,0.00000e+00
25,1.94970e+03,0.00000e+00,1.57371e+02,-2.78627e+00,-9.27465e+01,-9.13860e-02,3.52503e+00,1.77937e+08,2.68420e+08,6.12136e+07,3.15648e+06,3.80992e+01,9.59536e+00,2.91026e+01,-3.05126e+01,9.27238e+01,-2.11975e-02,6.53423e-02,-2.61202e-01,1.36447e-02,-1.48768e-02,0.00000e+00,0.00000e+00,7.07272e-01,-7.09065e-01,8.84785e-04,-8.87028e-04,4.15163e-02,2.98131e-02,0.00000e+00,7.19090e-02,5.31699e-02,0.00000e+00
26,1.98010e+03,0.00000e+00,6.94634e+01,-6.08964e-01,-5.71588e+01,-5.18579e-02,2.25839e+00,1.49784e+08,2.15653e+08,4.91590e+07,2.54638e+06,3.55543e+01,8.94582e+00,2.70403e+01,-3.11571e+01,9.47106e+01,-2.12028e-02,6.53646e-02,-2.61990e-01,6.54929e-03,-7.26345e-03,0.00000e+00,0.00000e+00,3.43793e-01,-3.42793e-01,4.30080e-04,-4.28828e-04,2.90697e-02,2.07774e-02,0.00000e+00,5.03505e-02,3.65051e-02,0.00000e+00
27,2.00520e+03,0.00000e+00,2.50651e+01,2.01714e-01,-3.25327e+01,-1.27379e-02,1.27933e+00,1.28656e+08,1.77484e+08,4.04436e+07,2.13016e+06,3.34272e+01,8.40385e+00,2.53292e+01,-3.16893e+01,9.63513e+01,-2.12048e-02,6.53735e-02,-2.62463e-01,2.52039e-03,-2.89760e-03,0.00000e+00,0.00000e+00,1.35698e-01,-1.33877e-01,1.69756e-04,-1.67478e-04,1.80034e-02,1.30690e-02,0.00000e+00,3.11828e-02,2.27622e-02,0.00000e+00
28,2.02480e+03,0.00000e+00,6.67696e+00,2.29976e-01,-1.60532e+01,9.85397e-03,5.97016e-01,1.13447e+08,1.50904e+08,3.43767e+07,1.86316e+06,3.17493e+01,7.97693e+00,2.39876e+01,-3.21049e+01,9.76327e+01,-2.12054e-02,6.53762e-02,-2.62697e-01,7.01730e-04,-8.54025e-04,0.00000e+00,0.00000e+00,3.91855e-02,-3.80212e-02,4.90204e-05,-4.75639e-05,9.18714e-03,6.93572e-03,0.00000e+00,1.59126e-02,1.20322e-02,0.00000e+00
29,2.03880e+03,0.00000e+00,1.09216e+00,8.30147e-02,-5.75699e+00,1.11406e-02,2.00812e-01,1.03260e+08,1.33576e+08,3.04229e+07,1.69203e+06,3.05414e+01,7.66993e+00,2.30264e+01,-3.24018e+01,9.85479e+01,-2.12055e-02,6.53767e-02,-2.62782e-01,1.22256e-04,-1.55603e-04,0.00000e+00,0.00000e+00,6.88583e-03,-6.50969e-03,8.61405e-06,-8.14351e-06,3.33244e-03,2.62216e-03,0.00000e+00,5.77196e-03,4.54320e-03,0.00000e+00
30,2.04720e+03,0.00000e+00,1.24375e-01,1.81122e-02,-1.06282e+00,4.31243e-03,2.96132e-02,9.74134e+07,1.23821e+08,2.81976e+07,1.66413e+06,2.98129e+01,7.48488e+00,2.24484e+01,-3.25799e+01,9.90971e+01,-2.12055e-02,6.53768e-02,-2.62799e-01,1.47614e-05,-2.02181e-05,0.00000e+00,0.00000e+00,8.38235e-04,-7.59269e-04,1.04862e-06,-9.49832e-07,5.49455e-04,4.84205e-04,0.00000e+00,9.51683e-04,8.38777e-04,0.00000e+00
31,2.05000e+03,0.00000e+00,0.00000e+00,0.00000e+00,0.00000e+00,0.00000e+00,0.00000e+00,5.74754e+07,1.08343e+08,2.47732e+07,NaN,2.74871e+01,6.96602e+00,2.15905e+01,-3.26393e+01,9.92802e+01,-2.12055e-02,6.53768e-02,-2.62799e-01,0.00000e+00,0.00000e+00,0.00000e+00,0.00000e+00,0.00000e+00,0.00000e+00,0.00000e+00,0.00000e+00,0.00000e+00,0.00000e+00,0.00000e+00,0.00000e+00,0.00000e+00,0.00000e+00
--------------------------------------------------------------------------------------------------------------------------------------------------------------------------------------------------------------------------------------------------------------------------------------------------------------------------------------------------------------------------------

CHAPEADO 
--------------------------------------------------------------------------------------------------------------------------------------------------------------------------------------------------------------------------------------------------------------------------------------------------------------------------------------------------------------------------------
X,Y,Z,Sigma,Tau,Von Mises
0.00000e+00,4.31008e+01,0.00000e+00,-2.70367e+00,6.13319e-01,2.90488e+00
0.00000e+00,4.28837e+01,-3.27521e+00,-2.72379e+00,6.03081e-01,2.91721e+00
0.00000e+00,4.25950e+01,-6.55041e+00,-2.73441e+00,5.92594e-01,2.92070e+00
0.00000e+00,4.23033e+01,-9.82562e+00,-2.74465e+00,5.81868e-01,2.92384e+00
0.00000e+00,4.19484e+01,-1.31008e+01,-2.74651e+00,5.70924e-01,2.91911e+00
0.00000e+00,4.15787e+01,-1.63760e+01,-2.74642e+00,5.59778e-01,2.91254e+00
0.00000e+00,4.11605e+01,-1.96512e+01,-2.73990e+00,5.48445e-01,2.89990e+00
0.00000e+00,4.07187e+01,-2.29264e+01,-2.73025e+00,5.36942e-01,2.88430e+00
0.00000e+00,4.02378e+01,-2.62017e+01,-2.71543e+00,5.25284e-01,2.86380e+00
0.00000e+00,3.97249e+01,-2.94769e+01,-2.69637e+00,5.13487e-01,2.83926e+00
0.00000e+00,3.91766e+01,-3.27521e+01,-2.67263e+00,5.01565e-01,2.81028e+00
0.00000e+00,3.85857e+01,-3.60273e+01,-2.64324e+00,4.89535e-01,2.77591e+00
0.00000e+00,3.79511e+01,-3.93025e+01,-2.60806e+00,4.77412e-01,2.73601e+00
0.00000e+00,3.72545e+01,-4.25777e+01,-2.56468e+00,4.65217e-01,2.68828e+00
0.00000e+00,3.64976e+01,-4.58529e+01,-2.51331e+00,4.52975e-01,2.63292e+00
0.00000e+00,3.56687e+01,-4.91281e+01,-2.45239e+00,4.40702e-01,2.56843e+00
0.00000e+00,3.47420e+01,-5.24033e+01,-2.37853e+00,4.28442e-01,2.49161e+00
0.00000e+00,3.37474e+01,-5.56785e+01,-2.29569e+00,4.16204e-01,2.40621e+00
0.00000e+00,3.26000e+01,-5.89537e+01,-2.19259e+00,4.04054e-01,2.30157e+00
0.00000e+00,3.13892e+01,-6.22289e+01,-2.08111e+00,3.92020e-01,2.18907e+00
0.00000e+00,3.00018e+01,-6.55041e+01,-1.94624e+00,3.80132e-01,2.05459e+00
0.00000e+00,2.84730e+01,-6.87793e+01,-1.79264e+00,3.68490e-01,1.90287e+00
0.00000e+00,2.68002e+01,-7.20546e+01,-1.61997e+00,3.57114e-01,1.73404e+00
0.00000e+00,2.48857e+01,-7.53298e+01,-1.41530e+00,3.46045e-01,1.53698e+00
0.00000e+00,2.26913e+01,-7.86050e+01,-1.17356e+00,3.35418e-01,1.30948e+00
0.00000e+00,2.01805e+01,-8.18802e+01,-8.89908e-01,3.25361e-01,1.05334e+00
0.00000e+00,1.72108e+01,-8.51554e+01,-5.45488e-01,3.15957e-01,7.72686e-01
0.00000e+00,1.33989e+01,-8.84306e+01,-8.95403e-02,3.07667e-01,5.40365e-01
0.00000e+00,8.24350e+00,-9.17058e+01,5.44337e-01,3.02603e-01,7.55651e-01
0.00000e+00,-3.34020e+00,-9.49810e+01,2.02952e+00,3.04611e-01,2.09698e+00
0.00000e+00,-4.17620e+00,-9.49886e+01,2.14012e+00,3.10845e-01,2.20681e+00
0.00000e+00,-1.17928e+01,-9.15961e+01,3.19941e+00,3.22667e-01,3.24786e+00
0.00000e+00,-1.27149e+01,-8.82037e+01,3.37215e+00,3.31401e-01,3.42066e+00
0.00000e+00,-1.30332e+01,-8.48113e+01,3.46491e+00,3.40592e-01,3.51477e+00
0.00000e+00,-1.30814e+01,-8.14188e+01,3.52192e+00,3.50209e-01,3.57377e+00
0.00000e+00,-1.29264e+01,-7.80264e+01,3.55199e+00,3.60176e-01,3.60636e+00
0.00000e+00,-1.26437e+01,-7.46339e+01,3.56517e+00,3.70435e-01,3.62244e+00
0.00000e+00,-1.22328e+01,-7.12415e+01,3.56137e+00,3.80926e-01,3.62197e+00
0.00000e+00,-1.17438e+01,-6.78490e+01,3.54723e+00,3.91598e-01,3.61149e+00
0.00000e+00,-1.12094e+01,-6.44565e+01,3.52707e+00,4.02425e-01,3.59529e+00
0.00000e+00,-1.06068e+01,-6.10641e+01,3.49788e+00,4.13374e-01,3.57040e+00
0.00000e+00,-9.96142e+00,-5.76716e+01,3.46303e+00,4.24418e-01,3.54019e+00
0.00000e+00,-9.27449e+00,-5.42792e+01,3.42267e+00,4.35534e-01,3.50482e+00
0.00000e+00,-8.54615e+00,-5.08867e+01,3.37683e+00,4.46697e-01,3.46433e+00
0.00000e+00,-7.79185e+00,-4.74943e+01,3.32755e+00,4.57891e-01,3.42076e+00
0.00000e+00,-7.00429e+00,-4.41018e+01,3.27386e+00,4.69098e-01,3.37318e+00
0.00000e+00,-6.19544e+00,-4.07094e+01,3.21736e+00,4.80299e-01,3.32317e+00
0.00000e+00,-5.36748e+00,-3.73169e+01,3.15833e+00,4.91485e-01,3.27104e+00
0.00000e+00,-4.52248e+00,-3.39245e+01,3.09704e+00,5.02641e-01,3.21708e+00
0.00000e+00,-3.67026e+00,-3.05320e+01,3.03479e+00,5.13760e-01,3.16256e+00
0.00000e+00,-2.80686e+00,-2.71396e+01,2.97106e+00,5.24836e-01,3.10702e+00
0.00000e+00,-1.94159e+00,-2.37472e+01,2.90709e+00,5.35864e-01,3.05165e+00
0.00000e+00,-1.06964e+00,-2.03547e+01,2.84223e+00,5.46841e-01,2.99589e+00
0.00000e+00,-1.97780e-01,-1.69622e+01,2.77738e+00,5.57762e-01,2.94060e+00
0.00000e+00,6.70785e-01,-1.35698e+01,2.71297e+00,5.68629e-01,2.88621e+00
0.00000e+00,1.53935e+00,-1.01774e+01,2.64855e+00,5.79438e-01,2.83233e+00
0.00000e+00,2.38735e+00,-6.78490e+00,2.58687e+00,5.90195e-01,2.78152e+00
0.00000e+00,3.23151e+00,-3.39245e+00,2.52569e+00,6.00906e-01,2.73173e+00
1.07300e+02,4.26785e+01,0.00000e+00,-2.41085e+00,5.78800e-01,2.61098e+00
1.07300e+02,4.24636e+01,-3.24312e+00,-2.42911e+00,5.69211e-01,2.62156e+00
1.07300e+02,4.21777e+01,-6.48624e+00,-2.43889e+00,5.59389e-01,2.62429e+00
1.07300e+02,4.18889e+01,-9.72936e+00,-2.44833e+00,5.49343e-01,2.62672e+00
1.07300e+02,4.15374e+01,-1.29725e+01,-2.45029e+00,5.39094e-01,2.62217e+00
1.07300e+02,4.11714e+01,-1.62156e+01,-2.45051e+00,5.28654e-01,2.61600e+00
1.07300e+02,4.07572e+01,-1.94587e+01,-2.44499e+00,5.18040e-01,2.60444e+00
1.07300e+02,4.03197e+01,-2.27018e+01,-2.43669e+00,5.07266e-01,2.59025e+00
1.07300e+02,3.98436e+01,-2.59450e+01,-2.42377e+00,4.96347e-01,2.57172e+00
1.07300e+02,3.93357e+01,-2.91881e+01,-2.40706e+00,4.85298e-01,2.54960e+00
1.07300e+02,3.87928e+01,-3.24312e+01,-2.38618e+00,4.74132e-01,2.52354e+00
1.07300e+02,3.82077e+01,-3.56743e+01,-2.36026e+00,4.62866e-01,2.49270e+00
1.07300e+02,3.75793e+01,-3.89174e+01,-2.32916e+00,4.51511e-01,2.45695e+00
1.07300e+02,3.68895e+01,-4.21606e+01,-2.29076e+00,4.40090e-01,2.41425e+00
1.07300e+02,3.61401e+01,-4.54037e+01,-2.24522e+00,4.28624e-01,2.36478e+00
1.07300e+02,3.53192e+01,-4.86468e+01,-2.19117e+00,4.17129e-01,2.30721e+00
1.07300e+02,3.44016e+01,-5.18899e+01,-2.12557e+00,4.05647e-01,2.23868e+00
1.07300e+02,3.34168e+01,-5.51330e+01,-2.05195e+00,3.94185e-01,2.16255e+00
1.07300e+02,3.22806e+01,-5.83762e+01,-1.96026e+00,3.82806e-01,2.06936e+00
1.07300e+02,3.10816e+01,-6.16193e+01,-1.86108e+00,3.71535e-01,1.96920e+00
1.07300e+02,2.97079e+01,-6.48624e+01,-1.74104e+00,3.60401e-01,1.84957e+00
1.07300e+02,2.81940e+01,-6.81055e+01,-1.60429e+00,3.49498e-01,1.71470e+00
1.07300e+02,2.65376e+01,-7.13486e+01,-1.45052e+00,3.38843e-01,1.56475e+00
1.07300e+02,2.46419e+01,-7.45918e+01,-1.26819e+00,3.28476e-01,1.38996e+00
1.07300e+02,2.24690e+01,-7.78349e+01,-1.05278e+00,3.18524e-01,1.18858e+00
1.07300e+02,1.99828e+01,-8.10780e+01,-7.99988e-01,3.09105e-01,9.62610e-01
1.07300e+02,1.70422e+01,-8.43211e+01,-4.92964e-01,3.00298e-01,7.16624e-01
1.07300e+02,1.32676e+01,-8.75642e+01,-8.64247e-02,2.92533e-01,5.14000e-01
1.07300e+02,8.16273e+00,-9.08074e+01,4.78881e-01,2.87790e-01,6.91229e-01
1.07300e+02,-3.30748e+00,-9.40505e+01,1.80381e+00,2.89671e-01,1.87229e+00
1.07300e+02,-4.13529e+00,-9.40580e+01,1.90250e+00,2.95510e-01,1.97015e+00
1.07300e+02,-1.16772e+01,-9.06988e+01,2.84801e+00,3.06583e-01,2.89709e+00
1.07300e+02,-1.25904e+01,-8.73396e+01,3.00246e+00,3.14763e-01,3.05156e+00
1.07300e+02,-1.29055e+01,-8.39804e+01,3.08554e+00,3.23371e-01,3.13596e+00
1.07300e+02,-1.29533e+01,-8.06211e+01,3.13672e+00,3.32378e-01,3.18911e+00
1.07300e+02,-1.27997e+01,-7.72619e+01,3.16387e+00,3.41713e-01,3.21876e+00
1.07300e+02,-1.25198e+01,-7.39027e+01,3.17594e+00,3.51321e-01,3.23371e+00
1.07300e+02,-1.21130e+01,-7.05435e+01,3.17287e+00,3.61147e-01,3.23394e+00
1.07300e+02,-1.16287e+01,-6.71843e+01,3.16056e+00,3.71142e-01,3.22527e+00
1.07300e+02,-1.10996e+01,-6.38251e+01,3.14289e+00,3.81282e-01,3.21152e+00
1.07300e+02,-1.05029e+01,-6.04659e+01,3.11715e+00,3.91537e-01,3.19006e+00
1.07300e+02,-9.86382e+00,-5.71066e+01,3.08636e+00,4.01880e-01,3.16388e+00
1.07300e+02,-9.18363e+00,-5.37474e+01,3.05066e+00,4.12291e-01,3.13313e+00
1.07300e+02,-8.46243e+00,-5.03882e+01,3.01007e+00,4.22746e-01,3.09785e+00
1.07300e+02,-7.71552e+00,-4.70290e+01,2.96641e+00,4.33230e-01,3.05985e+00
1.07300e+02,-6.93567e+00,-4.36698e+01,2.91883e+00,4.43725e-01,3.01831e+00
1.07300e+02,-6.13474e+00,-4.03106e+01,2.86872e+00,4.54217e-01,2.97464e+00
1.07300e+02,-5.31490e+00,-3.69514e+01,2.81636e+00,4.64692e-01,2.92911e+00
1.07300e+02,-4.47818e+00,-3.35921e+01,2.76198e+00,4.75141e-01,2.88198e+00
1.07300e+02,-3.63431e+00,-3.02329e+01,2.70675e+00,4.85555e-01,2.83439e+00
1.07300e+02,-2.77936e+00,-2.68737e+01,2.65020e+00,4.95928e-01,2.78593e+00
1.07300e+02,-1.92257e+00,-2.35145e+01,2.59343e+00,5.06256e-01,2.73765e+00
1.07300e+02,-1.05916e+00,-2.01553e+01,2.53586e+00,5.16536e-01,2.68906e+00
1.07300e+02,-1.95842e-01,-1.67961e+01,2.47831e+00,5.26765e-01,2.64092e+00
1.07300e+02,6.64213e-01,-1.34369e+01,2.42115e+00,5.36942e-01,2.59363e+00
1.07300e+02,1.52427e+00,-1.00776e+01,2.36399e+00,5.47065e-01,2.54682e+00
1.07300e+02,2.36396e+00,-6.71843e+00,2.30926e+00,5.57140e-01,2.50278e+00
1.07300e+02,3.19985e+00,-3.35921e+00,2.25498e+00,5.67171e-01,2.45967e+00
2.14300e+02,4.22575e+01,0.00000e+00,-2.13373e+00,5.44365e-01,2.33277e+00
2.14300e+02,4.20447e+01,-3.21112e+00,-2.15025e+00,5.35413e-01,2.34170e+00
2.14300e+02,4.17615e+01,-6.42224e+00,-2.15925e+00,5.26243e-01,2.34375e+00
2.14300e+02,4.14756e+01,-9.63337e+00,-2.16796e+00,5.16865e-01,2.34553e+00
2.14300e+02,4.11276e+01,-1.28445e+01,-2.17004e+00,5.07296e-01,2.34118e+00
2.14300e+02,4.07652e+01,-1.60556e+01,-2.17059e+00,4.97549e-01,2.33540e+00
2.14300e+02,4.03551e+01,-1.92667e+01,-2.16604e+00,4.87640e-01,2.32489e+00
2.14300e+02,3.99219e+01,-2.24779e+01,-2.15903e+00,4.77582e-01,2.31207e+00
2.14300e+02,3.94505e+01,-2.56890e+01,-2.14794e+00,4.67388e-01,2.29543e+00
2.14300e+02,3.89476e+01,-2.89001e+01,-2.13348e+00,4.57073e-01,2.27563e+00
2.14300e+02,3.84101e+01,-3.21112e+01,-2.11533e+00,4.46649e-01,2.25236e+00
2.14300e+02,3.78307e+01,-3.53223e+01,-2.09272e+00,4.36130e-01,2.22488e+00
2.14300e+02,3.72085e+01,-3.85335e+01,-2.06553e+00,4.25530e-01,2.19309e+00
2.14300e+02,3.65256e+01,-4.17446e+01,-2.03185e+00,4.14867e-01,2.15517e+00
2.14300e+02,3.57835e+01,-4.49557e+01,-1.99187e+00,4.04163e-01,2.11130e+00
2.14300e+02,3.49707e+01,-4.81668e+01,-1.94433e+00,3.93431e-01,2.06029e+00
2.14300e+02,3.40622e+01,-5.13780e+01,-1.88658e+00,3.82712e-01,1.99965e+00
2.14300e+02,3.30871e+01,-5.45891e+01,-1.82171e+00,3.72012e-01,1.93231e+00
2.14300e+02,3.19621e+01,-5.78002e+01,-1.74085e+00,3.61388e-01,1.84996e+00
2.14300e+02,3.07750e+01,-6.10113e+01,-1.65335e+00,3.50866e-01,1.76150e+00
2.14300e+02,2.94148e+01,-6.42224e+01,-1.54738e+00,3.40472e-01,1.65594e+00
2.14300e+02,2.79159e+01,-6.74336e+01,-1.42659e+00,3.30293e-01,1.53702e+00
2.14300e+02,2.62758e+01,-7.06447e+01,-1.29074e+00,3.20346e-01,1.40495e+00
2.14300e+02,2.43988e+01,-7.38558e+01,-1.12959e+00,3.10668e-01,1.25121e+00
2.14300e+02,2.22473e+01,-7.70669e+01,-9.39148e-01,3.01376e-01,1.07447e+00
2.14300e+02,1.97856e+01,-8.02781e+01,-7.15586e-01,2.92583e-01,8.76856e-01
2.14300e+02,1.68740e+01,-8.34892e+01,-4.43991e-01,2.84361e-01,6.63108e-01
2.14300e+02,1.31367e+01,-8.67003e+01,-8.42540e-02,2.77113e-01,4.87312e-01
2.14300e+02,8.08220e+00,-8.99114e+01,4.16107e-01,2.72685e-01,6.29458e-01
2.14300e+02,-3.27484e+00,-9.31226e+01,1.58929e+00,2.74442e-01,1.65885e+00
2.14300e+02,-4.09449e+00,-9.31300e+01,1.67670e+00,2.79893e-01,1.74537e+00
2.14300e+02,-1.15620e+01,-8.98039e+01,2.51452e+00,2.90230e-01,2.56428e+00
2.14300e+02,-1.24661e+01,-8.64779e+01,2.65168e+00,2.97867e-01,2.70140e+00
2.14300e+02,-1.27781e+01,-8.31518e+01,2.72562e+00,3.05903e-01,2.77665e+00
2.14300e+02,-1.28255e+01,-7.98257e+01,2.77132e+00,3.14312e-01,2.82428e+00
2.14300e+02,-1.26734e+01,-7.64996e+01,2.79572e+00,3.23027e-01,2.85116e+00
2.14300e+02,-1.23963e+01,-7.31736e+01,2.80677e+00,3.31997e-01,2.86507e+00
2.14300e+02,-1.19935e+01,-6.98475e+01,2.80440e+00,3.41170e-01,2.86598e+00
2.14300e+02,-1.15140e+01,-6.65214e+01,2.79386e+00,3.50502e-01,2.85905e+00
2.14300e+02,-1.09901e+01,-6.31954e+01,2.77857e+00,3.59967e-01,2.84766e+00
2.14300e+02,-1.03992e+01,-5.98693e+01,2.75612e+00,3.69541e-01,2.82947e+00
2.14300e+02,-9.76651e+00,-5.65432e+01,2.72922e+00,3.79197e-01,2.80713e+00
2.14300e+02,-9.09302e+00,-5.32171e+01,2.69796e+00,3.88916e-01,2.78078e+00
2.14300e+02,-8.37893e+00,-4.98911e+01,2.66236e+00,3.98677e-01,2.75045e+00
2.14300e+02,-7.63939e+00,-4.65650e+01,2.62405e+00,4.08464e-01,2.71775e+00
2.14300e+02,-6.86724e+00,-4.32389e+01,2.58226e+00,4.18263e-01,2.68195e+00
2.14300e+02,-6.07421e+00,-3.99129e+01,2.53823e+00,4.28057e-01,2.64430e+00
2.14300e+02,-5.26246e+00,-3.65868e+01,2.49221e+00,4.37836e-01,2.60504e+00
2.14300e+02,-4.43399e+00,-3.32607e+01,2.44441e+00,4.47591e-01,2.56440e+00
2.14300e+02,-3.59845e+00,-2.99346e+01,2.39585e+00,4.57313e-01,2.52339e+00
2.14300e+02,-2.75194e+00,-2.66086e+01,2.34611e+00,4.66996e-01,2.48163e+00
2.14300e+02,-1.90360e+00,-2.32825e+01,2.29619e+00,4.76638e-01,2.44009e+00
2.14300e+02,-1.04871e+00,-1.99564e+01,2.24556e+00,4.86235e-01,2.39830e+00
2.14300e+02,-1.93910e-01,-1.66304e+01,2.19495e+00,4.95784e-01,2.35695e+00
2.14300e+02,6.57660e-01,-1.33043e+01,2.14467e+00,5.05286e-01,2.31637e+00
2.14300e+02,1.50923e+00,-9.97821e+00,2.09440e+00,5.14736e-01,2.27626e+00
2.14300e+02,2.34063e+00,-6.65214e+00,2.04628e+00,5.24141e-01,2.23863e+00
2.14300e+02,3.16828e+00,-3.32607e+00,1.99857e+00,5.33505e-01,2.20185e+00
3.20700e+02,4.18388e+01,0.00000e+00,-1.87335e+00,5.09628e-01,2.07090e+00
3.20700e+02,4.16280e+01,-3.17930e+00,-1.88824e+00,5.01318e-01,2.07832e+00
3.20700e+02,4.13477e+01,-6.35861e+00,-1.89653e+00,4.92806e-01,2.07976e+00
3.20700e+02,4.10646e+01,-9.53791e+00,-1.90456e+00,4.84101e-01,2.08097e+00
3.20700e+02,4.07201e+01,-1.27172e+01,-1.90677e+00,4.75219e-01,2.07684e+00
3.20700e+02,4.03613e+01,-1.58965e+01,-1.90763e+00,4.66171e-01,2.07147e+00
3.20700e+02,3.99553e+01,-1.90758e+01,-1.90401e+00,4.56973e-01,2.06198e+00
3.20700e+02,3.95264e+01,-2.22551e+01,-1.89823e+00,4.47637e-01,2.05047e+00
3.20700e+02,3.90596e+01,-2.54344e+01,-1.88886e+00,4.38175e-01,2.03563e+00
3.20700e+02,3.85617e+01,-2.86137e+01,-1.87653e+00,4.28600e-01,2.01804e+00
3.20700e+02,3.80295e+01,-3.17930e+01,-1.86097e+00,4.18924e-01,1.99742e+00
3.20700e+02,3.74559e+01,-3.49724e+01,-1.84147e+00,4.09161e-01,1.97313e+00
3.20700e+02,3.68398e+01,-3.81517e+01,-1.81795e+00,3.99322e-01,1.94508e+00
3.20700e+02,3.61637e+01,-4.13310e+01,-1.78874e+00,3.89424e-01,1.91169e+00
3.20700e+02,3.54289e+01,-4.45103e+01,-1.75398e+00,3.79488e-01,1.87310e+00
3.20700e+02,3.46242e+01,-4.76896e+01,-1.71259e+00,3.69527e-01,1.82828e+00
3.20700e+02,3.37247e+01,-5.08689e+01,-1.66222e+00,3.59577e-01,1.77507e+00
3.20700e+02,3.27593e+01,-5.40482e+01,-1.60560e+00,3.49645e-01,1.71602e+00
3.20700e+02,3.16454e+01,-5.72275e+01,-1.53492e+00,3.39784e-01,1.64388e+00
3.20700e+02,3.04701e+01,-6.04068e+01,-1.45841e+00,3.30017e-01,1.56643e+00
3.20700e+02,2.91233e+01,-6.35861e+01,-1.36567e+00,3.20369e-01,1.47410e+00
3.20700e+02,2.76393e+01,-6.67654e+01,-1.25991e+00,3.10921e-01,1.37018e+00
3.20700e+02,2.60154e+01,-6.99447e+01,-1.14091e+00,3.01688e-01,1.25488e+00
3.20700e+02,2.41570e+01,-7.31240e+01,-9.99690e-01,2.92705e-01,1.12090e+00
3.20700e+02,2.20269e+01,-7.63033e+01,-8.32719e-01,2.84080e-01,9.67226e-01
3.20700e+02,1.95896e+01,-7.94826e+01,-6.36648e-01,2.75918e-01,7.96061e-01
3.20700e+02,1.67068e+01,-8.26619e+01,-3.98371e-01,2.68287e-01,6.12073e-01
3.20700e+02,1.30066e+01,-8.58412e+01,-8.26408e-02,2.61559e-01,4.60509e-01
3.20700e+02,8.00212e+00,-8.90205e+01,3.56658e-01,2.57450e-01,5.71005e-01
3.20700e+02,-3.24239e+00,-9.21998e+01,1.38718e+00,2.59080e-01,1.45795e+00
3.20700e+02,-4.05392e+00,-9.22072e+01,1.46398e+00,2.64140e-01,1.53380e+00
3.20700e+02,-1.14474e+01,-8.89141e+01,2.20059e+00,2.73736e-01,2.25109e+00
3.20700e+02,-1.23426e+01,-8.56210e+01,2.32150e+00,2.80825e-01,2.37191e+00
3.20700e+02,-1.26515e+01,-8.23279e+01,2.38687e+00,2.88284e-01,2.43854e+00
3.20700e+02,-1.26984e+01,-7.90348e+01,2.42741e+00,2.96089e-01,2.48100e+00
3.20700e+02,-1.25479e+01,-7.57416e+01,2.44925e+00,3.04178e-01,2.50527e+00
3.20700e+02,-1.22734e+01,-7.24485e+01,2.45935e+00,3.12504e-01,2.51821e+00
3.20700e+02,-1.18746e+01,-6.91554e+01,2.45766e+00,3.21019e-01,2.51977e+00
3.20700e+02,-1.13999e+01,-6.58623e+01,2.44879e+00,3.29681e-01,2.51448e+00
3.20700e+02,-1.08812e+01,-6.25692e+01,2.43574e+00,3.38467e-01,2.50530e+00
3.20700e+02,-1.02962e+01,-5.92761e+01,2.41641e+00,3.47354e-01,2.49018e+00
3.20700e+02,-9.66973e+00,-5.59829e+01,2.39316e+00,3.56316e-01,2.47146e+00
3.20700e+02,-9.00292e+00,-5.26898e+01,2.36608e+00,3.65338e-01,2.44924e+00
3.20700e+02,-8.29591e+00,-4.93967e+01,2.33520e+00,3.74398e-01,2.42356e+00
3.20700e+02,-7.56370e+00,-4.61036e+01,2.30192e+00,3.83482e-01,2.39583e+00
3.20700e+02,-6.79920e+00,-4.28105e+01,2.26559e+00,3.92577e-01,2.36543e+00
3.20700e+02,-6.01403e+00,-3.95174e+01,2.22730e+00,4.01668e-01,2.33342e+00
3.20700e+02,-5.21032e+00,-3.62243e+01,2.18725e+00,4.10745e-01,2.30004e+00
3.20700e+02,-4.39006e+00,-3.29311e+01,2.14563e+00,4.19799e-01,2.26549e+00
3.20700e+02,-3.56279e+00,-2.96380e+01,2.10335e+00,4.28823e-01,2.23064e+00
3.20700e+02,-2.72467e+00,-2.63449e+01,2.06004e+00,4.37812e-01,2.19518e+00
3.20700e+02,-1.88474e+00,-2.30518e+01,2.01656e+00,4.46761e-01,2.15993e+00
3.20700e+02,-1.03832e+00,-1.97587e+01,1.97247e+00,4.55669e-01,2.12451e+00
3.20700e+02,-1.91989e-01,-1.64656e+01,1.92838e+00,4.64532e-01,2.08951e+00
3.20700e+02,6.51143e-01,-1.31725e+01,1.88460e+00,4.73351e-01,2.05521e+00
3.20700e+02,1.49428e+00,-9.87934e+00,1.84082e+00,4.82123e-01,2.02137e+00
3.20700e+02,2.31744e+00,-6.58623e+00,1.79893e+00,4.90853e-01,1.98971e+00
3.20700e+02,3.13689e+00,-3.29311e+00,1.75739e+00,4.99544e-01,1.95884e+00
4.26200e+02,4.14236e+01,0.00000e+00,-1.63071e+00,4.74898e-01,1.82642e+00
4.26200e+02,4.12150e+01,-3.14776e+00,-1.64408e+00,4.67223e-01,1.83246e+00
4.26200e+02,4.09374e+01,-6.29551e+00,-1.65171e+00,4.59360e-01,1.83335e+00
4.26200e+02,4.06571e+01,-9.44327e+00,-1.65910e+00,4.51318e-01,1.83404e+00
4.26200e+02,4.03160e+01,-1.25910e+01,-1.66143e+00,4.43113e-01,1.83013e+00
4.26200e+02,3.99607e+01,-1.57388e+01,-1.66257e+00,4.34756e-01,1.82515e+00
4.26200e+02,3.95588e+01,-1.88865e+01,-1.65982e+00,4.26260e-01,1.81662e+00
4.26200e+02,3.91341e+01,-2.20343e+01,-1.65518e+00,4.17636e-01,1.80635e+00
4.26200e+02,3.86720e+01,-2.51820e+01,-1.64741e+00,4.08896e-01,1.79320e+00
4.26200e+02,3.81790e+01,-2.83298e+01,-1.63707e+00,4.00052e-01,1.77768e+00
4.26200e+02,3.76521e+01,-3.14776e+01,-1.62391e+00,3.91114e-01,1.75954e+00
4.26200e+02,3.70842e+01,-3.46253e+01,-1.60732e+00,3.82095e-01,1.73824e+00
4.26200e+02,3.64743e+01,-3.77731e+01,-1.58723e+00,3.73006e-01,1.71368e+00
4.26200e+02,3.58048e+01,-4.09208e+01,-1.56217e+00,3.63864e-01,1.68451e+00
4.26200e+02,3.50774e+01,-4.40686e+01,-1.53229e+00,3.54686e-01,1.65085e+00
4.26200e+02,3.42806e+01,-4.72163e+01,-1.49662e+00,3.45485e-01,1.61182e+00
4.26200e+02,3.33901e+01,-5.03641e+01,-1.45313e+00,3.36294e-01,1.56553e+00
4.26200e+02,3.24342e+01,-5.35118e+01,-1.40420e+00,3.27120e-01,1.51420e+00
4.26200e+02,3.13314e+01,-5.66596e+01,-1.34301e+00,3.18011e-01,1.45158e+00
4.26200e+02,3.01677e+01,-5.98074e+01,-1.27675e+00,3.08990e-01,1.38438e+00
4.26200e+02,2.88343e+01,-6.29551e+01,-1.19634e+00,3.00078e-01,1.30436e+00
4.26200e+02,2.73650e+01,-6.61029e+01,-1.10459e+00,2.91350e-01,1.21440e+00
4.26200e+02,2.57573e+01,-6.92506e+01,-1.00131e+00,2.82822e-01,1.11471e+00
4.26200e+02,2.39173e+01,-7.23984e+01,-8.78655e-01,2.74524e-01,9.99062e-01
4.26200e+02,2.18083e+01,-7.55461e+01,-7.33571e-01,2.66558e-01,8.66768e-01
4.26200e+02,1.93952e+01,-7.86939e+01,-5.63132e-01,2.59019e-01,7.19993e-01
4.26200e+02,1.65410e+01,-8.18417e+01,-3.55919e-01,2.51970e-01,5.63156e-01
4.26200e+02,1.28775e+01,-8.49894e+01,-8.12203e-02,2.45755e-01,4.33340e-01
4.26200e+02,7.92271e+00,-8.81372e+01,3.01145e-01,2.41960e-01,5.16064e-01
4.26200e+02,-3.21022e+00,-9.12849e+01,1.19864e+00,2.43466e-01,1.27066e+00
4.26200e+02,-4.01369e+00,-9.12922e+01,1.26556e+00,2.48140e-01,1.33655e+00
4.26200e+02,-1.13339e+01,-8.80318e+01,1.90778e+00,2.57004e-01,1.95903e+00
4.26200e+02,-1.22201e+01,-8.47713e+01,2.01355e+00,2.63552e-01,2.06465e+00
4.26200e+02,-1.25260e+01,-8.15109e+01,2.07092e+00,2.70442e-01,2.12323e+00
4.26200e+02,-1.25724e+01,-7.82505e+01,2.10666e+00,2.77652e-01,2.16085e+00
4.26200e+02,-1.24233e+01,-7.49900e+01,2.12609e+00,2.85124e-01,2.18270e+00
4.26200e+02,-1.21516e+01,-7.17296e+01,2.13531e+00,2.92815e-01,2.19471e+00
4.26200e+02,-1.17568e+01,-6.84692e+01,2.13425e+00,3.00680e-01,2.19687e+00
4.26200e+02,-1.12868e+01,-6.52087e+01,2.12693e+00,3.08680e-01,2.19310e+00
4.26200e+02,-1.07732e+01,-6.19483e+01,2.11598e+00,3.16796e-01,2.18596e+00
4.26200e+02,-1.01940e+01,-5.86879e+01,2.09955e+00,3.25005e-01,2.17370e+00
4.26200e+02,-9.57378e+00,-5.54274e+01,2.07970e+00,3.33284e-01,2.15833e+00
4.26200e+02,-8.91358e+00,-5.21670e+01,2.05652e+00,3.41617e-01,2.13995e+00
4.26200e+02,-8.21359e+00,-4.89065e+01,2.03002e+00,3.49986e-01,2.11860e+00
4.26200e+02,-7.48864e+00,-4.56461e+01,2.00144e+00,3.58377e-01,2.09549e+00
4.26200e+02,-6.73173e+00,-4.23857e+01,1.97020e+00,3.66777e-01,2.07009e+00
4.26200e+02,-5.95435e+00,-3.91252e+01,1.93725e+00,3.75175e-01,2.04333e+00
4.26200e+02,-5.15861e+00,-3.58648e+01,1.90277e+00,3.83560e-01,2.01541e+00
4.26200e+02,-4.34650e+00,-3.26044e+01,1.86692e+00,3.91922e-01,1.98650e+00
4.26200e+02,-3.52744e+00,-2.93439e+01,1.83049e+00,4.00258e-01,1.95738e+00
4.26200e+02,-2.69763e+00,-2.60835e+01,1.79317e+00,4.08560e-01,1.92775e+00
4.26200e+02,-1.86603e+00,-2.28231e+01,1.75570e+00,4.16827e-01,1.89835e+00
4.26200e+02,-1.02802e+00,-1.95626e+01,1.71769e+00,4.25055e-01,1.86882e+00
4.26200e+02,-1.90083e-01,-1.63022e+01,1.67969e+00,4.33241e-01,1.83969e+00
4.26200e+02,6.44682e-01,-1.30417e+01,1.64196e+00,4.41387e-01,1.81121e+00
4.26200e+02,1.47945e+00,-9.78131e+00,1.60422e+00,4.49489e-01,1.78316e+00
4.26200e+02,2.29445e+00,-6.52087e+00,1.56814e+00,4.57553e-01,1.75702e+00
4.26200e+02,3.10576e+00,-3.26044e+00,1.53236e+00,4.65581e-01,1.73159e+00
5.30600e+02,4.10127e+01,0.00000e+00,-1.40621e+00,4.40244e-01,1.59965e+00
5.30600e+02,4.08062e+01,-3.11654e+00,-1.41816e+00,4.33191e-01,1.60442e+00
5.30600e+02,4.05314e+01,-6.23307e+00,-1.42516e+00,4.25967e-01,1.60481e+00
5.30600e+02,4.02539e+01,-9.34961e+00,-1.43195e+00,4.18579e-01,1.60503e+00
5.30600e+02,3.99161e+01,-1.24661e+01,-1.43437e+00,4.11040e-01,1.60133e+00
5.30600e+02,3.95644e+01,-1.55827e+01,-1.43577e+00,4.03362e-01,1.59672e+00
5.30600e+02,3.91664e+01,-1.86992e+01,-1.43380e+00,3.95555e-01,1.58908e+00
5.30600e+02,3.87460e+01,-2.18158e+01,-1.43021e+00,3.87632e-01,1.57996e+00
5.30600e+02,3.82884e+01,-2.49323e+01,-1.42392e+00,3.79601e-01,1.56838e+00
5.30600e+02,3.78003e+01,-2.80488e+01,-1.41540e+00,3.71476e-01,1.55478e+00
5.30600e+02,3.72787e+01,-3.11654e+01,-1.40445e+00,3.63264e-01,1.53895e+00
5.30600e+02,3.67164e+01,-3.42819e+01,-1.39054e+00,3.54977e-01,1.52040e+00
5.30600e+02,3.61125e+01,-3.73984e+01,-1.37361e+00,3.46627e-01,1.49908e+00
5.30600e+02,3.54497e+01,-4.05150e+01,-1.35239e+00,3.38227e-01,1.47382e+00
5.30600e+02,3.47295e+01,-4.36315e+01,-1.32700e+00,3.29795e-01,1.44473e+00
5.30600e+02,3.39406e+01,-4.67480e+01,-1.29663e+00,3.21341e-01,1.41104e+00
5.30600e+02,3.30589e+01,-4.98646e+01,-1.25950e+00,3.12897e-01,1.37115e+00
5.30600e+02,3.21125e+01,-5.29811e+01,-1.21767e+00,3.04468e-01,1.32696e+00
5.30600e+02,3.10206e+01,-5.60976e+01,-1.16526e+00,2.96099e-01,1.27313e+00
5.30600e+02,2.98685e+01,-5.92142e+01,-1.10847e+00,2.87810e-01,1.21540e+00
5.30600e+02,2.85484e+01,-6.23307e+01,-1.03947e+00,2.79622e-01,1.14676e+00
5.30600e+02,2.70936e+01,-6.54473e+01,-9.60679e-01,2.71604e-01,1.06968e+00
5.30600e+02,2.55018e+01,-6.85638e+01,-8.71931e-01,2.63768e-01,9.84370e-01
5.30600e+02,2.36801e+01,-7.16803e+01,-7.66465e-01,2.56145e-01,8.85607e-01
5.30600e+02,2.15920e+01,-7.47969e+01,-6.41635e-01,2.48826e-01,7.72941e-01
5.30600e+02,1.92028e+01,-7.79134e+01,-4.94917e-01,2.41899e-01,6.48451e-01
5.30600e+02,1.63770e+01,-8.10299e+01,-3.16454e-01,2.35423e-01,5.16153e-01
5.30600e+02,1.27498e+01,-8.41465e+01,-7.97351e-02,2.29713e-01,4.05786e-01
5.30600e+02,7.84413e+00,-8.72630e+01,2.49925e-01,2.26226e-01,4.64755e-01
5.30600e+02,-3.17838e+00,-9.03795e+01,1.02427e+00,2.27610e-01,1.09752e+00
5.30600e+02,-3.97388e+00,-9.03868e+01,1.08204e+00,2.31905e-01,1.15418e+00
5.30600e+02,-1.12214e+01,-8.71587e+01,1.63685e+00,2.40049e-01,1.68883e+00
5.30600e+02,-1.20989e+01,-8.39306e+01,1.72858e+00,2.46065e-01,1.78034e+00
5.30600e+02,-1.24018e+01,-8.07025e+01,1.77853e+00,2.52395e-01,1.83147e+00
5.30600e+02,-1.24477e+01,-7.74744e+01,1.80980e+00,2.59019e-01,1.86458e+00
5.30600e+02,-1.23001e+01,-7.42463e+01,1.82701e+00,2.65884e-01,1.88416e+00
5.30600e+02,-1.20311e+01,-7.10182e+01,1.83539e+00,2.72951e-01,1.89530e+00
5.30600e+02,-1.16402e+01,-6.77901e+01,1.83490e+00,2.80177e-01,1.89799e+00
5.30600e+02,-1.11748e+01,-6.45620e+01,1.82901e+00,2.87528e-01,1.89560e+00
5.30600e+02,-1.06664e+01,-6.13339e+01,1.81998e+00,2.94984e-01,1.89034e+00
5.30600e+02,-1.00929e+01,-5.81058e+01,1.80622e+00,3.02526e-01,1.88069e+00
5.30600e+02,-9.47882e+00,-5.48777e+01,1.78952e+00,3.10132e-01,1.86840e+00
5.30600e+02,-8.82518e+00,-5.16496e+01,1.76993e+00,3.17788e-01,1.85354e+00
5.30600e+02,-8.13212e+00,-4.84215e+01,1.74748e+00,3.25477e-01,1.83617e+00
5.30600e+02,-7.41437e+00,-4.51934e+01,1.72324e+00,3.33187e-01,1.81730e+00
5.30600e+02,-6.66496e+00,-4.19653e+01,1.69669e+00,3.40905e-01,1.79650e+00
5.30600e+02,-5.89529e+00,-3.87372e+01,1.66868e+00,3.48620e-01,1.77457e+00
5.30600e+02,-5.10745e+00,-3.55091e+01,1.63934e+00,3.56324e-01,1.75166e+00
5.30600e+02,-4.30339e+00,-3.22810e+01,1.60882e+00,3.64007e-01,1.72795e+00
5.30600e+02,-3.49245e+00,-2.90529e+01,1.57780e+00,3.71665e-01,1.70407e+00
5.30600e+02,-2.67088e+00,-2.58248e+01,1.54601e+00,3.79293e-01,1.67980e+00
5.30600e+02,-1.84753e+00,-2.25967e+01,1.51409e+00,3.86888e-01,1.65575e+00
5.30600e+02,-1.01782e+00,-1.93686e+01,1.48170e+00,3.94447e-01,1.63163e+00
5.30600e+02,-1.88198e-01,-1.61405e+01,1.44933e+00,4.01969e-01,1.60788e+00
5.30600e+02,6.38288e-01,-1.29124e+01,1.41718e+00,4.09453e-01,1.58472e+00
5.30600e+02,1.46477e+00,-9.68430e+00,1.38503e+00,4.16897e-01,1.56196e+00
5.30600e+02,2.27169e+00,-6.45620e+00,1.35430e+00,4.24305e-01,1.54086e+00
5.30600e+02,3.07496e+00,-3.22810e+00,1.32384e+00,4.31681e-01,1.52040e+00
6.33500e+02,4.06078e+01,0.00000e+00,-1.20046e+00,4.05961e-01,1.39123e+00
6.33500e+02,4.04033e+01,-3.08576e+00,-1.21110e+00,3.99518e-01,1.39485e+00
6.33500e+02,4.01312e+01,-6.17153e+00,-1.21749e+00,3.92918e-01,1.39479e+00
6.33500e+02,3.98564e+01,-9.25729e+00,-1.22371e+00,3.86168e-01,1.39458e+00
6.33500e+02,3.95220e+01,-1.23431e+01,-1.22619e+00,3.79280e-01,1.39108e+00
6.33500e+02,3.91738e+01,-1.54288e+01,-1.22780e+00,3.72266e-01,1.38681e+00
6.33500e+02,3.87797e+01,-1.85146e+01,-1.22654e+00,3.65134e-01,1.37999e+00
6.33500e+02,3.83634e+01,-2.16004e+01,-1.22388e+00,3.57895e-01,1.37191e+00
6.33500e+02,3.79104e+01,-2.46861e+01,-1.21891e+00,3.50558e-01,1.36177e+00
6.33500e+02,3.74271e+01,-2.77719e+01,-1.21205e+00,3.43135e-01,1.34992e+00
6.33500e+02,3.69106e+01,-3.08576e+01,-1.20310e+00,3.35632e-01,1.33619e+00
6.33500e+02,3.63539e+01,-3.39434e+01,-1.19163e+00,3.28062e-01,1.32018e+00
6.33500e+02,3.57559e+01,-3.70292e+01,-1.17758e+00,3.20434e-01,1.30181e+00
6.33500e+02,3.50997e+01,-4.01149e+01,-1.15986e+00,3.12760e-01,1.28013e+00
6.33500e+02,3.43866e+01,-4.32007e+01,-1.13857e+00,3.05056e-01,1.25520e+00
6.33500e+02,3.36055e+01,-4.62865e+01,-1.11303e+00,2.97333e-01,1.22640e+00
6.33500e+02,3.27325e+01,-4.93722e+01,-1.08170e+00,2.89618e-01,1.19236e+00
6.33500e+02,3.17954e+01,-5.24580e+01,-1.04637e+00,2.81918e-01,1.15469e+00
6.33500e+02,3.07144e+01,-5.55438e+01,-1.00199e+00,2.74272e-01,1.10890e+00
6.33500e+02,2.95736e+01,-5.86295e+01,-9.53868e-01,2.66700e-01,1.05983e+00
6.33500e+02,2.82665e+01,-6.17153e+01,-8.95308e-01,2.59220e-01,1.00158e+00
6.33500e+02,2.68261e+01,-6.48011e+01,-8.28383e-01,2.51894e-01,9.36254e-01
6.33500e+02,2.52500e+01,-6.78868e+01,-7.52946e-01,2.44736e-01,8.64069e-01
6.33500e+02,2.34463e+01,-7.09726e+01,-6.63222e-01,2.37771e-01,7.80685e-01
6.33500e+02,2.13788e+01,-7.40584e+01,-5.56945e-01,2.31085e-01,6.85849e-01
6.33500e+02,1.90132e+01,-7.71441e+01,-4.31963e-01,2.24757e-01,5.81497e-01
6.33500e+02,1.62153e+01,-8.02299e+01,-2.79848e-01,2.18840e-01,4.71156e-01
6.33500e+02,1.26239e+01,-8.33156e+01,-7.79423e-02,2.13624e-01,3.78129e-01
6.33500e+02,7.76668e+00,-8.64014e+01,2.03399e-01,2.10439e-01,4.17403e-01
6.33500e+02,-3.14700e+00,-8.94872e+01,8.64802e-01,2.11704e-01,9.39329e-01
6.33500e+02,-3.93464e+00,-8.94943e+01,9.14175e-01,2.15627e-01,9.87523e-01
6.33500e+02,-1.11106e+01,-8.62981e+01,1.38880e+00,2.23067e-01,1.44154e+00
6.33500e+02,-1.19795e+01,-8.31019e+01,1.46762e+00,2.28564e-01,1.52008e+00
6.33500e+02,-1.22793e+01,-7.99057e+01,1.51074e+00,2.34347e-01,1.56432e+00
6.33500e+02,-1.23248e+01,-7.67094e+01,1.53790e+00,2.40399e-01,1.59327e+00
6.33500e+02,-1.21787e+01,-7.35132e+01,1.55304e+00,2.46671e-01,1.61074e+00
6.33500e+02,-1.19123e+01,-7.03170e+01,1.56063e+00,2.53126e-01,1.62104e+00
6.33500e+02,-1.15252e+01,-6.71208e+01,1.56064e+00,2.59728e-01,1.62419e+00
6.33500e+02,-1.10645e+01,-6.39245e+01,1.55604e+00,2.66443e-01,1.62303e+00
6.33500e+02,-1.05611e+01,-6.07283e+01,1.54875e+00,2.73255e-01,1.61945e+00
6.33500e+02,-9.99326e+00,-5.75321e+01,1.53742e+00,2.80145e-01,1.61218e+00
6.33500e+02,-9.38524e+00,-5.43358e+01,1.52357e+00,2.87094e-01,1.60267e+00
6.33500e+02,-8.73804e+00,-5.11396e+01,1.50726e+00,2.94088e-01,1.59101e+00
6.33500e+02,-8.05183e+00,-4.79434e+01,1.48851e+00,3.01113e-01,1.57723e+00
6.33500e+02,-7.34116e+00,-4.47472e+01,1.46822e+00,3.08156e-01,1.56222e+00
6.33500e+02,-6.59916e+00,-4.15509e+01,1.44596e+00,3.15207e-01,1.54559e+00
6.33500e+02,-5.83709e+00,-3.83547e+01,1.42244e+00,3.22255e-01,1.52803e+00
6.33500e+02,-5.05702e+00,-3.51585e+01,1.39779e+00,3.29293e-01,1.50968e+00
6.33500e+02,-4.26090e+00,-3.19623e+01,1.37214e+00,3.36312e-01,1.49067e+00
6.33500e+02,-3.45797e+00,-2.87660e+01,1.34606e+00,3.43308e-01,1.47155e+00
6.33500e+02,-2.64450e+00,-2.55698e+01,1.31932e+00,3.50277e-01,1.45213e+00
6.33500e+02,-1.82928e+00,-2.23736e+01,1.29246e+00,3.57215e-01,1.43292e+00
6.33500e+02,-1.00777e+00,-1.91774e+01,1.26522e+00,3.64121e-01,1.41369e+00
6.33500e+02,-1.86340e-01,-1.59811e+01,1.23797e+00,3.70992e-01,1.39481e+00
6.33500e+02,6.31986e-01,-1.27849e+01,1.21093e+00,3.77829e-01,1.37645e+00
6.33500e+02,1.45031e+00,-9.58868e+00,1.18388e+00,3.84630e-01,1.35845e+00
6.33500e+02,2.24926e+00,-6.39245e+00,1.15805e+00,3.91397e-01,1.34188e+00
6.33500e+02,3.04460e+00,-3.19623e+00,1.13244e+00,3.98136e-01,1.32588e+00
7.34700e+02,4.02095e+01,0.00000e+00,-1.01347e+00,3.72094e-01,1.20104e+00
7.34700e+02,4.00070e+01,-3.05550e+00,-1.02287e+00,3.66245e-01,1.20360e+00
7.34700e+02,3.97376e+01,-6.11100e+00,-1.02868e+00,3.60254e-01,1.20313e+00
7.34700e+02,3.94656e+01,-9.16651e+00,-1.03435e+00,3.54126e-01,1.20253e+00
7.34700e+02,3.91344e+01,-1.22220e+01,-1.03685e+00,3.47874e-01,1.19921e+00
7.34700e+02,3.87896e+01,-1.52775e+01,-1.03862e+00,3.41506e-01,1.19525e+00
7.34700e+02,3.83994e+01,-1.83330e+01,-1.03796e+00,3.35032e-01,1.18916e+00
7.34700e+02,3.79872e+01,-2.13885e+01,-1.03612e+00,3.28461e-01,1.18204e+00
7.34700e+02,3.75386e+01,-2.44440e+01,-1.03234e+00,3.21801e-01,1.17319e+00
7.34700e+02,3.70601e+01,-2.74995e+01,-1.02694e+00,3.15062e-01,1.16293e+00
7.34700e+02,3.65486e+01,-3.05550e+01,-1.01979e+00,3.08251e-01,1.15110e+00
7.34700e+02,3.59973e+01,-3.36105e+01,-1.01050e+00,3.01379e-01,1.13736e+00
7.34700e+02,3.54053e+01,-3.66660e+01,-9.99025e-01,2.94454e-01,1.12168e+00
7.34700e+02,3.47554e+01,-3.97215e+01,-9.84455e-01,2.87488e-01,1.10322e+00
7.34700e+02,3.40493e+01,-4.27770e+01,-9.66872e-01,2.80495e-01,1.08207e+00
7.34700e+02,3.32760e+01,-4.58325e+01,-9.45685e-01,2.73484e-01,1.05769e+00
7.34700e+02,3.24115e+01,-4.88880e+01,-9.19617e-01,2.66481e-01,1.02895e+00
7.34700e+02,3.14836e+01,-5.19435e+01,-8.90154e-01,2.59491e-01,9.97186e-01
7.34700e+02,3.04131e+01,-5.49990e+01,-8.53050e-01,2.52551e-01,9.58666e-01
7.34700e+02,2.92835e+01,-5.80545e+01,-8.12779e-01,2.45677e-01,9.17432e-01
7.34700e+02,2.79893e+01,-6.11100e+01,-7.63686e-01,2.38886e-01,8.68571e-01
7.34700e+02,2.65630e+01,-6.41655e+01,-7.07521e-01,2.32237e-01,8.13872e-01
7.34700e+02,2.50024e+01,-6.72210e+01,-6.44161e-01,2.25739e-01,7.53537e-01
7.34700e+02,2.32164e+01,-7.02765e+01,-5.68723e-01,2.19417e-01,6.84016e-01
7.34700e+02,2.11691e+01,-7.33320e+01,-4.79294e-01,2.13347e-01,6.05206e-01
7.34700e+02,1.88268e+01,-7.63875e+01,-3.74052e-01,2.07603e-01,5.18856e-01
7.34700e+02,1.60563e+01,-7.94430e+01,-2.45875e-01,2.02232e-01,4.27958e-01
7.34700e+02,1.25001e+01,-8.24985e+01,-7.56081e-02,1.97498e-01,3.50332e-01
7.34700e+02,7.69051e+00,-8.55540e+01,1.61807e-01,1.94606e-01,3.73893e-01
7.34700e+02,-3.11614e+00,-8.86096e+01,7.20497e-01,1.95754e-01,7.96288e-01
7.34700e+02,-3.89606e+00,-8.86166e+01,7.62232e-01,1.99316e-01,8.36767e-01
7.34700e+02,-1.10017e+01,-8.54518e+01,1.16386e+00,2.06070e-01,1.21736e+00
7.34700e+02,-1.18620e+01,-8.22869e+01,1.23092e+00,2.11059e-01,1.28406e+00
7.34700e+02,-1.21589e+01,-7.91220e+01,1.26779e+00,2.16310e-01,1.32200e+00
7.34700e+02,-1.22039e+01,-7.59571e+01,1.29118e+00,2.21803e-01,1.34712e+00
7.34700e+02,-1.20592e+01,-7.27922e+01,1.30439e+00,2.27496e-01,1.36261e+00
7.34700e+02,-1.17955e+01,-6.96274e+01,1.31123e+00,2.33356e-01,1.37211e+00
7.34700e+02,-1.14122e+01,-6.64625e+01,1.31167e+00,2.39349e-01,1.37562e+00
7.34700e+02,-1.09560e+01,-6.32976e+01,1.30820e+00,2.45445e-01,1.37554e+00
7.34700e+02,-1.04575e+01,-6.01327e+01,1.30246e+00,2.51629e-01,1.37344e+00
7.34700e+02,-9.89525e+00,-5.69678e+01,1.29331e+00,2.57883e-01,1.36827e+00
7.34700e+02,-9.29319e+00,-5.38030e+01,1.28202e+00,2.64191e-01,1.36124e+00
7.34700e+02,-8.65235e+00,-5.06381e+01,1.26866e+00,2.70540e-01,1.35243e+00
7.34700e+02,-7.97287e+00,-4.74732e+01,1.25323e+00,2.76917e-01,1.34187e+00
7.34700e+02,-7.26917e+00,-4.43083e+01,1.23650e+00,2.83310e-01,1.33031e+00
7.34700e+02,-6.53444e+00,-4.11434e+01,1.21811e+00,2.89711e-01,1.31741e+00
7.34700e+02,-5.77984e+00,-3.79786e+01,1.19865e+00,2.96109e-01,1.30376e+00
7.34700e+02,-5.00742e+00,-3.48137e+01,1.17824e+00,3.02497e-01,1.28948e+00
7.34700e+02,-4.21911e+00,-3.16488e+01,1.15697e+00,3.08869e-01,1.27467e+00
7.34700e+02,-3.42406e+00,-2.84839e+01,1.13535e+00,3.15219e-01,1.25981e+00
7.34700e+02,-2.61857e+00,-2.53190e+01,1.11317e+00,3.21545e-01,1.24472e+00
7.34700e+02,-1.81134e+00,-2.21542e+01,1.09089e+00,3.27843e-01,1.22983e+00
7.34700e+02,-9.97887e-01,-1.89893e+01,1.06828e+00,3.34112e-01,1.21496e+00
7.34700e+02,-1.84513e-01,-1.58244e+01,1.04568e+00,3.40349e-01,1.20040e+00
7.34700e+02,6.25788e-01,-1.26595e+01,1.02324e+00,3.46556e-01,1.18630e+00
7.34700e+02,1.43609e+00,-9.49464e+00,1.00079e+00,3.52729e-01,1.17254e+00
7.34700e+02,2.22720e+00,-6.32976e+00,9.79382e-01,3.58872e-01,1.15998e+00
7.34700e+02,3.01474e+00,-3.16488e+00,9.58161e-01,3.64988e-01,1.14792e+00
8.33800e+02,3.98196e+01,0.00000e+00,-8.45407e-01,3.38694e-01,1.02901e+00
8.33800e+02,3.96190e+01,-3.02587e+00,-8.53649e-01,3.33421e-01,1.03064e+00
8.33800e+02,3.93522e+01,-6.05173e+00,-8.58897e-01,3.28020e-01,1.02980e+00
8.33800e+02,3.90828e+01,-9.07760e+00,-8.64025e-01,3.22496e-01,1.02886e+00
8.33800e+02,3.87549e+01,-1.21035e+01,-8.66510e-01,3.16860e-01,1.02569e+00
8.33800e+02,3.84134e+01,-1.51293e+01,-8.68382e-01,3.11120e-01,1.02199e+00
8.33800e+02,3.80270e+01,-1.81552e+01,-8.68224e-01,3.05283e-01,1.01657e+00
8.33800e+02,3.76188e+01,-2.11811e+01,-8.67082e-01,2.99360e-01,1.01029e+00
8.33800e+02,3.71745e+01,-2.42069e+01,-8.64310e-01,2.93356e-01,1.00260e+00
8.33800e+02,3.67006e+01,-2.72328e+01,-8.60199e-01,2.87281e-01,9.93747e-01
8.33800e+02,3.61941e+01,-3.02587e+01,-8.54615e-01,2.81141e-01,9.83610e-01
8.33800e+02,3.56482e+01,-3.32845e+01,-8.47249e-01,2.74947e-01,9.71914e-01
8.33800e+02,3.50619e+01,-3.63104e+01,-8.38057e-01,2.68704e-01,9.58616e-01
8.33800e+02,3.44183e+01,-3.93363e+01,-8.26280e-01,2.62424e-01,9.43047e-01
8.33800e+02,3.37191e+01,-4.23621e+01,-8.11984e-01,2.56120e-01,9.25262e-01
8.33800e+02,3.29532e+01,-4.53880e+01,-7.94679e-01,2.49800e-01,9.04828e-01
8.33800e+02,3.20971e+01,-4.84139e+01,-7.73296e-01,2.43487e-01,8.80820e-01
8.33800e+02,3.11783e+01,-5.14397e+01,-7.49077e-01,2.37186e-01,8.54335e-01
8.33800e+02,3.01182e+01,-5.44656e+01,-7.18476e-01,2.30929e-01,8.22309e-01
8.33800e+02,2.89995e+01,-5.74915e+01,-6.85228e-01,2.24733e-01,7.88069e-01
8.33800e+02,2.77178e+01,-6.05173e+01,-6.44611e-01,2.18611e-01,7.47594e-01
8.33800e+02,2.63054e+01,-6.35432e+01,-5.98088e-01,2.12617e-01,7.02372e-01
8.33800e+02,2.47599e+01,-6.65691e+01,-5.45553e-01,2.06759e-01,6.52592e-01
8.33800e+02,2.29912e+01,-6.95949e+01,-4.82929e-01,2.01060e-01,5.95396e-01
8.33800e+02,2.09638e+01,-7.26208e+01,-4.08617e-01,1.95589e-01,5.30785e-01
8.33800e+02,1.86442e+01,-7.56467e+01,-3.21096e-01,1.90411e-01,4.60295e-01
8.33800e+02,1.59005e+01,-7.86725e+01,-2.14416e-01,1.85569e-01,3.86370e-01
8.33800e+02,1.23789e+01,-8.16984e+01,-7.25770e-02,1.81301e-01,3.22301e-01
8.33800e+02,7.61592e+00,-8.47243e+01,1.25355e-01,1.78695e-01,3.33930e-01
8.33800e+02,-3.08591e+00,-8.77501e+01,5.91664e-01,1.79730e-01,6.68562e-01
8.33800e+02,-3.85827e+00,-8.77572e+01,6.26526e-01,1.82941e-01,7.02095e-01
8.33800e+02,-1.08950e+01,-8.46230e+01,9.62437e-01,1.89030e-01,1.01660e+00
8.33800e+02,-1.17470e+01,-8.14888e+01,1.01886e+00,1.93527e-01,1.07258e+00
8.33800e+02,-1.20409e+01,-7.83546e+01,1.05007e+00,1.98260e-01,1.10479e+00
8.33800e+02,-1.20856e+01,-7.52204e+01,1.07001e+00,2.03212e-01,1.12641e+00
8.33800e+02,-1.19423e+01,-7.20862e+01,1.08146e+00,2.08345e-01,1.14008e+00
8.33800e+02,-1.16811e+01,-6.89521e+01,1.08758e+00,2.13627e-01,1.14880e+00
8.33800e+02,-1.13015e+01,-6.58179e+01,1.08835e+00,2.19030e-01,1.15257e+00
8.33800e+02,-1.08497e+01,-6.26837e+01,1.08586e+00,2.24525e-01,1.15339e+00
8.33800e+02,-1.03561e+01,-5.95495e+01,1.08147e+00,2.30099e-01,1.15257e+00
8.33800e+02,-9.79928e+00,-5.64153e+01,1.07423e+00,2.35737e-01,1.14921e+00
8.33800e+02,-9.20306e+00,-5.32811e+01,1.06521e+00,2.41424e-01,1.14435e+00
8.33800e+02,-8.56843e+00,-5.01469e+01,1.05446e+00,2.47147e-01,1.13804e+00
8.33800e+02,-7.89554e+00,-4.70128e+01,1.04197e+00,2.52895e-01,1.13030e+00
8.33800e+02,-7.19866e+00,-4.38786e+01,1.02841e+00,2.58659e-01,1.12175e+00
8.33800e+02,-6.47106e+00,-4.07444e+01,1.01345e+00,2.64428e-01,1.11214e+00
8.33800e+02,-5.72378e+00,-3.76102e+01,9.97603e-01,2.70196e-01,1.10192e+00
8.33800e+02,-4.95886e+00,-3.44760e+01,9.80960e-01,2.75955e-01,1.09121e+00
8.33800e+02,-4.17819e+00,-3.13418e+01,9.63605e-01,2.81698e-01,1.08009e+00
8.33800e+02,-3.39085e+00,-2.82077e+01,9.45949e-01,2.87423e-01,1.06895e+00
8.33800e+02,-2.59317e+00,-2.50735e+01,9.27825e-01,2.93125e-01,1.05765e+00
8.33800e+02,-1.79378e+00,-2.19393e+01,9.09624e-01,2.98803e-01,1.04655e+00
8.33800e+02,-9.88209e-01,-1.88051e+01,8.91144e-01,3.04454e-01,1.03548e+00
8.33800e+02,-1.82723e-01,-1.56709e+01,8.72668e-01,3.10076e-01,1.02469e+00
8.33800e+02,6.19718e-01,-1.25367e+01,8.54329e-01,3.15671e-01,1.01431e+00
8.33800e+02,1.42216e+00,-9.40255e+00,8.35991e-01,3.21235e-01,1.00422e+00
8.33800e+02,2.20560e+00,-6.26837e+00,8.18511e-01,3.26773e-01,9.95139e-01
8.33800e+02,2.98550e+00,-3.13418e+00,8.01191e-01,3.32287e-01,9.86484e-01
9.30700e+02,3.94382e+01,0.00000e+00,-6.95756e-01,3.05632e-01,8.74248e-01
9.30700e+02,3.92396e+01,-2.99689e+00,-7.02921e-01,3.00918e-01,8.75073e-01
9.30700e+02,3.89754e+01,-5.99378e+00,-7.07619e-01,2.96089e-01,8.73917e-01
9.30700e+02,3.87085e+01,-8.99067e+00,-7.12218e-01,2.91151e-01,8.72674e-01
9.30700e+02,3.83837e+01,-1.19876e+01,-7.14638e-01,2.86112e-01,8.69648e-01
9.30700e+02,3.80455e+01,-1.49844e+01,-7.16553e-01,2.80980e-01,8.66197e-01
9.30700e+02,3.76628e+01,-1.79813e+01,-7.16795e-01,2.75762e-01,8.61353e-01
9.30700e+02,3.72585e+01,-2.09782e+01,-7.16225e-01,2.70466e-01,8.55824e-01
9.30700e+02,3.68185e+01,-2.39751e+01,-7.14313e-01,2.65099e-01,8.49161e-01
9.30700e+02,3.63492e+01,-2.69720e+01,-7.11296e-01,2.59668e-01,8.41560e-01
9.30700e+02,3.58475e+01,-2.99689e+01,-7.07065e-01,2.54179e-01,8.32924e-01
9.30700e+02,3.53068e+01,-3.29658e+01,-7.01365e-01,2.48641e-01,8.23031e-01
9.30700e+02,3.47261e+01,-3.59627e+01,-6.94160e-01,2.43060e-01,8.11845e-01
9.30700e+02,3.40887e+01,-3.89596e+01,-6.84825e-01,2.37446e-01,7.98828e-01
9.30700e+02,3.33962e+01,-4.19565e+01,-6.73414e-01,2.31810e-01,7.84024e-01
9.30700e+02,3.26376e+01,-4.49533e+01,-6.59521e-01,2.26160e-01,7.67081e-01
9.30700e+02,3.17897e+01,-4.79502e+01,-6.42268e-01,2.20516e-01,7.47255e-01
9.30700e+02,3.08797e+01,-5.09471e+01,-6.22677e-01,2.14883e-01,7.25431e-01
9.30700e+02,2.98297e+01,-5.39440e+01,-5.97825e-01,2.09290e-01,6.99143e-01
9.30700e+02,2.87218e+01,-5.69409e+01,-5.70793e-01,2.03750e-01,6.71079e-01
9.30700e+02,2.74524e+01,-5.99378e+01,-5.37686e-01,1.98278e-01,6.38003e-01
9.30700e+02,2.60534e+01,-6.29347e+01,-4.99709e-01,1.92919e-01,6.01134e-01
9.30700e+02,2.45228e+01,-6.59316e+01,-4.56779e-01,1.87682e-01,5.60643e-01
9.30700e+02,2.27710e+01,-6.89285e+01,-4.05532e-01,1.82587e-01,5.14267e-01
9.30700e+02,2.07631e+01,-7.19254e+01,-3.44652e-01,1.77696e-01,4.62073e-01
9.30700e+02,1.84656e+01,-7.49222e+01,-2.72883e-01,1.73066e-01,4.05365e-01
9.30700e+02,1.57483e+01,-7.79191e+01,-1.85322e-01,1.68738e-01,3.46067e-01
9.30700e+02,1.22603e+01,-8.09160e+01,-6.87811e-02,1.64923e-01,2.93819e-01
9.30700e+02,7.54299e+00,-8.39129e+01,9.39953e-02,1.62593e-01,2.96892e-01
9.30700e+02,-3.05636e+00,-8.69098e+01,4.77986e-01,1.63519e-01,5.55594e-01
9.30700e+02,-3.82132e+00,-8.69168e+01,5.06721e-01,1.66389e-01,5.82942e-01
9.30700e+02,-1.07906e+01,-8.38126e+01,7.83985e-01,1.71832e-01,8.38577e-01
9.30700e+02,-1.16345e+01,-8.07084e+01,8.30878e-01,1.75853e-01,8.84948e-01
9.30700e+02,-1.19256e+01,-7.76042e+01,8.56988e-01,1.80085e-01,9.11987e-01
9.30700e+02,-1.19698e+01,-7.45001e+01,8.73809e-01,1.84512e-01,9.30417e-01
9.30700e+02,-1.18279e+01,-7.13959e+01,8.83631e-01,1.89100e-01,9.42380e-01
9.30700e+02,-1.15692e+01,-6.82917e+01,8.89061e-01,1.93823e-01,9.50332e-01
9.30700e+02,-1.11933e+01,-6.51876e+01,8.90082e-01,1.98652e-01,9.54271e-01
9.30700e+02,-1.07458e+01,-6.20834e+01,8.88412e-01,2.03565e-01,9.55820e-01
9.30700e+02,-1.02569e+01,-5.89792e+01,8.85182e-01,2.08549e-01,9.56047e-01
9.30700e+02,-9.70544e+00,-5.58751e+01,8.79602e-01,2.13589e-01,9.54233e-01
9.30700e+02,-9.11493e+00,-5.27709e+01,8.72553e-01,2.18673e-01,9.51210e-01
9.30700e+02,-8.48637e+00,-4.96667e+01,8.64073e-01,2.23789e-01,9.47030e-01
9.30700e+02,-7.81993e+00,-4.65625e+01,8.54167e-01,2.28928e-01,9.41714e-01
9.30700e+02,-7.12973e+00,-4.34584e+01,8.43369e-01,2.34080e-01,9.35763e-01
9.30700e+02,-6.40909e+00,-4.03542e+01,8.31426e-01,2.39238e-01,9.28964e-01
9.30700e+02,-5.66897e+00,-3.72500e+01,8.18750e-01,2.44394e-01,9.21703e-01
9.30700e+02,-4.91137e+00,-3.41459e+01,8.05417e-01,2.49543e-01,9.14063e-01
9.30700e+02,-4.13818e+00,-3.10417e+01,7.91497e-01,2.54678e-01,9.06118e-01
9.30700e+02,-3.35837e+00,-2.79375e+01,7.77329e-01,2.59795e-01,8.98176e-01
9.30700e+02,-2.56834e+00,-2.48334e+01,7.62775e-01,2.64893e-01,8.90130e-01
9.30700e+02,-1.77660e+00,-2.17292e+01,7.48158e-01,2.69969e-01,8.82264e-01
9.30700e+02,-9.78745e-01,-1.86250e+01,7.33311e-01,2.75020e-01,8.74445e-01
9.30700e+02,-1.80973e-01,-1.55208e+01,7.18467e-01,2.80047e-01,8.66876e-01
9.30700e+02,6.13784e-01,-1.24167e+01,7.03736e-01,2.85048e-01,8.59652e-01
9.30700e+02,1.40854e+00,-9.31251e+00,6.89006e-01,2.90023e-01,8.52683e-01
9.30700e+02,2.18448e+00,-6.20834e+00,6.74983e-01,2.94973e-01,8.46540e-01
9.30700e+02,2.95691e+00,-3.10417e+00,6.61092e-01,2.99902e-01,8.40753e-01
1.02500e+03,3.90671e+01,0.00000e+00,-5.64226e-01,2.73062e-01,7.36234e-01
1.02500e+03,3.88704e+01,-2.96869e+00,-5.70396e-01,2.68880e-01,7.36370e-01
1.02500e+03,3.86086e+01,-5.93738e+00,-5.74560e-01,2.64596e-01,7.34951e-01
1.02500e+03,3.83443e+01,-8.90607e+00,-5.78645e-01,2.60216e-01,7.33462e-01
1.02500e+03,3.80226e+01,-1.18748e+01,-5.80959e-01,2.55746e-01,7.30569e-01
1.02500e+03,3.76875e+01,-1.48435e+01,-5.82863e-01,2.51193e-01,7.27340e-01
1.02500e+03,3.73084e+01,-1.78121e+01,-5.83408e-01,2.46564e-01,7.23013e-01
1.02500e+03,3.69079e+01,-2.07808e+01,-5.83295e-01,2.41866e-01,7.18144e-01
1.02500e+03,3.64721e+01,-2.37495e+01,-5.82089e-01,2.37105e-01,7.12379e-01
1.02500e+03,3.60071e+01,-2.67182e+01,-5.79987e-01,2.32287e-01,7.05873e-01
1.02500e+03,3.55102e+01,-2.96869e+01,-5.76899e-01,2.27418e-01,6.98548e-01
1.02500e+03,3.49746e+01,-3.26556e+01,-5.72617e-01,2.22505e-01,6.90229e-01
1.02500e+03,3.43994e+01,-3.56243e+01,-5.67113e-01,2.17554e-01,6.80886e-01
1.02500e+03,3.37680e+01,-3.85930e+01,-5.59877e-01,2.12574e-01,6.70094e-01
1.02500e+03,3.30819e+01,-4.15617e+01,-5.50956e-01,2.07574e-01,6.57886e-01
1.02500e+03,3.23305e+01,-4.45304e+01,-5.40019e-01,2.02562e-01,6.43984e-01
1.02500e+03,3.14906e+01,-4.74990e+01,-5.26352e-01,1.97556e-01,6.27799e-01
1.02500e+03,3.05891e+01,-5.04677e+01,-5.10786e-01,1.92559e-01,6.10031e-01
1.02500e+03,2.95491e+01,-5.34364e+01,-4.90946e-01,1.87597e-01,5.88732e-01
1.02500e+03,2.84516e+01,-5.64051e+01,-4.69334e-01,1.82683e-01,5.66033e-01
1.02500e+03,2.71940e+01,-5.93738e+01,-4.42788e-01,1.77828e-01,5.39379e-01
1.02500e+03,2.58083e+01,-6.23425e+01,-4.12286e-01,1.73074e-01,5.09749e-01
1.02500e+03,2.42920e+01,-6.53112e+01,-3.77760e-01,1.68429e-01,4.77292e-01
1.02500e+03,2.25567e+01,-6.82799e+01,-3.36478e-01,1.63909e-01,4.40246e-01
1.02500e+03,2.05677e+01,-7.12486e+01,-2.87370e-01,1.59570e-01,3.98710e-01
1.02500e+03,1.82919e+01,-7.42173e+01,-2.29417e-01,1.55464e-01,3.53750e-01
1.02500e+03,1.56001e+01,-7.71859e+01,-1.58635e-01,1.51625e-01,3.06815e-01
1.02500e+03,1.21450e+01,-8.01546e+01,-6.43110e-02,1.48240e-01,2.64691e-01
1.02500e+03,7.47201e+00,-8.31233e+01,6.75726e-02,1.46174e-01,2.62042e-01
1.02500e+03,-3.02760e+00,-8.60920e+01,3.79160e-01,1.46995e-01,4.56711e-01
1.02500e+03,-3.78536e+00,-8.60989e+01,4.02502e-01,1.49541e-01,4.78640e-01
1.02500e+03,-1.06891e+01,-8.30239e+01,6.28100e-01,1.54370e-01,6.82642e-01
1.02500e+03,-1.15250e+01,-7.99490e+01,6.66556e-01,1.57937e-01,7.20506e-01
1.02500e+03,-1.18134e+01,-7.68740e+01,6.88127e-01,1.61690e-01,7.42933e-01
1.02500e+03,-1.18572e+01,-7.37991e+01,7.02152e-01,1.65618e-01,7.58489e-01
1.02500e+03,-1.17166e+01,-7.07241e+01,7.10492e-01,1.69688e-01,7.68883e-01
1.02500e+03,-1.14604e+01,-6.76491e+01,7.15265e-01,1.73877e-01,7.76082e-01
1.02500e+03,-1.10880e+01,-6.45742e+01,7.16455e-01,1.78162e-01,7.80085e-01
1.02500e+03,-1.06447e+01,-6.14992e+01,7.15459e-01,1.82520e-01,7.82191e-01
1.02500e+03,-1.01604e+01,-5.84243e+01,7.13197e-01,1.86941e-01,7.83256e-01
1.02500e+03,-9.61411e+00,-5.53493e+01,7.09024e-01,1.91412e-01,7.82707e-01
1.02500e+03,-9.02916e+00,-5.22743e+01,7.03659e-01,1.95921e-01,7.81211e-01
1.02500e+03,-8.40652e+00,-4.91994e+01,6.97131e-01,2.00460e-01,7.78810e-01
1.02500e+03,-7.74634e+00,-4.61244e+01,6.89446e-01,2.05019e-01,7.75521e-01
1.02500e+03,-7.06264e+00,-4.30495e+01,6.81034e-01,2.09589e-01,7.71745e-01
1.02500e+03,-6.34878e+00,-3.99745e+01,6.71693e-01,2.14165e-01,7.67315e-01
1.02500e+03,-5.61563e+00,-3.68995e+01,6.61757e-01,2.18739e-01,7.62537e-01
1.02500e+03,-4.86516e+00,-3.38246e+01,6.51287e-01,2.23306e-01,7.57476e-01
1.02500e+03,-4.09924e+00,-3.07496e+01,6.40340e-01,2.27860e-01,7.52194e-01
1.02500e+03,-3.32677e+00,-2.76746e+01,6.29191e-01,2.32400e-01,7.46935e-01
1.02500e+03,-2.54417e+00,-2.45997e+01,6.17730e-01,2.36922e-01,7.41611e-01
1.02500e+03,-1.75988e+00,-2.15247e+01,6.06217e-01,2.41425e-01,7.36448e-01
1.02500e+03,-9.69535e-01,-1.84498e+01,5.94516e-01,2.45906e-01,7.31341e-01
1.02500e+03,-1.79270e-01,-1.53748e+01,5.82819e-01,2.50365e-01,7.26447e-01
1.02500e+03,6.08008e-01,-1.22998e+01,5.71213e-01,2.54801e-01,7.21842e-01
1.02500e+03,1.39529e+00,-9.22488e+00,5.59608e-01,2.59214e-01,7.17451e-01
1.02500e+03,2.16392e+00,-6.14992e+00,5.48577e-01,2.63605e-01,7.13723e-01
1.02500e+03,2.92908e+00,-3.07496e+00,5.37654e-01,2.67978e-01,7.10287e-01
1.11650e+03,3.87070e+01,0.00000e+00,-4.50153e-01,2.40617e-01,6.13456e-01
1.11650e+03,3.85121e+01,-2.94133e+00,-4.55411e-01,2.36954e-01,6.13059e-01
1.11650e+03,3.82528e+01,-5.88266e+00,-4.59066e-01,2.33202e-01,6.11466e-01
1.11650e+03,3.79909e+01,-8.82398e+00,-4.62657e-01,2.29364e-01,6.09816e-01
1.11650e+03,3.76721e+01,-1.17653e+01,-4.64833e-01,2.25449e-01,6.07084e-01
1.11650e+03,3.73401e+01,-1.47066e+01,-4.66681e-01,2.21461e-01,6.04091e-01
1.11650e+03,3.69645e+01,-1.76480e+01,-4.67443e-01,2.17406e-01,6.00250e-01
1.11650e+03,3.65678e+01,-2.05893e+01,-4.67678e-01,2.13291e-01,5.95988e-01
1.11650e+03,3.61359e+01,-2.35306e+01,-4.67041e-01,2.09120e-01,5.91034e-01
1.11650e+03,3.56753e+01,-2.64720e+01,-4.65687e-01,2.04900e-01,5.85505e-01
1.11650e+03,3.51829e+01,-2.94133e+01,-4.63544e-01,2.00635e-01,5.79341e-01
1.11650e+03,3.46522e+01,-3.23546e+01,-4.60447e-01,1.96331e-01,5.72407e-01
1.11650e+03,3.40823e+01,-3.52959e+01,-4.56373e-01,1.91994e-01,5.64679e-01
1.11650e+03,3.34567e+01,-3.82373e+01,-4.50915e-01,1.87632e-01,5.55825e-01
1.11650e+03,3.27770e+01,-4.11786e+01,-4.44110e-01,1.83252e-01,5.45874e-01
1.11650e+03,3.20325e+01,-4.41199e+01,-4.35693e-01,1.78862e-01,5.34606e-01
1.11650e+03,3.12004e+01,-4.70612e+01,-4.25094e-01,1.74477e-01,5.21566e-01
1.11650e+03,3.03072e+01,-5.00026e+01,-4.12977e-01,1.70099e-01,5.07298e-01
1.11650e+03,2.92767e+01,-5.29439e+01,-3.97444e-01,1.65753e-01,4.90289e-01
1.11650e+03,2.81893e+01,-5.58852e+01,-3.80494e-01,1.61448e-01,4.72199e-01
1.11650e+03,2.69434e+01,-5.88266e+01,-3.59599e-01,1.57196e-01,4.51047e-01
1.11650e+03,2.55704e+01,-6.17679e+01,-3.35543e-01,1.53032e-01,4.27604e-01
1.11650e+03,2.40681e+01,-6.47092e+01,-3.08270e-01,1.48963e-01,4.01995e-01
1.11650e+03,2.23488e+01,-6.76505e+01,-2.75596e-01,1.45004e-01,3.72869e-01
1.11650e+03,2.03781e+01,-7.05919e+01,-2.36666e-01,1.41203e-01,3.40332e-01
1.11650e+03,1.81233e+01,-7.35332e+01,-1.90666e-01,1.37606e-01,3.05221e-01
1.11650e+03,1.54563e+01,-7.64745e+01,-1.34411e-01,1.34243e-01,2.68570e-01
1.11650e+03,1.20330e+01,-7.94159e+01,-5.93366e-02,1.31278e-01,2.34995e-01
1.11650e+03,7.40314e+00,-8.23572e+01,4.57619e-02,1.29468e-01,2.28867e-01
1.11650e+03,-2.99970e+00,-8.52985e+01,2.94512e-01,1.30188e-01,3.70922e-01
1.11650e+03,-3.75047e+00,-8.53053e+01,3.13170e-01,1.32418e-01,3.88174e-01
1.11650e+03,-1.05906e+01,-8.22587e+01,4.93845e-01,1.36648e-01,5.47632e-01
1.11650e+03,-1.14188e+01,-7.92121e+01,5.24923e-01,1.39773e-01,5.78060e-01
1.11650e+03,-1.17045e+01,-7.61655e+01,5.42505e-01,1.43061e-01,5.96414e-01
1.11650e+03,-1.17479e+01,-7.31189e+01,5.54054e-01,1.46501e-01,6.09395e-01
1.11650e+03,-1.16086e+01,-7.00722e+01,5.61058e-01,1.50066e-01,6.18341e-01
1.11650e+03,-1.13547e+01,-6.70256e+01,5.65211e-01,1.53736e-01,6.24794e-01
1.11650e+03,-1.09858e+01,-6.39790e+01,5.66500e-01,1.57489e-01,6.28753e-01
1.11650e+03,-1.05466e+01,-6.09324e+01,5.66042e-01,1.61306e-01,6.31239e-01
1.11650e+03,-1.00667e+01,-5.78858e+01,5.64571e-01,1.65179e-01,6.32924e-01
1.11650e+03,-9.52550e+00,-5.48391e+01,5.61574e-01,1.69095e-01,6.33360e-01
1.11650e+03,-8.94594e+00,-5.17925e+01,5.57622e-01,1.73045e-01,6.33069e-01
1.11650e+03,-8.32904e+00,-4.87459e+01,5.52742e-01,1.77021e-01,6.32086e-01
1.11650e+03,-7.67495e+00,-4.56993e+01,5.46936e-01,1.81014e-01,6.30426e-01
1.11650e+03,-6.99754e+00,-4.26527e+01,5.40550e-01,1.85018e-01,6.28402e-01
1.11650e+03,-6.29027e+00,-3.96060e+01,5.33421e-01,1.89026e-01,6.25883e-01
1.11650e+03,-5.56387e+00,-3.65594e+01,5.25816e-01,1.93032e-01,6.23110e-01
1.11650e+03,-4.82031e+00,-3.35128e+01,5.17784e-01,1.97033e-01,6.20133e-01
1.11650e+03,-4.06146e+00,-3.04662e+01,5.09371e-01,2.01022e-01,6.17000e-01
1.11650e+03,-3.29611e+00,-2.74196e+01,5.00796e-01,2.04999e-01,6.13898e-01
1.11650e+03,-2.52072e+00,-2.43730e+01,4.91972e-01,2.08960e-01,6.10762e-01
1.11650e+03,-1.74366e+00,-2.13263e+01,4.83107e-01,2.12904e-01,6.07763e-01
1.11650e+03,-9.60599e-01,-1.82797e+01,4.74091e-01,2.16829e-01,6.04820e-01
1.11650e+03,-1.77618e-01,-1.52331e+01,4.65078e-01,2.20735e-01,6.02054e-01
1.11650e+03,6.02404e-01,-1.21865e+01,4.56139e-01,2.24621e-01,5.99522e-01
1.11650e+03,1.38243e+00,-9.13986e+00,4.47199e-01,2.28486e-01,5.97164e-01
1.11650e+03,2.14398e+00,-6.09324e+00,4.38720e-01,2.32333e-01,5.95324e-01
1.11650e+03,2.90209e+00,-3.04662e+00,4.30325e-01,2.36163e-01,5.93716e-01
1.20500e+03,3.76912e+01,0.00000e+00,-5.04236e-01,2.41896e-01,6.55587e-01
1.20500e+03,3.75014e+01,-2.86413e+00,-5.12266e-01,2.37444e-01,6.56929e-01
1.20500e+03,3.72488e+01,-5.72827e+00,-5.18498e-01,2.32884e-01,6.56921e-01
1.20500e+03,3.69938e+01,-8.59240e+00,-5.24658e-01,2.28219e-01,6.56900e-01
1.20500e+03,3.66834e+01,-1.14565e+01,-5.29229e-01,2.23460e-01,6.55658e-01
1.20500e+03,3.63602e+01,-1.43207e+01,-5.33433e-01,2.18612e-01,6.54159e-01
1.20500e+03,3.59944e+01,-1.71848e+01,-5.36416e-01,2.13683e-01,6.51708e-01
1.20500e+03,3.56080e+01,-2.00489e+01,-5.38809e-01,2.08679e-01,6.48811e-01
1.20500e+03,3.51875e+01,-2.29131e+01,-5.40222e-01,2.03608e-01,6.45142e-01
1.20500e+03,3.47390e+01,-2.57772e+01,-5.40830e-01,1.98476e-01,6.40840e-01
1.20500e+03,3.42596e+01,-2.86413e+01,-5.40553e-01,1.93290e-01,6.35831e-01
1.20500e+03,3.37428e+01,-3.15055e+01,-5.39205e-01,1.88056e-01,6.29951e-01
1.20500e+03,3.31878e+01,-3.43696e+01,-5.36761e-01,1.82782e-01,6.23169e-01
1.20500e+03,3.25787e+01,-3.72337e+01,-5.32762e-01,1.77476e-01,6.15084e-01
1.20500e+03,3.19168e+01,-4.00979e+01,-5.27251e-01,1.72149e-01,6.05723e-01
1.20500e+03,3.11919e+01,-4.29620e+01,-5.19932e-01,1.66809e-01,5.94814e-01
1.20500e+03,3.03815e+01,-4.58261e+01,-5.10162e-01,1.61474e-01,5.81796e-01
1.20500e+03,2.95118e+01,-4.86903e+01,-4.98688e-01,1.56149e-01,5.67307e-01
1.20500e+03,2.85084e+01,-5.15544e+01,-4.83379e-01,1.50861e-01,5.49484e-01
1.20500e+03,2.74495e+01,-5.44186e+01,-4.66481e-01,1.45624e-01,5.30305e-01
1.20500e+03,2.62363e+01,-5.72827e+01,-4.45154e-01,1.40450e-01,5.07287e-01
1.20500e+03,2.48993e+01,-6.01468e+01,-4.20278e-01,1.35383e-01,4.81268e-01
1.20500e+03,2.34365e+01,-6.30110e+01,-3.91790e-01,1.30432e-01,4.52257e-01
1.20500e+03,2.17623e+01,-6.58751e+01,-3.57240e-01,1.25614e-01,4.18278e-01
1.20500e+03,1.98433e+01,-6.87392e+01,-3.15667e-01,1.20988e-01,3.78893e-01
1.20500e+03,1.76476e+01,-7.16034e+01,-2.66157e-01,1.16610e-01,3.34115e-01
1.20500e+03,1.50506e+01,-7.44675e+01,-2.05135e-01,1.12515e-01,2.82948e-01
1.20500e+03,1.17172e+01,-7.73316e+01,-1.22988e-01,1.08905e-01,2.25182e-01
1.20500e+03,7.20885e+00,-8.01958e+01,-7.13568e-03,1.06697e-01,1.84942e-01
1.20500e+03,-2.92097e+00,-8.30599e+01,2.69974e-01,1.07568e-01,3.28023e-01
1.20500e+03,-3.65204e+00,-8.30665e+01,2.90915e-01,1.10279e-01,3.48017e-01
1.20500e+03,-1.03126e+01,-8.00999e+01,4.95940e-01,1.15422e-01,5.34718e-01
1.20500e+03,-1.11191e+01,-7.71332e+01,5.33032e-01,1.19222e-01,5.71634e-01
1.20500e+03,-1.13974e+01,-7.41666e+01,5.54973e-01,1.23222e-01,5.94597e-01
1.20500e+03,-1.14396e+01,-7.11999e+01,5.70142e-01,1.27406e-01,6.11359e-01
1.20500e+03,-1.13040e+01,-6.82332e+01,5.80210e-01,1.31744e-01,6.23469e-01
1.20500e+03,-1.10567e+01,-6.52666e+01,5.87077e-01,1.36208e-01,6.32706e-01
1.20500e+03,-1.06975e+01,-6.22999e+01,5.90728e-01,1.40775e-01,6.39072e-01
1.20500e+03,-1.02698e+01,-5.93332e+01,5.92419e-01,1.45420e-01,6.43740e-01
1.20500e+03,-9.80253e+00,-5.63666e+01,5.92972e-01,1.50132e-01,6.47484e-01
1.20500e+03,-9.27551e+00,-5.33999e+01,5.91812e-01,1.54898e-01,6.49786e-01
1.20500e+03,-8.71115e+00,-5.04333e+01,5.89581e-01,1.59706e-01,6.51248e-01
1.20500e+03,-8.11045e+00,-4.74666e+01,5.86308e-01,1.64545e-01,6.51906e-01
1.20500e+03,-7.47352e+00,-4.44999e+01,5.81995e-01,1.69405e-01,6.51776e-01
1.20500e+03,-6.81389e+00,-4.15333e+01,5.77031e-01,1.74278e-01,6.51217e-01
1.20500e+03,-6.12518e+00,-3.85666e+01,5.71232e-01,1.79157e-01,6.50076e-01
1.20500e+03,-5.41785e+00,-3.55999e+01,5.64900e-01,1.84035e-01,6.48628e-01
1.20500e+03,-4.69381e+00,-3.26333e+01,5.58088e-01,1.88905e-01,6.46930e-01
1.20500e+03,-3.95486e+00,-2.96666e+01,5.50849e-01,1.93763e-01,6.45033e-01
1.20500e+03,-3.20961e+00,-2.67000e+01,5.43428e-01,1.98606e-01,6.43154e-01
1.20500e+03,-2.45457e+00,-2.37333e+01,5.35727e-01,2.03429e-01,6.41213e-01
1.20500e+03,-1.69790e+00,-2.07666e+01,5.27980e-01,2.08232e-01,6.39409e-01
1.20500e+03,-9.35389e-01,-1.78000e+01,5.20064e-01,2.13013e-01,6.37644e-01
1.20500e+03,-1.72956e-01,-1.48333e+01,5.12151e-01,2.17770e-01,6.36058e-01
1.20500e+03,5.86594e-01,-1.18666e+01,5.04321e-01,2.22503e-01,6.34715e-01
1.20500e+03,1.34615e+00,-8.89999e+00,4.96490e-01,2.27212e-01,6.33544e-01
1.20500e+03,2.08771e+00,-5.93332e+00,4.89176e-01,2.31898e-01,6.32948e-01
1.20500e+03,2.82592e+00,-2.96666e+00,4.81958e-01,2.36564e-01,6.32591e-01
1.29010e+03,3.63234e+01,0.00000e+00,-4.00813e-01,2.15522e-01,5.47722e-01
1.29010e+03,3.61405e+01,-2.76019e+00,-4.07462e-01,2.11687e-01,5.48143e-01
1.29010e+03,3.58971e+01,-5.52039e+00,-4.12678e-01,2.07759e-01,5.47535e-01
1.29010e+03,3.56513e+01,-8.28058e+00,-4.17837e-01,2.03741e-01,5.46918e-01
1.29010e+03,3.53522e+01,-1.10408e+01,-4.21730e-01,1.99642e-01,5.45368e-01
1.29010e+03,3.50407e+01,-1.38010e+01,-4.25329e-01,1.95466e-01,5.43622e-01
1.29010e+03,3.46882e+01,-1.65612e+01,-4.27956e-01,1.91220e-01,5.41148e-01
1.29010e+03,3.43158e+01,-1.93214e+01,-4.30112e-01,1.86910e-01,5.38333e-01
1.29010e+03,3.39106e+01,-2.20816e+01,-4.31487e-01,1.82542e-01,5.34926e-01
1.29010e+03,3.34783e+01,-2.48418e+01,-4.32221e-01,1.78122e-01,5.31034e-01
1.29010e+03,3.30163e+01,-2.76019e+01,-4.32249e-01,1.73655e-01,5.26599e-01
1.29010e+03,3.25183e+01,-3.03621e+01,-4.31424e-01,1.69147e-01,5.21496e-01
1.29010e+03,3.19834e+01,-3.31223e+01,-4.29724e-01,1.64604e-01,5.15699e-01
1.29010e+03,3.13964e+01,-3.58825e+01,-4.26786e-01,1.60034e-01,5.08899e-01
1.29010e+03,3.07585e+01,-3.86427e+01,-4.22642e-01,1.55446e-01,5.01115e-01
1.29010e+03,3.00599e+01,-4.14029e+01,-4.17056e-01,1.50846e-01,4.92138e-01
1.29010e+03,2.92790e+01,-4.41631e+01,-4.09518e-01,1.46251e-01,4.81532e-01
1.29010e+03,2.84408e+01,-4.69233e+01,-4.00621e-01,1.41665e-01,4.69791e-01
1.29010e+03,2.74738e+01,-4.96835e+01,-3.88668e-01,1.37111e-01,4.55478e-01
1.29010e+03,2.64534e+01,-5.24437e+01,-3.75447e-01,1.32600e-01,4.40124e-01
1.29010e+03,2.52842e+01,-5.52039e+01,-3.58697e-01,1.28144e-01,4.21813e-01
1.29010e+03,2.39957e+01,-5.79641e+01,-3.39117e-01,1.23780e-01,4.01204e-01
1.29010e+03,2.25860e+01,-6.07243e+01,-3.16659e-01,1.19515e-01,3.78318e-01
1.29010e+03,2.09725e+01,-6.34845e+01,-2.89369e-01,1.15366e-01,3.51657e-01
1.29010e+03,1.91232e+01,-6.62447e+01,-2.56481e-01,1.11382e-01,3.20937e-01
1.29010e+03,1.70072e+01,-6.90049e+01,-2.17267e-01,1.07611e-01,2.86261e-01
1.29010e+03,1.45045e+01,-7.17651e+01,-1.68876e-01,1.04086e-01,2.47023e-01
1.29010e+03,1.12920e+01,-7.45253e+01,-1.03647e-01,1.00976e-01,2.03301e-01
1.29010e+03,6.94724e+00,-7.72855e+01,-1.15526e-02,9.90753e-02,1.71992e-01
1.29010e+03,-2.81497e+00,-8.00457e+01,2.09077e-01,9.98259e-02,2.71310e-01
1.29010e+03,-3.51951e+00,-8.00521e+01,2.25768e-01,1.02161e-01,2.86848e-01
1.29010e+03,-9.93839e+00,-7.71931e+01,3.89447e-01,1.06591e-01,4.30992e-01
1.29010e+03,-1.07156e+01,-7.43341e+01,4.19270e-01,1.09865e-01,4.60432e-01
1.29010e+03,-1.09838e+01,-7.14751e+01,4.37016e-01,1.13309e-01,4.79062e-01
1.29010e+03,-1.10244e+01,-6.86160e+01,4.49365e-01,1.16913e-01,4.92885e-01
1.29010e+03,-1.08937e+01,-6.57570e+01,4.57648e-01,1.20649e-01,5.03101e-01
1.29010e+03,-1.06555e+01,-6.28980e+01,4.63379e-01,1.24495e-01,5.11094e-01
1.29010e+03,-1.03093e+01,-6.00390e+01,4.66547e-01,1.28427e-01,5.16863e-01
1.29010e+03,-9.89713e+00,-5.71800e+01,4.68153e-01,1.32428e-01,5.21324e-01
1.29010e+03,-9.44680e+00,-5.43210e+01,4.68851e-01,1.36487e-01,5.25079e-01
1.29010e+03,-8.93890e+00,-5.14620e+01,4.68185e-01,1.40592e-01,5.27726e-01
1.29010e+03,-8.39503e+00,-4.86030e+01,4.66664e-01,1.44732e-01,5.29733e-01
1.29010e+03,-7.81612e+00,-4.57440e+01,4.64312e-01,1.48900e-01,5.31130e-01
1.29010e+03,-7.20231e+00,-4.28850e+01,4.61133e-01,1.53086e-01,5.31929e-01
1.29010e+03,-6.56662e+00,-4.00260e+01,4.57434e-01,1.57283e-01,5.32409e-01
1.29010e+03,-5.90290e+00,-3.71670e+01,4.53070e-01,1.61485e-01,5.32451e-01
1.29010e+03,-5.22123e+00,-3.43080e+01,4.48280e-01,1.65685e-01,5.32268e-01
1.29010e+03,-4.52347e+00,-3.14490e+01,4.43108e-01,1.69880e-01,5.31904e-01
1.29010e+03,-3.81134e+00,-2.85900e+01,4.37596e-01,1.74064e-01,5.31399e-01
1.29010e+03,-3.09313e+00,-2.57310e+01,4.31939e-01,1.78234e-01,5.30917e-01
1.29010e+03,-2.36549e+00,-2.28720e+01,4.26058e-01,1.82388e-01,5.30397e-01
1.29010e+03,-1.63628e+00,-2.00130e+01,4.20140e-01,1.86524e-01,5.29992e-01
1.29010e+03,-9.01444e-01,-1.71540e+01,4.14089e-01,1.90641e-01,5.29624e-01
1.29010e+03,-1.66680e-01,-1.42950e+01,4.08039e-01,1.94738e-01,5.29400e-01
1.29010e+03,5.65307e-01,-1.14360e+01,4.02056e-01,1.98814e-01,5.29368e-01
1.29010e+03,1.29729e+00,-8.57701e+00,3.96072e-01,2.02869e-01,5.29472e-01
1.29010e+03,2.01195e+00,-5.71800e+00,3.90500e-01,2.06904e-01,5.30017e-01
1.29010e+03,2.72337e+00,-2.85900e+00,3.85004e-01,2.10923e-01,5.30748e-01
1.37170e+03,3.50118e+01,0.00000e+00,-3.11399e-01,1.90159e-01,4.53266e-01
1.37170e+03,3.48355e+01,-2.66053e+00,-3.16832e-01,1.86902e-01,4.52967e-01
1.37170e+03,3.46009e+01,-5.32106e+00,-3.21147e-01,1.83565e-01,4.51911e-01
1.37170e+03,3.43640e+01,-7.98159e+00,-3.25418e-01,1.80152e-01,4.50845e-01
1.37170e+03,3.40757e+01,-1.06421e+01,-3.28702e-01,1.76670e-01,4.49090e-01
1.37170e+03,3.37754e+01,-1.33027e+01,-3.31757e-01,1.73123e-01,4.47188e-01
1.37170e+03,3.34357e+01,-1.59632e+01,-3.34054e-01,1.69517e-01,4.44748e-01
1.37170e+03,3.30768e+01,-1.86237e+01,-3.35984e-01,1.65857e-01,4.42053e-01
1.37170e+03,3.26861e+01,-2.12842e+01,-3.37306e-01,1.62147e-01,4.38919e-01
1.37170e+03,3.22695e+01,-2.39448e+01,-3.38128e-01,1.58392e-01,4.35425e-01
1.37170e+03,3.18241e+01,-2.66053e+01,-3.38400e-01,1.54598e-01,4.31528e-01
1.37170e+03,3.13441e+01,-2.92658e+01,-3.38006e-01,1.50770e-01,4.27133e-01
1.37170e+03,3.08286e+01,-3.19264e+01,-3.36932e-01,1.46911e-01,4.22222e-01
1.37170e+03,3.02627e+01,-3.45869e+01,-3.34892e-01,1.43030e-01,4.16564e-01
1.37170e+03,2.96479e+01,-3.72474e+01,-3.31912e-01,1.39133e-01,4.10171e-01
1.37170e+03,2.89745e+01,-3.99080e+01,-3.27809e-01,1.35227e-01,4.02886e-01
1.37170e+03,2.82218e+01,-4.25685e+01,-3.22183e-01,1.31324e-01,3.94386e-01
1.37170e+03,2.74139e+01,-4.52290e+01,-3.15500e-01,1.27429e-01,3.85038e-01
1.37170e+03,2.64818e+01,-4.78895e+01,-3.06433e-01,1.23561e-01,3.73770e-01
1.37170e+03,2.54982e+01,-5.05501e+01,-2.96379e-01,1.19731e-01,3.61728e-01
1.37170e+03,2.43712e+01,-5.32106e+01,-2.83575e-01,1.15946e-01,3.47484e-01
1.37170e+03,2.31293e+01,-5.58711e+01,-2.68565e-01,1.12240e-01,3.31543e-01
1.37170e+03,2.17704e+01,-5.85317e+01,-2.51311e-01,1.08618e-01,3.13929e-01
1.37170e+03,2.02153e+01,-6.11922e+01,-2.30292e-01,1.05094e-01,2.93545e-01
1.37170e+03,1.84327e+01,-6.38527e+01,-2.04910e-01,1.01711e-01,2.70228e-01
1.37170e+03,1.63931e+01,-6.65133e+01,-1.74597e-01,9.85089e-02,2.44123e-01
1.37170e+03,1.39807e+01,-6.91738e+01,-1.37132e-01,9.55146e-02,2.14882e-01
1.37170e+03,1.08843e+01,-7.18343e+01,-8.65437e-02,9.28745e-02,1.82666e-01
1.37170e+03,6.69639e+00,-7.44949e+01,-1.50174e-02,9.12604e-02,1.58779e-01
1.37170e+03,-2.71333e+00,-7.71554e+01,1.56687e-01,9.18984e-02,2.23353e-01
1.37170e+03,-3.39243e+00,-7.71616e+01,1.69695e-01,9.38821e-02,2.35027e-01
1.37170e+03,-9.57954e+00,-7.44058e+01,2.97522e-01,9.76448e-02,3.42232e-01
1.37170e+03,-1.03287e+01,-7.16500e+01,3.21024e-01,1.00425e-01,3.65119e-01
1.37170e+03,-1.05872e+01,-6.88942e+01,3.35114e-01,1.03350e-01,3.79928e-01
1.37170e+03,-1.06264e+01,-6.61385e+01,3.44998e-01,1.06411e-01,3.91144e-01
1.37170e+03,-1.05004e+01,-6.33827e+01,3.51712e-01,1.09584e-01,3.99659e-01
1.37170e+03,-1.02708e+01,-6.06269e+01,3.56438e-01,1.12850e-01,4.06514e-01
1.37170e+03,-9.93701e+00,-5.78712e+01,3.59166e-01,1.16190e-01,4.11705e-01
1.37170e+03,-9.53977e+00,-5.51154e+01,3.60676e-01,1.19588e-01,4.15922e-01
1.37170e+03,-9.10569e+00,-5.23596e+01,3.61480e-01,1.23035e-01,4.19619e-01
1.37170e+03,-8.61613e+00,-4.96039e+01,3.61219e-01,1.26521e-01,4.22495e-01
1.37170e+03,-8.09190e+00,-4.68481e+01,3.60293e-01,1.30037e-01,4.24900e-01
1.37170e+03,-7.53389e+00,-4.40923e+01,3.58719e-01,1.33577e-01,4.26858e-01
1.37170e+03,-6.94225e+00,-4.13365e+01,3.56500e-01,1.37132e-01,4.28377e-01
1.37170e+03,-6.32951e+00,-3.85808e+01,3.53876e-01,1.40696e-01,4.29667e-01
1.37170e+03,-5.68976e+00,-3.58250e+01,3.50733e-01,1.44265e-01,4.30640e-01
1.37170e+03,-5.03271e+00,-3.30692e+01,3.47259e-01,1.47832e-01,4.31453e-01
1.37170e+03,-4.36014e+00,-3.03135e+01,3.43487e-01,1.51394e-01,4.32139e-01
1.37170e+03,-3.67372e+00,-2.75577e+01,3.39450e-01,1.54947e-01,4.32726e-01
1.37170e+03,-2.98144e+00,-2.48019e+01,3.35300e-01,1.58488e-01,4.33338e-01
1.37170e+03,-2.28008e+00,-2.20462e+01,3.30976e-01,1.62016e-01,4.33927e-01
1.37170e+03,-1.57720e+00,-1.92904e+01,3.26623e-01,1.65528e-01,4.34605e-01
1.37170e+03,-8.68894e-01,-1.65346e+01,3.22165e-01,1.69024e-01,4.35314e-01
1.37170e+03,-1.60661e-01,-1.37788e+01,3.17709e-01,1.72503e-01,4.36132e-01
1.37170e+03,5.44895e-01,-1.10231e+01,3.13305e-01,1.75965e-01,4.37094e-01
1.37170e+03,1.25045e+00,-8.26731e+00,3.08900e-01,1.79408e-01,4.38156e-01
1.37170e+03,1.93930e+00,-5.51154e+00,3.04816e-01,1.82835e-01,4.39543e-01
1.37170e+03,2.62503e+00,-2.75577e+00,3.00792e-01,1.86247e-01,4.41066e-01
1.44960e+03,3.37597e+01,0.00000e+00,-2.35557e-01,1.65846e-01,3.71486e-01
1.44960e+03,3.35897e+01,-2.56538e+00,-2.39917e-01,1.63119e-01,3.70653e-01
1.44960e+03,3.33635e+01,-5.13077e+00,-2.43428e-01,1.60326e-01,3.69284e-01
1.44960e+03,3.31351e+01,-7.69615e+00,-2.46906e-01,1.57469e-01,3.67902e-01
1.44960e+03,3.28571e+01,-1.02615e+01,-2.49634e-01,1.54554e-01,3.66030e-01
1.44960e+03,3.25675e+01,-1.28269e+01,-2.52189e-01,1.51584e-01,3.64051e-01
1.44960e+03,3.22399e+01,-1.53923e+01,-2.54169e-01,1.48565e-01,3.61686e-01
1.44960e+03,3.18939e+01,-1.79577e+01,-2.55870e-01,1.45501e-01,3.59139e-01
1.44960e+03,3.15172e+01,-2.05231e+01,-2.57108e-01,1.42395e-01,3.56278e-01
1.44960e+03,3.11155e+01,-2.30885e+01,-2.57968e-01,1.39253e-01,3.53159e-01
1.44960e+03,3.06860e+01,-2.56538e+01,-2.58410e-01,1.36076e-01,3.49751e-01
1.44960e+03,3.02232e+01,-2.82192e+01,-2.58347e-01,1.32871e-01,3.45988e-01
1.44960e+03,2.97261e+01,-3.07846e+01,-2.57766e-01,1.29641e-01,3.41854e-01
1.44960e+03,2.91805e+01,-3.33500e+01,-2.56453e-01,1.26392e-01,3.37184e-01
1.44960e+03,2.85877e+01,-3.59154e+01,-2.54427e-01,1.23130e-01,3.31988e-01
1.44960e+03,2.79383e+01,-3.84808e+01,-2.51547e-01,1.19860e-01,3.26152e-01
1.44960e+03,2.72125e+01,-4.10462e+01,-2.47512e-01,1.16594e-01,3.19444e-01
1.44960e+03,2.64335e+01,-4.36115e+01,-2.42673e-01,1.13333e-01,3.12127e-01
1.44960e+03,2.55347e+01,-4.61769e+01,-2.36026e-01,1.10095e-01,3.03432e-01
1.44960e+03,2.45863e+01,-4.87423e+01,-2.28629e-01,1.06889e-01,2.94188e-01
1.44960e+03,2.34997e+01,-5.13077e+01,-2.19144e-01,1.03721e-01,2.83369e-01
1.44960e+03,2.23022e+01,-5.38731e+01,-2.07984e-01,1.00619e-01,2.71348e-01
1.44960e+03,2.09919e+01,-5.64385e+01,-1.95122e-01,9.75869e-02,2.58151e-01
1.44960e+03,1.94923e+01,-5.90039e+01,-1.79400e-01,9.46372e-02,2.43008e-01
1.44960e+03,1.77735e+01,-6.15692e+01,-1.60367e-01,9.18052e-02,2.25836e-01
1.44960e+03,1.58069e+01,-6.41346e+01,-1.37590e-01,8.91249e-02,2.06787e-01
1.44960e+03,1.34808e+01,-6.67000e+01,-1.09384e-01,8.66186e-02,1.85670e-01
1.44960e+03,1.04950e+01,-6.92654e+01,-7.12148e-02,8.44088e-02,1.62623e-01
1.44960e+03,6.45692e+00,-7.18308e+01,-1.71506e-02,8.30582e-02,1.44880e-01
1.44960e+03,-2.61629e+00,-7.43962e+01,1.12964e-01,8.35926e-02,1.83641e-01
1.44960e+03,-3.27111e+00,-7.44021e+01,1.22839e-01,8.52534e-02,1.92078e-01
1.44960e+03,-9.23696e+00,-7.17449e+01,2.20123e-01,8.84033e-02,2.68141e-01
1.44960e+03,-9.95928e+00,-6.90877e+01,2.38209e-01,9.07305e-02,2.85376e-01
1.44960e+03,-1.02085e+01,-6.64305e+01,2.49150e-01,9.31795e-02,2.96855e-01
1.44960e+03,-1.02464e+01,-6.37732e+01,2.56897e-01,9.57421e-02,3.05771e-01
1.44960e+03,-1.01249e+01,-6.11160e+01,2.62238e-01,9.83981e-02,3.12754e-01
1.44960e+03,-9.90345e+00,-5.84588e+01,2.66069e-01,1.01132e-01,3.18553e-01
1.44960e+03,-9.58164e+00,-5.58016e+01,2.68384e-01,1.03928e-01,3.23161e-01
1.44960e+03,-9.19861e+00,-5.31444e+01,2.69775e-01,1.06772e-01,3.27077e-01
1.44960e+03,-8.78006e+00,-5.04872e+01,2.70629e-01,1.09657e-01,3.30627e-01
1.44960e+03,-8.30801e+00,-4.78299e+01,2.70675e-01,1.12576e-01,3.33593e-01
1.44960e+03,-7.80252e+00,-4.51727e+01,2.70215e-01,1.15519e-01,3.36230e-01
1.44960e+03,-7.26447e+00,-4.25155e+01,2.69264e-01,1.18482e-01,3.38551e-01
1.44960e+03,-6.69398e+00,-3.98583e+01,2.67824e-01,1.21457e-01,3.40566e-01
1.44960e+03,-6.10316e+00,-3.72011e+01,2.66075e-01,1.24441e-01,3.42422e-01
1.44960e+03,-5.48628e+00,-3.45438e+01,2.63934e-01,1.27428e-01,3.44056e-01
1.44960e+03,-4.85273e+00,-3.18866e+01,2.61540e-01,1.30414e-01,3.45582e-01
1.44960e+03,-4.20421e+00,-2.92294e+01,2.58921e-01,1.33395e-01,3.47020e-01
1.44960e+03,-3.54234e+00,-2.65722e+01,2.56100e-01,1.36369e-01,3.48392e-01
1.44960e+03,-2.87482e+00,-2.39150e+01,2.53193e-01,1.39333e-01,3.49783e-01
1.44960e+03,-2.19854e+00,-2.12577e+01,2.50154e-01,1.42286e-01,3.51160e-01
1.44960e+03,-1.52080e+00,-1.86005e+01,2.47094e-01,1.45226e-01,3.52600e-01
1.44960e+03,-8.37821e-01,-1.59433e+01,2.43954e-01,1.48152e-01,3.54063e-01
1.44960e+03,-1.54916e-01,-1.32861e+01,2.40815e-01,1.51064e-01,3.55602e-01
1.44960e+03,5.25408e-01,-1.06289e+01,2.37715e-01,1.53961e-01,3.57240e-01
1.44960e+03,1.20573e+00,-7.97166e+00,2.34615e-01,1.56843e-01,3.58948e-01
1.44960e+03,1.86995e+00,-5.31444e+00,2.31758e-01,1.59711e-01,3.60881e-01
1.44960e+03,2.53116e+00,-2.65722e+00,2.28947e-01,1.62567e-01,3.62906e-01
1.52340e+03,3.25736e+01,0.00000e+00,-1.72910e-01,1.42086e-01,3.00771e-01
1.52340e+03,3.24095e+01,-2.47525e+00,-1.76330e-01,1.39853e-01,2.99615e-01
1.52340e+03,3.21913e+01,-4.95049e+00,-1.79125e-01,1.37565e-01,2.98092e-01
1.52340e+03,3.19709e+01,-7.42574e+00,-1.81896e-01,1.35226e-01,2.96553e-01
1.52340e+03,3.17026e+01,-9.90099e+00,-1.84114e-01,1.32838e-01,2.94679e-01
1.52340e+03,3.14232e+01,-1.23762e+01,-1.86204e-01,1.30407e-01,2.92728e-01
1.52340e+03,3.11072e+01,-1.48515e+01,-1.87870e-01,1.27934e-01,2.90511e-01
1.52340e+03,3.07733e+01,-1.73267e+01,-1.89331e-01,1.25425e-01,2.88167e-01
1.52340e+03,3.04098e+01,-1.98020e+01,-1.90452e-01,1.22881e-01,2.85607e-01
1.52340e+03,3.00222e+01,-2.22772e+01,-1.91292e-01,1.20308e-01,2.82868e-01
1.52340e+03,2.96079e+01,-2.47525e+01,-1.91826e-01,1.17707e-01,2.79931e-01
1.52340e+03,2.91613e+01,-2.72277e+01,-1.91986e-01,1.15082e-01,2.76750e-01
1.52340e+03,2.86816e+01,-2.97030e+01,-1.91766e-01,1.12437e-01,2.73314e-01
1.52340e+03,2.81552e+01,-3.21782e+01,-1.91006e-01,1.09776e-01,2.69510e-01
1.52340e+03,2.75832e+01,-3.46535e+01,-1.89720e-01,1.07105e-01,2.65345e-01
1.52340e+03,2.69567e+01,-3.71287e+01,-1.87805e-01,1.04427e-01,2.60741e-01
1.52340e+03,2.62564e+01,-3.96040e+01,-1.85039e-01,1.01752e-01,2.55539e-01
1.52340e+03,2.55047e+01,-4.20792e+01,-1.81681e-01,9.90819e-02,2.49919e-01
1.52340e+03,2.46375e+01,-4.45544e+01,-1.76990e-01,9.64307e-02,2.43356e-01
1.52340e+03,2.37225e+01,-4.70297e+01,-1.71746e-01,9.38048e-02,2.36420e-01
1.52340e+03,2.26740e+01,-4.95049e+01,-1.64963e-01,9.12108e-02,2.28410e-01
1.52340e+03,2.15185e+01,-5.19802e+01,-1.56947e-01,8.86704e-02,2.19589e-01
1.52340e+03,2.02543e+01,-5.44554e+01,-1.47675e-01,8.61879e-02,2.09983e-01
1.52340e+03,1.88075e+01,-5.69307e+01,-1.36296e-01,8.37726e-02,1.99073e-01
1.52340e+03,1.71490e+01,-5.94059e+01,-1.22477e-01,8.14536e-02,1.86828e-01
1.52340e+03,1.52515e+01,-6.18812e+01,-1.05899e-01,7.92588e-02,1.73380e-01
1.52340e+03,1.30071e+01,-6.43564e+01,-8.53203e-02,7.72066e-02,1.58626e-01
1.52340e+03,1.01263e+01,-6.68317e+01,-5.73991e-02,7.53973e-02,1.42650e-01
1.52340e+03,6.23005e+00,-6.93069e+01,-1.77640e-02,7.42917e-02,1.29897e-01
1.52340e+03,-2.52437e+00,-7.17822e+01,7.79168e-02,7.47295e-02,1.51078e-01
1.52340e+03,-3.15618e+00,-7.17879e+01,8.51932e-02,7.60897e-02,1.56929e-01
1.52340e+03,-8.91241e+00,-6.92241e+01,1.57102e-01,7.86694e-02,2.07961e-01
1.52340e+03,-9.60935e+00,-6.66602e+01,1.70645e-01,8.05752e-02,2.20447e-01
1.52340e+03,-9.84985e+00,-6.40963e+01,1.78923e-01,8.25808e-02,2.29068e-01
1.52340e+03,-9.88634e+00,-6.15325e+01,1.84847e-01,8.46793e-02,2.35966e-01
1.52340e+03,-9.76914e+00,-5.89686e+01,1.88998e-01,8.68543e-02,2.41560e-01
1.52340e+03,-9.55548e+00,-5.64048e+01,1.92036e-01,8.90931e-02,2.46355e-01
1.52340e+03,-9.24498e+00,-5.38409e+01,1.93957e-01,9.13826e-02,2.50343e-01
1.52340e+03,-8.87540e+00,-5.12771e+01,1.95197e-01,9.37117e-02,2.53865e-01
1.52340e+03,-8.47156e+00,-4.87132e+01,1.96041e-01,9.60744e-02,2.57144e-01
1.52340e+03,-8.01609e+00,-4.61494e+01,1.96290e-01,9.84640e-02,2.60029e-01
1.52340e+03,-7.52837e+00,-4.35855e+01,1.96166e-01,1.00874e-01,2.62694e-01
1.52340e+03,-7.00922e+00,-4.10217e+01,1.95680e-01,1.03300e-01,2.65148e-01
1.52340e+03,-6.45878e+00,-3.84578e+01,1.94833e-01,1.05737e-01,2.67396e-01
1.52340e+03,-5.88872e+00,-3.58940e+01,1.93760e-01,1.08180e-01,2.69540e-01
1.52340e+03,-5.29352e+00,-3.33301e+01,1.92396e-01,1.10626e-01,2.71534e-01
1.52340e+03,-4.68222e+00,-3.07662e+01,1.90847e-01,1.13071e-01,2.73455e-01
1.52340e+03,-4.05649e+00,-2.82024e+01,1.89132e-01,1.15512e-01,2.75318e-01
1.52340e+03,-3.41788e+00,-2.56385e+01,1.87268e-01,1.17947e-01,2.77135e-01
1.52340e+03,-2.77381e+00,-2.30747e+01,1.85341e-01,1.20374e-01,2.78964e-01
1.52340e+03,-2.12129e+00,-2.05108e+01,1.83316e-01,1.22792e-01,2.80782e-01
1.52340e+03,-1.46736e+00,-1.79470e+01,1.81275e-01,1.25199e-01,2.82640e-01
1.52340e+03,-8.08383e-01,-1.53831e+01,1.79176e-01,1.27595e-01,2.84510e-01
1.52340e+03,-1.49473e-01,-1.28193e+01,1.77078e-01,1.29979e-01,2.86427e-01
1.52340e+03,5.06948e-01,-1.02554e+01,1.75008e-01,1.32352e-01,2.88407e-01
1.52340e+03,1.16337e+00,-7.69156e+00,1.72939e-01,1.34711e-01,2.90429e-01
1.52340e+03,1.80424e+00,-5.12771e+00,1.71048e-01,1.37060e-01,2.92598e-01
1.52340e+03,2.44222e+00,-2.56385e+00,1.69192e-01,1.39398e-01,2.94824e-01
1.59310e+03,3.14533e+01,0.00000e+00,-1.22641e-01,1.18938e-01,2.39748e-01
1.59310e+03,3.12949e+01,-2.39012e+00,-1.25245e-01,1.17157e-01,2.38461e-01
1.59310e+03,3.10841e+01,-4.78023e+00,-1.27404e-01,1.15334e-01,2.36933e-01
1.59310e+03,3.08713e+01,-7.17035e+00,-1.29545e-01,1.13468e-01,2.35387e-01
1.59310e+03,3.06123e+01,-9.56047e+00,-1.31293e-01,1.11565e-01,2.33620e-01
1.59310e+03,3.03425e+01,-1.19506e+01,-1.32949e-01,1.09627e-01,2.31796e-01
1.59310e+03,3.00373e+01,-1.43407e+01,-1.34304e-01,1.07656e-01,2.29797e-01
1.59310e+03,2.97149e+01,-1.67308e+01,-1.35512e-01,1.05655e-01,2.27712e-01
1.59310e+03,2.93640e+01,-1.91209e+01,-1.36478e-01,1.03628e-01,2.25483e-01
1.59310e+03,2.89896e+01,-2.15111e+01,-1.37245e-01,1.01576e-01,2.23135e-01
1.59310e+03,2.85896e+01,-2.39012e+01,-1.37793e-01,9.95025e-02,2.20656e-01
1.59310e+03,2.81583e+01,-2.62913e+01,-1.38075e-01,9.74103e-02,2.18016e-01
1.59310e+03,2.76952e+01,-2.86814e+01,-1.38086e-01,9.53018e-02,2.15209e-01
1.59310e+03,2.71869e+01,-3.10715e+01,-1.37712e-01,9.31808e-02,2.12162e-01
1.59310e+03,2.66345e+01,-3.34616e+01,-1.36964e-01,9.10514e-02,2.08879e-01
1.59310e+03,2.60296e+01,-3.58518e+01,-1.35768e-01,8.89168e-02,2.05309e-01
1.59310e+03,2.53533e+01,-3.82419e+01,-1.33966e-01,8.67845e-02,2.01349e-01
1.59310e+03,2.46276e+01,-4.06320e+01,-1.31742e-01,8.46560e-02,1.97119e-01
1.59310e+03,2.37902e+01,-4.30221e+01,-1.28568e-01,8.25427e-02,1.92275e-01
1.59310e+03,2.29066e+01,-4.54122e+01,-1.25001e-01,8.04495e-02,1.87194e-01
1.59310e+03,2.18941e+01,-4.78023e+01,-1.20338e-01,7.83817e-02,1.81418e-01
1.59310e+03,2.07785e+01,-5.01925e+01,-1.14796e-01,7.63568e-02,1.75126e-01
1.59310e+03,1.95577e+01,-5.25826e+01,-1.08360e-01,7.43780e-02,1.68340e-01
1.59310e+03,1.81606e+01,-5.49727e+01,-1.00424e-01,7.24527e-02,1.60727e-01
1.59310e+03,1.65592e+01,-5.73628e+01,-9.07485e-02,7.06043e-02,1.52283e-01
1.59310e+03,1.47269e+01,-5.97529e+01,-7.91086e-02,6.88549e-02,1.43112e-01
1.59310e+03,1.25597e+01,-6.21430e+01,-6.46189e-02,6.72192e-02,1.33157e-01
1.59310e+03,9.77800e+00,-6.45332e+01,-4.48996e-02,6.57771e-02,1.22457e-01
1.59310e+03,6.01578e+00,-6.69233e+01,-1.68369e-02,6.48960e-02,1.13657e-01
1.59310e+03,-2.43755e+00,-6.93134e+01,5.11448e-02,6.52453e-02,1.24043e-01
1.59310e+03,-3.04763e+00,-6.93189e+01,5.63272e-02,6.63296e-02,1.27952e-01
1.59310e+03,-8.60589e+00,-6.68433e+01,1.07719e-01,6.83861e-02,1.60104e-01
1.59310e+03,-9.27886e+00,-6.43676e+01,1.17539e-01,6.99054e-02,1.68747e-01
1.59310e+03,-9.51109e+00,-6.18919e+01,1.23609e-01,7.15041e-02,1.74979e-01
1.59310e+03,-9.54632e+00,-5.94162e+01,1.28002e-01,7.31770e-02,1.80136e-01
1.59310e+03,-9.43315e+00,-5.69406e+01,1.31133e-01,7.49108e-02,1.84474e-01
1.59310e+03,-9.22684e+00,-5.44649e+01,1.33470e-01,7.66954e-02,1.88311e-01
1.59310e+03,-8.92702e+00,-5.19892e+01,1.35013e-01,7.85205e-02,1.91637e-01
1.59310e+03,-8.57016e+00,-4.95135e+01,1.36069e-01,8.03770e-02,1.94670e-01
1.59310e+03,-8.18020e+00,-4.70379e+01,1.36845e-01,8.22604e-02,1.97552e-01
1.59310e+03,-7.74040e+00,-4.45622e+01,1.37196e-01,8.41652e-02,2.00185e-01
1.59310e+03,-7.26945e+00,-4.20865e+01,1.37282e-01,8.60864e-02,2.02679e-01
1.59310e+03,-6.76816e+00,-3.96108e+01,1.37109e-01,8.80202e-02,2.05041e-01
1.59310e+03,-6.23665e+00,-3.71351e+01,1.36680e-01,8.99624e-02,2.07271e-01
1.59310e+03,-5.68619e+00,-3.46595e+01,1.36089e-01,9.19098e-02,2.09434e-01
1.59310e+03,-5.11146e+00,-3.21838e+01,1.35292e-01,9.38594e-02,2.11501e-01
1.59310e+03,-4.52119e+00,-2.97081e+01,1.34363e-01,9.58082e-02,2.13520e-01
1.59310e+03,-3.91698e+00,-2.72324e+01,1.33315e-01,9.77542e-02,2.15500e-01
1.59310e+03,-3.30033e+00,-2.47568e+01,1.32161e-01,9.96952e-02,2.17448e-01
1.59310e+03,-2.67841e+00,-2.22811e+01,1.30962e-01,1.01630e-01,2.19401e-01
1.59310e+03,-2.04833e+00,-1.98054e+01,1.29694e-01,1.03557e-01,2.21342e-01
1.59310e+03,-1.41689e+00,-1.73297e+01,1.28414e-01,1.05475e-01,2.23306e-01
1.59310e+03,-7.80581e-01,-1.48541e+01,1.27093e-01,1.07385e-01,2.25272e-01
1.59310e+03,-1.44332e-01,-1.23784e+01,1.25772e-01,1.09285e-01,2.27263e-01
1.59310e+03,4.89512e-01,-9.90271e+00,1.24472e-01,1.11176e-01,2.29290e-01
1.59310e+03,1.12336e+00,-7.42703e+00,1.23172e-01,1.13057e-01,2.31337e-01
1.59310e+03,1.74219e+00,-4.95135e+00,1.21999e-01,1.14929e-01,2.33473e-01
1.59310e+03,2.35823e+00,-2.47568e+00,1.20851e-01,1.16792e-01,2.35640e-01
1.65850e+03,3.04021e+01,0.00000e+00,-8.38406e-02,9.63000e-02,1.86682e-01
1.65850e+03,3.02490e+01,-2.31024e+00,-8.57493e-02,9.49284e-02,1.85438e-01
1.65850e+03,3.00453e+01,-4.62048e+00,-8.73522e-02,9.35234e-02,1.84039e-01
1.65850e+03,2.98396e+01,-6.93072e+00,-8.89429e-02,9.20864e-02,1.82621e-01
1.65850e+03,2.95892e+01,-9.24096e+00,-9.02637e-02,9.06202e-02,1.81062e-01
1.65850e+03,2.93285e+01,-1.15512e+01,-9.15219e-02,8.91269e-02,1.79463e-01
1.65850e+03,2.90335e+01,-1.38614e+01,-9.25729e-02,8.76085e-02,1.77751e-01
1.65850e+03,2.87218e+01,-1.61717e+01,-9.35234e-02,8.60674e-02,1.75981e-01
1.65850e+03,2.83826e+01,-1.84819e+01,-9.43075e-02,8.45054e-02,1.74119e-01
1.65850e+03,2.80208e+01,-2.07921e+01,-9.49548e-02,8.29249e-02,1.72180e-01
1.65850e+03,2.76341e+01,-2.31024e+01,-9.54517e-02,8.13276e-02,1.70157e-01
1.65850e+03,2.72173e+01,-2.54126e+01,-9.57666e-02,7.97158e-02,1.68033e-01
1.65850e+03,2.67696e+01,-2.77229e+01,-9.58950e-02,7.80916e-02,1.65803e-01
1.65850e+03,2.62783e+01,-3.00331e+01,-9.57596e-02,7.64577e-02,1.63423e-01
1.65850e+03,2.57444e+01,-3.23433e+01,-9.53670e-02,7.48174e-02,1.60897e-01
1.65850e+03,2.51597e+01,-3.46536e+01,-9.46670e-02,7.31730e-02,1.58192e-01
1.65850e+03,2.45060e+01,-3.69638e+01,-9.35507e-02,7.15304e-02,1.55247e-01
1.65850e+03,2.38045e+01,-3.92741e+01,-9.21448e-02,6.98908e-02,1.52134e-01
1.65850e+03,2.29951e+01,-4.15843e+01,-9.00872e-02,6.82629e-02,1.48644e-01
1.65850e+03,2.21410e+01,-4.38945e+01,-8.77594e-02,6.66504e-02,1.45012e-01
1.65850e+03,2.11624e+01,-4.62048e+01,-8.46791e-02,6.50576e-02,1.40954e-01
1.65850e+03,2.00840e+01,-4.85150e+01,-8.09957e-02,6.34978e-02,1.36588e-01
1.65850e+03,1.89041e+01,-5.08253e+01,-7.66985e-02,6.19735e-02,1.31927e-01
1.65850e+03,1.75537e+01,-5.31355e+01,-7.13711e-02,6.04905e-02,1.26772e-01
1.65850e+03,1.60058e+01,-5.54457e+01,-6.48503e-02,5.90667e-02,1.21129e-01
1.65850e+03,1.42348e+01,-5.77560e+01,-5.69807e-02,5.77192e-02,1.15071e-01
1.65850e+03,1.21400e+01,-6.00662e+01,-4.71547e-02,5.64592e-02,1.08566e-01
1.65850e+03,9.45122e+00,-6.23764e+01,-3.37388e-02,5.53485e-02,1.01630e-01
1.65850e+03,5.81473e+00,-6.46867e+01,-1.45952e-02,5.46700e-02,9.58094e-02
1.65850e+03,-2.35608e+00,-6.69969e+01,3.19522e-02,5.49392e-02,1.00379e-01
1.65850e+03,-2.94577e+00,-6.70023e+01,3.55094e-02,5.57746e-02,1.02924e-01
1.65850e+03,-8.31828e+00,-6.46093e+01,7.09142e-02,5.73589e-02,1.22061e-01
1.65850e+03,-8.96876e+00,-6.22164e+01,7.77809e-02,5.85293e-02,1.27777e-01
1.65850e+03,-9.19322e+00,-5.98235e+01,8.20729e-02,5.97609e-02,1.32099e-01
1.65850e+03,-9.22728e+00,-5.74305e+01,8.52142e-02,6.10495e-02,1.35803e-01
1.65850e+03,-9.11789e+00,-5.50376e+01,8.74885e-02,6.23851e-02,1.39032e-01
1.65850e+03,-8.91848e+00,-5.26447e+01,8.92188e-02,6.37599e-02,1.41972e-01
1.65850e+03,-8.62868e+00,-5.02517e+01,9.04027e-02,6.51658e-02,1.44611e-01
1.65850e+03,-8.28374e+00,-4.78588e+01,9.12535e-02,6.65959e-02,1.47079e-01
1.65850e+03,-7.90682e+00,-4.54658e+01,9.19109e-02,6.80467e-02,1.49461e-01
1.65850e+03,-7.48171e+00,-4.30729e+01,9.22772e-02,6.95140e-02,1.51696e-01
1.65850e+03,-7.02650e+00,-4.06800e+01,9.24615e-02,7.09939e-02,1.53849e-01
1.65850e+03,-6.54196e+00,-3.82870e+01,9.24685e-02,7.24836e-02,1.55923e-01
1.65850e+03,-6.02822e+00,-3.58941e+01,9.22990e-02,7.39796e-02,1.57918e-01
1.65850e+03,-5.49615e+00,-3.35011e+01,9.20189e-02,7.54797e-02,1.59872e-01
1.65850e+03,-4.94063e+00,-3.11082e+01,9.15969e-02,7.69814e-02,1.61767e-01
1.65850e+03,-4.37009e+00,-2.87153e+01,9.10842e-02,7.84826e-02,1.63630e-01
1.65850e+03,-3.78607e+00,-2.63223e+01,9.04900e-02,7.99816e-02,1.65468e-01
1.65850e+03,-3.19003e+00,-2.39294e+01,8.98232e-02,8.14766e-02,1.67283e-01
1.65850e+03,-2.58890e+00,-2.15364e+01,8.91256e-02,8.29668e-02,1.69097e-01
1.65850e+03,-1.97988e+00,-1.91435e+01,8.83804e-02,8.44511e-02,1.70901e-01
1.65850e+03,-1.36954e+00,-1.67506e+01,8.76271e-02,8.59289e-02,1.72713e-01
1.65850e+03,-7.54494e-01,-1.43576e+01,8.68454e-02,8.74000e-02,1.74523e-01
1.65850e+03,-1.39508e-01,-1.19647e+01,8.60641e-02,8.88636e-02,1.76344e-01
1.65850e+03,4.73153e-01,-9.57176e+00,8.52969e-02,9.03200e-02,1.78182e-01
1.65850e+03,1.08581e+00,-7.17882e+00,8.45296e-02,9.17686e-02,1.80027e-01
1.65850e+03,1.68397e+00,-4.78588e+00,8.38500e-02,9.32103e-02,1.81921e-01
1.65850e+03,2.27942e+00,-2.39294e+00,8.31867e-02,9.46457e-02,1.83830e-01
1.71930e+03,2.94249e+01,0.00000e+00,-5.54081e-02,7.42076e-02,1.39966e-01
1.71930e+03,2.92767e+01,-2.23598e+00,-5.67463e-02,7.31992e-02,1.38905e-01
1.71930e+03,2.90795e+01,-4.47196e+00,-5.78817e-02,7.21663e-02,1.37747e-01
1.71930e+03,2.88804e+01,-6.70794e+00,-5.90091e-02,7.11099e-02,1.36572e-01
1.71930e+03,2.86381e+01,-8.94392e+00,-5.99574e-02,7.00320e-02,1.35308e-01
1.71930e+03,2.83857e+01,-1.11799e+01,-6.08643e-02,6.89341e-02,1.34016e-01
1.71930e+03,2.81002e+01,-1.34159e+01,-6.16336e-02,6.78179e-02,1.32652e-01
1.71930e+03,2.77986e+01,-1.56519e+01,-6.23364e-02,6.66849e-02,1.31250e-01
1.71930e+03,2.74703e+01,-1.78878e+01,-6.29287e-02,6.55366e-02,1.29789e-01
1.71930e+03,2.71201e+01,-2.01238e+01,-6.34304e-02,6.43747e-02,1.28280e-01
1.71930e+03,2.67458e+01,-2.23598e+01,-6.38322e-02,6.32005e-02,1.26718e-01
1.71930e+03,2.63424e+01,-2.45958e+01,-6.41134e-02,6.20156e-02,1.25093e-01
1.71930e+03,2.59091e+01,-2.68317e+01,-6.42709e-02,6.08216e-02,1.23404e-01
1.71930e+03,2.54336e+01,-2.90677e+01,-6.42534e-02,5.96204e-02,1.21624e-01
1.71930e+03,2.49169e+01,-3.13037e+01,-6.40653e-02,5.84146e-02,1.19755e-01
1.71930e+03,2.43509e+01,-3.35397e+01,-6.36734e-02,5.72058e-02,1.17779e-01
1.71930e+03,2.37183e+01,-3.57757e+01,-6.30053e-02,5.59983e-02,1.15659e-01
1.71930e+03,2.30393e+01,-3.80116e+01,-6.21452e-02,5.47930e-02,1.13441e-01
1.71930e+03,2.22560e+01,-4.02476e+01,-6.08528e-02,5.35962e-02,1.10999e-01
1.71930e+03,2.14293e+01,-4.24836e+01,-5.93812e-02,5.24109e-02,1.08475e-01
1.71930e+03,2.04822e+01,-4.47196e+01,-5.74106e-02,5.12401e-02,1.05701e-01
1.71930e+03,1.94385e+01,-4.69556e+01,-5.50398e-02,5.00934e-02,1.02749e-01
1.71930e+03,1.82964e+01,-4.91915e+01,-5.22620e-02,4.89730e-02,9.96312e-02
1.71930e+03,1.69894e+01,-5.14275e+01,-4.88010e-02,4.78828e-02,9.62280e-02
1.71930e+03,1.54913e+01,-5.36635e+01,-4.45484e-02,4.68362e-02,9.25496e-02
1.71930e+03,1.37772e+01,-5.58995e+01,-3.94012e-02,4.58456e-02,8.86449e-02
1.71930e+03,1.17498e+01,-5.81355e+01,-3.29564e-02,4.49195e-02,8.44951e-02
1.71930e+03,9.14742e+00,-6.03714e+01,-2.41306e-02,4.41031e-02,8.01095e-02
1.71930e+03,5.62782e+00,-6.26074e+01,-1.15060e-02,4.36045e-02,7.63966e-02
1.71930e+03,-2.28035e+00,-6.48434e+01,1.92942e-02,4.38025e-02,7.82830e-02
1.71930e+03,-2.85109e+00,-6.48486e+01,2.16534e-02,4.44167e-02,7.99212e-02
1.71930e+03,-8.05090e+00,-6.25326e+01,4.52105e-02,4.55814e-02,9.09779e-02
1.71930e+03,-8.68047e+00,-6.02165e+01,4.98397e-02,4.64418e-02,9.46283e-02
1.71930e+03,-8.89772e+00,-5.79005e+01,5.27613e-02,4.73472e-02,9.75142e-02
1.71930e+03,-8.93068e+00,-5.55845e+01,5.49197e-02,4.82945e-02,1.00066e-01
1.71930e+03,-8.82481e+00,-5.32685e+01,5.65030e-02,4.92764e-02,1.02358e-01
1.71930e+03,-8.63181e+00,-5.09525e+01,5.77255e-02,5.02870e-02,1.04492e-01
1.71930e+03,-8.35132e+00,-4.86364e+01,5.85857e-02,5.13205e-02,1.06460e-01
1.71930e+03,-8.01747e+00,-4.63204e+01,5.92248e-02,5.23718e-02,1.08333e-01
1.71930e+03,-7.65266e+00,-4.40044e+01,5.97358e-02,5.34383e-02,1.10160e-01
1.71930e+03,-7.24122e+00,-4.16884e+01,6.00536e-02,5.45169e-02,1.11905e-01
1.71930e+03,-6.80064e+00,-3.93724e+01,6.02508e-02,5.56048e-02,1.13604e-01
1.71930e+03,-6.33168e+00,-3.70563e+01,6.03303e-02,5.66998e-02,1.15258e-01
1.71930e+03,-5.83445e+00,-3.47403e+01,6.02928e-02,5.77996e-02,1.16866e-01
1.71930e+03,-5.31949e+00,-3.24243e+01,6.01819e-02,5.89023e-02,1.18450e-01
1.71930e+03,-4.78182e+00,-3.01083e+01,5.99770e-02,6.00062e-02,1.19998e-01
1.71930e+03,-4.22962e+00,-2.77922e+01,5.97118e-02,6.11096e-02,1.21526e-01
1.71930e+03,-3.66437e+00,-2.54762e+01,5.93927e-02,6.22115e-02,1.23038e-01
1.71930e+03,-3.08749e+00,-2.31602e+01,5.90253e-02,6.33105e-02,1.24534e-01
1.71930e+03,-2.50568e+00,-2.08442e+01,5.86375e-02,6.44058e-02,1.26027e-01
1.71930e+03,-1.91624e+00,-1.85282e+01,5.82181e-02,6.54969e-02,1.27510e-01
1.71930e+03,-1.32552e+00,-1.62121e+01,5.77935e-02,6.65832e-02,1.28996e-01
1.71930e+03,-7.30242e-01,-1.38961e+01,5.73499e-02,6.76645e-02,1.30478e-01
1.71930e+03,-1.35024e-01,-1.15801e+01,5.69066e-02,6.87403e-02,1.31962e-01
1.71930e+03,4.57944e-01,-9.26408e+00,5.64726e-02,6.98109e-02,1.33453e-01
1.71930e+03,1.05091e+00,-6.94806e+00,5.60386e-02,7.08756e-02,1.34946e-01
1.71930e+03,1.62984e+00,-4.63204e+00,5.56628e-02,7.19353e-02,1.36464e-01
1.71930e+03,2.20615e+00,-2.31602e+00,5.52978e-02,7.29904e-02,1.37988e-01
1.77540e+03,2.77303e+01,0.00000e+00,-6.40720e-02,6.67572e-02,1.32192e-01
1.77540e+03,2.75906e+01,-2.10721e+00,-6.57365e-02,6.55355e-02,1.31172e-01
1.77540e+03,2.74048e+01,-4.21442e+00,-6.71653e-02,6.42839e-02,1.30032e-01
1.77540e+03,2.72172e+01,-6.32163e+00,-6.85848e-02,6.30035e-02,1.28888e-01
1.77540e+03,2.69888e+01,-8.42884e+00,-6.97963e-02,6.16969e-02,1.27636e-01
1.77540e+03,2.67510e+01,-1.05361e+01,-7.09595e-02,6.03658e-02,1.26362e-01
1.77540e+03,2.64819e+01,-1.26433e+01,-7.19630e-02,5.90123e-02,1.25004e-01
1.77540e+03,2.61977e+01,-1.47505e+01,-7.28890e-02,5.76382e-02,1.23609e-01
1.77540e+03,2.58883e+01,-1.68577e+01,-7.36868e-02,5.62454e-02,1.22149e-01
1.77540e+03,2.55583e+01,-1.89649e+01,-7.43792e-02,5.48358e-02,1.20636e-01
1.77540e+03,2.52056e+01,-2.10721e+01,-7.49556e-02,5.34111e-02,1.19065e-01
1.77540e+03,2.48254e+01,-2.31793e+01,-7.53919e-02,5.19733e-02,1.17421e-01
1.77540e+03,2.44171e+01,-2.52865e+01,-7.56844e-02,5.05242e-02,1.15699e-01
1.77540e+03,2.39689e+01,-2.73937e+01,-7.57735e-02,4.90663e-02,1.13860e-01
1.77540e+03,2.34819e+01,-2.95009e+01,-7.56645e-02,4.76025e-02,1.11907e-01
1.77540e+03,2.29486e+01,-3.16082e+01,-7.53185e-02,4.61349e-02,1.09810e-01
1.77540e+03,2.23524e+01,-3.37154e+01,-7.46517e-02,4.46687e-02,1.07512e-01
1.77540e+03,2.17125e+01,-3.58226e+01,-7.37617e-02,4.32050e-02,1.05075e-01
1.77540e+03,2.09743e+01,-3.79298e+01,-7.23695e-02,4.17515e-02,1.02308e-01
1.77540e+03,2.01952e+01,-4.00370e+01,-7.07690e-02,4.03118e-02,9.94152e-02
1.77540e+03,1.93026e+01,-4.21442e+01,-6.85886e-02,3.88894e-02,9.61330e-02
1.77540e+03,1.83190e+01,-4.42514e+01,-6.59433e-02,3.74962e-02,9.25549e-02
1.77540e+03,1.72428e+01,-4.63586e+01,-6.28250e-02,3.61346e-02,8.86798e-02
1.77540e+03,1.60110e+01,-4.84658e+01,-5.89128e-02,3.48096e-02,8.42962e-02
1.77540e+03,1.45992e+01,-5.05731e+01,-5.40808e-02,3.35372e-02,7.93661e-02
1.77540e+03,1.29838e+01,-5.26803e+01,-4.82093e-02,3.23328e-02,7.38943e-02
1.77540e+03,1.10731e+01,-5.47875e+01,-4.08301e-02,3.12061e-02,6.77390e-02
1.77540e+03,8.62063e+00,-5.68947e+01,-3.06841e-02,3.02122e-02,6.06617e-02
1.77540e+03,5.30372e+00,-5.90019e+01,-1.61239e-02,2.96025e-02,5.37485e-02
1.77540e+03,-2.14903e+00,-6.11091e+01,1.95560e-02,2.98400e-02,5.52604e-02
1.77540e+03,-2.68689e+00,-6.11140e+01,2.22971e-02,3.05840e-02,5.74743e-02
1.77540e+03,-7.58725e+00,-5.89314e+01,4.97836e-02,3.19963e-02,7.44962e-02
1.77540e+03,-8.18057e+00,-5.67487e+01,5.52761e-02,3.30402e-02,7.95639e-02
1.77540e+03,-8.38530e+00,-5.45661e+01,5.87844e-02,3.41390e-02,8.33788e-02
1.77540e+03,-8.41637e+00,-5.23834e+01,6.14058e-02,3.52890e-02,8.66406e-02
1.77540e+03,-8.31659e+00,-5.02008e+01,6.33590e-02,3.64810e-02,8.94816e-02
1.77540e+03,-8.13471e+00,-4.80181e+01,6.48929e-02,3.77082e-02,9.20696e-02
1.77540e+03,-7.87037e+00,-4.58355e+01,6.60058e-02,3.89634e-02,9.43992e-02
1.77540e+03,-7.55575e+00,-4.36529e+01,6.68619e-02,4.02404e-02,9.65836e-02
1.77540e+03,-7.21195e+00,-4.14702e+01,6.75691e-02,4.15361e-02,9.86981e-02
1.77540e+03,-6.82421e+00,-3.92876e+01,6.80518e-02,4.28467e-02,1.00690e-01
1.77540e+03,-6.40900e+00,-3.71049e+01,6.83943e-02,4.41687e-02,1.02618e-01
1.77540e+03,-5.96704e+00,-3.49223e+01,6.86001e-02,4.54996e-02,1.04483e-01
1.77540e+03,-5.49844e+00,-3.27396e+01,6.86700e-02,4.68364e-02,1.06285e-01
1.77540e+03,-5.01314e+00,-3.05570e+01,6.86545e-02,4.81770e-02,1.08058e-01
1.77540e+03,-4.50644e+00,-2.83744e+01,6.85298e-02,4.95192e-02,1.09785e-01
1.77540e+03,-3.98604e+00,-2.61917e+01,6.83350e-02,5.08612e-02,1.11491e-01
1.77540e+03,-3.45334e+00,-2.40091e+01,6.80776e-02,5.22013e-02,1.13179e-01
1.77540e+03,-2.90969e+00,-2.18264e+01,6.77641e-02,5.35382e-02,1.14852e-01
1.77540e+03,-2.36138e+00,-1.96438e+01,6.74269e-02,5.48709e-02,1.16528e-01
1.77540e+03,-1.80588e+00,-1.74611e+01,6.70530e-02,5.61985e-02,1.18199e-01
1.77540e+03,-1.24918e+00,-1.52785e+01,6.66730e-02,5.75206e-02,1.19880e-01
1.77540e+03,-6.88187e-01,-1.30959e+01,6.62710e-02,5.88368e-02,1.21561e-01
1.77540e+03,-1.27248e-01,-1.09132e+01,6.58693e-02,6.01465e-02,1.23254e-01
1.77540e+03,4.31571e-01,-8.73057e+00,6.54784e-02,6.14500e-02,1.24963e-01
1.77540e+03,9.90390e-01,-6.54793e+00,6.50875e-02,6.27467e-02,1.26680e-01
1.77540e+03,1.53598e+00,-4.36529e+00,6.47642e-02,6.40373e-02,1.28440e-01
1.77540e+03,2.07910e+00,-2.18264e+00,6.44535e-02,6.53226e-02,1.30213e-01
1.82660e+03,2.53092e+01,0.00000e+00,-4.51121e-02,4.78642e-02,9.43825e-02
1.82660e+03,2.51817e+01,-1.92323e+00,-4.62854e-02,4.70476e-02,9.37164e-02
1.82660e+03,2.50121e+01,-3.84646e+00,-4.72928e-02,4.62109e-02,9.29676e-02
1.82660e+03,2.48409e+01,-5.76969e+00,-4.82936e-02,4.53551e-02,9.22146e-02
1.82660e+03,2.46324e+01,-7.69292e+00,-4.91480e-02,4.44818e-02,9.13861e-02
1.82660e+03,2.44154e+01,-9.61614e+00,-4.99683e-02,4.35921e-02,9.05409e-02
1.82660e+03,2.41698e+01,-1.15394e+01,-5.06763e-02,4.26875e-02,8.96367e-02
1.82660e+03,2.39103e+01,-1.34626e+01,-5.13296e-02,4.17691e-02,8.87058e-02
1.82660e+03,2.36280e+01,-1.53858e+01,-5.18927e-02,4.08383e-02,8.77277e-02
1.82660e+03,2.33268e+01,-1.73091e+01,-5.23815e-02,3.98963e-02,8.67119e-02
1.82660e+03,2.30049e+01,-1.92323e+01,-5.27888e-02,3.89441e-02,8.56539e-02
1.82660e+03,2.26579e+01,-2.11555e+01,-5.30972e-02,3.79833e-02,8.45429e-02
1.82660e+03,2.22852e+01,-2.30787e+01,-5.33045e-02,3.70149e-02,8.33768e-02
1.82660e+03,2.18762e+01,-2.50020e+01,-5.33686e-02,3.60407e-02,8.21279e-02
1.82660e+03,2.14317e+01,-2.69252e+01,-5.32932e-02,3.50625e-02,8.07979e-02
1.82660e+03,2.09449e+01,-2.88484e+01,-5.30509e-02,3.40818e-02,7.93669e-02
1.82660e+03,2.04008e+01,-3.07717e+01,-5.25827e-02,3.31021e-02,7.77958e-02
1.82660e+03,1.98168e+01,-3.26949e+01,-5.19574e-02,3.21241e-02,7.61278e-02
1.82660e+03,1.91430e+01,-3.46181e+01,-5.09784e-02,3.11530e-02,7.42315e-02
1.82660e+03,1.84320e+01,-3.65413e+01,-4.98528e-02,3.01910e-02,7.22481e-02
1.82660e+03,1.76173e+01,-3.84646e+01,-4.83189e-02,2.92406e-02,6.99982e-02
1.82660e+03,1.67196e+01,-4.03878e+01,-4.64576e-02,2.83098e-02,6.75473e-02
1.82660e+03,1.57373e+01,-4.23110e+01,-4.42633e-02,2.74001e-02,6.48963e-02
1.82660e+03,1.46131e+01,-4.42343e+01,-4.15099e-02,2.65149e-02,6.19047e-02
1.82660e+03,1.33245e+01,-4.61575e+01,-3.81090e-02,2.56648e-02,5.85521e-02
1.82660e+03,1.18502e+01,-4.80807e+01,-3.39761e-02,2.48602e-02,5.48494e-02
1.82660e+03,1.01063e+01,-5.00040e+01,-2.87815e-02,2.41076e-02,5.07140e-02
1.82660e+03,7.86795e+00,-5.19272e+01,-2.16388e-02,2.34437e-02,4.60116e-02
1.82660e+03,4.84065e+00,-5.38504e+01,-1.13881e-02,2.30368e-02,4.14943e-02
1.82660e+03,-1.96139e+00,-5.57736e+01,1.37336e-02,2.31958e-02,4.24588e-02
1.82660e+03,-2.45230e+00,-5.57781e+01,1.56636e-02,2.36932e-02,4.39254e-02
1.82660e+03,-6.92480e+00,-5.37860e+01,3.50188e-02,2.46370e-02,5.52020e-02
1.82660e+03,-7.46632e+00,-5.17940e+01,3.88875e-02,2.53347e-02,5.86326e-02
1.82660e+03,-7.65318e+00,-4.98019e+01,4.13591e-02,2.60689e-02,6.12319e-02
1.82660e+03,-7.68153e+00,-4.78098e+01,4.32063e-02,2.68374e-02,6.34627e-02
1.82660e+03,-7.59047e+00,-4.58177e+01,4.45829e-02,2.76339e-02,6.54105e-02
1.82660e+03,-7.42446e+00,-4.38257e+01,4.56644e-02,2.84539e-02,6.71871e-02
1.82660e+03,-7.18321e+00,-4.18336e+01,4.64494e-02,2.92926e-02,6.87874e-02
1.82660e+03,-6.89605e+00,-3.98415e+01,4.70535e-02,3.01458e-02,7.02876e-02
1.82660e+03,-6.58227e+00,-3.78494e+01,4.75528e-02,3.10114e-02,7.17384e-02
1.82660e+03,-6.22838e+00,-3.58574e+01,4.78941e-02,3.18870e-02,7.31040e-02
1.82660e+03,-5.84943e+00,-3.38653e+01,4.81366e-02,3.27703e-02,7.44231e-02
1.82660e+03,-5.44606e+00,-3.18732e+01,4.82830e-02,3.36594e-02,7.56975e-02
1.82660e+03,-5.01837e+00,-2.98811e+01,4.83335e-02,3.45525e-02,7.69269e-02
1.82660e+03,-4.57544e+00,-2.78891e+01,4.83240e-02,3.54480e-02,7.81338e-02
1.82660e+03,-4.11298e+00,-2.58970e+01,4.82375e-02,3.63447e-02,7.93074e-02
1.82660e+03,-3.63801e+00,-2.39049e+01,4.81018e-02,3.72411e-02,8.04642e-02
1.82660e+03,-3.15183e+00,-2.19128e+01,4.79219e-02,3.81363e-02,8.16067e-02
1.82660e+03,-2.65564e+00,-1.99208e+01,4.77025e-02,3.90293e-02,8.27369e-02
1.82660e+03,-2.15521e+00,-1.79287e+01,4.74665e-02,3.99195e-02,8.38675e-02
1.82660e+03,-1.64821e+00,-1.59366e+01,4.72046e-02,4.08062e-02,8.49925e-02
1.82660e+03,-1.14012e+00,-1.39445e+01,4.69384e-02,4.16893e-02,8.61232e-02
1.82660e+03,-6.28101e-01,-1.19525e+01,4.66567e-02,4.25684e-02,8.72527e-02
1.82660e+03,-1.16138e-01,-9.96038e+00,4.63752e-02,4.34431e-02,8.83888e-02
1.82660e+03,3.93890e-01,-7.96830e+00,4.61014e-02,4.43137e-02,8.95345e-02
1.82660e+03,9.03919e-01,-5.97623e+00,4.58275e-02,4.51796e-02,9.06849e-02
1.82660e+03,1.40187e+00,-3.98415e+00,4.56012e-02,4.60416e-02,9.18637e-02
1.82660e+03,1.89757e+00,-1.99208e+00,4.53838e-02,4.68999e-02,9.30510e-02
1.87280e+03,2.31244e+01,0.00000e+00,-3.26637e-02,3.34442e-02,6.65016e-02
1.87280e+03,2.30080e+01,-1.75721e+00,-3.35025e-02,3.28854e-02,6.60815e-02
1.87280e+03,2.28531e+01,-3.51443e+00,-3.42213e-02,3.23130e-02,6.56009e-02
1.87280e+03,2.26966e+01,-5.27164e+00,-3.49353e-02,3.17274e-02,6.51180e-02
1.87280e+03,2.25061e+01,-7.02886e+00,-3.55434e-02,3.11299e-02,6.45797e-02
1.87280e+03,2.23078e+01,-8.78607e+00,-3.61270e-02,3.05212e-02,6.40296e-02
1.87280e+03,2.20834e+01,-1.05433e+01,-3.66292e-02,2.99023e-02,6.34361e-02
1.87280e+03,2.18464e+01,-1.23005e+01,-3.70920e-02,2.92740e-02,6.28229e-02
1.87280e+03,2.15884e+01,-1.40577e+01,-3.74894e-02,2.86372e-02,6.21750e-02
1.87280e+03,2.13132e+01,-1.58149e+01,-3.78332e-02,2.79928e-02,6.14991e-02
1.87280e+03,2.10191e+01,-1.75721e+01,-3.81180e-02,2.73414e-02,6.07918e-02
1.87280e+03,2.07020e+01,-1.93294e+01,-3.83313e-02,2.66841e-02,6.00451e-02
1.87280e+03,2.03615e+01,-2.10866e+01,-3.84715e-02,2.60217e-02,5.92574e-02
1.87280e+03,1.99878e+01,-2.28438e+01,-3.85081e-02,2.53553e-02,5.84084e-02
1.87280e+03,1.95817e+01,-2.46010e+01,-3.84438e-02,2.46862e-02,5.74991e-02
1.87280e+03,1.91369e+01,-2.63582e+01,-3.82589e-02,2.40154e-02,5.65151e-02
1.87280e+03,1.86398e+01,-2.81154e+01,-3.79105e-02,2.33453e-02,5.54275e-02
1.87280e+03,1.81062e+01,-2.98726e+01,-3.74486e-02,2.26763e-02,5.42682e-02
1.87280e+03,1.74905e+01,-3.16299e+01,-3.67308e-02,2.20121e-02,5.29410e-02
1.87280e+03,1.68409e+01,-3.33871e+01,-3.59071e-02,2.13541e-02,5.15491e-02
1.87280e+03,1.60966e+01,-3.51443e+01,-3.47880e-02,2.07041e-02,4.99618e-02
1.87280e+03,1.52763e+01,-3.69015e+01,-3.34322e-02,2.00675e-02,4.82268e-02
1.87280e+03,1.43788e+01,-3.86587e+01,-3.18355e-02,1.94453e-02,4.63450e-02
1.87280e+03,1.33517e+01,-4.04159e+01,-2.98346e-02,1.88399e-02,4.42146e-02
1.87280e+03,1.21743e+01,-4.21731e+01,-2.73653e-02,1.82586e-02,4.18209e-02
1.87280e+03,1.08272e+01,-4.39304e+01,-2.43666e-02,1.77083e-02,3.91726e-02
1.87280e+03,9.23393e+00,-4.56876e+01,-2.06002e-02,1.71937e-02,3.62111e-02
1.87280e+03,7.18879e+00,-4.74448e+01,-1.54250e-02,1.67398e-02,3.28419e-02
1.87280e+03,4.42280e+00,-4.92020e+01,-8.00189e-03,1.64618e-02,2.96142e-02
1.87280e+03,-1.79208e+00,-5.09592e+01,1.01757e-02,1.65707e-02,3.04518e-02
1.87280e+03,-2.24062e+00,-5.09633e+01,1.15715e-02,1.69110e-02,3.14936e-02
1.87280e+03,-6.32705e+00,-4.91432e+01,2.55590e-02,1.75568e-02,3.97238e-02
1.87280e+03,-6.82182e+00,-4.73231e+01,2.83468e-02,1.80340e-02,4.21807e-02
1.87280e+03,-6.99255e+00,-4.55029e+01,3.01241e-02,1.85363e-02,4.40255e-02
1.87280e+03,-7.01846e+00,-4.36828e+01,3.14499e-02,1.90619e-02,4.55978e-02
1.87280e+03,-6.93525e+00,-4.18627e+01,3.24354e-02,1.96067e-02,4.69609e-02
1.87280e+03,-6.78358e+00,-4.00426e+01,3.32074e-02,2.01676e-02,4.81967e-02
1.87280e+03,-6.56315e+00,-3.82225e+01,3.37650e-02,2.07412e-02,4.93018e-02
1.87280e+03,-6.30078e+00,-3.64024e+01,3.41919e-02,2.13248e-02,5.03321e-02
1.87280e+03,-6.01408e+00,-3.45822e+01,3.45429e-02,2.19168e-02,5.13249e-02
1.87280e+03,-5.69074e+00,-3.27621e+01,3.47796e-02,2.25157e-02,5.22540e-02
1.87280e+03,-5.34450e+00,-3.09420e+01,3.49449e-02,2.31197e-02,5.31480e-02
1.87280e+03,-4.97595e+00,-2.91219e+01,3.50406e-02,2.37278e-02,5.40080e-02
1.87280e+03,-4.58518e+00,-2.73018e+01,3.50671e-02,2.43385e-02,5.48342e-02
1.87280e+03,-4.18049e+00,-2.54816e+01,3.50501e-02,2.49509e-02,5.56431e-02
1.87280e+03,-3.75794e+00,-2.36615e+01,3.49775e-02,2.55641e-02,5.64269e-02
1.87280e+03,-3.32398e+00,-2.18414e+01,3.48693e-02,2.61771e-02,5.71978e-02
1.87280e+03,-2.87976e+00,-2.00213e+01,3.47291e-02,2.67893e-02,5.79578e-02
1.87280e+03,-2.42640e+00,-1.82012e+01,3.45603e-02,2.73999e-02,5.87084e-02
1.87280e+03,-1.96917e+00,-1.63811e+01,3.43795e-02,2.80085e-02,5.94591e-02
1.87280e+03,-1.50594e+00,-1.45609e+01,3.41800e-02,2.86149e-02,6.02056e-02
1.87280e+03,-1.04170e+00,-1.27408e+01,3.39774e-02,2.92187e-02,6.09562e-02
1.87280e+03,-5.73883e-01,-1.09207e+01,3.37636e-02,2.98197e-02,6.17060e-02
1.87280e+03,-1.06113e-01,-9.10059e+00,3.35500e-02,3.04178e-02,6.24606e-02
1.87280e+03,3.59890e-01,-7.28047e+00,3.33418e-02,3.10130e-02,6.32225e-02
1.87280e+03,8.25892e-01,-5.46035e+00,3.31337e-02,3.16050e-02,6.39880e-02
1.87280e+03,1.28086e+00,-3.64024e+00,3.29600e-02,3.21943e-02,6.47748e-02
1.87280e+03,1.73377e+00,-1.82012e+00,3.27927e-02,3.27810e-02,6.55679e-02
1.91380e+03,2.11856e+01,0.00000e+00,-2.22461e-02,3.77675e-02,6.90944e-02
1.91380e+03,2.10789e+01,-1.60989e+00,-2.28102e-02,3.71970e-02,6.83458e-02
1.91380e+03,2.09370e+01,-3.21977e+00,-2.32927e-02,3.66124e-02,6.75571e-02
1.91380e+03,2.07936e+01,-4.82966e+00,-2.37720e-02,3.60146e-02,6.67552e-02
1.91380e+03,2.06192e+01,-6.43954e+00,-2.41792e-02,3.54045e-02,6.59171e-02
1.91380e+03,2.04375e+01,-8.04943e+00,-2.45696e-02,3.47831e-02,6.50635e-02
1.91380e+03,2.02319e+01,-9.65931e+00,-2.49048e-02,3.41512e-02,6.41807e-02
1.91380e+03,2.00147e+01,-1.12692e+01,-2.52131e-02,3.35098e-02,6.32805e-02
1.91380e+03,1.97784e+01,-1.28791e+01,-2.54770e-02,3.28597e-02,6.23567e-02
1.91380e+03,1.95262e+01,-1.44890e+01,-2.57043e-02,3.22018e-02,6.14132e-02
1.91380e+03,1.92568e+01,-1.60989e+01,-2.58915e-02,3.15369e-02,6.04491e-02
1.91380e+03,1.89663e+01,-1.77087e+01,-2.60301e-02,3.08659e-02,5.94616e-02
1.91380e+03,1.86544e+01,-1.93186e+01,-2.61189e-02,3.01897e-02,5.84504e-02
1.91380e+03,1.83120e+01,-2.09285e+01,-2.61373e-02,2.95094e-02,5.74071e-02
1.91380e+03,1.79399e+01,-2.25384e+01,-2.60870e-02,2.88264e-02,5.63331e-02
1.91380e+03,1.75325e+01,-2.41483e+01,-2.59546e-02,2.81417e-02,5.52223e-02
1.91380e+03,1.70770e+01,-2.57582e+01,-2.57110e-02,2.74577e-02,5.40632e-02
1.91380e+03,1.65881e+01,-2.73680e+01,-2.53902e-02,2.67748e-02,5.28709e-02
1.91380e+03,1.60241e+01,-2.89779e+01,-2.48953e-02,2.60968e-02,5.16034e-02
1.91380e+03,1.54289e+01,-3.05878e+01,-2.43283e-02,2.54253e-02,5.03110e-02
1.91380e+03,1.47470e+01,-3.21977e+01,-2.35603e-02,2.47618e-02,4.89340e-02
1.91380e+03,1.39955e+01,-3.38076e+01,-2.26313e-02,2.41121e-02,4.75011e-02
1.91380e+03,1.31733e+01,-3.54175e+01,-2.15385e-02,2.34771e-02,4.60155e-02
1.91380e+03,1.22322e+01,-3.70274e+01,-2.01705e-02,2.28592e-02,4.44351e-02
1.91380e+03,1.11536e+01,-3.86372e+01,-1.84840e-02,2.22659e-02,4.27665e-02
1.91380e+03,9.91946e+00,-4.02471e+01,-1.64372e-02,2.17044e-02,4.10296e-02
1.91380e+03,8.45973e+00,-4.18570e+01,-1.38681e-02,2.11793e-02,3.92174e-02
1.91380e+03,6.58606e+00,-4.34669e+01,-1.03405e-02,2.07161e-02,3.73416e-02
1.91380e+03,4.05198e+00,-4.50768e+01,-5.28353e-03,2.04326e-02,3.57825e-02
1.91380e+03,-1.64183e+00,-4.66867e+01,7.09045e-03,2.05440e-02,3.62828e-02
1.91380e+03,-2.05276e+00,-4.66904e+01,8.04014e-03,2.08915e-02,3.70675e-02
1.91380e+03,-5.79657e+00,-4.50229e+01,1.75500e-02,2.15507e-02,4.12468e-02
1.91380e+03,-6.24986e+00,-4.33554e+01,1.94399e-02,2.20379e-02,4.28359e-02
1.91380e+03,-6.40628e+00,-4.16879e+01,2.06424e-02,2.25506e-02,4.41780e-02
1.91380e+03,-6.43001e+00,-4.00204e+01,2.15376e-02,2.30871e-02,4.54193e-02
1.91380e+03,-6.35378e+00,-3.83528e+01,2.22013e-02,2.36433e-02,4.65823e-02
1.91380e+03,-6.21483e+00,-3.66853e+01,2.27198e-02,2.42157e-02,4.77011e-02
1.91380e+03,-6.01288e+00,-3.50178e+01,2.30924e-02,2.48012e-02,4.87705e-02
1.91380e+03,-5.77251e+00,-3.33503e+01,2.33760e-02,2.53969e-02,4.98140e-02
1.91380e+03,-5.50985e+00,-3.16828e+01,2.36080e-02,2.60011e-02,5.08479e-02
1.91380e+03,-5.21362e+00,-3.00153e+01,2.37623e-02,2.66123e-02,5.18584e-02
1.91380e+03,-4.89640e+00,-2.83477e+01,2.38679e-02,2.72288e-02,5.28574e-02
1.91380e+03,-4.55876e+00,-2.66802e+01,2.39263e-02,2.78494e-02,5.38445e-02
1.91380e+03,-4.20075e+00,-2.50127e+01,2.39375e-02,2.84727e-02,5.48187e-02
1.91380e+03,-3.82998e+00,-2.33452e+01,2.39192e-02,2.90977e-02,5.57867e-02
1.91380e+03,-3.44287e+00,-2.16777e+01,2.38630e-02,2.97235e-02,5.67441e-02
1.91380e+03,-3.04529e+00,-2.00102e+01,2.37825e-02,3.03490e-02,5.76957e-02
1.91380e+03,-2.63832e+00,-1.83427e+01,2.36804e-02,3.09737e-02,5.86419e-02
1.91380e+03,-2.22297e+00,-1.66751e+01,2.35588e-02,3.15968e-02,5.95826e-02
1.91380e+03,-1.80407e+00,-1.50076e+01,2.34290e-02,3.22179e-02,6.05219e-02
1.91380e+03,-1.37967e+00,-1.33401e+01,2.32865e-02,3.28366e-02,6.14572e-02
1.91380e+03,-9.54362e-01,-1.16726e+01,2.31418e-02,3.34527e-02,6.23923e-02
1.91380e+03,-5.25768e-01,-1.00051e+01,2.29896e-02,3.40660e-02,6.33245e-02
1.91380e+03,-9.72161e-02,-8.33757e+00,2.28374e-02,3.46762e-02,6.42563e-02
1.91380e+03,3.29716e-01,-6.67006e+00,2.26890e-02,3.52835e-02,6.51887e-02
1.91380e+03,7.56647e-01,-5.00254e+00,2.25406e-02,3.58875e-02,6.61198e-02
1.91380e+03,1.17347e+00,-3.33503e+00,2.24156e-02,3.64887e-02,6.70578e-02
1.91380e+03,1.58841e+00,-1.66751e+00,2.22950e-02,3.70874e-02,6.79963e-02
1.94970e+03,1.94880e+01,0.00000e+00,-1.26718e-02,2.98131e-02,5.31699e-02
1.94970e+03,1.93899e+01,-1.48088e+00,-1.29923e-02,2.93811e-02,5.25218e-02
1.94970e+03,1.92593e+01,-2.96177e+00,-1.32662e-02,2.89385e-02,5.18489e-02
1.94970e+03,1.91274e+01,-4.44265e+00,-1.35383e-02,2.84858e-02,5.11626e-02
1.94970e+03,1.89669e+01,-5.92353e+00,-1.37693e-02,2.80240e-02,5.04541e-02
1.94970e+03,1.87998e+01,-7.40441e+00,-1.39909e-02,2.75535e-02,4.97325e-02
1.94970e+03,1.86107e+01,-8.88530e+00,-1.41809e-02,2.70751e-02,4.89926e-02
1.94970e+03,1.84109e+01,-1.03662e+01,-1.43556e-02,2.65895e-02,4.82399e-02
1.94970e+03,1.81935e+01,-1.18471e+01,-1.45050e-02,2.60973e-02,4.74721e-02
1.94970e+03,1.79616e+01,-1.33279e+01,-1.46336e-02,2.55992e-02,4.66916e-02
1.94970e+03,1.77137e+01,-1.48088e+01,-1.47394e-02,2.50959e-02,4.58983e-02
1.94970e+03,1.74465e+01,-1.62897e+01,-1.48175e-02,2.45879e-02,4.50916e-02
1.94970e+03,1.71596e+01,-1.77706e+01,-1.48672e-02,2.40760e-02,4.42718e-02
1.94970e+03,1.68446e+01,-1.92515e+01,-1.48768e-02,2.35610e-02,4.34360e-02
1.94970e+03,1.65024e+01,-2.07324e+01,-1.48472e-02,2.30440e-02,4.25855e-02
1.94970e+03,1.61276e+01,-2.22132e+01,-1.47710e-02,2.25257e-02,4.17182e-02
1.94970e+03,1.57086e+01,-2.36941e+01,-1.46314e-02,2.20079e-02,4.08305e-02
1.94970e+03,1.52589e+01,-2.51750e+01,-1.44478e-02,2.14911e-02,3.99292e-02
1.94970e+03,1.47401e+01,-2.66559e+01,-1.41651e-02,2.09779e-02,3.89982e-02
1.94970e+03,1.41926e+01,-2.81368e+01,-1.38413e-02,2.04695e-02,3.80603e-02
1.94970e+03,1.35653e+01,-2.96177e+01,-1.34031e-02,1.99674e-02,3.70908e-02
1.94970e+03,1.28740e+01,-3.10985e+01,-1.28731e-02,1.94756e-02,3.61055e-02
1.94970e+03,1.21177e+01,-3.25794e+01,-1.22498e-02,1.89949e-02,3.51067e-02
1.94970e+03,1.12521e+01,-3.40603e+01,-1.14699e-02,1.85273e-02,3.40785e-02
1.94970e+03,1.02599e+01,-3.55412e+01,-1.05085e-02,1.80783e-02,3.30288e-02
1.94970e+03,9.12460e+00,-3.70221e+01,-9.34191e-03,1.76533e-02,3.19717e-02
1.94970e+03,7.78184e+00,-3.85029e+01,-7.87787e-03,1.72559e-02,3.09088e-02
1.94970e+03,6.05831e+00,-3.99838e+01,-5.86789e-03,1.69054e-02,2.98632e-02
1.94970e+03,3.72729e+00,-4.14647e+01,-2.98692e-03,1.66910e-02,2.90635e-02
1.94970e+03,-1.51027e+00,-4.29456e+01,4.06134e-03,1.67754e-02,2.93384e-02
1.94970e+03,-1.88827e+00,-4.29490e+01,4.60222e-03,1.70385e-02,2.98683e-02
1.94970e+03,-5.33209e+00,-4.14151e+01,1.00175e-02,1.75377e-02,3.19853e-02
1.94970e+03,-5.74905e+00,-3.98812e+01,1.10930e-02,1.79065e-02,3.29390e-02
1.94970e+03,-5.89293e+00,-3.83473e+01,1.17769e-02,1.82946e-02,3.38049e-02
1.94970e+03,-5.91477e+00,-3.68135e+01,1.22859e-02,1.87007e-02,3.46424e-02
1.94970e+03,-5.84465e+00,-3.52796e+01,1.26630e-02,1.91217e-02,3.54580e-02
1.94970e+03,-5.71682e+00,-3.37457e+01,1.29574e-02,1.95550e-02,3.62642e-02
1.94970e+03,-5.53106e+00,-3.22118e+01,1.31687e-02,1.99982e-02,3.70567e-02
1.94970e+03,-5.30995e+00,-3.06779e+01,1.33293e-02,2.04491e-02,3.78440e-02
1.94970e+03,-5.06834e+00,-2.91440e+01,1.34606e-02,2.09064e-02,3.86319e-02
1.94970e+03,-4.79584e+00,-2.76101e+01,1.35475e-02,2.13691e-02,3.94138e-02
1.94970e+03,-4.50405e+00,-2.60762e+01,1.36068e-02,2.18357e-02,4.01937e-02
1.94970e+03,-4.19345e+00,-2.45423e+01,1.36392e-02,2.23054e-02,4.09709e-02
1.94970e+03,-3.86414e+00,-2.30084e+01,1.36447e-02,2.27771e-02,4.17441e-02
1.94970e+03,-3.52308e+00,-2.14745e+01,1.36333e-02,2.32501e-02,4.25156e-02
1.94970e+03,-3.16699e+00,-1.99406e+01,1.36004e-02,2.37237e-02,4.32830e-02
1.94970e+03,-2.80126e+00,-1.84067e+01,1.35537e-02,2.41972e-02,4.40478e-02
1.94970e+03,-2.42690e+00,-1.68728e+01,1.34946e-02,2.46699e-02,4.48098e-02
1.94970e+03,-2.04484e+00,-1.53389e+01,1.34245e-02,2.51415e-02,4.55686e-02
1.94970e+03,-1.65951e+00,-1.38050e+01,1.33497e-02,2.56115e-02,4.63256e-02
1.94970e+03,-1.26912e+00,-1.22712e+01,1.32676e-02,2.60797e-02,4.70795e-02
1.94970e+03,-8.77888e-01,-1.07373e+01,1.31844e-02,2.65459e-02,4.78318e-02
1.94970e+03,-4.83637e-01,-9.20336e+00,1.30968e-02,2.70100e-02,4.85813e-02
1.94970e+03,-8.94260e-02,-7.66947e+00,1.30092e-02,2.74718e-02,4.93288e-02
1.94970e+03,3.03295e-01,-6.13558e+00,1.29238e-02,2.79313e-02,5.00749e-02
1.94970e+03,6.96016e-01,-4.60168e+00,1.28384e-02,2.83883e-02,5.08185e-02
1.94970e+03,1.07944e+00,-3.06779e+00,1.27663e-02,2.88432e-02,5.15633e-02
1.94970e+03,1.46113e+00,-1.53389e+00,1.26967e-02,2.92962e-02,5.23069e-02
1.98010e+03,1.80504e+01,0.00000e+00,-6.12611e-03,2.07774e-02,3.65051e-02
1.98010e+03,1.79595e+01,-1.37164e+00,-6.28671e-03,2.04963e-02,3.60530e-02
1.98010e+03,1.78386e+01,-2.74329e+00,-6.42478e-03,2.02084e-02,3.55867e-02
1.98010e+03,1.77165e+01,-4.11493e+00,-6.56194e-03,1.99139e-02,3.51105e-02
1.98010e+03,1.75678e+01,-5.48657e+00,-6.67921e-03,1.96134e-02,3.46218e-02
1.98010e+03,1.74130e+01,-6.85822e+00,-6.79186e-03,1.93073e-02,3.41240e-02
1.98010e+03,1.72378e+01,-8.22986e+00,-6.88924e-03,1.89962e-02,3.36158e-02
1.98010e+03,1.70528e+01,-9.60150e+00,-6.97921e-03,1.86803e-02,3.30994e-02
1.98010e+03,1.68514e+01,-1.09731e+01,-7.05690e-03,1.83601e-02,3.25742e-02
1.98010e+03,1.66366e+01,-1.23448e+01,-7.12452e-03,1.80361e-02,3.20416e-02
1.98010e+03,1.64070e+01,-1.37164e+01,-7.18105e-03,1.77087e-02,3.15018e-02
1.98010e+03,1.61595e+01,-1.50881e+01,-7.22417e-03,1.73783e-02,3.09549e-02
1.98010e+03,1.58938e+01,-1.64597e+01,-7.25354e-03,1.70453e-02,3.04014e-02
1.98010e+03,1.56020e+01,-1.78314e+01,-7.26345e-03,1.67104e-02,2.98407e-02
1.98010e+03,1.52851e+01,-1.92030e+01,-7.25441e-03,1.63741e-02,2.92739e-02
1.98010e+03,1.49379e+01,-2.05747e+01,-7.22271e-03,1.60370e-02,2.87006e-02
1.98010e+03,1.45498e+01,-2.19463e+01,-7.16031e-03,1.57002e-02,2.81205e-02
1.98010e+03,1.41333e+01,-2.33179e+01,-7.07658e-03,1.53640e-02,2.75361e-02
1.98010e+03,1.36527e+01,-2.46896e+01,-6.94480e-03,1.50303e-02,2.69436e-02
1.98010e+03,1.31457e+01,-2.60612e+01,-6.79310e-03,1.46996e-02,2.63512e-02
1.98010e+03,1.25646e+01,-2.74329e+01,-6.58593e-03,1.43730e-02,2.57513e-02
1.98010e+03,1.19244e+01,-2.88045e+01,-6.33429e-03,1.40532e-02,2.51515e-02
1.98010e+03,1.12238e+01,-3.01762e+01,-6.03741e-03,1.37406e-02,2.45533e-02
1.98010e+03,1.04220e+01,-3.15478e+01,-5.66459e-03,1.34365e-02,2.39521e-02
1.98010e+03,9.50303e+00,-3.29194e+01,-5.20379e-03,1.31445e-02,2.33540e-02
1.98010e+03,8.45151e+00,-3.42911e+01,-4.64356e-03,1.28681e-02,2.27668e-02
1.98010e+03,7.20780e+00,-3.56627e+01,-3.93912e-03,1.26097e-02,2.21930e-02
1.98010e+03,5.61141e+00,-3.70344e+01,-2.97002e-03,1.23818e-02,2.16506e-02
1.98010e+03,3.45234e+00,-3.84060e+01,-1.57871e-03,1.22424e-02,2.12632e-02
1.98010e+03,-1.39886e+00,-3.97777e+01,1.83275e-03,1.22974e-02,2.13785e-02
1.98010e+03,-1.74898e+00,-3.97808e+01,2.09494e-03,1.24686e-02,2.16976e-02
1.98010e+03,-4.93876e+00,-3.83601e+01,4.72551e-03,1.27933e-02,2.26569e-02
1.98010e+03,-5.32496e+00,-3.69394e+01,5.25232e-03,1.30332e-02,2.31771e-02
1.98010e+03,-5.45823e+00,-3.55186e+01,5.58933e-03,1.32856e-02,2.36805e-02
1.98010e+03,-5.47846e+00,-3.40979e+01,5.84151e-03,1.35498e-02,2.41850e-02
1.98010e+03,-5.41351e+00,-3.26771e+01,6.02977e-03,1.38236e-02,2.46908e-02
1.98010e+03,-5.29511e+00,-3.12564e+01,6.17794e-03,1.41055e-02,2.52004e-02
1.98010e+03,-5.12305e+00,-2.98356e+01,6.28583e-03,1.43937e-02,2.57109e-02
1.98010e+03,-4.91825e+00,-2.84149e+01,6.36916e-03,1.46869e-02,2.62237e-02
1.98010e+03,-4.69446e+00,-2.69941e+01,6.43823e-03,1.49844e-02,2.67404e-02
1.98010e+03,-4.44207e+00,-2.55734e+01,6.48585e-03,1.52853e-02,2.72577e-02
1.98010e+03,-4.17180e+00,-2.41527e+01,6.52004e-03,1.55887e-02,2.77765e-02
1.98010e+03,-3.88412e+00,-2.27319e+01,6.54118e-03,1.58942e-02,2.82960e-02
1.98010e+03,-3.57909e+00,-2.13112e+01,6.54929e-03,1.62010e-02,2.88151e-02
1.98010e+03,-3.26320e+00,-1.98904e+01,6.54925e-03,1.65086e-02,2.93342e-02
1.98010e+03,-2.93337e+00,-1.84697e+01,6.53876e-03,1.68166e-02,2.98521e-02
1.98010e+03,-2.59462e+00,-1.70489e+01,6.52158e-03,1.71245e-02,3.03689e-02
1.98010e+03,-2.24788e+00,-1.56282e+01,6.49839e-03,1.74319e-02,3.08843e-02
1.98010e+03,-1.89400e+00,-1.42074e+01,6.46985e-03,1.77385e-02,3.13979e-02
1.98010e+03,-1.53709e+00,-1.27867e+01,6.43903e-03,1.80442e-02,3.19098e-02
1.98010e+03,-1.17550e+00,-1.13660e+01,6.40471e-03,1.83486e-02,3.24197e-02
1.98010e+03,-8.13129e-01,-9.94521e+00,6.36979e-03,1.86518e-02,3.29278e-02
1.98010e+03,-4.47961e-01,-8.52447e+00,6.33278e-03,1.89535e-02,3.34337e-02
1.98010e+03,-8.28294e-02,-7.10372e+00,6.29580e-03,1.92538e-02,3.39376e-02
1.98010e+03,2.80922e-01,-5.68298e+00,6.25985e-03,1.95526e-02,3.44397e-02
1.98010e+03,6.44673e-01,-4.26223e+00,6.22390e-03,1.98498e-02,3.49396e-02
1.98010e+03,9.99811e-01,-2.84149e+00,6.19441e-03,2.01455e-02,3.54387e-02
1.98010e+03,1.35334e+00,-1.42074e+00,6.16613e-03,2.04400e-02,3.59362e-02
2.00520e+03,1.68635e+01,0.00000e+00,-2.39255e-03,1.30690e-02,2.27622e-02
2.00520e+03,1.67786e+01,-1.28145e+00,-2.46003e-03,1.29077e-02,2.24917e-02
2.00520e+03,1.66656e+01,-2.56290e+00,-2.51867e-03,1.27425e-02,2.22139e-02
2.00520e+03,1.65515e+01,-3.84435e+00,-2.57696e-03,1.25735e-02,2.19299e-02
2.00520e+03,1.64126e+01,-5.12580e+00,-2.62744e-03,1.24011e-02,2.16395e-02
2.00520e+03,1.62680e+01,-6.40725e+00,-2.67610e-03,1.22255e-02,2.13436e-02
2.00520e+03,1.61044e+01,-7.68870e+00,-2.71877e-03,1.20470e-02,2.10423e-02
2.00520e+03,1.59315e+01,-8.97015e+00,-2.75852e-03,1.18657e-02,2.07363e-02
2.00520e+03,1.57433e+01,-1.02516e+01,-2.79346e-03,1.16820e-02,2.04258e-02
2.00520e+03,1.55427e+01,-1.15330e+01,-2.82444e-03,1.14962e-02,2.01113e-02
2.00520e+03,1.53282e+01,-1.28145e+01,-2.85107e-03,1.13083e-02,1.97930e-02
2.00520e+03,1.50970e+01,-1.40959e+01,-2.87243e-03,1.11188e-02,1.94713e-02
2.00520e+03,1.48486e+01,-1.53774e+01,-2.88839e-03,1.09277e-02,1.91465e-02
2.00520e+03,1.45761e+01,-1.66588e+01,-2.89672e-03,1.07356e-02,1.88188e-02
2.00520e+03,1.42800e+01,-1.79403e+01,-2.89760e-03,1.05426e-02,1.84889e-02
2.00520e+03,1.39556e+01,-1.92217e+01,-2.88959e-03,1.03492e-02,1.81568e-02
2.00520e+03,1.35931e+01,-2.05032e+01,-2.86952e-03,1.01560e-02,1.78233e-02
2.00520e+03,1.32039e+01,-2.17846e+01,-2.84108e-03,9.96319e-03,1.74891e-02
2.00520e+03,1.27550e+01,-2.30661e+01,-2.79377e-03,9.77171e-03,1.71541e-02
2.00520e+03,1.22812e+01,-2.43475e+01,-2.73864e-03,9.58205e-03,1.68210e-02
2.00520e+03,1.17384e+01,-2.56290e+01,-2.66173e-03,9.39470e-03,1.64884e-02
2.00520e+03,1.11403e+01,-2.69104e+01,-2.56736e-03,9.21121e-03,1.61595e-02
2.00520e+03,1.04858e+01,-2.81919e+01,-2.45523e-03,9.03191e-03,1.58352e-02
2.00520e+03,9.73672e+00,-2.94733e+01,-2.31328e-03,8.85745e-03,1.55150e-02
2.00520e+03,8.87814e+00,-3.07548e+01,-2.13679e-03,8.68995e-03,1.52024e-02
2.00520e+03,7.89577e+00,-3.20362e+01,-1.92126e-03,8.53143e-03,1.49012e-02
2.00520e+03,6.73385e+00,-3.33177e+01,-1.64910e-03,8.38319e-03,1.46135e-02
2.00520e+03,5.24243e+00,-3.45991e+01,-1.27304e-03,8.25249e-03,1.43503e-02
2.00520e+03,3.22533e+00,-3.58806e+01,-7.31198e-04,8.17260e-03,1.41742e-02
2.00520e+03,-1.30688e+00,-3.71620e+01,6.03814e-04,8.20420e-03,1.42229e-02
2.00520e+03,-1.63397e+00,-3.71650e+01,7.06747e-04,8.30241e-03,1.43976e-02
2.00520e+03,-4.61400e+00,-3.58377e+01,1.74418e-03,8.48870e-03,1.48060e-02
2.00520e+03,-4.97481e+00,-3.45104e+01,1.95561e-03,8.62634e-03,1.50687e-02
2.00520e+03,-5.09932e+00,-3.31830e+01,2.09252e-03,8.77118e-03,1.53356e-02
2.00520e+03,-5.11821e+00,-3.18557e+01,2.19613e-03,8.92273e-03,1.56099e-02
2.00520e+03,-5.05754e+00,-3.05284e+01,2.27464e-03,9.07981e-03,1.58903e-02
2.00520e+03,-4.94693e+00,-2.92011e+01,2.33740e-03,9.24150e-03,1.61765e-02
2.00520e+03,-4.78618e+00,-2.78738e+01,2.38436e-03,9.40686e-03,1.64667e-02
2.00520e+03,-4.59485e+00,-2.65464e+01,2.42166e-03,9.57507e-03,1.67604e-02
2.00520e+03,-4.38577e+00,-2.52191e+01,2.45338e-03,9.74571e-03,1.70574e-02
2.00520e+03,-4.14998e+00,-2.38918e+01,2.47666e-03,9.91830e-03,1.73566e-02
2.00520e+03,-3.89748e+00,-2.25645e+01,2.49468e-03,1.00924e-02,1.76576e-02
2.00520e+03,-3.62871e+00,-2.12371e+01,2.50757e-03,1.02676e-02,1.79599e-02
2.00520e+03,-3.34375e+00,-1.99098e+01,2.51535e-03,1.04436e-02,1.82629e-02
2.00520e+03,-3.04862e+00,-1.85825e+01,2.51992e-03,1.06200e-02,1.85662e-02
2.00520e+03,-2.74048e+00,-1.72552e+01,2.52039e-03,1.07967e-02,1.88695e-02
2.00520e+03,-2.42401e+00,-1.59279e+01,2.51824e-03,1.09733e-02,1.91724e-02
2.00520e+03,-2.10007e+00,-1.46005e+01,2.51372e-03,1.11496e-02,1.94746e-02
2.00520e+03,-1.76946e+00,-1.32732e+01,2.50711e-03,1.13255e-02,1.97759e-02
2.00520e+03,-1.43602e+00,-1.19459e+01,2.49960e-03,1.15008e-02,2.00762e-02
2.00520e+03,-1.09820e+00,-1.06186e+01,2.49071e-03,1.16754e-02,2.03753e-02
2.00520e+03,-7.59661e-01,-9.29125e+00,2.48160e-03,1.18493e-02,2.06731e-02
2.00520e+03,-4.18505e-01,-7.96393e+00,2.47166e-03,1.20224e-02,2.09696e-02
2.00520e+03,-7.73829e-02,-6.63661e+00,2.46173e-03,1.21946e-02,2.12646e-02
2.00520e+03,2.62450e-01,-5.30929e+00,2.45220e-03,1.23660e-02,2.15584e-02
2.00520e+03,6.02282e-01,-3.98196e+00,2.44268e-03,1.25364e-02,2.18507e-02
2.00520e+03,9.34067e-01,-2.65464e+00,2.43569e-03,1.27060e-02,2.21419e-02
2.00520e+03,1.26435e+00,-1.32732e+00,2.42918e-03,1.28749e-02,2.24320e-02
2.02480e+03,1.59367e+01,0.00000e+00,-6.79484e-04,6.93572e-03,1.20322e-02
2.02480e+03,1.58564e+01,-1.21102e+00,-7.00948e-04,6.85969e-03,1.19020e-02
2.02480e+03,1.57496e+01,-2.42204e+00,-7.19878e-04,6.78181e-03,1.17685e-02
2.02480e+03,1.56418e+01,-3.63306e+00,-7.38707e-04,6.70216e-03,1.16320e-02
2.02480e+03,1.55106e+01,-4.84408e+00,-7.55298e-04,6.62089e-03,1.14926e-02
2.02480e+03,1.53739e+01,-6.05509e+00,-7.71370e-04,6.53810e-03,1.13506e-02
2.02480e+03,1.52192e+01,-7.26611e+00,-7.85725e-04,6.45394e-03,1.12061e-02
2.02480e+03,1.50559e+01,-8.47713e+00,-7.99246e-04,6.36851e-03,1.10595e-02
2.02480e+03,1.48781e+01,-9.68815e+00,-8.11388e-04,6.28192e-03,1.09108e-02
2.02480e+03,1.46884e+01,-1.08992e+01,-8.22396e-04,6.19431e-03,1.07603e-02
2.02480e+03,1.44857e+01,-1.21102e+01,-8.32157e-04,6.10576e-03,1.06082e-02
2.02480e+03,1.42672e+01,-1.33212e+01,-8.40410e-04,6.01641e-03,1.04546e-02
2.02480e+03,1.40325e+01,-1.45322e+01,-8.47117e-04,5.92637e-03,1.02997e-02
2.02480e+03,1.37750e+01,-1.57432e+01,-8.51637e-04,5.83579e-03,1.01437e-02
2.02480e+03,1.34951e+01,-1.69543e+01,-8.54025e-04,5.74486e-03,9.98697e-03
2.02480e+03,1.31886e+01,-1.81653e+01,-8.53864e-04,5.65370e-03,9.82965e-03
2.02480e+03,1.28460e+01,-1.93763e+01,-8.50253e-04,5.56263e-03,9.67221e-03
2.02480e+03,1.24782e+01,-2.05873e+01,-8.44241e-04,5.47173e-03,9.51485e-03
2.02480e+03,1.20540e+01,-2.17983e+01,-8.32827e-04,5.38148e-03,9.35814e-03
2.02480e+03,1.16063e+01,-2.30094e+01,-8.19173e-04,5.29209e-03,9.20270e-03
2.02480e+03,1.10933e+01,-2.42204e+01,-7.99281e-04,5.20379e-03,9.04859e-03
2.02480e+03,1.05280e+01,-2.54314e+01,-7.74389e-04,5.11731e-03,8.89720e-03
2.02480e+03,9.90946e+00,-2.66424e+01,-7.44410e-04,5.03280e-03,8.74879e-03
2.02480e+03,9.20158e+00,-2.78534e+01,-7.05890e-04,4.95058e-03,8.60366e-03
2.02480e+03,8.39019e+00,-2.90645e+01,-6.57478e-04,4.87163e-03,8.46350e-03
2.02480e+03,7.46181e+00,-3.02755e+01,-5.97885e-04,4.79692e-03,8.33000e-03
2.02480e+03,6.36374e+00,-3.14865e+01,-5.22075e-04,4.72706e-03,8.20414e-03
2.02480e+03,4.95429e+00,-3.26975e+01,-4.16504e-04,4.66547e-03,8.09156e-03
2.02480e+03,3.04806e+00,-3.39085e+01,-2.63455e-04,4.62784e-03,8.01998e-03
2.02480e+03,-1.23505e+00,-3.51195e+01,1.16759e-04,4.64274e-03,8.04231e-03
2.02480e+03,-1.54416e+00,-3.51224e+01,1.46235e-04,4.68904e-03,8.12298e-03
2.02480e+03,-4.36041e+00,-3.38680e+01,4.45569e-04,4.77686e-03,8.28575e-03
2.02480e+03,-4.70139e+00,-3.26136e+01,5.08335e-04,4.84174e-03,8.40153e-03
2.02480e+03,-4.81905e+00,-3.13592e+01,5.49758e-04,4.91001e-03,8.52214e-03
2.02480e+03,-4.83691e+00,-3.01049e+01,5.81642e-04,4.98144e-03,8.64770e-03
2.02480e+03,-4.77957e+00,-2.88505e+01,6.06339e-04,5.05549e-03,8.77733e-03
2.02480e+03,-4.67504e+00,-2.75961e+01,6.26526e-04,5.13170e-03,8.91041e-03
2.02480e+03,-4.52312e+00,-2.63418e+01,6.42185e-04,5.20963e-03,9.04617e-03
2.02480e+03,-4.34231e+00,-2.50874e+01,6.55082e-04,5.28892e-03,9.18407e-03
2.02480e+03,-4.14473e+00,-2.38330e+01,6.66376e-04,5.36935e-03,9.32382e-03
2.02480e+03,-3.92189e+00,-2.25787e+01,6.75256e-04,5.45069e-03,9.46499e-03
2.02480e+03,-3.68327e+00,-2.13243e+01,6.82628e-04,5.53274e-03,9.60726e-03
2.02480e+03,-3.42927e+00,-2.00699e+01,6.88531e-04,5.61532e-03,9.75036e-03
2.02480e+03,-3.15997e+00,-1.88155e+01,6.92971e-04,5.69826e-03,9.89398e-03
2.02480e+03,-2.88106e+00,-1.75612e+01,6.96492e-04,5.78143e-03,1.00379e-02
2.02480e+03,-2.58986e+00,-1.63068e+01,6.98839e-04,5.86469e-03,1.01819e-02
2.02480e+03,-2.29078e+00,-1.50524e+01,7.00433e-04,5.94791e-03,1.03259e-02
2.02480e+03,-1.98465e+00,-1.37981e+01,7.01352e-04,6.03102e-03,1.04696e-02
2.02480e+03,-1.67220e+00,-1.25437e+01,7.01669e-04,6.11391e-03,1.06128e-02
2.02480e+03,-1.35709e+00,-1.12893e+01,7.01730e-04,6.19653e-03,1.07556e-02
2.02480e+03,-1.03784e+00,-1.00350e+01,7.01397e-04,6.27882e-03,1.08978e-02
2.02480e+03,-7.17909e-01,-8.78059e+00,7.00997e-04,6.36077e-03,1.10394e-02
2.02480e+03,-3.95503e-01,-7.52622e+00,7.00361e-04,6.44233e-03,1.11804e-02
2.02480e+03,-7.31298e-02,-6.27185e+00,6.99729e-04,6.52348e-03,1.13206e-02
2.02480e+03,2.48025e-01,-5.01748e+00,6.99213e-04,6.60424e-03,1.14602e-02
2.02480e+03,5.69180e-01,-3.76311e+00,6.98697e-04,6.68456e-03,1.15991e-02
2.02480e+03,8.82730e-01,-2.50874e+00,6.98908e-04,6.76449e-03,1.17373e-02
2.02480e+03,1.19486e+00,-1.25437e+00,6.99254e-04,6.84408e-03,1.18749e-02
2.03880e+03,1.52746e+01,0.00000e+00,-1.16336e-04,2.62216e-03,4.54320e-03
2.03880e+03,1.51977e+01,-1.16071e+00,-1.20661e-04,2.59640e-03,4.49872e-03
2.03880e+03,1.50954e+01,-2.32142e+00,-1.24546e-04,2.57001e-03,4.45313e-03
2.03880e+03,1.49920e+01,-3.48213e+00,-1.28413e-04,2.54302e-03,4.40652e-03
2.03880e+03,1.48662e+01,-4.64285e+00,-1.31893e-04,2.51549e-03,4.35895e-03
2.03880e+03,1.47352e+01,-5.80356e+00,-1.35282e-04,2.48744e-03,4.31050e-03
2.03880e+03,1.45870e+01,-6.96427e+00,-1.38373e-04,2.45893e-03,4.26123e-03
2.03880e+03,1.44304e+01,-8.12498e+00,-1.41320e-04,2.42998e-03,4.21122e-03
2.03880e+03,1.42600e+01,-9.28569e+00,-1.44028e-04,2.40065e-03,4.16053e-03
2.03880e+03,1.40782e+01,-1.04464e+01,-1.46538e-04,2.37096e-03,4.10924e-03
2.03880e+03,1.38839e+01,-1.16071e+01,-1.48833e-04,2.34096e-03,4.05739e-03
2.03880e+03,1.36745e+01,-1.27678e+01,-1.50865e-04,2.31069e-03,4.00507e-03
2.03880e+03,1.34496e+01,-1.39285e+01,-1.52630e-04,2.28018e-03,3.95234e-03
2.03880e+03,1.32028e+01,-1.50892e+01,-1.54015e-04,2.24950e-03,3.89929e-03
2.03880e+03,1.29345e+01,-1.62500e+01,-1.55030e-04,2.21869e-03,3.84601e-03
2.03880e+03,1.26407e+01,-1.74107e+01,-1.55603e-04,2.18781e-03,3.79258e-03
2.03880e+03,1.23123e+01,-1.85714e+01,-1.55577e-04,2.15696e-03,3.73919e-03
2.03880e+03,1.19599e+01,-1.97321e+01,-1.55135e-04,2.12616e-03,3.68588e-03
2.03880e+03,1.15532e+01,-2.08928e+01,-1.53755e-04,2.09558e-03,3.63291e-03
2.03880e+03,1.11241e+01,-2.20535e+01,-1.51987e-04,2.06530e-03,3.58043e-03
2.03880e+03,1.06324e+01,-2.32142e+01,-1.49136e-04,2.03539e-03,3.52854e-03
2.03880e+03,1.00906e+01,-2.43749e+01,-1.45418e-04,2.00609e-03,3.47769e-03
2.03880e+03,9.49781e+00,-2.55357e+01,-1.40817e-04,1.97746e-03,3.42795e-03
2.03880e+03,8.81933e+00,-2.66964e+01,-1.34735e-04,1.94961e-03,3.37950e-03
2.03880e+03,8.04165e+00,-2.78571e+01,-1.26936e-04,1.92286e-03,3.33291e-03
2.03880e+03,7.15183e+00,-2.90178e+01,-1.17197e-04,1.89755e-03,3.28875e-03
2.03880e+03,6.09938e+00,-3.01785e+01,-1.04645e-04,1.87389e-03,3.24736e-03
2.03880e+03,4.74849e+00,-3.13392e+01,-8.69290e-05,1.85303e-03,3.21071e-03
2.03880e+03,2.92144e+00,-3.24999e+01,-6.09754e-05,1.84028e-03,3.18804e-03
2.03880e+03,-1.18374e+00,-3.36606e+01,4.39177e-06,1.84533e-03,3.19621e-03
2.03880e+03,-1.48002e+00,-3.36633e+01,9.50440e-06,1.86102e-03,3.22340e-03
2.03880e+03,-4.17927e+00,-3.24611e+01,6.20617e-05,1.89078e-03,3.27551e-03
2.03880e+03,-4.50609e+00,-3.12588e+01,7.35741e-05,1.91276e-03,3.31381e-03
2.03880e+03,-4.61886e+00,-3.00565e+01,8.13833e-05,1.93589e-03,3.35404e-03
2.03880e+03,-4.63598e+00,-2.88543e+01,8.75375e-05,1.96009e-03,3.39610e-03
2.03880e+03,-4.58102e+00,-2.76520e+01,9.24448e-05,1.98517e-03,3.43966e-03
2.03880e+03,-4.48083e+00,-2.64498e+01,9.65696e-05,2.01099e-03,3.48448e-03
2.03880e+03,-4.33523e+00,-2.52475e+01,9.99087e-05,2.03740e-03,3.53029e-03
2.03880e+03,-4.16192e+00,-2.40452e+01,1.02769e-04,2.06426e-03,3.57687e-03
2.03880e+03,-3.97255e+00,-2.28430e+01,1.05350e-04,2.09150e-03,3.62412e-03
2.03880e+03,-3.75897e+00,-2.16407e+01,1.07513e-04,2.11906e-03,3.67189e-03
2.03880e+03,-3.53026e+00,-2.04384e+01,1.09415e-04,2.14685e-03,3.72007e-03
2.03880e+03,-3.28682e+00,-1.92362e+01,1.11061e-04,2.17483e-03,3.76856e-03
2.03880e+03,-3.02870e+00,-1.80339e+01,1.12454e-04,2.20293e-03,3.81724e-03
2.03880e+03,-2.76138e+00,-1.68317e+01,1.13687e-04,2.23110e-03,3.86605e-03
2.03880e+03,-2.48228e+00,-1.56294e+01,1.14716e-04,2.25931e-03,3.91492e-03
2.03880e+03,-2.19562e+00,-1.44271e+01,1.15615e-04,2.28750e-03,3.96376e-03
2.03880e+03,-1.90220e+00,-1.32249e+01,1.16397e-04,2.31565e-03,4.01252e-03
2.03880e+03,-1.60274e+00,-1.20226e+01,1.17074e-04,2.34373e-03,4.06115e-03
2.03880e+03,-1.30072e+00,-1.08204e+01,1.17707e-04,2.37172e-03,4.10963e-03
2.03880e+03,-9.94731e-01,-9.61809e+00,1.18272e-04,2.39960e-03,4.15791e-03
2.03880e+03,-6.88086e-01,-8.41583e+00,1.18825e-04,2.42736e-03,4.20598e-03
2.03880e+03,-3.79073e-01,-7.21357e+00,1.19337e-04,2.45498e-03,4.25383e-03
2.03880e+03,-7.00919e-02,-6.01131e+00,1.19849e-04,2.48247e-03,4.30144e-03
2.03880e+03,2.37722e-01,-4.80905e+00,1.20382e-04,2.50983e-03,4.34882e-03
2.03880e+03,5.45535e-01,-3.60678e+00,1.20915e-04,2.53704e-03,4.39594e-03
2.03880e+03,8.46060e-01,-2.40452e+00,1.21573e-04,2.56411e-03,4.44284e-03
2.03880e+03,1.14523e+00,-1.20226e+00,1.22256e-04,2.59107e-03,4.48953e-03
2.04720e+03,1.48774e+01,0.00000e+00,-1.35690e-05,4.84205e-04,8.38777e-04
2.04720e+03,1.48025e+01,-1.13053e+00,-1.42037e-05,4.80389e-04,8.32179e-04
2.04720e+03,1.47028e+01,-2.26105e+00,-1.47860e-05,4.76481e-04,8.25421e-04
2.04720e+03,1.46021e+01,-3.39158e+00,-1.53662e-05,4.72483e-04,8.18509e-04
2.04720e+03,1.44796e+01,-4.52211e+00,-1.59001e-05,4.68405e-04,8.11457e-04
2.04720e+03,1.43520e+01,-5.65264e+00,-1.64232e-05,4.64250e-04,8.04273e-04
2.04720e+03,1.42077e+01,-6.78316e+00,-1.69108e-05,4.60027e-04,7.96969e-04
2.04720e+03,1.40552e+01,-7.91369e+00,-1.73812e-05,4.55740e-04,7.89556e-04
2.04720e+03,1.38892e+01,-9.04422e+00,-1.78230e-05,4.51395e-04,7.82042e-04
2.04720e+03,1.37121e+01,-1.01747e+01,-1.82414e-05,4.46998e-04,7.74438e-04
2.04720e+03,1.35229e+01,-1.13053e+01,-1.86340e-05,4.42555e-04,7.66754e-04
2.04720e+03,1.33189e+01,-1.24358e+01,-1.89953e-05,4.38071e-04,7.59000e-04
2.04720e+03,1.30998e+01,-1.35663e+01,-1.93247e-05,4.33553e-04,7.51185e-04
2.04720e+03,1.28594e+01,-1.46969e+01,-1.96088e-05,4.29008e-04,7.43323e-04
2.04720e+03,1.25982e+01,-1.58274e+01,-1.98488e-05,4.24445e-04,7.35429e-04
2.04720e+03,1.23120e+01,-1.69579e+01,-2.00361e-05,4.19871e-04,7.27514e-04
2.04720e+03,1.19922e+01,-1.80884e+01,-2.01519e-05,4.15302e-04,7.19606e-04
2.04720e+03,1.16489e+01,-1.92190e+01,-2.02181e-05,4.10741e-04,7.11711e-04
2.04720e+03,1.12528e+01,-2.03495e+01,-2.01726e-05,4.06213e-04,7.03870e-04
2.04720e+03,1.08348e+01,-2.14800e+01,-2.00806e-05,4.01727e-04,6.96102e-04
2.04720e+03,1.03559e+01,-2.26105e+01,-1.98596e-05,3.97297e-04,6.88425e-04
2.04720e+03,9.82823e+00,-2.37411e+01,-1.95352e-05,3.92958e-04,6.80903e-04
2.04720e+03,9.25081e+00,-2.48716e+01,-1.91055e-05,3.88718e-04,6.73550e-04
2.04720e+03,8.58998e+00,-2.60021e+01,-1.84990e-05,3.84592e-04,6.66390e-04
2.04720e+03,7.83252e+00,-2.71326e+01,-1.76879e-05,3.80632e-04,6.59511e-04
2.04720e+03,6.96585e+00,-2.82632e+01,-1.66455e-05,3.76883e-04,6.52993e-04
2.04720e+03,5.94077e+00,-2.93937e+01,-1.52674e-05,3.73379e-04,6.46891e-04
2.04720e+03,4.62500e+00,-3.05242e+01,-1.32736e-05,3.70289e-04,6.41497e-04
2.04720e+03,2.84547e+00,-3.16548e+01,-1.02975e-05,3.68402e-04,6.38174e-04
2.04720e+03,-1.15296e+00,-3.27853e+01,-2.62093e-06,3.69150e-04,6.39393e-04
2.04720e+03,-1.44153e+00,-3.27879e+01,-2.01149e-06,3.71474e-04,6.43416e-04
2.04720e+03,-4.07059e+00,-3.16169e+01,4.37952e-06,3.75881e-04,6.51060e-04
2.04720e+03,-4.38891e+00,-3.04459e+01,5.87565e-06,3.79137e-04,6.56710e-04
2.04720e+03,-4.49875e+00,-2.92749e+01,6.93016e-06,3.82563e-04,6.62654e-04
2.04720e+03,-4.51542e+00,-2.81039e+01,7.78729e-06,3.86147e-04,6.68872e-04
2.04720e+03,-4.46189e+00,-2.69329e+01,8.49572e-06,3.89862e-04,6.75315e-04
2.04720e+03,-4.36430e+00,-2.57619e+01,9.11084e-06,3.93686e-04,6.81946e-04
2.04720e+03,-4.22249e+00,-2.45909e+01,9.63226e-06,3.97597e-04,6.88726e-04
2.04720e+03,-4.05369e+00,-2.34199e+01,1.00965e-05,4.01575e-04,6.95622e-04
2.04720e+03,-3.86924e+00,-2.22489e+01,1.05276e-05,4.05611e-04,7.02617e-04
2.04720e+03,-3.66121e+00,-2.10779e+01,1.09088e-05,4.09692e-04,7.09691e-04
2.04720e+03,-3.43845e+00,-1.99069e+01,1.12587e-05,4.13809e-04,7.16826e-04
2.04720e+03,-3.20134e+00,-1.87359e+01,1.15783e-05,4.17952e-04,7.24007e-04
2.04720e+03,-2.94994e+00,-1.75649e+01,1.18676e-05,4.22113e-04,7.31218e-04
2.04720e+03,-2.68957e+00,-1.63940e+01,1.21378e-05,4.26286e-04,7.38449e-04
2.04720e+03,-2.41772e+00,-1.52230e+01,1.23838e-05,4.30463e-04,7.45687e-04
2.04720e+03,-2.13852e+00,-1.40520e+01,1.26142e-05,4.34639e-04,7.52922e-04
2.04720e+03,-1.85273e+00,-1.28810e+01,1.28306e-05,4.38808e-04,7.60146e-04
2.04720e+03,-1.56106e+00,-1.17100e+01,1.30346e-05,4.42967e-04,7.67352e-04
2.04720e+03,-1.26689e+00,-1.05390e+01,1.32333e-05,4.47112e-04,7.74533e-04
2.04720e+03,-9.68863e-01,-9.36797e+00,1.34238e-05,4.51240e-04,7.81686e-04
2.04720e+03,-6.70192e-01,-8.19698e+00,1.36130e-05,4.55351e-04,7.88809e-04
2.04720e+03,-3.69215e-01,-7.02598e+00,1.37972e-05,4.59443e-04,7.95898e-04
2.04720e+03,-6.82691e-02,-5.85498e+00,1.39815e-05,4.63514e-04,8.02951e-04
2.04720e+03,2.31540e-01,-4.68399e+00,1.41683e-05,4.67565e-04,8.09970e-04
2.04720e+03,5.31348e-01,-3.51299e+00,1.43550e-05,4.71594e-04,8.16951e-04
2.04720e+03,8.24058e-01,-2.34199e+00,1.45568e-05,4.75604e-04,8.23899e-04
2.04720e+03,1.11544e+00,-1.17100e+00,1.47614e-05,4.79597e-04,8.30817e-04
2.05000e+03,1.47450e+01,0.00000e+00,0.00000e+00,0.00000e+00,0.00000e+00
2.05000e+03,1.46708e+01,-1.12047e+00,0.00000e+00,0.00000e+00,0.00000e+00
2.05000e+03,1.45720e+01,-2.24093e+00,0.00000e+00,0.00000e+00,0.00000e+00
2.05000e+03,1.44722e+01,-3.36140e+00,0.00000e+00,0.00000e+00,0.00000e+00
2.05000e+03,1.43508e+01,-4.48186e+00,0.00000e+00,0.00000e+00,0.00000e+00
2.05000e+03,1.42243e+01,-5.60233e+00,0.00000e+00,0.00000e+00,0.00000e+00
2.05000e+03,1.40812e+01,-6.72279e+00,0.00000e+00,0.00000e+00,0.00000e+00
2.05000e+03,1.39301e+01,-7.84326e+00,0.00000e+00,0.00000e+00,0.00000e+00
2.05000e+03,1.37656e+01,-8.96372e+00,0.00000e+00,0.00000e+00,0.00000e+00
2.05000e+03,1.35901e+01,-1.00842e+01,0.00000e+00,0.00000e+00,0.00000e+00
2.05000e+03,1.34025e+01,-1.12047e+01,0.00000e+00,0.00000e+00,0.00000e+00
2.05000e+03,1.32004e+01,-1.23251e+01,0.00000e+00,0.00000e+00,0.00000e+00
2.05000e+03,1.29833e+01,-1.34456e+01,0.00000e+00,0.00000e+00,0.00000e+00
2.05000e+03,1.27450e+01,-1.45661e+01,0.00000e+00,0.00000e+00,0.00000e+00
2.05000e+03,1.24860e+01,-1.56865e+01,0.00000e+00,0.00000e+00,0.00000e+00
2.05000e+03,1.22024e+01,-1.68070e+01,0.00000e+00,0.00000e+00,0.00000e+00
2.05000e+03,1.18854e+01,-1.79274e+01,0.00000e+00,0.00000e+00,0.00000e+00
2.05000e+03,1.15452e+01,-1.90479e+01,0.00000e+00,0.00000e+00,0.00000e+00
2.05000e+03,1.11526e+01,-2.01684e+01,0.00000e+00,0.00000e+00,0.00000e+00
2.05000e+03,1.07384e+01,-2.12888e+01,0.00000e+00,0.00000e+00,0.00000e+00
2.05000e+03,1.02638e+01,-2.24093e+01,0.00000e+00,0.00000e+00,0.00000e+00
2.05000e+03,9.74076e+00,-2.35298e+01,0.00000e+00,0.00000e+00,0.00000e+00
2.05000e+03,9.16848e+00,-2.46502e+01,0.00000e+00,0.00000e+00,0.00000e+00
2.05000e+03,8.51353e+00,-2.57707e+01,0.00000e+00,0.00000e+00,0.00000e+00
2.05000e+03,7.76281e+00,-2.68912e+01,0.00000e+00,0.00000e+00,0.00000e+00
2.05000e+03,6.90385e+00,-2.80116e+01,0.00000e+00,0.00000e+00,0.00000e+00
2.05000e+03,5.88790e+00,-2.91321e+01,0.00000e+00,0.00000e+00,0.00000e+00
2.05000e+03,4.58384e+00,-3.02526e+01,0.00000e+00,0.00000e+00,0.00000e+00
2.05000e+03,2.82014e+00,-3.13730e+01,0.00000e+00,0.00000e+00,0.00000e+00
2.05000e+03,-1.14270e+00,-3.24935e+01,0.00000e+00,0.00000e+00,0.00000e+00
2.05000e+03,-1.42870e+00,-3.24961e+01,0.00000e+00,0.00000e+00,0.00000e+00
2.05000e+03,-4.03436e+00,-3.13355e+01,0.00000e+00,0.00000e+00,0.00000e+00
2.05000e+03,-4.34985e+00,-3.01749e+01,0.00000e+00,0.00000e+00,0.00000e+00
2.05000e+03,-4.45871e+00,-2.90144e+01,0.00000e+00,0.00000e+00,0.00000e+00
2.05000e+03,-4.47523e+00,-2.78538e+01,0.00000e+00,0.00000e+00,0.00000e+00
2.05000e+03,-4.42218e+00,-2.66932e+01,0.00000e+00,0.00000e+00,0.00000e+00
2.05000e+03,-4.32546e+00,-2.55327e+01,0.00000e+00,0.00000e+00,0.00000e+00
2.05000e+03,-4.18491e+00,-2.43721e+01,0.00000e+00,0.00000e+00,0.00000e+00
2.05000e+03,-4.01761e+00,-2.32115e+01,0.00000e+00,0.00000e+00,0.00000e+00
2.05000e+03,-3.83480e+00,-2.20509e+01,0.00000e+00,0.00000e+00,0.00000e+00
2.05000e+03,-3.62863e+00,-2.08903e+01,0.00000e+00,0.00000e+00,0.00000e+00
2.05000e+03,-3.40785e+00,-1.97298e+01,0.00000e+00,0.00000e+00,0.00000e+00
2.05000e+03,-3.17285e+00,-1.85692e+01,0.00000e+00,0.00000e+00,0.00000e+00
2.05000e+03,-2.92368e+00,-1.74086e+01,0.00000e+00,0.00000e+00,0.00000e+00
2.05000e+03,-2.66563e+00,-1.62480e+01,0.00000e+00,0.00000e+00,0.00000e+00
2.05000e+03,-2.39621e+00,-1.50875e+01,0.00000e+00,0.00000e+00,0.00000e+00
2.05000e+03,-2.11949e+00,-1.39269e+01,0.00000e+00,0.00000e+00,0.00000e+00
2.05000e+03,-1.83624e+00,-1.27663e+01,0.00000e+00,0.00000e+00,0.00000e+00
2.05000e+03,-1.54717e+00,-1.16057e+01,0.00000e+00,0.00000e+00,0.00000e+00
2.05000e+03,-1.25562e+00,-1.04452e+01,0.00000e+00,0.00000e+00,0.00000e+00
2.05000e+03,-9.60241e-01,-9.28460e+00,0.00000e+00,0.00000e+00,0.00000e+00
2.05000e+03,-6.64227e-01,-8.12402e+00,0.00000e+00,0.00000e+00,0.00000e+00
2.05000e+03,-3.65929e-01,-6.96345e+00,0.00000e+00,0.00000e+00,0.00000e+00
2.05000e+03,-6.76615e-02,-5.80287e+00,0.00000e+00,0.00000e+00,0.00000e+00
2.05000e+03,2.29479e-01,-4.64230e+00,0.00000e+00,0.00000e+00,0.00000e+00
2.05000e+03,5.26620e-01,-3.48173e+00,0.00000e+00,0.00000e+00,0.00000e+00
2.05000e+03,8.16724e-01,-2.32115e+00,0.00000e+00,0.00000e+00,0.00000e+00
2.05000e+03,1.10552e+00,-1.16058e+00,0.00000e+00,0.00000e+00,0.00000e+00
--------------------------------------------------------------------------------------------------------------------------------------------------------------------------------------------------------------------------------------------------------------------------------------------------------------------------------------------------------------------------------

LAMINADO 
--------------------------------------------------------------------------------------------------------------------------------------------------------------------------------------------------------------------------------------------------------------------------------------------------------------------------------------------------------------------------------
X,Y,Z,Sigma,Tau,Von Mises
0.00000e+00,4.31008e+01,0.00000e+00,0.00000e+00,0.00000e+00,0.00000e+00
0.00000e+00,4.28837e+01,-3.27521e+00,0.00000e+00,0.00000e+00,0.00000e+00
0.00000e+00,4.25950e+01,-6.55041e+00,0.00000e+00,0.00000e+00,0.00000e+00
0.00000e+00,4.23033e+01,-9.82562e+00,0.00000e+00,0.00000e+00,0.00000e+00
0.00000e+00,4.19484e+01,-1.31008e+01,0.00000e+00,0.00000e+00,0.00000e+00
0.00000e+00,4.15787e+01,-1.63760e+01,0.00000e+00,0.00000e+00,0.00000e+00
0.00000e+00,4.11605e+01,-1.96512e+01,0.00000e+00,0.00000e+00,0.00000e+00
0.00000e+00,4.07187e+01,-2.29264e+01,0.00000e+00,0.00000e+00,0.00000e+00
0.00000e+00,4.02378e+01,-2.62017e+01,0.00000e+00,0.00000e+00,0.00000e+00
0.00000e+00,3.97249e+01,-2.94769e+01,0.00000e+00,0.00000e+00,0.00000e+00
0.00000e+00,3.91766e+01,-3.27521e+01,0.00000e+00,0.00000e+00,0.00000e+00
0.00000e+00,3.85857e+01,-3.60273e+01,0.00000e+00,0.00000e+00,0.00000e+00
0.00000e+00,3.79511e+01,-3.93025e+01,0.00000e+00,0.00000e+00,0.00000e+00
0.00000e+00,3.72545e+01,-4.25777e+01,0.00000e+00,0.00000e+00,0.00000e+00
0.00000e+00,3.64976e+01,-4.58529e+01,0.00000e+00,0.00000e+00,0.00000e+00
0.00000e+00,3.56687e+01,-4.91281e+01,0.00000e+00,0.00000e+00,0.00000e+00
0.00000e+00,3.47420e+01,-5.24033e+01,0.00000e+00,0.00000e+00,0.00000e+00
0.00000e+00,3.37474e+01,-5.56785e+01,0.00000e+00,0.00000e+00,0.00000e+00
0.00000e+00,3.26000e+01,-5.89537e+01,0.00000e+00,0.00000e+00,0.00000e+00
0.00000e+00,3.13892e+01,-6.22289e+01,0.00000e+00,0.00000e+00,0.00000e+00
0.00000e+00,3.00018e+01,-6.55041e+01,0.00000e+00,0.00000e+00,0.00000e+00
0.00000e+00,2.84730e+01,-6.87793e+01,0.00000e+00,0.00000e+00,0.00000e+00
0.00000e+00,2.68002e+01,-7.20546e+01,0.00000e+00,0.00000e+00,0.00000e+00
0.00000e+00,2.48857e+01,-7.53298e+01,0.00000e+00,0.00000e+00,0.00000e+00
0.00000e+00,2.26913e+01,-7.86050e+01,0.00000e+00,0.00000e+00,0.00000e+00
0.00000e+00,2.01805e+01,-8.18802e+01,0.00000e+00,0.00000e+00,0.00000e+00
0.00000e+00,1.72108e+01,-8.51554e+01,0.00000e+00,0.00000e+00,0.00000e+00
0.00000e+00,1.33989e+01,-8.84306e+01,0.00000e+00,0.00000e+00,0.00000e+00
0.00000e+00,8.24350e+00,-9.17058e+01,0.00000e+00,0.00000e+00,0.00000e+00
0.00000e+00,-3.34020e+00,-9.49810e+01,0.00000e+00,0.00000e+00,0.00000e+00
0.00000e+00,-4.17620e+00,-9.49886e+01,0.00000e+00,0.00000e+00,0.00000e+00
0.00000e+00,-1.17928e+01,-9.15961e+01,0.00000e+00,0.00000e+00,0.00000e+00
0.00000e+00,-1.27149e+01,-8.82037e+01,0.00000e+00,0.00000e+00,0.00000e+00
0.00000e+00,-1.30332e+01,-8.48113e+01,0.00000e+00,0.00000e+00,0.00000e+00
0.00000e+00,-1.30814e+01,-8.14188e+01,0.00000e+00,0.00000e+00,0.00000e+00
0.00000e+00,-1.29264e+01,-7.80264e+01,0.00000e+00,0.00000e+00,0.00000e+00
0.00000e+00,-1.26437e+01,-7.46339e+01,0.00000e+00,0.00000e+00,0.00000e+00
0.00000e+00,-1.22328e+01,-7.12415e+01,0.00000e+00,0.00000e+00,0.00000e+00
0.00000e+00,-1.17438e+01,-6.78490e+01,0.00000e+00,0.00000e+00,0.00000e+00
0.00000e+00,-1.12094e+01,-6.44565e+01,0.00000e+00,0.00000e+00,0.00000e+00
0.00000e+00,-1.06068e+01,-6.10641e+01,0.00000e+00,0.00000e+00,0.00000e+00
0.00000e+00,-9.96142e+00,-5.76716e+01,0.00000e+00,0.00000e+00,0.00000e+00
0.00000e+00,-9.27449e+00,-5.42792e+01,0.00000e+00,0.00000e+00,0.00000e+00
0.00000e+00,-8.54615e+00,-5.08867e+01,0.00000e+00,0.00000e+00,0.00000e+00
0.00000e+00,-7.79185e+00,-4.74943e+01,0.00000e+00,0.00000e+00,0.00000e+00
0.00000e+00,-7.00429e+00,-4.41018e+01,0.00000e+00,0.00000e+00,0.00000e+00
0.00000e+00,-6.19544e+00,-4.07094e+01,0.00000e+00,0.00000e+00,0.00000e+00
0.00000e+00,-5.36748e+00,-3.73169e+01,0.00000e+00,0.00000e+00,0.00000e+00
0.00000e+00,-4.52248e+00,-3.39245e+01,0.00000e+00,0.00000e+00,0.00000e+00
0.00000e+00,-3.67026e+00,-3.05320e+01,0.00000e+00,0.00000e+00,0.00000e+00
0.00000e+00,-2.80686e+00,-2.71396e+01,0.00000e+00,0.00000e+00,0.00000e+00
0.00000e+00,-1.94159e+00,-2.37472e+01,0.00000e+00,0.00000e+00,0.00000e+00
0.00000e+00,-1.06964e+00,-2.03547e+01,0.00000e+00,0.00000e+00,0.00000e+00
0.00000e+00,-1.97780e-01,-1.69622e+01,0.00000e+00,0.00000e+00,0.00000e+00
0.00000e+00,6.70785e-01,-1.35698e+01,0.00000e+00,0.00000e+00,0.00000e+00
0.00000e+00,1.53935e+00,-1.01774e+01,0.00000e+00,0.00000e+00,0.00000e+00
0.00000e+00,2.38735e+00,-6.78490e+00,0.00000e+00,0.00000e+00,0.00000e+00
0.00000e+00,3.23151e+00,-3.39245e+00,0.00000e+00,0.00000e+00,0.00000e+00
1.07300e+02,4.26785e+01,0.00000e+00,0.00000e+00,0.00000e+00,0.00000e+00
1.07300e+02,4.24636e+01,-3.24312e+00,0.00000e+00,0.00000e+00,0.00000e+00
1.07300e+02,4.21777e+01,-6.48624e+00,0.00000e+00,0.00000e+00,0.00000e+00
1.07300e+02,4.18889e+01,-9.72936e+00,0.00000e+00,0.00000e+00,0.00000e+00
1.07300e+02,4.15374e+01,-1.29725e+01,0.00000e+00,0.00000e+00,0.00000e+00
1.07300e+02,4.11714e+01,-1.62156e+01,0.00000e+00,0.00000e+00,0.00000e+00
1.07300e+02,4.07572e+01,-1.94587e+01,0.00000e+00,0.00000e+00,0.00000e+00
1.07300e+02,4.03197e+01,-2.27018e+01,0.00000e+00,0.00000e+00,0.00000e+00
1.07300e+02,3.98436e+01,-2.59450e+01,0.00000e+00,0.00000e+00,0.00000e+00
1.07300e+02,3.93357e+01,-2.91881e+01,0.00000e+00,0.00000e+00,0.00000e+00
1.07300e+02,3.87928e+01,-3.24312e+01,0.00000e+00,0.00000e+00,0.00000e+00
1.07300e+02,3.82077e+01,-3.56743e+01,0.00000e+00,0.00000e+00,0.00000e+00
1.07300e+02,3.75793e+01,-3.89174e+01,0.00000e+00,0.00000e+00,0.00000e+00
1.07300e+02,3.68895e+01,-4.21606e+01,0.00000e+00,0.00000e+00,0.00000e+00
1.07300e+02,3.61401e+01,-4.54037e+01,0.00000e+00,0.00000e+00,0.00000e+00
1.07300e+02,3.53192e+01,-4.86468e+01,0.00000e+00,0.00000e+00,0.00000e+00
1.07300e+02,3.44016e+01,-5.18899e+01,0.00000e+00,0.00000e+00,0.00000e+00
1.07300e+02,3.34168e+01,-5.51330e+01,0.00000e+00,0.00000e+00,0.00000e+00
1.07300e+02,3.22806e+01,-5.83762e+01,0.00000e+00,0.00000e+00,0.00000e+00
1.07300e+02,3.10816e+01,-6.16193e+01,0.00000e+00,0.00000e+00,0.00000e+00
1.07300e+02,2.97079e+01,-6.48624e+01,0.00000e+00,0.00000e+00,0.00000e+00
1.07300e+02,2.81940e+01,-6.81055e+01,0.00000e+00,0.00000e+00,0.00000e+00
1.07300e+02,2.65376e+01,-7.13486e+01,0.00000e+00,0.00000e+00,0.00000e+00
1.07300e+02,2.46419e+01,-7.45918e+01,0.00000e+00,0.00000e+00,0.00000e+00
1.07300e+02,2.24690e+01,-7.78349e+01,0.00000e+00,0.00000e+00,0.00000e+00
1.07300e+02,1.99828e+01,-8.10780e+01,0.00000e+00,0.00000e+00,0.00000e+00
1.07300e+02,1.70422e+01,-8.43211e+01,0.00000e+00,0.00000e+00,0.00000e+00
1.07300e+02,1.32676e+01,-8.75642e+01,0.00000e+00,0.00000e+00,0.00000e+00
1.07300e+02,8.16273e+00,-9.08074e+01,0.00000e+00,0.00000e+00,0.00000e+00
1.07300e+02,-3.30748e+00,-9.40505e+01,0.00000e+00,0.00000e+00,0.00000e+00
1.07300e+02,-4.13529e+00,-9.40580e+01,0.00000e+00,0.00000e+00,0.00000e+00
1.07300e+02,-1.16772e+01,-9.06988e+01,0.00000e+00,0.00000e+00,0.00000e+00
1.07300e+02,-1.25904e+01,-8.73396e+01,0.00000e+00,0.00000e+00,0.00000e+00
1.07300e+02,-1.29055e+01,-8.39804e+01,0.00000e+00,0.00000e+00,0.00000e+00
1.07300e+02,-1.29533e+01,-8.06211e+01,0.00000e+00,0.00000e+00,0.00000e+00
1.07300e+02,-1.27997e+01,-7.72619e+01,0.00000e+00,0.00000e+00,0.00000e+00
1.07300e+02,-1.25198e+01,-7.39027e+01,0.00000e+00,0.00000e+00,0.00000e+00
1.07300e+02,-1.21130e+01,-7.05435e+01,0.00000e+00,0.00000e+00,0.00000e+00
1.07300e+02,-1.16287e+01,-6.71843e+01,0.00000e+00,0.00000e+00,0.00000e+00
1.07300e+02,-1.10996e+01,-6.38251e+01,0.00000e+00,0.00000e+00,0.00000e+00
1.07300e+02,-1.05029e+01,-6.04659e+01,0.00000e+00,0.00000e+00,0.00000e+00
1.07300e+02,-9.86382e+00,-5.71066e+01,0.00000e+00,0.00000e+00,0.00000e+00
1.07300e+02,-9.18363e+00,-5.37474e+01,0.00000e+00,0.00000e+00,0.00000e+00
1.07300e+02,-8.46243e+00,-5.03882e+01,0.00000e+00,0.00000e+00,0.00000e+00
1.07300e+02,-7.71552e+00,-4.70290e+01,0.00000e+00,0.00000e+00,0.00000e+00
1.07300e+02,-6.93567e+00,-4.36698e+01,0.00000e+00,0.00000e+00,0.00000e+00
1.07300e+02,-6.13474e+00,-4.03106e+01,0.00000e+00,0.00000e+00,0.00000e+00
1.07300e+02,-5.31490e+00,-3.69514e+01,0.00000e+00,0.00000e+00,0.00000e+00
1.07300e+02,-4.47818e+00,-3.35921e+01,0.00000e+00,0.00000e+00,0.00000e+00
1.07300e+02,-3.63431e+00,-3.02329e+01,0.00000e+00,0.00000e+00,0.00000e+00
1.07300e+02,-2.77936e+00,-2.68737e+01,0.00000e+00,0.00000e+00,0.00000e+00
1.07300e+02,-1.92257e+00,-2.35145e+01,0.00000e+00,0.00000e+00,0.00000e+00
1.07300e+02,-1.05916e+00,-2.01553e+01,0.00000e+00,0.00000e+00,0.00000e+00
1.07300e+02,-1.95842e-01,-1.67961e+01,0.00000e+00,0.00000e+00,0.00000e+00
1.07300e+02,6.64213e-01,-1.34369e+01,0.00000e+00,0.00000e+00,0.00000e+00
1.07300e+02,1.52427e+00,-1.00776e+01,0.00000e+00,0.00000e+00,0.00000e+00
1.07300e+02,2.36396e+00,-6.71843e+00,0.00000e+00,0.00000e+00,0.00000e+00
1.07300e+02,3.19985e+00,-3.35921e+00,0.00000e+00,0.00000e+00,0.00000e+00
2.14300e+02,4.22575e+01,0.00000e+00,0.00000e+00,0.00000e+00,0.00000e+00
2.14300e+02,4.20447e+01,-3.21112e+00,0.00000e+00,0.00000e+00,0.00000e+00
2.14300e+02,4.17615e+01,-6.42224e+00,0.00000e+00,0.00000e+00,0.00000e+00
2.14300e+02,4.14756e+01,-9.63337e+00,0.00000e+00,0.00000e+00,0.00000e+00
2.14300e+02,4.11276e+01,-1.28445e+01,0.00000e+00,0.00000e+00,0.00000e+00
2.14300e+02,4.07652e+01,-1.60556e+01,0.00000e+00,0.00000e+00,0.00000e+00
2.14300e+02,4.03551e+01,-1.92667e+01,0.00000e+00,0.00000e+00,0.00000e+00
2.14300e+02,3.99219e+01,-2.24779e+01,0.00000e+00,0.00000e+00,0.00000e+00
2.14300e+02,3.94505e+01,-2.56890e+01,0.00000e+00,0.00000e+00,0.00000e+00
2.14300e+02,3.89476e+01,-2.89001e+01,0.00000e+00,0.00000e+00,0.00000e+00
2.14300e+02,3.84101e+01,-3.21112e+01,0.00000e+00,0.00000e+00,0.00000e+00
2.14300e+02,3.78307e+01,-3.53223e+01,0.00000e+00,0.00000e+00,0.00000e+00
2.14300e+02,3.72085e+01,-3.85335e+01,0.00000e+00,0.00000e+00,0.00000e+00
2.14300e+02,3.65256e+01,-4.17446e+01,0.00000e+00,0.00000e+00,0.00000e+00
2.14300e+02,3.57835e+01,-4.49557e+01,0.00000e+00,0.00000e+00,0.00000e+00
2.14300e+02,3.49707e+01,-4.81668e+01,0.00000e+00,0.00000e+00,0.00000e+00
2.14300e+02,3.40622e+01,-5.13780e+01,0.00000e+00,0.00000e+00,0.00000e+00
2.14300e+02,3.30871e+01,-5.45891e+01,0.00000e+00,0.00000e+00,0.00000e+00
2.14300e+02,3.19621e+01,-5.78002e+01,0.00000e+00,0.00000e+00,0.00000e+00
2.14300e+02,3.07750e+01,-6.10113e+01,0.00000e+00,0.00000e+00,0.00000e+00
2.14300e+02,2.94148e+01,-6.42224e+01,0.00000e+00,0.00000e+00,0.00000e+00
2.14300e+02,2.79159e+01,-6.74336e+01,0.00000e+00,0.00000e+00,0.00000e+00
2.14300e+02,2.62758e+01,-7.06447e+01,0.00000e+00,0.00000e+00,0.00000e+00
2.14300e+02,2.43988e+01,-7.38558e+01,0.00000e+00,0.00000e+00,0.00000e+00
2.14300e+02,2.22473e+01,-7.70669e+01,0.00000e+00,0.00000e+00,0.00000e+00
2.14300e+02,1.97856e+01,-8.02781e+01,0.00000e+00,0.00000e+00,0.00000e+00
2.14300e+02,1.68740e+01,-8.34892e+01,0.00000e+00,0.00000e+00,0.00000e+00
2.14300e+02,1.31367e+01,-8.67003e+01,0.00000e+00,0.00000e+00,0.00000e+00
2.14300e+02,8.08220e+00,-8.99114e+01,0.00000e+00,0.00000e+00,0.00000e+00
2.14300e+02,-3.27484e+00,-9.31226e+01,0.00000e+00,0.00000e+00,0.00000e+00
2.14300e+02,-4.09449e+00,-9.31300e+01,0.00000e+00,0.00000e+00,0.00000e+00
2.14300e+02,-1.15620e+01,-8.98039e+01,0.00000e+00,0.00000e+00,0.00000e+00
2.14300e+02,-1.24661e+01,-8.64779e+01,0.00000e+00,0.00000e+00,0.00000e+00
2.14300e+02,-1.27781e+01,-8.31518e+01,0.00000e+00,0.00000e+00,0.00000e+00
2.14300e+02,-1.28255e+01,-7.98257e+01,0.00000e+00,0.00000e+00,0.00000e+00
2.14300e+02,-1.26734e+01,-7.64996e+01,0.00000e+00,0.00000e+00,0.00000e+00
2.14300e+02,-1.23963e+01,-7.31736e+01,0.00000e+00,0.00000e+00,0.00000e+00
2.14300e+02,-1.19935e+01,-6.98475e+01,0.00000e+00,0.00000e+00,0.00000e+00
2.14300e+02,-1.15140e+01,-6.65214e+01,0.00000e+00,0.00000e+00,0.00000e+00
2.14300e+02,-1.09901e+01,-6.31954e+01,0.00000e+00,0.00000e+00,0.00000e+00
2.14300e+02,-1.03992e+01,-5.98693e+01,0.00000e+00,0.00000e+00,0.00000e+00
2.14300e+02,-9.76651e+00,-5.65432e+01,0.00000e+00,0.00000e+00,0.00000e+00
2.14300e+02,-9.09302e+00,-5.32171e+01,0.00000e+00,0.00000e+00,0.00000e+00
2.14300e+02,-8.37893e+00,-4.98911e+01,0.00000e+00,0.00000e+00,0.00000e+00
2.14300e+02,-7.63939e+00,-4.65650e+01,0.00000e+00,0.00000e+00,0.00000e+00
2.14300e+02,-6.86724e+00,-4.32389e+01,0.00000e+00,0.00000e+00,0.00000e+00
2.14300e+02,-6.07421e+00,-3.99129e+01,0.00000e+00,0.00000e+00,0.00000e+00
2.14300e+02,-5.26246e+00,-3.65868e+01,0.00000e+00,0.00000e+00,0.00000e+00
2.14300e+02,-4.43399e+00,-3.32607e+01,0.00000e+00,0.00000e+00,0.00000e+00
2.14300e+02,-3.59845e+00,-2.99346e+01,0.00000e+00,0.00000e+00,0.00000e+00
2.14300e+02,-2.75194e+00,-2.66086e+01,0.00000e+00,0.00000e+00,0.00000e+00
2.14300e+02,-1.90360e+00,-2.32825e+01,0.00000e+00,0.00000e+00,0.00000e+00
2.14300e+02,-1.04871e+00,-1.99564e+01,0.00000e+00,0.00000e+00,0.00000e+00
2.14300e+02,-1.93910e-01,-1.66304e+01,0.00000e+00,0.00000e+00,0.00000e+00
2.14300e+02,6.57660e-01,-1.33043e+01,0.00000e+00,0.00000e+00,0.00000e+00
2.14300e+02,1.50923e+00,-9.97821e+00,0.00000e+00,0.00000e+00,0.00000e+00
2.14300e+02,2.34063e+00,-6.65214e+00,0.00000e+00,0.00000e+00,0.00000e+00
2.14300e+02,3.16828e+00,-3.32607e+00,0.00000e+00,0.00000e+00,0.00000e+00
3.20700e+02,4.18388e+01,0.00000e+00,0.00000e+00,0.00000e+00,0.00000e+00
3.20700e+02,4.16280e+01,-3.17930e+00,0.00000e+00,0.00000e+00,0.00000e+00
3.20700e+02,4.13477e+01,-6.35861e+00,0.00000e+00,0.00000e+00,0.00000e+00
3.20700e+02,4.10646e+01,-9.53791e+00,0.00000e+00,0.00000e+00,0.00000e+00
3.20700e+02,4.07201e+01,-1.27172e+01,0.00000e+00,0.00000e+00,0.00000e+00
3.20700e+02,4.03613e+01,-1.58965e+01,0.00000e+00,0.00000e+00,0.00000e+00
3.20700e+02,3.99553e+01,-1.90758e+01,0.00000e+00,0.00000e+00,0.00000e+00
3.20700e+02,3.95264e+01,-2.22551e+01,0.00000e+00,0.00000e+00,0.00000e+00
3.20700e+02,3.90596e+01,-2.54344e+01,0.00000e+00,0.00000e+00,0.00000e+00
3.20700e+02,3.85617e+01,-2.86137e+01,0.00000e+00,0.00000e+00,0.00000e+00
3.20700e+02,3.80295e+01,-3.17930e+01,0.00000e+00,0.00000e+00,0.00000e+00
3.20700e+02,3.74559e+01,-3.49724e+01,0.00000e+00,0.00000e+00,0.00000e+00
3.20700e+02,3.68398e+01,-3.81517e+01,0.00000e+00,0.00000e+00,0.00000e+00
3.20700e+02,3.61637e+01,-4.13310e+01,0.00000e+00,0.00000e+00,0.00000e+00
3.20700e+02,3.54289e+01,-4.45103e+01,0.00000e+00,0.00000e+00,0.00000e+00
3.20700e+02,3.46242e+01,-4.76896e+01,0.00000e+00,0.00000e+00,0.00000e+00
3.20700e+02,3.37247e+01,-5.08689e+01,0.00000e+00,0.00000e+00,0.00000e+00
3.20700e+02,3.27593e+01,-5.40482e+01,0.00000e+00,0.00000e+00,0.00000e+00
3.20700e+02,3.16454e+01,-5.72275e+01,0.00000e+00,0.00000e+00,0.00000e+00
3.20700e+02,3.04701e+01,-6.04068e+01,0.00000e+00,0.00000e+00,0.00000e+00
3.20700e+02,2.91233e+01,-6.35861e+01,0.00000e+00,0.00000e+00,0.00000e+00
3.20700e+02,2.76393e+01,-6.67654e+01,0.00000e+00,0.00000e+00,0.00000e+00
3.20700e+02,2.60154e+01,-6.99447e+01,0.00000e+00,0.00000e+00,0.00000e+00
3.20700e+02,2.41570e+01,-7.31240e+01,0.00000e+00,0.00000e+00,0.00000e+00
3.20700e+02,2.20269e+01,-7.63033e+01,0.00000e+00,0.00000e+00,0.00000e+00
3.20700e+02,1.95896e+01,-7.94826e+01,0.00000e+00,0.00000e+00,0.00000e+00
3.20700e+02,1.67068e+01,-8.26619e+01,0.00000e+00,0.00000e+00,0.00000e+00
3.20700e+02,1.30066e+01,-8.58412e+01,0.00000e+00,0.00000e+00,0.00000e+00
3.20700e+02,8.00212e+00,-8.90205e+01,0.00000e+00,0.00000e+00,0.00000e+00
3.20700e+02,-3.24239e+00,-9.21998e+01,0.00000e+00,0.00000e+00,0.00000e+00
3.20700e+02,-4.05392e+00,-9.22072e+01,0.00000e+00,0.00000e+00,0.00000e+00
3.20700e+02,-1.14474e+01,-8.89141e+01,0.00000e+00,0.00000e+00,0.00000e+00
3.20700e+02,-1.23426e+01,-8.56210e+01,0.00000e+00,0.00000e+00,0.00000e+00
3.20700e+02,-1.26515e+01,-8.23279e+01,0.00000e+00,0.00000e+00,0.00000e+00
3.20700e+02,-1.26984e+01,-7.90348e+01,0.00000e+00,0.00000e+00,0.00000e+00
3.20700e+02,-1.25479e+01,-7.57416e+01,0.00000e+00,0.00000e+00,0.00000e+00
3.20700e+02,-1.22734e+01,-7.24485e+01,0.00000e+00,0.00000e+00,0.00000e+00
3.20700e+02,-1.18746e+01,-6.91554e+01,0.00000e+00,0.00000e+00,0.00000e+00
3.20700e+02,-1.13999e+01,-6.58623e+01,0.00000e+00,0.00000e+00,0.00000e+00
3.20700e+02,-1.08812e+01,-6.25692e+01,0.00000e+00,0.00000e+00,0.00000e+00
3.20700e+02,-1.02962e+01,-5.92761e+01,0.00000e+00,0.00000e+00,0.00000e+00
3.20700e+02,-9.66973e+00,-5.59829e+01,0.00000e+00,0.00000e+00,0.00000e+00
3.20700e+02,-9.00292e+00,-5.26898e+01,0.00000e+00,0.00000e+00,0.00000e+00
3.20700e+02,-8.29591e+00,-4.93967e+01,0.00000e+00,0.00000e+00,0.00000e+00
3.20700e+02,-7.56370e+00,-4.61036e+01,0.00000e+00,0.00000e+00,0.00000e+00
3.20700e+02,-6.79920e+00,-4.28105e+01,0.00000e+00,0.00000e+00,0.00000e+00
3.20700e+02,-6.01403e+00,-3.95174e+01,0.00000e+00,0.00000e+00,0.00000e+00
3.20700e+02,-5.21032e+00,-3.62243e+01,0.00000e+00,0.00000e+00,0.00000e+00
3.20700e+02,-4.39006e+00,-3.29311e+01,0.00000e+00,0.00000e+00,0.00000e+00
3.20700e+02,-3.56279e+00,-2.96380e+01,0.00000e+00,0.00000e+00,0.00000e+00
3.20700e+02,-2.72467e+00,-2.63449e+01,0.00000e+00,0.00000e+00,0.00000e+00
3.20700e+02,-1.88474e+00,-2.30518e+01,0.00000e+00,0.00000e+00,0.00000e+00
3.20700e+02,-1.03832e+00,-1.97587e+01,0.00000e+00,0.00000e+00,0.00000e+00
3.20700e+02,-1.91989e-01,-1.64656e+01,0.00000e+00,0.00000e+00,0.00000e+00
3.20700e+02,6.51143e-01,-1.31725e+01,0.00000e+00,0.00000e+00,0.00000e+00
3.20700e+02,1.49428e+00,-9.87934e+00,0.00000e+00,0.00000e+00,0.00000e+00
3.20700e+02,2.31744e+00,-6.58623e+00,0.00000e+00,0.00000e+00,0.00000e+00
3.20700e+02,3.13689e+00,-3.29311e+00,0.00000e+00,0.00000e+00,0.00000e+00
4.26200e+02,4.14236e+01,0.00000e+00,0.00000e+00,0.00000e+00,0.00000e+00
4.26200e+02,4.12150e+01,-3.14776e+00,0.00000e+00,0.00000e+00,0.00000e+00
4.26200e+02,4.09374e+01,-6.29551e+00,0.00000e+00,0.00000e+00,0.00000e+00
4.26200e+02,4.06571e+01,-9.44327e+00,0.00000e+00,0.00000e+00,0.00000e+00
4.26200e+02,4.03160e+01,-1.25910e+01,0.00000e+00,0.00000e+00,0.00000e+00
4.26200e+02,3.99607e+01,-1.57388e+01,0.00000e+00,0.00000e+00,0.00000e+00
4.26200e+02,3.95588e+01,-1.88865e+01,0.00000e+00,0.00000e+00,0.00000e+00
4.26200e+02,3.91341e+01,-2.20343e+01,0.00000e+00,0.00000e+00,0.00000e+00
4.26200e+02,3.86720e+01,-2.51820e+01,0.00000e+00,0.00000e+00,0.00000e+00
4.26200e+02,3.81790e+01,-2.83298e+01,0.00000e+00,0.00000e+00,0.00000e+00
4.26200e+02,3.76521e+01,-3.14776e+01,0.00000e+00,0.00000e+00,0.00000e+00
4.26200e+02,3.70842e+01,-3.46253e+01,0.00000e+00,0.00000e+00,0.00000e+00
4.26200e+02,3.64743e+01,-3.77731e+01,0.00000e+00,0.00000e+00,0.00000e+00
4.26200e+02,3.58048e+01,-4.09208e+01,0.00000e+00,0.00000e+00,0.00000e+00
4.26200e+02,3.50774e+01,-4.40686e+01,0.00000e+00,0.00000e+00,0.00000e+00
4.26200e+02,3.42806e+01,-4.72163e+01,0.00000e+00,0.00000e+00,0.00000e+00
4.26200e+02,3.33901e+01,-5.03641e+01,0.00000e+00,0.00000e+00,0.00000e+00
4.26200e+02,3.24342e+01,-5.35118e+01,0.00000e+00,0.00000e+00,0.00000e+00
4.26200e+02,3.13314e+01,-5.66596e+01,0.00000e+00,0.00000e+00,0.00000e+00
4.26200e+02,3.01677e+01,-5.98074e+01,0.00000e+00,0.00000e+00,0.00000e+00
4.26200e+02,2.88343e+01,-6.29551e+01,0.00000e+00,0.00000e+00,0.00000e+00
4.26200e+02,2.73650e+01,-6.61029e+01,0.00000e+00,0.00000e+00,0.00000e+00
4.26200e+02,2.57573e+01,-6.92506e+01,0.00000e+00,0.00000e+00,0.00000e+00
4.26200e+02,2.39173e+01,-7.23984e+01,0.00000e+00,0.00000e+00,0.00000e+00
4.26200e+02,2.18083e+01,-7.55461e+01,0.00000e+00,0.00000e+00,0.00000e+00
4.26200e+02,1.93952e+01,-7.86939e+01,0.00000e+00,0.00000e+00,0.00000e+00
4.26200e+02,1.65410e+01,-8.18417e+01,0.00000e+00,0.00000e+00,0.00000e+00
4.26200e+02,1.28775e+01,-8.49894e+01,0.00000e+00,0.00000e+00,0.00000e+00
4.26200e+02,7.92271e+00,-8.81372e+01,0.00000e+00,0.00000e+00,0.00000e+00
4.26200e+02,-3.21022e+00,-9.12849e+01,0.00000e+00,0.00000e+00,0.00000e+00
4.26200e+02,-4.01369e+00,-9.12922e+01,0.00000e+00,0.00000e+00,0.00000e+00
4.26200e+02,-1.13339e+01,-8.80318e+01,0.00000e+00,0.00000e+00,0.00000e+00
4.26200e+02,-1.22201e+01,-8.47713e+01,0.00000e+00,0.00000e+00,0.00000e+00
4.26200e+02,-1.25260e+01,-8.15109e+01,0.00000e+00,0.00000e+00,0.00000e+00
4.26200e+02,-1.25724e+01,-7.82505e+01,0.00000e+00,0.00000e+00,0.00000e+00
4.26200e+02,-1.24233e+01,-7.49900e+01,0.00000e+00,0.00000e+00,0.00000e+00
4.26200e+02,-1.21516e+01,-7.17296e+01,0.00000e+00,0.00000e+00,0.00000e+00
4.26200e+02,-1.17568e+01,-6.84692e+01,0.00000e+00,0.00000e+00,0.00000e+00
4.26200e+02,-1.12868e+01,-6.52087e+01,0.00000e+00,0.00000e+00,0.00000e+00
4.26200e+02,-1.07732e+01,-6.19483e+01,0.00000e+00,0.00000e+00,0.00000e+00
4.26200e+02,-1.01940e+01,-5.86879e+01,0.00000e+00,0.00000e+00,0.00000e+00
4.26200e+02,-9.57378e+00,-5.54274e+01,0.00000e+00,0.00000e+00,0.00000e+00
4.26200e+02,-8.91358e+00,-5.21670e+01,0.00000e+00,0.00000e+00,0.00000e+00
4.26200e+02,-8.21359e+00,-4.89065e+01,0.00000e+00,0.00000e+00,0.00000e+00
4.26200e+02,-7.48864e+00,-4.56461e+01,0.00000e+00,0.00000e+00,0.00000e+00
4.26200e+02,-6.73173e+00,-4.23857e+01,0.00000e+00,0.00000e+00,0.00000e+00
4.26200e+02,-5.95435e+00,-3.91252e+01,0.00000e+00,0.00000e+00,0.00000e+00
4.26200e+02,-5.15861e+00,-3.58648e+01,0.00000e+00,0.00000e+00,0.00000e+00
4.26200e+02,-4.34650e+00,-3.26044e+01,0.00000e+00,0.00000e+00,0.00000e+00
4.26200e+02,-3.52744e+00,-2.93439e+01,0.00000e+00,0.00000e+00,0.00000e+00
4.26200e+02,-2.69763e+00,-2.60835e+01,0.00000e+00,0.00000e+00,0.00000e+00
4.26200e+02,-1.86603e+00,-2.28231e+01,0.00000e+00,0.00000e+00,0.00000e+00
4.26200e+02,-1.02802e+00,-1.95626e+01,0.00000e+00,0.00000e+00,0.00000e+00
4.26200e+02,-1.90083e-01,-1.63022e+01,0.00000e+00,0.00000e+00,0.00000e+00
4.26200e+02,6.44682e-01,-1.30417e+01,0.00000e+00,0.00000e+00,0.00000e+00
4.26200e+02,1.47945e+00,-9.78131e+00,0.00000e+00,0.00000e+00,0.00000e+00
4.26200e+02,2.29445e+00,-6.52087e+00,0.00000e+00,0.00000e+00,0.00000e+00
4.26200e+02,3.10576e+00,-3.26044e+00,0.00000e+00,0.00000e+00,0.00000e+00
5.30600e+02,4.10127e+01,0.00000e+00,0.00000e+00,0.00000e+00,0.00000e+00
5.30600e+02,4.08062e+01,-3.11654e+00,0.00000e+00,0.00000e+00,0.00000e+00
5.30600e+02,4.05314e+01,-6.23307e+00,0.00000e+00,0.00000e+00,0.00000e+00
5.30600e+02,4.02539e+01,-9.34961e+00,0.00000e+00,0.00000e+00,0.00000e+00
5.30600e+02,3.99161e+01,-1.24661e+01,0.00000e+00,0.00000e+00,0.00000e+00
5.30600e+02,3.95644e+01,-1.55827e+01,0.00000e+00,0.00000e+00,0.00000e+00
5.30600e+02,3.91664e+01,-1.86992e+01,0.00000e+00,0.00000e+00,0.00000e+00
5.30600e+02,3.87460e+01,-2.18158e+01,0.00000e+00,0.00000e+00,0.00000e+00
5.30600e+02,3.82884e+01,-2.49323e+01,0.00000e+00,0.00000e+00,0.00000e+00
5.30600e+02,3.78003e+01,-2.80488e+01,0.00000e+00,0.00000e+00,0.00000e+00
5.30600e+02,3.72787e+01,-3.11654e+01,0.00000e+00,0.00000e+00,0.00000e+00
5.30600e+02,3.67164e+01,-3.42819e+01,0.00000e+00,0.00000e+00,0.00000e+00
5.30600e+02,3.61125e+01,-3.73984e+01,0.00000e+00,0.00000e+00,0.00000e+00
5.30600e+02,3.54497e+01,-4.05150e+01,0.00000e+00,0.00000e+00,0.00000e+00
5.30600e+02,3.47295e+01,-4.36315e+01,0.00000e+00,0.00000e+00,0.00000e+00
5.30600e+02,3.39406e+01,-4.67480e+01,0.00000e+00,0.00000e+00,0.00000e+00
5.30600e+02,3.30589e+01,-4.98646e+01,0.00000e+00,0.00000e+00,0.00000e+00
5.30600e+02,3.21125e+01,-5.29811e+01,0.00000e+00,0.00000e+00,0.00000e+00
5.30600e+02,3.10206e+01,-5.60976e+01,0.00000e+00,0.00000e+00,0.00000e+00
5.30600e+02,2.98685e+01,-5.92142e+01,0.00000e+00,0.00000e+00,0.00000e+00
5.30600e+02,2.85484e+01,-6.23307e+01,0.00000e+00,0.00000e+00,0.00000e+00
5.30600e+02,2.70936e+01,-6.54473e+01,0.00000e+00,0.00000e+00,0.00000e+00
5.30600e+02,2.55018e+01,-6.85638e+01,0.00000e+00,0.00000e+00,0.00000e+00
5.30600e+02,2.36801e+01,-7.16803e+01,0.00000e+00,0.00000e+00,0.00000e+00
5.30600e+02,2.15920e+01,-7.47969e+01,0.00000e+00,0.00000e+00,0.00000e+00
5.30600e+02,1.92028e+01,-7.79134e+01,0.00000e+00,0.00000e+00,0.00000e+00
5.30600e+02,1.63770e+01,-8.10299e+01,0.00000e+00,0.00000e+00,0.00000e+00
5.30600e+02,1.27498e+01,-8.41465e+01,0.00000e+00,0.00000e+00,0.00000e+00
5.30600e+02,7.84413e+00,-8.72630e+01,0.00000e+00,0.00000e+00,0.00000e+00
5.30600e+02,-3.17838e+00,-9.03795e+01,0.00000e+00,0.00000e+00,0.00000e+00
5.30600e+02,-3.97388e+00,-9.03868e+01,0.00000e+00,0.00000e+00,0.00000e+00
5.30600e+02,-1.12214e+01,-8.71587e+01,0.00000e+00,0.00000e+00,0.00000e+00
5.30600e+02,-1.20989e+01,-8.39306e+01,0.00000e+00,0.00000e+00,0.00000e+00
5.30600e+02,-1.24018e+01,-8.07025e+01,0.00000e+00,0.00000e+00,0.00000e+00
5.30600e+02,-1.24477e+01,-7.74744e+01,0.00000e+00,0.00000e+00,0.00000e+00
5.30600e+02,-1.23001e+01,-7.42463e+01,0.00000e+00,0.00000e+00,0.00000e+00
5.30600e+02,-1.20311e+01,-7.10182e+01,0.00000e+00,0.00000e+00,0.00000e+00
5.30600e+02,-1.16402e+01,-6.77901e+01,0.00000e+00,0.00000e+00,0.00000e+00
5.30600e+02,-1.11748e+01,-6.45620e+01,0.00000e+00,0.00000e+00,0.00000e+00
5.30600e+02,-1.06664e+01,-6.13339e+01,0.00000e+00,0.00000e+00,0.00000e+00
5.30600e+02,-1.00929e+01,-5.81058e+01,0.00000e+00,0.00000e+00,0.00000e+00
5.30600e+02,-9.47882e+00,-5.48777e+01,0.00000e+00,0.00000e+00,0.00000e+00
5.30600e+02,-8.82518e+00,-5.16496e+01,0.00000e+00,0.00000e+00,0.00000e+00
5.30600e+02,-8.13212e+00,-4.84215e+01,0.00000e+00,0.00000e+00,0.00000e+00
5.30600e+02,-7.41437e+00,-4.51934e+01,0.00000e+00,0.00000e+00,0.00000e+00
5.30600e+02,-6.66496e+00,-4.19653e+01,0.00000e+00,0.00000e+00,0.00000e+00
5.30600e+02,-5.89529e+00,-3.87372e+01,0.00000e+00,0.00000e+00,0.00000e+00
5.30600e+02,-5.10745e+00,-3.55091e+01,0.00000e+00,0.00000e+00,0.00000e+00
5.30600e+02,-4.30339e+00,-3.22810e+01,0.00000e+00,0.00000e+00,0.00000e+00
5.30600e+02,-3.49245e+00,-2.90529e+01,0.00000e+00,0.00000e+00,0.00000e+00
5.30600e+02,-2.67088e+00,-2.58248e+01,0.00000e+00,0.00000e+00,0.00000e+00
5.30600e+02,-1.84753e+00,-2.25967e+01,0.00000e+00,0.00000e+00,0.00000e+00
5.30600e+02,-1.01782e+00,-1.93686e+01,0.00000e+00,0.00000e+00,0.00000e+00
5.30600e+02,-1.88198e-01,-1.61405e+01,0.00000e+00,0.00000e+00,0.00000e+00
5.30600e+02,6.38288e-01,-1.29124e+01,0.00000e+00,0.00000e+00,0.00000e+00
5.30600e+02,1.46477e+00,-9.68430e+00,0.00000e+00,0.00000e+00,0.00000e+00
5.30600e+02,2.27169e+00,-6.45620e+00,0.00000e+00,0.00000e+00,0.00000e+00
5.30600e+02,3.07496e+00,-3.22810e+00,0.00000e+00,0.00000e+00,0.00000e+00
6.33500e+02,4.06078e+01,0.00000e+00,0.00000e+00,0.00000e+00,0.00000e+00
6.33500e+02,4.04033e+01,-3.08576e+00,0.00000e+00,0.00000e+00,0.00000e+00
6.33500e+02,4.01312e+01,-6.17153e+00,0.00000e+00,0.00000e+00,0.00000e+00
6.33500e+02,3.98564e+01,-9.25729e+00,0.00000e+00,0.00000e+00,0.00000e+00
6.33500e+02,3.95220e+01,-1.23431e+01,0.00000e+00,0.00000e+00,0.00000e+00
6.33500e+02,3.91738e+01,-1.54288e+01,0.00000e+00,0.00000e+00,0.00000e+00
6.33500e+02,3.87797e+01,-1.85146e+01,0.00000e+00,0.00000e+00,0.00000e+00
6.33500e+02,3.83634e+01,-2.16004e+01,0.00000e+00,0.00000e+00,0.00000e+00
6.33500e+02,3.79104e+01,-2.46861e+01,0.00000e+00,0.00000e+00,0.00000e+00
6.33500e+02,3.74271e+01,-2.77719e+01,0.00000e+00,0.00000e+00,0.00000e+00
6.33500e+02,3.69106e+01,-3.08576e+01,0.00000e+00,0.00000e+00,0.00000e+00
6.33500e+02,3.63539e+01,-3.39434e+01,0.00000e+00,0.00000e+00,0.00000e+00
6.33500e+02,3.57559e+01,-3.70292e+01,0.00000e+00,0.00000e+00,0.00000e+00
6.33500e+02,3.50997e+01,-4.01149e+01,0.00000e+00,0.00000e+00,0.00000e+00
6.33500e+02,3.43866e+01,-4.32007e+01,0.00000e+00,0.00000e+00,0.00000e+00
6.33500e+02,3.36055e+01,-4.62865e+01,0.00000e+00,0.00000e+00,0.00000e+00
6.33500e+02,3.27325e+01,-4.93722e+01,0.00000e+00,0.00000e+00,0.00000e+00
6.33500e+02,3.17954e+01,-5.24580e+01,0.00000e+00,0.00000e+00,0.00000e+00
6.33500e+02,3.07144e+01,-5.55438e+01,0.00000e+00,0.00000e+00,0.00000e+00
6.33500e+02,2.95736e+01,-5.86295e+01,0.00000e+00,0.00000e+00,0.00000e+00
6.33500e+02,2.82665e+01,-6.17153e+01,0.00000e+00,0.00000e+00,0.00000e+00
6.33500e+02,2.68261e+01,-6.48011e+01,0.00000e+00,0.00000e+00,0.00000e+00
6.33500e+02,2.52500e+01,-6.78868e+01,0.00000e+00,0.00000e+00,0.00000e+00
6.33500e+02,2.34463e+01,-7.09726e+01,0.00000e+00,0.00000e+00,0.00000e+00
6.33500e+02,2.13788e+01,-7.40584e+01,0.00000e+00,0.00000e+00,0.00000e+00
6.33500e+02,1.90132e+01,-7.71441e+01,0.00000e+00,0.00000e+00,0.00000e+00
6.33500e+02,1.62153e+01,-8.02299e+01,0.00000e+00,0.00000e+00,0.00000e+00
6.33500e+02,1.26239e+01,-8.33156e+01,0.00000e+00,0.00000e+00,0.00000e+00
6.33500e+02,7.76668e+00,-8.64014e+01,0.00000e+00,0.00000e+00,0.00000e+00
6.33500e+02,-3.14700e+00,-8.94872e+01,0.00000e+00,0.00000e+00,0.00000e+00
6.33500e+02,-3.93464e+00,-8.94943e+01,0.00000e+00,0.00000e+00,0.00000e+00
6.33500e+02,-1.11106e+01,-8.62981e+01,0.00000e+00,0.00000e+00,0.00000e+00
6.33500e+02,-1.19795e+01,-8.31019e+01,0.00000e+00,0.00000e+00,0.00000e+00
6.33500e+02,-1.22793e+01,-7.99057e+01,0.00000e+00,0.00000e+00,0.00000e+00
6.33500e+02,-1.23248e+01,-7.67094e+01,0.00000e+00,0.00000e+00,0.00000e+00
6.33500e+02,-1.21787e+01,-7.35132e+01,0.00000e+00,0.00000e+00,0.00000e+00
6.33500e+02,-1.19123e+01,-7.03170e+01,0.00000e+00,0.00000e+00,0.00000e+00
6.33500e+02,-1.15252e+01,-6.71208e+01,0.00000e+00,0.00000e+00,0.00000e+00
6.33500e+02,-1.10645e+01,-6.39245e+01,0.00000e+00,0.00000e+00,0.00000e+00
6.33500e+02,-1.05611e+01,-6.07283e+01,0.00000e+00,0.00000e+00,0.00000e+00
6.33500e+02,-9.99326e+00,-5.75321e+01,0.00000e+00,0.00000e+00,0.00000e+00
6.33500e+02,-9.38524e+00,-5.43358e+01,0.00000e+00,0.00000e+00,0.00000e+00
6.33500e+02,-8.73804e+00,-5.11396e+01,0.00000e+00,0.00000e+00,0.00000e+00
6.33500e+02,-8.05183e+00,-4.79434e+01,0.00000e+00,0.00000e+00,0.00000e+00
6.33500e+02,-7.34116e+00,-4.47472e+01,0.00000e+00,0.00000e+00,0.00000e+00
6.33500e+02,-6.59916e+00,-4.15509e+01,0.00000e+00,0.00000e+00,0.00000e+00
6.33500e+02,-5.83709e+00,-3.83547e+01,0.00000e+00,0.00000e+00,0.00000e+00
6.33500e+02,-5.05702e+00,-3.51585e+01,0.00000e+00,0.00000e+00,0.00000e+00
6.33500e+02,-4.26090e+00,-3.19623e+01,0.00000e+00,0.00000e+00,0.00000e+00
6.33500e+02,-3.45797e+00,-2.87660e+01,0.00000e+00,0.00000e+00,0.00000e+00
6.33500e+02,-2.64450e+00,-2.55698e+01,0.00000e+00,0.00000e+00,0.00000e+00
6.33500e+02,-1.82928e+00,-2.23736e+01,0.00000e+00,0.00000e+00,0.00000e+00
6.33500e+02,-1.00777e+00,-1.91774e+01,0.00000e+00,0.00000e+00,0.00000e+00
6.33500e+02,-1.86340e-01,-1.59811e+01,0.00000e+00,0.00000e+00,0.00000e+00
6.33500e+02,6.31986e-01,-1.27849e+01,0.00000e+00,0.00000e+00,0.00000e+00
6.33500e+02,1.45031e+00,-9.58868e+00,0.00000e+00,0.00000e+00,0.00000e+00
6.33500e+02,2.24926e+00,-6.39245e+00,0.00000e+00,0.00000e+00,0.00000e+00
6.33500e+02,3.04460e+00,-3.19623e+00,0.00000e+00,0.00000e+00,0.00000e+00
7.34700e+02,4.02095e+01,0.00000e+00,0.00000e+00,0.00000e+00,0.00000e+00
7.34700e+02,4.00070e+01,-3.05550e+00,0.00000e+00,0.00000e+00,0.00000e+00
7.34700e+02,3.97376e+01,-6.11100e+00,0.00000e+00,0.00000e+00,0.00000e+00
7.34700e+02,3.94656e+01,-9.16651e+00,0.00000e+00,0.00000e+00,0.00000e+00
7.34700e+02,3.91344e+01,-1.22220e+01,0.00000e+00,0.00000e+00,0.00000e+00
7.34700e+02,3.87896e+01,-1.52775e+01,0.00000e+00,0.00000e+00,0.00000e+00
7.34700e+02,3.83994e+01,-1.83330e+01,0.00000e+00,0.00000e+00,0.00000e+00
7.34700e+02,3.79872e+01,-2.13885e+01,0.00000e+00,0.00000e+00,0.00000e+00
7.34700e+02,3.75386e+01,-2.44440e+01,0.00000e+00,0.00000e+00,0.00000e+00
7.34700e+02,3.70601e+01,-2.74995e+01,0.00000e+00,0.00000e+00,0.00000e+00
7.34700e+02,3.65486e+01,-3.05550e+01,0.00000e+00,0.00000e+00,0.00000e+00
7.34700e+02,3.59973e+01,-3.36105e+01,0.00000e+00,0.00000e+00,0.00000e+00
7.34700e+02,3.54053e+01,-3.66660e+01,0.00000e+00,0.00000e+00,0.00000e+00
7.34700e+02,3.47554e+01,-3.97215e+01,0.00000e+00,0.00000e+00,0.00000e+00
7.34700e+02,3.40493e+01,-4.27770e+01,0.00000e+00,0.00000e+00,0.00000e+00
7.34700e+02,3.32760e+01,-4.58325e+01,0.00000e+00,0.00000e+00,0.00000e+00
7.34700e+02,3.24115e+01,-4.88880e+01,0.00000e+00,0.00000e+00,0.00000e+00
7.34700e+02,3.14836e+01,-5.19435e+01,0.00000e+00,0.00000e+00,0.00000e+00
7.34700e+02,3.04131e+01,-5.49990e+01,0.00000e+00,0.00000e+00,0.00000e+00
7.34700e+02,2.92835e+01,-5.80545e+01,0.00000e+00,0.00000e+00,0.00000e+00
7.34700e+02,2.79893e+01,-6.11100e+01,0.00000e+00,0.00000e+00,0.00000e+00
7.34700e+02,2.65630e+01,-6.41655e+01,0.00000e+00,0.00000e+00,0.00000e+00
7.34700e+02,2.50024e+01,-6.72210e+01,0.00000e+00,0.00000e+00,0.00000e+00
7.34700e+02,2.32164e+01,-7.02765e+01,0.00000e+00,0.00000e+00,0.00000e+00
7.34700e+02,2.11691e+01,-7.33320e+01,0.00000e+00,0.00000e+00,0.00000e+00
7.34700e+02,1.88268e+01,-7.63875e+01,0.00000e+00,0.00000e+00,0.00000e+00
7.34700e+02,1.60563e+01,-7.94430e+01,0.00000e+00,0.00000e+00,0.00000e+00
7.34700e+02,1.25001e+01,-8.24985e+01,0.00000e+00,0.00000e+00,0.00000e+00
7.34700e+02,7.69051e+00,-8.55540e+01,0.00000e+00,0.00000e+00,0.00000e+00
7.34700e+02,-3.11614e+00,-8.86096e+01,0.00000e+00,0.00000e+00,0.00000e+00
7.34700e+02,-3.89606e+00,-8.86166e+01,0.00000e+00,0.00000e+00,0.00000e+00
7.34700e+02,-1.10017e+01,-8.54518e+01,0.00000e+00,0.00000e+00,0.00000e+00
7.34700e+02,-1.18620e+01,-8.22869e+01,0.00000e+00,0.00000e+00,0.00000e+00
7.34700e+02,-1.21589e+01,-7.91220e+01,0.00000e+00,0.00000e+00,0.00000e+00
7.34700e+02,-1.22039e+01,-7.59571e+01,0.00000e+00,0.00000e+00,0.00000e+00
7.34700e+02,-1.20592e+01,-7.27922e+01,0.00000e+00,0.00000e+00,0.00000e+00
7.34700e+02,-1.17955e+01,-6.96274e+01,0.00000e+00,0.00000e+00,0.00000e+00
7.34700e+02,-1.14122e+01,-6.64625e+01,0.00000e+00,0.00000e+00,0.00000e+00
7.34700e+02,-1.09560e+01,-6.32976e+01,0.00000e+00,0.00000e+00,0.00000e+00
7.34700e+02,-1.04575e+01,-6.01327e+01,0.00000e+00,0.00000e+00,0.00000e+00
7.34700e+02,-9.89525e+00,-5.69678e+01,0.00000e+00,0.00000e+00,0.00000e+00
7.34700e+02,-9.29319e+00,-5.38030e+01,0.00000e+00,0.00000e+00,0.00000e+00
7.34700e+02,-8.65235e+00,-5.06381e+01,0.00000e+00,0.00000e+00,0.00000e+00
7.34700e+02,-7.97287e+00,-4.74732e+01,0.00000e+00,0.00000e+00,0.00000e+00
7.34700e+02,-7.26917e+00,-4.43083e+01,0.00000e+00,0.00000e+00,0.00000e+00
7.34700e+02,-6.53444e+00,-4.11434e+01,0.00000e+00,0.00000e+00,0.00000e+00
7.34700e+02,-5.77984e+00,-3.79786e+01,0.00000e+00,0.00000e+00,0.00000e+00
7.34700e+02,-5.00742e+00,-3.48137e+01,0.00000e+00,0.00000e+00,0.00000e+00
7.34700e+02,-4.21911e+00,-3.16488e+01,0.00000e+00,0.00000e+00,0.00000e+00
7.34700e+02,-3.42406e+00,-2.84839e+01,0.00000e+00,0.00000e+00,0.00000e+00
7.34700e+02,-2.61857e+00,-2.53190e+01,0.00000e+00,0.00000e+00,0.00000e+00
7.34700e+02,-1.81134e+00,-2.21542e+01,0.00000e+00,0.00000e+00,0.00000e+00
7.34700e+02,-9.97887e-01,-1.89893e+01,0.00000e+00,0.00000e+00,0.00000e+00
7.34700e+02,-1.84513e-01,-1.58244e+01,0.00000e+00,0.00000e+00,0.00000e+00
7.34700e+02,6.25788e-01,-1.26595e+01,0.00000e+00,0.00000e+00,0.00000e+00
7.34700e+02,1.43609e+00,-9.49464e+00,0.00000e+00,0.00000e+00,0.00000e+00
7.34700e+02,2.22720e+00,-6.32976e+00,0.00000e+00,0.00000e+00,0.00000e+00
7.34700e+02,3.01474e+00,-3.16488e+00,0.00000e+00,0.00000e+00,0.00000e+00
8.33800e+02,3.98196e+01,0.00000e+00,0.00000e+00,0.00000e+00,0.00000e+00
8.33800e+02,3.96190e+01,-3.02587e+00,0.00000e+00,0.00000e+00,0.00000e+00
8.33800e+02,3.93522e+01,-6.05173e+00,0.00000e+00,0.00000e+00,0.00000e+00
8.33800e+02,3.90828e+01,-9.07760e+00,0.00000e+00,0.00000e+00,0.00000e+00
8.33800e+02,3.87549e+01,-1.21035e+01,0.00000e+00,0.00000e+00,0.00000e+00
8.33800e+02,3.84134e+01,-1.51293e+01,0.00000e+00,0.00000e+00,0.00000e+00
8.33800e+02,3.80270e+01,-1.81552e+01,0.00000e+00,0.00000e+00,0.00000e+00
8.33800e+02,3.76188e+01,-2.11811e+01,0.00000e+00,0.00000e+00,0.00000e+00
8.33800e+02,3.71745e+01,-2.42069e+01,0.00000e+00,0.00000e+00,0.00000e+00
8.33800e+02,3.67006e+01,-2.72328e+01,0.00000e+00,0.00000e+00,0.00000e+00
8.33800e+02,3.61941e+01,-3.02587e+01,0.00000e+00,0.00000e+00,0.00000e+00
8.33800e+02,3.56482e+01,-3.32845e+01,0.00000e+00,0.00000e+00,0.00000e+00
8.33800e+02,3.50619e+01,-3.63104e+01,0.00000e+00,0.00000e+00,0.00000e+00
8.33800e+02,3.44183e+01,-3.93363e+01,0.00000e+00,0.00000e+00,0.00000e+00
8.33800e+02,3.37191e+01,-4.23621e+01,0.00000e+00,0.00000e+00,0.00000e+00
8.33800e+02,3.29532e+01,-4.53880e+01,0.00000e+00,0.00000e+00,0.00000e+00
8.33800e+02,3.20971e+01,-4.84139e+01,0.00000e+00,0.00000e+00,0.00000e+00
8.33800e+02,3.11783e+01,-5.14397e+01,0.00000e+00,0.00000e+00,0.00000e+00
8.33800e+02,3.01182e+01,-5.44656e+01,0.00000e+00,0.00000e+00,0.00000e+00
8.33800e+02,2.89995e+01,-5.74915e+01,0.00000e+00,0.00000e+00,0.00000e+00
8.33800e+02,2.77178e+01,-6.05173e+01,0.00000e+00,0.00000e+00,0.00000e+00
8.33800e+02,2.63054e+01,-6.35432e+01,0.00000e+00,0.00000e+00,0.00000e+00
8.33800e+02,2.47599e+01,-6.65691e+01,0.00000e+00,0.00000e+00,0.00000e+00
8.33800e+02,2.29912e+01,-6.95949e+01,0.00000e+00,0.00000e+00,0.00000e+00
8.33800e+02,2.09638e+01,-7.26208e+01,0.00000e+00,0.00000e+00,0.00000e+00
8.33800e+02,1.86442e+01,-7.56467e+01,0.00000e+00,0.00000e+00,0.00000e+00
8.33800e+02,1.59005e+01,-7.86725e+01,0.00000e+00,0.00000e+00,0.00000e+00
8.33800e+02,1.23789e+01,-8.16984e+01,0.00000e+00,0.00000e+00,0.00000e+00
8.33800e+02,7.61592e+00,-8.47243e+01,0.00000e+00,0.00000e+00,0.00000e+00
8.33800e+02,-3.08591e+00,-8.77501e+01,0.00000e+00,0.00000e+00,0.00000e+00
8.33800e+02,-3.85827e+00,-8.77572e+01,0.00000e+00,0.00000e+00,0.00000e+00
8.33800e+02,-1.08950e+01,-8.46230e+01,0.00000e+00,0.00000e+00,0.00000e+00
8.33800e+02,-1.17470e+01,-8.14888e+01,0.00000e+00,0.00000e+00,0.00000e+00
8.33800e+02,-1.20409e+01,-7.83546e+01,0.00000e+00,0.00000e+00,0.00000e+00
8.33800e+02,-1.20856e+01,-7.52204e+01,0.00000e+00,0.00000e+00,0.00000e+00
8.33800e+02,-1.19423e+01,-7.20862e+01,0.00000e+00,0.00000e+00,0.00000e+00
8.33800e+02,-1.16811e+01,-6.89521e+01,0.00000e+00,0.00000e+00,0.00000e+00
8.33800e+02,-1.13015e+01,-6.58179e+01,0.00000e+00,0.00000e+00,0.00000e+00
8.33800e+02,-1.08497e+01,-6.26837e+01,0.00000e+00,0.00000e+00,0.00000e+00
8.33800e+02,-1.03561e+01,-5.95495e+01,0.00000e+00,0.00000e+00,0.00000e+00
8.33800e+02,-9.79928e+00,-5.64153e+01,0.00000e+00,0.00000e+00,0.00000e+00
8.33800e+02,-9.20306e+00,-5.32811e+01,0.00000e+00,0.00000e+00,0.00000e+00
8.33800e+02,-8.56843e+00,-5.01469e+01,0.00000e+00,0.00000e+00,0.00000e+00
8.33800e+02,-7.89554e+00,-4.70128e+01,0.00000e+00,0.00000e+00,0.00000e+00
8.33800e+02,-7.19866e+00,-4.38786e+01,0.00000e+00,0.00000e+00,0.00000e+00
8.33800e+02,-6.47106e+00,-4.07444e+01,0.00000e+00,0.00000e+00,0.00000e+00
8.33800e+02,-5.72378e+00,-3.76102e+01,0.00000e+00,0.00000e+00,0.00000e+00
8.33800e+02,-4.95886e+00,-3.44760e+01,0.00000e+00,0.00000e+00,0.00000e+00
8.33800e+02,-4.17819e+00,-3.13418e+01,0.00000e+00,0.00000e+00,0.00000e+00
8.33800e+02,-3.39085e+00,-2.82077e+01,0.00000e+00,0.00000e+00,0.00000e+00
8.33800e+02,-2.59317e+00,-2.50735e+01,0.00000e+00,0.00000e+00,0.00000e+00
8.33800e+02,-1.79378e+00,-2.19393e+01,0.00000e+00,0.00000e+00,0.00000e+00
8.33800e+02,-9.88209e-01,-1.88051e+01,0.00000e+00,0.00000e+00,0.00000e+00
8.33800e+02,-1.82723e-01,-1.56709e+01,0.00000e+00,0.00000e+00,0.00000e+00
8.33800e+02,6.19718e-01,-1.25367e+01,0.00000e+00,0.00000e+00,0.00000e+00
8.33800e+02,1.42216e+00,-9.40255e+00,0.00000e+00,0.00000e+00,0.00000e+00
8.33800e+02,2.20560e+00,-6.26837e+00,0.00000e+00,0.00000e+00,0.00000e+00
8.33800e+02,2.98550e+00,-3.13418e+00,0.00000e+00,0.00000e+00,0.00000e+00
9.30700e+02,3.94382e+01,0.00000e+00,0.00000e+00,0.00000e+00,0.00000e+00
9.30700e+02,3.92396e+01,-2.99689e+00,0.00000e+00,0.00000e+00,0.00000e+00
9.30700e+02,3.89754e+01,-5.99378e+00,0.00000e+00,0.00000e+00,0.00000e+00
9.30700e+02,3.87085e+01,-8.99067e+00,0.00000e+00,0.00000e+00,0.00000e+00
9.30700e+02,3.83837e+01,-1.19876e+01,0.00000e+00,0.00000e+00,0.00000e+00
9.30700e+02,3.80455e+01,-1.49844e+01,0.00000e+00,0.00000e+00,0.00000e+00
9.30700e+02,3.76628e+01,-1.79813e+01,0.00000e+00,0.00000e+00,0.00000e+00
9.30700e+02,3.72585e+01,-2.09782e+01,0.00000e+00,0.00000e+00,0.00000e+00
9.30700e+02,3.68185e+01,-2.39751e+01,0.00000e+00,0.00000e+00,0.00000e+00
9.30700e+02,3.63492e+01,-2.69720e+01,0.00000e+00,0.00000e+00,0.00000e+00
9.30700e+02,3.58475e+01,-2.99689e+01,0.00000e+00,0.00000e+00,0.00000e+00
9.30700e+02,3.53068e+01,-3.29658e+01,0.00000e+00,0.00000e+00,0.00000e+00
9.30700e+02,3.47261e+01,-3.59627e+01,0.00000e+00,0.00000e+00,0.00000e+00
9.30700e+02,3.40887e+01,-3.89596e+01,0.00000e+00,0.00000e+00,0.00000e+00
9.30700e+02,3.33962e+01,-4.19565e+01,0.00000e+00,0.00000e+00,0.00000e+00
9.30700e+02,3.26376e+01,-4.49533e+01,0.00000e+00,0.00000e+00,0.00000e+00
9.30700e+02,3.17897e+01,-4.79502e+01,0.00000e+00,0.00000e+00,0.00000e+00
9.30700e+02,3.08797e+01,-5.09471e+01,0.00000e+00,0.00000e+00,0.00000e+00
9.30700e+02,2.98297e+01,-5.39440e+01,0.00000e+00,0.00000e+00,0.00000e+00
9.30700e+02,2.87218e+01,-5.69409e+01,0.00000e+00,0.00000e+00,0.00000e+00
9.30700e+02,2.74524e+01,-5.99378e+01,0.00000e+00,0.00000e+00,0.00000e+00
9.30700e+02,2.60534e+01,-6.29347e+01,0.00000e+00,0.00000e+00,0.00000e+00
9.30700e+02,2.45228e+01,-6.59316e+01,0.00000e+00,0.00000e+00,0.00000e+00
9.30700e+02,2.27710e+01,-6.89285e+01,0.00000e+00,0.00000e+00,0.00000e+00
9.30700e+02,2.07631e+01,-7.19254e+01,0.00000e+00,0.00000e+00,0.00000e+00
9.30700e+02,1.84656e+01,-7.49222e+01,0.00000e+00,0.00000e+00,0.00000e+00
9.30700e+02,1.57483e+01,-7.79191e+01,0.00000e+00,0.00000e+00,0.00000e+00
9.30700e+02,1.22603e+01,-8.09160e+01,0.00000e+00,0.00000e+00,0.00000e+00
9.30700e+02,7.54299e+00,-8.39129e+01,0.00000e+00,0.00000e+00,0.00000e+00
9.30700e+02,-3.05636e+00,-8.69098e+01,0.00000e+00,0.00000e+00,0.00000e+00
9.30700e+02,-3.82132e+00,-8.69168e+01,0.00000e+00,0.00000e+00,0.00000e+00
9.30700e+02,-1.07906e+01,-8.38126e+01,0.00000e+00,0.00000e+00,0.00000e+00
9.30700e+02,-1.16345e+01,-8.07084e+01,0.00000e+00,0.00000e+00,0.00000e+00
9.30700e+02,-1.19256e+01,-7.76042e+01,0.00000e+00,0.00000e+00,0.00000e+00
9.30700e+02,-1.19698e+01,-7.45001e+01,0.00000e+00,0.00000e+00,0.00000e+00
9.30700e+02,-1.18279e+01,-7.13959e+01,0.00000e+00,0.00000e+00,0.00000e+00
9.30700e+02,-1.15692e+01,-6.82917e+01,0.00000e+00,0.00000e+00,0.00000e+00
9.30700e+02,-1.11933e+01,-6.51876e+01,0.00000e+00,0.00000e+00,0.00000e+00
9.30700e+02,-1.07458e+01,-6.20834e+01,0.00000e+00,0.00000e+00,0.00000e+00
9.30700e+02,-1.02569e+01,-5.89792e+01,0.00000e+00,0.00000e+00,0.00000e+00
9.30700e+02,-9.70544e+00,-5.58751e+01,0.00000e+00,0.00000e+00,0.00000e+00
9.30700e+02,-9.11493e+00,-5.27709e+01,0.00000e+00,0.00000e+00,0.00000e+00
9.30700e+02,-8.48637e+00,-4.96667e+01,0.00000e+00,0.00000e+00,0.00000e+00
9.30700e+02,-7.81993e+00,-4.65625e+01,0.00000e+00,0.00000e+00,0.00000e+00
9.30700e+02,-7.12973e+00,-4.34584e+01,0.00000e+00,0.00000e+00,0.00000e+00
9.30700e+02,-6.40909e+00,-4.03542e+01,0.00000e+00,0.00000e+00,0.00000e+00
9.30700e+02,-5.66897e+00,-3.72500e+01,0.00000e+00,0.00000e+00,0.00000e+00
9.30700e+02,-4.91137e+00,-3.41459e+01,0.00000e+00,0.00000e+00,0.00000e+00
9.30700e+02,-4.13818e+00,-3.10417e+01,0.00000e+00,0.00000e+00,0.00000e+00
9.30700e+02,-3.35837e+00,-2.79375e+01,0.00000e+00,0.00000e+00,0.00000e+00
9.30700e+02,-2.56834e+00,-2.48334e+01,0.00000e+00,0.00000e+00,0.00000e+00
9.30700e+02,-1.77660e+00,-2.17292e+01,0.00000e+00,0.00000e+00,0.00000e+00
9.30700e+02,-9.78745e-01,-1.86250e+01,0.00000e+00,0.00000e+00,0.00000e+00
9.30700e+02,-1.80973e-01,-1.55208e+01,0.00000e+00,0.00000e+00,0.00000e+00
9.30700e+02,6.13784e-01,-1.24167e+01,0.00000e+00,0.00000e+00,0.00000e+00
9.30700e+02,1.40854e+00,-9.31251e+00,0.00000e+00,0.00000e+00,0.00000e+00
9.30700e+02,2.18448e+00,-6.20834e+00,0.00000e+00,0.00000e+00,0.00000e+00
9.30700e+02,2.95691e+00,-3.10417e+00,0.00000e+00,0.00000e+00,0.00000e+00
1.02500e+03,3.90671e+01,0.00000e+00,0.00000e+00,0.00000e+00,0.00000e+00
1.02500e+03,3.88704e+01,-2.96869e+00,0.00000e+00,0.00000e+00,0.00000e+00
1.02500e+03,3.86086e+01,-5.93738e+00,0.00000e+00,0.00000e+00,0.00000e+00
1.02500e+03,3.83443e+01,-8.90607e+00,0.00000e+00,0.00000e+00,0.00000e+00
1.02500e+03,3.80226e+01,-1.18748e+01,0.00000e+00,0.00000e+00,0.00000e+00
1.02500e+03,3.76875e+01,-1.48435e+01,0.00000e+00,0.00000e+00,0.00000e+00
1.02500e+03,3.73084e+01,-1.78121e+01,0.00000e+00,0.00000e+00,0.00000e+00
1.02500e+03,3.69079e+01,-2.07808e+01,0.00000e+00,0.00000e+00,0.00000e+00
1.02500e+03,3.64721e+01,-2.37495e+01,0.00000e+00,0.00000e+00,0.00000e+00
1.02500e+03,3.60071e+01,-2.67182e+01,0.00000e+00,0.00000e+00,0.00000e+00
1.02500e+03,3.55102e+01,-2.96869e+01,0.00000e+00,0.00000e+00,0.00000e+00
1.02500e+03,3.49746e+01,-3.26556e+01,0.00000e+00,0.00000e+00,0.00000e+00
1.02500e+03,3.43994e+01,-3.56243e+01,0.00000e+00,0.00000e+00,0.00000e+00
1.02500e+03,3.37680e+01,-3.85930e+01,0.00000e+00,0.00000e+00,0.00000e+00
1.02500e+03,3.30819e+01,-4.15617e+01,0.00000e+00,0.00000e+00,0.00000e+00
1.02500e+03,3.23305e+01,-4.45304e+01,0.00000e+00,0.00000e+00,0.00000e+00
1.02500e+03,3.14906e+01,-4.74990e+01,0.00000e+00,0.00000e+00,0.00000e+00
1.02500e+03,3.05891e+01,-5.04677e+01,0.00000e+00,0.00000e+00,0.00000e+00
1.02500e+03,2.95491e+01,-5.34364e+01,0.00000e+00,0.00000e+00,0.00000e+00
1.02500e+03,2.84516e+01,-5.64051e+01,0.00000e+00,0.00000e+00,0.00000e+00
1.02500e+03,2.71940e+01,-5.93738e+01,0.00000e+00,0.00000e+00,0.00000e+00
1.02500e+03,2.58083e+01,-6.23425e+01,0.00000e+00,0.00000e+00,0.00000e+00
1.02500e+03,2.42920e+01,-6.53112e+01,0.00000e+00,0.00000e+00,0.00000e+00
1.02500e+03,2.25567e+01,-6.82799e+01,0.00000e+00,0.00000e+00,0.00000e+00
1.02500e+03,2.05677e+01,-7.12486e+01,0.00000e+00,0.00000e+00,0.00000e+00
1.02500e+03,1.82919e+01,-7.42173e+01,0.00000e+00,0.00000e+00,0.00000e+00
1.02500e+03,1.56001e+01,-7.71859e+01,0.00000e+00,0.00000e+00,0.00000e+00
1.02500e+03,1.21450e+01,-8.01546e+01,0.00000e+00,0.00000e+00,0.00000e+00
1.02500e+03,7.47201e+00,-8.31233e+01,0.00000e+00,0.00000e+00,0.00000e+00
1.02500e+03,-3.02760e+00,-8.60920e+01,0.00000e+00,0.00000e+00,0.00000e+00
1.02500e+03,-3.78536e+00,-8.60989e+01,0.00000e+00,0.00000e+00,0.00000e+00
1.02500e+03,-1.06891e+01,-8.30239e+01,0.00000e+00,0.00000e+00,0.00000e+00
1.02500e+03,-1.15250e+01,-7.99490e+01,0.00000e+00,0.00000e+00,0.00000e+00
1.02500e+03,-1.18134e+01,-7.68740e+01,0.00000e+00,0.00000e+00,0.00000e+00
1.02500e+03,-1.18572e+01,-7.37991e+01,0.00000e+00,0.00000e+00,0.00000e+00
1.02500e+03,-1.17166e+01,-7.07241e+01,0.00000e+00,0.00000e+00,0.00000e+00
1.02500e+03,-1.14604e+01,-6.76491e+01,0.00000e+00,0.00000e+00,0.00000e+00
1.02500e+03,-1.10880e+01,-6.45742e+01,0.00000e+00,0.00000e+00,0.00000e+00
1.02500e+03,-1.06447e+01,-6.14992e+01,0.00000e+00,0.00000e+00,0.00000e+00
1.02500e+03,-1.01604e+01,-5.84243e+01,0.00000e+00,0.00000e+00,0.00000e+00
1.02500e+03,-9.61411e+00,-5.53493e+01,0.00000e+00,0.00000e+00,0.00000e+00
1.02500e+03,-9.02916e+00,-5.22743e+01,0.00000e+00,0.00000e+00,0.00000e+00
1.02500e+03,-8.40652e+00,-4.91994e+01,0.00000e+00,0.00000e+00,0.00000e+00
1.02500e+03,-7.74634e+00,-4.61244e+01,0.00000e+00,0.00000e+00,0.00000e+00
1.02500e+03,-7.06264e+00,-4.30495e+01,0.00000e+00,0.00000e+00,0.00000e+00
1.02500e+03,-6.34878e+00,-3.99745e+01,0.00000e+00,0.00000e+00,0.00000e+00
1.02500e+03,-5.61563e+00,-3.68995e+01,0.00000e+00,0.00000e+00,0.00000e+00
1.02500e+03,-4.86516e+00,-3.38246e+01,0.00000e+00,0.00000e+00,0.00000e+00
1.02500e+03,-4.09924e+00,-3.07496e+01,0.00000e+00,0.00000e+00,0.00000e+00
1.02500e+03,-3.32677e+00,-2.76746e+01,0.00000e+00,0.00000e+00,0.00000e+00
1.02500e+03,-2.54417e+00,-2.45997e+01,0.00000e+00,0.00000e+00,0.00000e+00
1.02500e+03,-1.75988e+00,-2.15247e+01,0.00000e+00,0.00000e+00,0.00000e+00
1.02500e+03,-9.69535e-01,-1.84498e+01,0.00000e+00,0.00000e+00,0.00000e+00
1.02500e+03,-1.79270e-01,-1.53748e+01,0.00000e+00,0.00000e+00,0.00000e+00
1.02500e+03,6.08008e-01,-1.22998e+01,0.00000e+00,0.00000e+00,0.00000e+00
1.02500e+03,1.39529e+00,-9.22488e+00,0.00000e+00,0.00000e+00,0.00000e+00
1.02500e+03,2.16392e+00,-6.14992e+00,0.00000e+00,0.00000e+00,0.00000e+00
1.02500e+03,2.92908e+00,-3.07496e+00,0.00000e+00,0.00000e+00,0.00000e+00
1.11650e+03,3.87070e+01,0.00000e+00,0.00000e+00,0.00000e+00,0.00000e+00
1.11650e+03,3.85121e+01,-2.94133e+00,0.00000e+00,0.00000e+00,0.00000e+00
1.11650e+03,3.82528e+01,-5.88266e+00,0.00000e+00,0.00000e+00,0.00000e+00
1.11650e+03,3.79909e+01,-8.82398e+00,0.00000e+00,0.00000e+00,0.00000e+00
1.11650e+03,3.76721e+01,-1.17653e+01,0.00000e+00,0.00000e+00,0.00000e+00
1.11650e+03,3.73401e+01,-1.47066e+01,0.00000e+00,0.00000e+00,0.00000e+00
1.11650e+03,3.69645e+01,-1.76480e+01,0.00000e+00,0.00000e+00,0.00000e+00
1.11650e+03,3.65678e+01,-2.05893e+01,0.00000e+00,0.00000e+00,0.00000e+00
1.11650e+03,3.61359e+01,-2.35306e+01,0.00000e+00,0.00000e+00,0.00000e+00
1.11650e+03,3.56753e+01,-2.64720e+01,0.00000e+00,0.00000e+00,0.00000e+00
1.11650e+03,3.51829e+01,-2.94133e+01,0.00000e+00,0.00000e+00,0.00000e+00
1.11650e+03,3.46522e+01,-3.23546e+01,0.00000e+00,0.00000e+00,0.00000e+00
1.11650e+03,3.40823e+01,-3.52959e+01,0.00000e+00,0.00000e+00,0.00000e+00
1.11650e+03,3.34567e+01,-3.82373e+01,0.00000e+00,0.00000e+00,0.00000e+00
1.11650e+03,3.27770e+01,-4.11786e+01,0.00000e+00,0.00000e+00,0.00000e+00
1.11650e+03,3.20325e+01,-4.41199e+01,0.00000e+00,0.00000e+00,0.00000e+00
1.11650e+03,3.12004e+01,-4.70612e+01,0.00000e+00,0.00000e+00,0.00000e+00
1.11650e+03,3.03072e+01,-5.00026e+01,0.00000e+00,0.00000e+00,0.00000e+00
1.11650e+03,2.92767e+01,-5.29439e+01,0.00000e+00,0.00000e+00,0.00000e+00
1.11650e+03,2.81893e+01,-5.58852e+01,0.00000e+00,0.00000e+00,0.00000e+00
1.11650e+03,2.69434e+01,-5.88266e+01,0.00000e+00,0.00000e+00,0.00000e+00
1.11650e+03,2.55704e+01,-6.17679e+01,0.00000e+00,0.00000e+00,0.00000e+00
1.11650e+03,2.40681e+01,-6.47092e+01,0.00000e+00,0.00000e+00,0.00000e+00
1.11650e+03,2.23488e+01,-6.76505e+01,0.00000e+00,0.00000e+00,0.00000e+00
1.11650e+03,2.03781e+01,-7.05919e+01,0.00000e+00,0.00000e+00,0.00000e+00
1.11650e+03,1.81233e+01,-7.35332e+01,0.00000e+00,0.00000e+00,0.00000e+00
1.11650e+03,1.54563e+01,-7.64745e+01,0.00000e+00,0.00000e+00,0.00000e+00
1.11650e+03,1.20330e+01,-7.94159e+01,0.00000e+00,0.00000e+00,0.00000e+00
1.11650e+03,7.40314e+00,-8.23572e+01,0.00000e+00,0.00000e+00,0.00000e+00
1.11650e+03,-2.99970e+00,-8.52985e+01,0.00000e+00,0.00000e+00,0.00000e+00
1.11650e+03,-3.75047e+00,-8.53053e+01,0.00000e+00,0.00000e+00,0.00000e+00
1.11650e+03,-1.05906e+01,-8.22587e+01,0.00000e+00,0.00000e+00,0.00000e+00
1.11650e+03,-1.14188e+01,-7.92121e+01,0.00000e+00,0.00000e+00,0.00000e+00
1.11650e+03,-1.17045e+01,-7.61655e+01,0.00000e+00,0.00000e+00,0.00000e+00
1.11650e+03,-1.17479e+01,-7.31189e+01,0.00000e+00,0.00000e+00,0.00000e+00
1.11650e+03,-1.16086e+01,-7.00722e+01,0.00000e+00,0.00000e+00,0.00000e+00
1.11650e+03,-1.13547e+01,-6.70256e+01,0.00000e+00,0.00000e+00,0.00000e+00
1.11650e+03,-1.09858e+01,-6.39790e+01,0.00000e+00,0.00000e+00,0.00000e+00
1.11650e+03,-1.05466e+01,-6.09324e+01,0.00000e+00,0.00000e+00,0.00000e+00
1.11650e+03,-1.00667e+01,-5.78858e+01,0.00000e+00,0.00000e+00,0.00000e+00
1.11650e+03,-9.52550e+00,-5.48391e+01,0.00000e+00,0.00000e+00,0.00000e+00
1.11650e+03,-8.94594e+00,-5.17925e+01,0.00000e+00,0.00000e+00,0.00000e+00
1.11650e+03,-8.32904e+00,-4.87459e+01,0.00000e+00,0.00000e+00,0.00000e+00
1.11650e+03,-7.67495e+00,-4.56993e+01,0.00000e+00,0.00000e+00,0.00000e+00
1.11650e+03,-6.99754e+00,-4.26527e+01,0.00000e+00,0.00000e+00,0.00000e+00
1.11650e+03,-6.29027e+00,-3.96060e+01,0.00000e+00,0.00000e+00,0.00000e+00
1.11650e+03,-5.56387e+00,-3.65594e+01,0.00000e+00,0.00000e+00,0.00000e+00
1.11650e+03,-4.82031e+00,-3.35128e+01,0.00000e+00,0.00000e+00,0.00000e+00
1.11650e+03,-4.06146e+00,-3.04662e+01,0.00000e+00,0.00000e+00,0.00000e+00
1.11650e+03,-3.29611e+00,-2.74196e+01,0.00000e+00,0.00000e+00,0.00000e+00
1.11650e+03,-2.52072e+00,-2.43730e+01,0.00000e+00,0.00000e+00,0.00000e+00
1.11650e+03,-1.74366e+00,-2.13263e+01,0.00000e+00,0.00000e+00,0.00000e+00
1.11650e+03,-9.60599e-01,-1.82797e+01,0.00000e+00,0.00000e+00,0.00000e+00
1.11650e+03,-1.77618e-01,-1.52331e+01,0.00000e+00,0.00000e+00,0.00000e+00
1.11650e+03,6.02404e-01,-1.21865e+01,0.00000e+00,0.00000e+00,0.00000e+00
1.11650e+03,1.38243e+00,-9.13986e+00,0.00000e+00,0.00000e+00,0.00000e+00
1.11650e+03,2.14398e+00,-6.09324e+00,0.00000e+00,0.00000e+00,0.00000e+00
1.11650e+03,2.90209e+00,-3.04662e+00,0.00000e+00,0.00000e+00,0.00000e+00
1.20500e+03,3.76912e+01,0.00000e+00,0.00000e+00,0.00000e+00,0.00000e+00
1.20500e+03,3.75014e+01,-2.86413e+00,0.00000e+00,0.00000e+00,0.00000e+00
1.20500e+03,3.72488e+01,-5.72827e+00,0.00000e+00,0.00000e+00,0.00000e+00
1.20500e+03,3.69938e+01,-8.59240e+00,0.00000e+00,0.00000e+00,0.00000e+00
1.20500e+03,3.66834e+01,-1.14565e+01,0.00000e+00,0.00000e+00,0.00000e+00
1.20500e+03,3.63602e+01,-1.43207e+01,0.00000e+00,0.00000e+00,0.00000e+00
1.20500e+03,3.59944e+01,-1.71848e+01,0.00000e+00,0.00000e+00,0.00000e+00
1.20500e+03,3.56080e+01,-2.00489e+01,0.00000e+00,0.00000e+00,0.00000e+00
1.20500e+03,3.51875e+01,-2.29131e+01,0.00000e+00,0.00000e+00,0.00000e+00
1.20500e+03,3.47390e+01,-2.57772e+01,0.00000e+00,0.00000e+00,0.00000e+00
1.20500e+03,3.42596e+01,-2.86413e+01,0.00000e+00,0.00000e+00,0.00000e+00
1.20500e+03,3.37428e+01,-3.15055e+01,0.00000e+00,0.00000e+00,0.00000e+00
1.20500e+03,3.31878e+01,-3.43696e+01,0.00000e+00,0.00000e+00,0.00000e+00
1.20500e+03,3.25787e+01,-3.72337e+01,0.00000e+00,0.00000e+00,0.00000e+00
1.20500e+03,3.19168e+01,-4.00979e+01,0.00000e+00,0.00000e+00,0.00000e+00
1.20500e+03,3.11919e+01,-4.29620e+01,0.00000e+00,0.00000e+00,0.00000e+00
1.20500e+03,3.03815e+01,-4.58261e+01,0.00000e+00,0.00000e+00,0.00000e+00
1.20500e+03,2.95118e+01,-4.86903e+01,0.00000e+00,0.00000e+00,0.00000e+00
1.20500e+03,2.85084e+01,-5.15544e+01,0.00000e+00,0.00000e+00,0.00000e+00
1.20500e+03,2.74495e+01,-5.44186e+01,0.00000e+00,0.00000e+00,0.00000e+00
1.20500e+03,2.62363e+01,-5.72827e+01,0.00000e+00,0.00000e+00,0.00000e+00
1.20500e+03,2.48993e+01,-6.01468e+01,0.00000e+00,0.00000e+00,0.00000e+00
1.20500e+03,2.34365e+01,-6.30110e+01,0.00000e+00,0.00000e+00,0.00000e+00
1.20500e+03,2.17623e+01,-6.58751e+01,0.00000e+00,0.00000e+00,0.00000e+00
1.20500e+03,1.98433e+01,-6.87392e+01,0.00000e+00,0.00000e+00,0.00000e+00
1.20500e+03,1.76476e+01,-7.16034e+01,0.00000e+00,0.00000e+00,0.00000e+00
1.20500e+03,1.50506e+01,-7.44675e+01,0.00000e+00,0.00000e+00,0.00000e+00
1.20500e+03,1.17172e+01,-7.73316e+01,0.00000e+00,0.00000e+00,0.00000e+00
1.20500e+03,7.20885e+00,-8.01958e+01,0.00000e+00,0.00000e+00,0.00000e+00
1.20500e+03,-2.92097e+00,-8.30599e+01,0.00000e+00,0.00000e+00,0.00000e+00
1.20500e+03,-3.65204e+00,-8.30665e+01,0.00000e+00,0.00000e+00,0.00000e+00
1.20500e+03,-1.03126e+01,-8.00999e+01,0.00000e+00,0.00000e+00,0.00000e+00
1.20500e+03,-1.11191e+01,-7.71332e+01,0.00000e+00,0.00000e+00,0.00000e+00
1.20500e+03,-1.13974e+01,-7.41666e+01,0.00000e+00,0.00000e+00,0.00000e+00
1.20500e+03,-1.14396e+01,-7.11999e+01,0.00000e+00,0.00000e+00,0.00000e+00
1.20500e+03,-1.13040e+01,-6.82332e+01,0.00000e+00,0.00000e+00,0.00000e+00
1.20500e+03,-1.10567e+01,-6.52666e+01,0.00000e+00,0.00000e+00,0.00000e+00
1.20500e+03,-1.06975e+01,-6.22999e+01,0.00000e+00,0.00000e+00,0.00000e+00
1.20500e+03,-1.02698e+01,-5.93332e+01,0.00000e+00,0.00000e+00,0.00000e+00
1.20500e+03,-9.80253e+00,-5.63666e+01,0.00000e+00,0.00000e+00,0.00000e+00
1.20500e+03,-9.27551e+00,-5.33999e+01,0.00000e+00,0.00000e+00,0.00000e+00
1.20500e+03,-8.71115e+00,-5.04333e+01,0.00000e+00,0.00000e+00,0.00000e+00
1.20500e+03,-8.11045e+00,-4.74666e+01,0.00000e+00,0.00000e+00,0.00000e+00
1.20500e+03,-7.47352e+00,-4.44999e+01,0.00000e+00,0.00000e+00,0.00000e+00
1.20500e+03,-6.81389e+00,-4.15333e+01,0.00000e+00,0.00000e+00,0.00000e+00
1.20500e+03,-6.12518e+00,-3.85666e+01,0.00000e+00,0.00000e+00,0.00000e+00
1.20500e+03,-5.41785e+00,-3.55999e+01,0.00000e+00,0.00000e+00,0.00000e+00
1.20500e+03,-4.69381e+00,-3.26333e+01,0.00000e+00,0.00000e+00,0.00000e+00
1.20500e+03,-3.95486e+00,-2.96666e+01,0.00000e+00,0.00000e+00,0.00000e+00
1.20500e+03,-3.20961e+00,-2.67000e+01,0.00000e+00,0.00000e+00,0.00000e+00
1.20500e+03,-2.45457e+00,-2.37333e+01,0.00000e+00,0.00000e+00,0.00000e+00
1.20500e+03,-1.69790e+00,-2.07666e+01,0.00000e+00,0.00000e+00,0.00000e+00
1.20500e+03,-9.35389e-01,-1.78000e+01,0.00000e+00,0.00000e+00,0.00000e+00
1.20500e+03,-1.72956e-01,-1.48333e+01,0.00000e+00,0.00000e+00,0.00000e+00
1.20500e+03,5.86594e-01,-1.18666e+01,0.00000e+00,0.00000e+00,0.00000e+00
1.20500e+03,1.34615e+00,-8.89999e+00,0.00000e+00,0.00000e+00,0.00000e+00
1.20500e+03,2.08771e+00,-5.93332e+00,0.00000e+00,0.00000e+00,0.00000e+00
1.20500e+03,2.82592e+00,-2.96666e+00,0.00000e+00,0.00000e+00,0.00000e+00
1.29010e+03,3.63234e+01,0.00000e+00,0.00000e+00,0.00000e+00,0.00000e+00
1.29010e+03,3.61405e+01,-2.76019e+00,0.00000e+00,0.00000e+00,0.00000e+00
1.29010e+03,3.58971e+01,-5.52039e+00,0.00000e+00,0.00000e+00,0.00000e+00
1.29010e+03,3.56513e+01,-8.28058e+00,0.00000e+00,0.00000e+00,0.00000e+00
1.29010e+03,3.53522e+01,-1.10408e+01,0.00000e+00,0.00000e+00,0.00000e+00
1.29010e+03,3.50407e+01,-1.38010e+01,0.00000e+00,0.00000e+00,0.00000e+00
1.29010e+03,3.46882e+01,-1.65612e+01,0.00000e+00,0.00000e+00,0.00000e+00
1.29010e+03,3.43158e+01,-1.93214e+01,0.00000e+00,0.00000e+00,0.00000e+00
1.29010e+03,3.39106e+01,-2.20816e+01,0.00000e+00,0.00000e+00,0.00000e+00
1.29010e+03,3.34783e+01,-2.48418e+01,0.00000e+00,0.00000e+00,0.00000e+00
1.29010e+03,3.30163e+01,-2.76019e+01,0.00000e+00,0.00000e+00,0.00000e+00
1.29010e+03,3.25183e+01,-3.03621e+01,0.00000e+00,0.00000e+00,0.00000e+00
1.29010e+03,3.19834e+01,-3.31223e+01,0.00000e+00,0.00000e+00,0.00000e+00
1.29010e+03,3.13964e+01,-3.58825e+01,0.00000e+00,0.00000e+00,0.00000e+00
1.29010e+03,3.07585e+01,-3.86427e+01,0.00000e+00,0.00000e+00,0.00000e+00
1.29010e+03,3.00599e+01,-4.14029e+01,0.00000e+00,0.00000e+00,0.00000e+00
1.29010e+03,2.92790e+01,-4.41631e+01,0.00000e+00,0.00000e+00,0.00000e+00
1.29010e+03,2.84408e+01,-4.69233e+01,0.00000e+00,0.00000e+00,0.00000e+00
1.29010e+03,2.74738e+01,-4.96835e+01,0.00000e+00,0.00000e+00,0.00000e+00
1.29010e+03,2.64534e+01,-5.24437e+01,0.00000e+00,0.00000e+00,0.00000e+00
1.29010e+03,2.52842e+01,-5.52039e+01,0.00000e+00,0.00000e+00,0.00000e+00
1.29010e+03,2.39957e+01,-5.79641e+01,0.00000e+00,0.00000e+00,0.00000e+00
1.29010e+03,2.25860e+01,-6.07243e+01,0.00000e+00,0.00000e+00,0.00000e+00
1.29010e+03,2.09725e+01,-6.34845e+01,0.00000e+00,0.00000e+00,0.00000e+00
1.29010e+03,1.91232e+01,-6.62447e+01,0.00000e+00,0.00000e+00,0.00000e+00
1.29010e+03,1.70072e+01,-6.90049e+01,0.00000e+00,0.00000e+00,0.00000e+00
1.29010e+03,1.45045e+01,-7.17651e+01,0.00000e+00,0.00000e+00,0.00000e+00
1.29010e+03,1.12920e+01,-7.45253e+01,0.00000e+00,0.00000e+00,0.00000e+00
1.29010e+03,6.94724e+00,-7.72855e+01,0.00000e+00,0.00000e+00,0.00000e+00
1.29010e+03,-2.81497e+00,-8.00457e+01,0.00000e+00,0.00000e+00,0.00000e+00
1.29010e+03,-3.51951e+00,-8.00521e+01,0.00000e+00,0.00000e+00,0.00000e+00
1.29010e+03,-9.93839e+00,-7.71931e+01,0.00000e+00,0.00000e+00,0.00000e+00
1.29010e+03,-1.07156e+01,-7.43341e+01,0.00000e+00,0.00000e+00,0.00000e+00
1.29010e+03,-1.09838e+01,-7.14751e+01,0.00000e+00,0.00000e+00,0.00000e+00
1.29010e+03,-1.10244e+01,-6.86160e+01,0.00000e+00,0.00000e+00,0.00000e+00
1.29010e+03,-1.08937e+01,-6.57570e+01,0.00000e+00,0.00000e+00,0.00000e+00
1.29010e+03,-1.06555e+01,-6.28980e+01,0.00000e+00,0.00000e+00,0.00000e+00
1.29010e+03,-1.03093e+01,-6.00390e+01,0.00000e+00,0.00000e+00,0.00000e+00
1.29010e+03,-9.89713e+00,-5.71800e+01,0.00000e+00,0.00000e+00,0.00000e+00
1.29010e+03,-9.44680e+00,-5.43210e+01,0.00000e+00,0.00000e+00,0.00000e+00
1.29010e+03,-8.93890e+00,-5.14620e+01,0.00000e+00,0.00000e+00,0.00000e+00
1.29010e+03,-8.39503e+00,-4.86030e+01,0.00000e+00,0.00000e+00,0.00000e+00
1.29010e+03,-7.81612e+00,-4.57440e+01,0.00000e+00,0.00000e+00,0.00000e+00
1.29010e+03,-7.20231e+00,-4.28850e+01,0.00000e+00,0.00000e+00,0.00000e+00
1.29010e+03,-6.56662e+00,-4.00260e+01,0.00000e+00,0.00000e+00,0.00000e+00
1.29010e+03,-5.90290e+00,-3.71670e+01,0.00000e+00,0.00000e+00,0.00000e+00
1.29010e+03,-5.22123e+00,-3.43080e+01,0.00000e+00,0.00000e+00,0.00000e+00
1.29010e+03,-4.52347e+00,-3.14490e+01,0.00000e+00,0.00000e+00,0.00000e+00
1.29010e+03,-3.81134e+00,-2.85900e+01,0.00000e+00,0.00000e+00,0.00000e+00
1.29010e+03,-3.09313e+00,-2.57310e+01,0.00000e+00,0.00000e+00,0.00000e+00
1.29010e+03,-2.36549e+00,-2.28720e+01,0.00000e+00,0.00000e+00,0.00000e+00
1.29010e+03,-1.63628e+00,-2.00130e+01,0.00000e+00,0.00000e+00,0.00000e+00
1.29010e+03,-9.01444e-01,-1.71540e+01,0.00000e+00,0.00000e+00,0.00000e+00
1.29010e+03,-1.66680e-01,-1.42950e+01,0.00000e+00,0.00000e+00,0.00000e+00
1.29010e+03,5.65307e-01,-1.14360e+01,0.00000e+00,0.00000e+00,0.00000e+00
1.29010e+03,1.29729e+00,-8.57701e+00,0.00000e+00,0.00000e+00,0.00000e+00
1.29010e+03,2.01195e+00,-5.71800e+00,0.00000e+00,0.00000e+00,0.00000e+00
1.29010e+03,2.72337e+00,-2.85900e+00,0.00000e+00,0.00000e+00,0.00000e+00
1.37170e+03,3.50118e+01,0.00000e+00,0.00000e+00,0.00000e+00,0.00000e+00
1.37170e+03,3.48355e+01,-2.66053e+00,0.00000e+00,0.00000e+00,0.00000e+00
1.37170e+03,3.46009e+01,-5.32106e+00,0.00000e+00,0.00000e+00,0.00000e+00
1.37170e+03,3.43640e+01,-7.98159e+00,0.00000e+00,0.00000e+00,0.00000e+00
1.37170e+03,3.40757e+01,-1.06421e+01,0.00000e+00,0.00000e+00,0.00000e+00
1.37170e+03,3.37754e+01,-1.33027e+01,0.00000e+00,0.00000e+00,0.00000e+00
1.37170e+03,3.34357e+01,-1.59632e+01,0.00000e+00,0.00000e+00,0.00000e+00
1.37170e+03,3.30768e+01,-1.86237e+01,0.00000e+00,0.00000e+00,0.00000e+00
1.37170e+03,3.26861e+01,-2.12842e+01,0.00000e+00,0.00000e+00,0.00000e+00
1.37170e+03,3.22695e+01,-2.39448e+01,0.00000e+00,0.00000e+00,0.00000e+00
1.37170e+03,3.18241e+01,-2.66053e+01,0.00000e+00,0.00000e+00,0.00000e+00
1.37170e+03,3.13441e+01,-2.92658e+01,0.00000e+00,0.00000e+00,0.00000e+00
1.37170e+03,3.08286e+01,-3.19264e+01,0.00000e+00,0.00000e+00,0.00000e+00
1.37170e+03,3.02627e+01,-3.45869e+01,0.00000e+00,0.00000e+00,0.00000e+00
1.37170e+03,2.96479e+01,-3.72474e+01,0.00000e+00,0.00000e+00,0.00000e+00
1.37170e+03,2.89745e+01,-3.99080e+01,0.00000e+00,0.00000e+00,0.00000e+00
1.37170e+03,2.82218e+01,-4.25685e+01,0.00000e+00,0.00000e+00,0.00000e+00
1.37170e+03,2.74139e+01,-4.52290e+01,0.00000e+00,0.00000e+00,0.00000e+00
1.37170e+03,2.64818e+01,-4.78895e+01,0.00000e+00,0.00000e+00,0.00000e+00
1.37170e+03,2.54982e+01,-5.05501e+01,0.00000e+00,0.00000e+00,0.00000e+00
1.37170e+03,2.43712e+01,-5.32106e+01,0.00000e+00,0.00000e+00,0.00000e+00
1.37170e+03,2.31293e+01,-5.58711e+01,0.00000e+00,0.00000e+00,0.00000e+00
1.37170e+03,2.17704e+01,-5.85317e+01,0.00000e+00,0.00000e+00,0.00000e+00
1.37170e+03,2.02153e+01,-6.11922e+01,0.00000e+00,0.00000e+00,0.00000e+00
1.37170e+03,1.84327e+01,-6.38527e+01,0.00000e+00,0.00000e+00,0.00000e+00
1.37170e+03,1.63931e+01,-6.65133e+01,0.00000e+00,0.00000e+00,0.00000e+00
1.37170e+03,1.39807e+01,-6.91738e+01,0.00000e+00,0.00000e+00,0.00000e+00
1.37170e+03,1.08843e+01,-7.18343e+01,0.00000e+00,0.00000e+00,0.00000e+00
1.37170e+03,6.69639e+00,-7.44949e+01,0.00000e+00,0.00000e+00,0.00000e+00
1.37170e+03,-2.71333e+00,-7.71554e+01,0.00000e+00,0.00000e+00,0.00000e+00
1.37170e+03,-3.39243e+00,-7.71616e+01,0.00000e+00,0.00000e+00,0.00000e+00
1.37170e+03,-9.57954e+00,-7.44058e+01,0.00000e+00,0.00000e+00,0.00000e+00
1.37170e+03,-1.03287e+01,-7.16500e+01,0.00000e+00,0.00000e+00,0.00000e+00
1.37170e+03,-1.05872e+01,-6.88942e+01,0.00000e+00,0.00000e+00,0.00000e+00
1.37170e+03,-1.06264e+01,-6.61385e+01,0.00000e+00,0.00000e+00,0.00000e+00
1.37170e+03,-1.05004e+01,-6.33827e+01,0.00000e+00,0.00000e+00,0.00000e+00
1.37170e+03,-1.02708e+01,-6.06269e+01,0.00000e+00,0.00000e+00,0.00000e+00
1.37170e+03,-9.93701e+00,-5.78712e+01,0.00000e+00,0.00000e+00,0.00000e+00
1.37170e+03,-9.53977e+00,-5.51154e+01,0.00000e+00,0.00000e+00,0.00000e+00
1.37170e+03,-9.10569e+00,-5.23596e+01,0.00000e+00,0.00000e+00,0.00000e+00
1.37170e+03,-8.61613e+00,-4.96039e+01,0.00000e+00,0.00000e+00,0.00000e+00
1.37170e+03,-8.09190e+00,-4.68481e+01,0.00000e+00,0.00000e+00,0.00000e+00
1.37170e+03,-7.53389e+00,-4.40923e+01,0.00000e+00,0.00000e+00,0.00000e+00
1.37170e+03,-6.94225e+00,-4.13365e+01,0.00000e+00,0.00000e+00,0.00000e+00
1.37170e+03,-6.32951e+00,-3.85808e+01,0.00000e+00,0.00000e+00,0.00000e+00
1.37170e+03,-5.68976e+00,-3.58250e+01,0.00000e+00,0.00000e+00,0.00000e+00
1.37170e+03,-5.03271e+00,-3.30692e+01,0.00000e+00,0.00000e+00,0.00000e+00
1.37170e+03,-4.36014e+00,-3.03135e+01,0.00000e+00,0.00000e+00,0.00000e+00
1.37170e+03,-3.67372e+00,-2.75577e+01,0.00000e+00,0.00000e+00,0.00000e+00
1.37170e+03,-2.98144e+00,-2.48019e+01,0.00000e+00,0.00000e+00,0.00000e+00
1.37170e+03,-2.28008e+00,-2.20462e+01,0.00000e+00,0.00000e+00,0.00000e+00
1.37170e+03,-1.57720e+00,-1.92904e+01,0.00000e+00,0.00000e+00,0.00000e+00
1.37170e+03,-8.68894e-01,-1.65346e+01,0.00000e+00,0.00000e+00,0.00000e+00
1.37170e+03,-1.60661e-01,-1.37788e+01,0.00000e+00,0.00000e+00,0.00000e+00
1.37170e+03,5.44895e-01,-1.10231e+01,0.00000e+00,0.00000e+00,0.00000e+00
1.37170e+03,1.25045e+00,-8.26731e+00,0.00000e+00,0.00000e+00,0.00000e+00
1.37170e+03,1.93930e+00,-5.51154e+00,0.00000e+00,0.00000e+00,0.00000e+00
1.37170e+03,2.62503e+00,-2.75577e+00,0.00000e+00,0.00000e+00,0.00000e+00
1.44960e+03,3.37597e+01,0.00000e+00,0.00000e+00,0.00000e+00,0.00000e+00
1.44960e+03,3.35897e+01,-2.56538e+00,0.00000e+00,0.00000e+00,0.00000e+00
1.44960e+03,3.33635e+01,-5.13077e+00,0.00000e+00,0.00000e+00,0.00000e+00
1.44960e+03,3.31351e+01,-7.69615e+00,0.00000e+00,0.00000e+00,0.00000e+00
1.44960e+03,3.28571e+01,-1.02615e+01,0.00000e+00,0.00000e+00,0.00000e+00
1.44960e+03,3.25675e+01,-1.28269e+01,0.00000e+00,0.00000e+00,0.00000e+00
1.44960e+03,3.22399e+01,-1.53923e+01,0.00000e+00,0.00000e+00,0.00000e+00
1.44960e+03,3.18939e+01,-1.79577e+01,0.00000e+00,0.00000e+00,0.00000e+00
1.44960e+03,3.15172e+01,-2.05231e+01,0.00000e+00,0.00000e+00,0.00000e+00
1.44960e+03,3.11155e+01,-2.30885e+01,0.00000e+00,0.00000e+00,0.00000e+00
1.44960e+03,3.06860e+01,-2.56538e+01,0.00000e+00,0.00000e+00,0.00000e+00
1.44960e+03,3.02232e+01,-2.82192e+01,0.00000e+00,0.00000e+00,0.00000e+00
1.44960e+03,2.97261e+01,-3.07846e+01,0.00000e+00,0.00000e+00,0.00000e+00
1.44960e+03,2.91805e+01,-3.33500e+01,0.00000e+00,0.00000e+00,0.00000e+00
1.44960e+03,2.85877e+01,-3.59154e+01,0.00000e+00,0.00000e+00,0.00000e+00
1.44960e+03,2.79383e+01,-3.84808e+01,0.00000e+00,0.00000e+00,0.00000e+00
1.44960e+03,2.72125e+01,-4.10462e+01,0.00000e+00,0.00000e+00,0.00000e+00
1.44960e+03,2.64335e+01,-4.36115e+01,0.00000e+00,0.00000e+00,0.00000e+00
1.44960e+03,2.55347e+01,-4.61769e+01,0.00000e+00,0.00000e+00,0.00000e+00
1.44960e+03,2.45863e+01,-4.87423e+01,0.00000e+00,0.00000e+00,0.00000e+00
1.44960e+03,2.34997e+01,-5.13077e+01,0.00000e+00,0.00000e+00,0.00000e+00
1.44960e+03,2.23022e+01,-5.38731e+01,0.00000e+00,0.00000e+00,0.00000e+00
1.44960e+03,2.09919e+01,-5.64385e+01,0.00000e+00,0.00000e+00,0.00000e+00
1.44960e+03,1.94923e+01,-5.90039e+01,0.00000e+00,0.00000e+00,0.00000e+00
1.44960e+03,1.77735e+01,-6.15692e+01,0.00000e+00,0.00000e+00,0.00000e+00
1.44960e+03,1.58069e+01,-6.41346e+01,0.00000e+00,0.00000e+00,0.00000e+00
1.44960e+03,1.34808e+01,-6.67000e+01,0.00000e+00,0.00000e+00,0.00000e+00
1.44960e+03,1.04950e+01,-6.92654e+01,0.00000e+00,0.00000e+00,0.00000e+00
1.44960e+03,6.45692e+00,-7.18308e+01,0.00000e+00,0.00000e+00,0.00000e+00
1.44960e+03,-2.61629e+00,-7.43962e+01,0.00000e+00,0.00000e+00,0.00000e+00
1.44960e+03,-3.27111e+00,-7.44021e+01,0.00000e+00,0.00000e+00,0.00000e+00
1.44960e+03,-9.23696e+00,-7.17449e+01,0.00000e+00,0.00000e+00,0.00000e+00
1.44960e+03,-9.95928e+00,-6.90877e+01,0.00000e+00,0.00000e+00,0.00000e+00
1.44960e+03,-1.02085e+01,-6.64305e+01,0.00000e+00,0.00000e+00,0.00000e+00
1.44960e+03,-1.02464e+01,-6.37732e+01,0.00000e+00,0.00000e+00,0.00000e+00
1.44960e+03,-1.01249e+01,-6.11160e+01,0.00000e+00,0.00000e+00,0.00000e+00
1.44960e+03,-9.90345e+00,-5.84588e+01,0.00000e+00,0.00000e+00,0.00000e+00
1.44960e+03,-9.58164e+00,-5.58016e+01,0.00000e+00,0.00000e+00,0.00000e+00
1.44960e+03,-9.19861e+00,-5.31444e+01,0.00000e+00,0.00000e+00,0.00000e+00
1.44960e+03,-8.78006e+00,-5.04872e+01,0.00000e+00,0.00000e+00,0.00000e+00
1.44960e+03,-8.30801e+00,-4.78299e+01,0.00000e+00,0.00000e+00,0.00000e+00
1.44960e+03,-7.80252e+00,-4.51727e+01,0.00000e+00,0.00000e+00,0.00000e+00
1.44960e+03,-7.26447e+00,-4.25155e+01,0.00000e+00,0.00000e+00,0.00000e+00
1.44960e+03,-6.69398e+00,-3.98583e+01,0.00000e+00,0.00000e+00,0.00000e+00
1.44960e+03,-6.10316e+00,-3.72011e+01,0.00000e+00,0.00000e+00,0.00000e+00
1.44960e+03,-5.48628e+00,-3.45438e+01,0.00000e+00,0.00000e+00,0.00000e+00
1.44960e+03,-4.85273e+00,-3.18866e+01,0.00000e+00,0.00000e+00,0.00000e+00
1.44960e+03,-4.20421e+00,-2.92294e+01,0.00000e+00,0.00000e+00,0.00000e+00
1.44960e+03,-3.54234e+00,-2.65722e+01,0.00000e+00,0.00000e+00,0.00000e+00
1.44960e+03,-2.87482e+00,-2.39150e+01,0.00000e+00,0.00000e+00,0.00000e+00
1.44960e+03,-2.19854e+00,-2.12577e+01,0.00000e+00,0.00000e+00,0.00000e+00
1.44960e+03,-1.52080e+00,-1.86005e+01,0.00000e+00,0.00000e+00,0.00000e+00
1.44960e+03,-8.37821e-01,-1.59433e+01,0.00000e+00,0.00000e+00,0.00000e+00
1.44960e+03,-1.54916e-01,-1.32861e+01,0.00000e+00,0.00000e+00,0.00000e+00
1.44960e+03,5.25408e-01,-1.06289e+01,0.00000e+00,0.00000e+00,0.00000e+00
1.44960e+03,1.20573e+00,-7.97166e+00,0.00000e+00,0.00000e+00,0.00000e+00
1.44960e+03,1.86995e+00,-5.31444e+00,0.00000e+00,0.00000e+00,0.00000e+00
1.44960e+03,2.53116e+00,-2.65722e+00,0.00000e+00,0.00000e+00,0.00000e+00
1.52340e+03,3.25736e+01,0.00000e+00,0.00000e+00,0.00000e+00,0.00000e+00
1.52340e+03,3.24095e+01,-2.47525e+00,0.00000e+00,0.00000e+00,0.00000e+00
1.52340e+03,3.21913e+01,-4.95049e+00,0.00000e+00,0.00000e+00,0.00000e+00
1.52340e+03,3.19709e+01,-7.42574e+00,0.00000e+00,0.00000e+00,0.00000e+00
1.52340e+03,3.17026e+01,-9.90099e+00,0.00000e+00,0.00000e+00,0.00000e+00
1.52340e+03,3.14232e+01,-1.23762e+01,0.00000e+00,0.00000e+00,0.00000e+00
1.52340e+03,3.11072e+01,-1.48515e+01,0.00000e+00,0.00000e+00,0.00000e+00
1.52340e+03,3.07733e+01,-1.73267e+01,0.00000e+00,0.00000e+00,0.00000e+00
1.52340e+03,3.04098e+01,-1.98020e+01,0.00000e+00,0.00000e+00,0.00000e+00
1.52340e+03,3.00222e+01,-2.22772e+01,0.00000e+00,0.00000e+00,0.00000e+00
1.52340e+03,2.96079e+01,-2.47525e+01,0.00000e+00,0.00000e+00,0.00000e+00
1.52340e+03,2.91613e+01,-2.72277e+01,0.00000e+00,0.00000e+00,0.00000e+00
1.52340e+03,2.86816e+01,-2.97030e+01,0.00000e+00,0.00000e+00,0.00000e+00
1.52340e+03,2.81552e+01,-3.21782e+01,0.00000e+00,0.00000e+00,0.00000e+00
1.52340e+03,2.75832e+01,-3.46535e+01,0.00000e+00,0.00000e+00,0.00000e+00
1.52340e+03,2.69567e+01,-3.71287e+01,0.00000e+00,0.00000e+00,0.00000e+00
1.52340e+03,2.62564e+01,-3.96040e+01,0.00000e+00,0.00000e+00,0.00000e+00
1.52340e+03,2.55047e+01,-4.20792e+01,0.00000e+00,0.00000e+00,0.00000e+00
1.52340e+03,2.46375e+01,-4.45544e+01,0.00000e+00,0.00000e+00,0.00000e+00
1.52340e+03,2.37225e+01,-4.70297e+01,0.00000e+00,0.00000e+00,0.00000e+00
1.52340e+03,2.26740e+01,-4.95049e+01,0.00000e+00,0.00000e+00,0.00000e+00
1.52340e+03,2.15185e+01,-5.19802e+01,0.00000e+00,0.00000e+00,0.00000e+00
1.52340e+03,2.02543e+01,-5.44554e+01,0.00000e+00,0.00000e+00,0.00000e+00
1.52340e+03,1.88075e+01,-5.69307e+01,0.00000e+00,0.00000e+00,0.00000e+00
1.52340e+03,1.71490e+01,-5.94059e+01,0.00000e+00,0.00000e+00,0.00000e+00
1.52340e+03,1.52515e+01,-6.18812e+01,0.00000e+00,0.00000e+00,0.00000e+00
1.52340e+03,1.30071e+01,-6.43564e+01,0.00000e+00,0.00000e+00,0.00000e+00
1.52340e+03,1.01263e+01,-6.68317e+01,0.00000e+00,0.00000e+00,0.00000e+00
1.52340e+03,6.23005e+00,-6.93069e+01,0.00000e+00,0.00000e+00,0.00000e+00
1.52340e+03,-2.52437e+00,-7.17822e+01,0.00000e+00,0.00000e+00,0.00000e+00
1.52340e+03,-3.15618e+00,-7.17879e+01,0.00000e+00,0.00000e+00,0.00000e+00
1.52340e+03,-8.91241e+00,-6.92241e+01,0.00000e+00,0.00000e+00,0.00000e+00
1.52340e+03,-9.60935e+00,-6.66602e+01,0.00000e+00,0.00000e+00,0.00000e+00
1.52340e+03,-9.84985e+00,-6.40963e+01,0.00000e+00,0.00000e+00,0.00000e+00
1.52340e+03,-9.88634e+00,-6.15325e+01,0.00000e+00,0.00000e+00,0.00000e+00
1.52340e+03,-9.76914e+00,-5.89686e+01,0.00000e+00,0.00000e+00,0.00000e+00
1.52340e+03,-9.55548e+00,-5.64048e+01,0.00000e+00,0.00000e+00,0.00000e+00
1.52340e+03,-9.24498e+00,-5.38409e+01,0.00000e+00,0.00000e+00,0.00000e+00
1.52340e+03,-8.87540e+00,-5.12771e+01,0.00000e+00,0.00000e+00,0.00000e+00
1.52340e+03,-8.47156e+00,-4.87132e+01,0.00000e+00,0.00000e+00,0.00000e+00
1.52340e+03,-8.01609e+00,-4.61494e+01,0.00000e+00,0.00000e+00,0.00000e+00
1.52340e+03,-7.52837e+00,-4.35855e+01,0.00000e+00,0.00000e+00,0.00000e+00
1.52340e+03,-7.00922e+00,-4.10217e+01,0.00000e+00,0.00000e+00,0.00000e+00
1.52340e+03,-6.45878e+00,-3.84578e+01,0.00000e+00,0.00000e+00,0.00000e+00
1.52340e+03,-5.88872e+00,-3.58940e+01,0.00000e+00,0.00000e+00,0.00000e+00
1.52340e+03,-5.29352e+00,-3.33301e+01,0.00000e+00,0.00000e+00,0.00000e+00
1.52340e+03,-4.68222e+00,-3.07662e+01,0.00000e+00,0.00000e+00,0.00000e+00
1.52340e+03,-4.05649e+00,-2.82024e+01,0.00000e+00,0.00000e+00,0.00000e+00
1.52340e+03,-3.41788e+00,-2.56385e+01,0.00000e+00,0.00000e+00,0.00000e+00
1.52340e+03,-2.77381e+00,-2.30747e+01,0.00000e+00,0.00000e+00,0.00000e+00
1.52340e+03,-2.12129e+00,-2.05108e+01,0.00000e+00,0.00000e+00,0.00000e+00
1.52340e+03,-1.46736e+00,-1.79470e+01,0.00000e+00,0.00000e+00,0.00000e+00
1.52340e+03,-8.08383e-01,-1.53831e+01,0.00000e+00,0.00000e+00,0.00000e+00
1.52340e+03,-1.49473e-01,-1.28193e+01,0.00000e+00,0.00000e+00,0.00000e+00
1.52340e+03,5.06948e-01,-1.02554e+01,0.00000e+00,0.00000e+00,0.00000e+00
1.52340e+03,1.16337e+00,-7.69156e+00,0.00000e+00,0.00000e+00,0.00000e+00
1.52340e+03,1.80424e+00,-5.12771e+00,0.00000e+00,0.00000e+00,0.00000e+00
1.52340e+03,2.44222e+00,-2.56385e+00,0.00000e+00,0.00000e+00,0.00000e+00
1.59310e+03,3.14533e+01,0.00000e+00,0.00000e+00,0.00000e+00,0.00000e+00
1.59310e+03,3.12949e+01,-2.39012e+00,0.00000e+00,0.00000e+00,0.00000e+00
1.59310e+03,3.10841e+01,-4.78023e+00,0.00000e+00,0.00000e+00,0.00000e+00
1.59310e+03,3.08713e+01,-7.17035e+00,0.00000e+00,0.00000e+00,0.00000e+00
1.59310e+03,3.06123e+01,-9.56047e+00,0.00000e+00,0.00000e+00,0.00000e+00
1.59310e+03,3.03425e+01,-1.19506e+01,0.00000e+00,0.00000e+00,0.00000e+00
1.59310e+03,3.00373e+01,-1.43407e+01,0.00000e+00,0.00000e+00,0.00000e+00
1.59310e+03,2.97149e+01,-1.67308e+01,0.00000e+00,0.00000e+00,0.00000e+00
1.59310e+03,2.93640e+01,-1.91209e+01,0.00000e+00,0.00000e+00,0.00000e+00
1.59310e+03,2.89896e+01,-2.15111e+01,0.00000e+00,0.00000e+00,0.00000e+00
1.59310e+03,2.85896e+01,-2.39012e+01,0.00000e+00,0.00000e+00,0.00000e+00
1.59310e+03,2.81583e+01,-2.62913e+01,0.00000e+00,0.00000e+00,0.00000e+00
1.59310e+03,2.76952e+01,-2.86814e+01,0.00000e+00,0.00000e+00,0.00000e+00
1.59310e+03,2.71869e+01,-3.10715e+01,0.00000e+00,0.00000e+00,0.00000e+00
1.59310e+03,2.66345e+01,-3.34616e+01,0.00000e+00,0.00000e+00,0.00000e+00
1.59310e+03,2.60296e+01,-3.58518e+01,0.00000e+00,0.00000e+00,0.00000e+00
1.59310e+03,2.53533e+01,-3.82419e+01,0.00000e+00,0.00000e+00,0.00000e+00
1.59310e+03,2.46276e+01,-4.06320e+01,0.00000e+00,0.00000e+00,0.00000e+00
1.59310e+03,2.37902e+01,-4.30221e+01,0.00000e+00,0.00000e+00,0.00000e+00
1.59310e+03,2.29066e+01,-4.54122e+01,0.00000e+00,0.00000e+00,0.00000e+00
1.59310e+03,2.18941e+01,-4.78023e+01,0.00000e+00,0.00000e+00,0.00000e+00
1.59310e+03,2.07785e+01,-5.01925e+01,0.00000e+00,0.00000e+00,0.00000e+00
1.59310e+03,1.95577e+01,-5.25826e+01,0.00000e+00,0.00000e+00,0.00000e+00
1.59310e+03,1.81606e+01,-5.49727e+01,0.00000e+00,0.00000e+00,0.00000e+00
1.59310e+03,1.65592e+01,-5.73628e+01,0.00000e+00,0.00000e+00,0.00000e+00
1.59310e+03,1.47269e+01,-5.97529e+01,0.00000e+00,0.00000e+00,0.00000e+00
1.59310e+03,1.25597e+01,-6.21430e+01,0.00000e+00,0.00000e+00,0.00000e+00
1.59310e+03,9.77800e+00,-6.45332e+01,0.00000e+00,0.00000e+00,0.00000e+00
1.59310e+03,6.01578e+00,-6.69233e+01,0.00000e+00,0.00000e+00,0.00000e+00
1.59310e+03,-2.43755e+00,-6.93134e+01,0.00000e+00,0.00000e+00,0.00000e+00
1.59310e+03,-3.04763e+00,-6.93189e+01,0.00000e+00,0.00000e+00,0.00000e+00
1.59310e+03,-8.60589e+00,-6.68433e+01,0.00000e+00,0.00000e+00,0.00000e+00
1.59310e+03,-9.27886e+00,-6.43676e+01,0.00000e+00,0.00000e+00,0.00000e+00
1.59310e+03,-9.51109e+00,-6.18919e+01,0.00000e+00,0.00000e+00,0.00000e+00
1.59310e+03,-9.54632e+00,-5.94162e+01,0.00000e+00,0.00000e+00,0.00000e+00
1.59310e+03,-9.43315e+00,-5.69406e+01,0.00000e+00,0.00000e+00,0.00000e+00
1.59310e+03,-9.22684e+00,-5.44649e+01,0.00000e+00,0.00000e+00,0.00000e+00
1.59310e+03,-8.92702e+00,-5.19892e+01,0.00000e+00,0.00000e+00,0.00000e+00
1.59310e+03,-8.57016e+00,-4.95135e+01,0.00000e+00,0.00000e+00,0.00000e+00
1.59310e+03,-8.18020e+00,-4.70379e+01,0.00000e+00,0.00000e+00,0.00000e+00
1.59310e+03,-7.74040e+00,-4.45622e+01,0.00000e+00,0.00000e+00,0.00000e+00
1.59310e+03,-7.26945e+00,-4.20865e+01,0.00000e+00,0.00000e+00,0.00000e+00
1.59310e+03,-6.76816e+00,-3.96108e+01,0.00000e+00,0.00000e+00,0.00000e+00
1.59310e+03,-6.23665e+00,-3.71351e+01,0.00000e+00,0.00000e+00,0.00000e+00
1.59310e+03,-5.68619e+00,-3.46595e+01,0.00000e+00,0.00000e+00,0.00000e+00
1.59310e+03,-5.11146e+00,-3.21838e+01,0.00000e+00,0.00000e+00,0.00000e+00
1.59310e+03,-4.52119e+00,-2.97081e+01,0.00000e+00,0.00000e+00,0.00000e+00
1.59310e+03,-3.91698e+00,-2.72324e+01,0.00000e+00,0.00000e+00,0.00000e+00
1.59310e+03,-3.30033e+00,-2.47568e+01,0.00000e+00,0.00000e+00,0.00000e+00
1.59310e+03,-2.67841e+00,-2.22811e+01,0.00000e+00,0.00000e+00,0.00000e+00
1.59310e+03,-2.04833e+00,-1.98054e+01,0.00000e+00,0.00000e+00,0.00000e+00
1.59310e+03,-1.41689e+00,-1.73297e+01,0.00000e+00,0.00000e+00,0.00000e+00
1.59310e+03,-7.80581e-01,-1.48541e+01,0.00000e+00,0.00000e+00,0.00000e+00
1.59310e+03,-1.44332e-01,-1.23784e+01,0.00000e+00,0.00000e+00,0.00000e+00
1.59310e+03,4.89512e-01,-9.90271e+00,0.00000e+00,0.00000e+00,0.00000e+00
1.59310e+03,1.12336e+00,-7.42703e+00,0.00000e+00,0.00000e+00,0.00000e+00
1.59310e+03,1.74219e+00,-4.95135e+00,0.00000e+00,0.00000e+00,0.00000e+00
1.59310e+03,2.35823e+00,-2.47568e+00,0.00000e+00,0.00000e+00,0.00000e+00
1.65850e+03,3.04021e+01,0.00000e+00,0.00000e+00,0.00000e+00,0.00000e+00
1.65850e+03,3.02490e+01,-2.31024e+00,0.00000e+00,0.00000e+00,0.00000e+00
1.65850e+03,3.00453e+01,-4.62048e+00,0.00000e+00,0.00000e+00,0.00000e+00
1.65850e+03,2.98396e+01,-6.93072e+00,0.00000e+00,0.00000e+00,0.00000e+00
1.65850e+03,2.95892e+01,-9.24096e+00,0.00000e+00,0.00000e+00,0.00000e+00
1.65850e+03,2.93285e+01,-1.15512e+01,0.00000e+00,0.00000e+00,0.00000e+00
1.65850e+03,2.90335e+01,-1.38614e+01,0.00000e+00,0.00000e+00,0.00000e+00
1.65850e+03,2.87218e+01,-1.61717e+01,0.00000e+00,0.00000e+00,0.00000e+00
1.65850e+03,2.83826e+01,-1.84819e+01,0.00000e+00,0.00000e+00,0.00000e+00
1.65850e+03,2.80208e+01,-2.07921e+01,0.00000e+00,0.00000e+00,0.00000e+00
1.65850e+03,2.76341e+01,-2.31024e+01,0.00000e+00,0.00000e+00,0.00000e+00
1.65850e+03,2.72173e+01,-2.54126e+01,0.00000e+00,0.00000e+00,0.00000e+00
1.65850e+03,2.67696e+01,-2.77229e+01,0.00000e+00,0.00000e+00,0.00000e+00
1.65850e+03,2.62783e+01,-3.00331e+01,0.00000e+00,0.00000e+00,0.00000e+00
1.65850e+03,2.57444e+01,-3.23433e+01,0.00000e+00,0.00000e+00,0.00000e+00
1.65850e+03,2.51597e+01,-3.46536e+01,0.00000e+00,0.00000e+00,0.00000e+00
1.65850e+03,2.45060e+01,-3.69638e+01,0.00000e+00,0.00000e+00,0.00000e+00
1.65850e+03,2.38045e+01,-3.92741e+01,0.00000e+00,0.00000e+00,0.00000e+00
1.65850e+03,2.29951e+01,-4.15843e+01,0.00000e+00,0.00000e+00,0.00000e+00
1.65850e+03,2.21410e+01,-4.38945e+01,0.00000e+00,0.00000e+00,0.00000e+00
1.65850e+03,2.11624e+01,-4.62048e+01,0.00000e+00,0.00000e+00,0.00000e+00
1.65850e+03,2.00840e+01,-4.85150e+01,0.00000e+00,0.00000e+00,0.00000e+00
1.65850e+03,1.89041e+01,-5.08253e+01,0.00000e+00,0.00000e+00,0.00000e+00
1.65850e+03,1.75537e+01,-5.31355e+01,0.00000e+00,0.00000e+00,0.00000e+00
1.65850e+03,1.60058e+01,-5.54457e+01,0.00000e+00,0.00000e+00,0.00000e+00
1.65850e+03,1.42348e+01,-5.77560e+01,0.00000e+00,0.00000e+00,0.00000e+00
1.65850e+03,1.21400e+01,-6.00662e+01,0.00000e+00,0.00000e+00,0.00000e+00
1.65850e+03,9.45122e+00,-6.23764e+01,0.00000e+00,0.00000e+00,0.00000e+00
1.65850e+03,5.81473e+00,-6.46867e+01,0.00000e+00,0.00000e+00,0.00000e+00
1.65850e+03,-2.35608e+00,-6.69969e+01,0.00000e+00,0.00000e+00,0.00000e+00
1.65850e+03,-2.94577e+00,-6.70023e+01,0.00000e+00,0.00000e+00,0.00000e+00
1.65850e+03,-8.31828e+00,-6.46093e+01,0.00000e+00,0.00000e+00,0.00000e+00
1.65850e+03,-8.96876e+00,-6.22164e+01,0.00000e+00,0.00000e+00,0.00000e+00
1.65850e+03,-9.19322e+00,-5.98235e+01,0.00000e+00,0.00000e+00,0.00000e+00
1.65850e+03,-9.22728e+00,-5.74305e+01,0.00000e+00,0.00000e+00,0.00000e+00
1.65850e+03,-9.11789e+00,-5.50376e+01,0.00000e+00,0.00000e+00,0.00000e+00
1.65850e+03,-8.91848e+00,-5.26447e+01,0.00000e+00,0.00000e+00,0.00000e+00
1.65850e+03,-8.62868e+00,-5.02517e+01,0.00000e+00,0.00000e+00,0.00000e+00
1.65850e+03,-8.28374e+00,-4.78588e+01,0.00000e+00,0.00000e+00,0.00000e+00
1.65850e+03,-7.90682e+00,-4.54658e+01,0.00000e+00,0.00000e+00,0.00000e+00
1.65850e+03,-7.48171e+00,-4.30729e+01,0.00000e+00,0.00000e+00,0.00000e+00
1.65850e+03,-7.02650e+00,-4.06800e+01,0.00000e+00,0.00000e+00,0.00000e+00
1.65850e+03,-6.54196e+00,-3.82870e+01,0.00000e+00,0.00000e+00,0.00000e+00
1.65850e+03,-6.02822e+00,-3.58941e+01,0.00000e+00,0.00000e+00,0.00000e+00
1.65850e+03,-5.49615e+00,-3.35011e+01,0.00000e+00,0.00000e+00,0.00000e+00
1.65850e+03,-4.94063e+00,-3.11082e+01,0.00000e+00,0.00000e+00,0.00000e+00
1.65850e+03,-4.37009e+00,-2.87153e+01,0.00000e+00,0.00000e+00,0.00000e+00
1.65850e+03,-3.78607e+00,-2.63223e+01,0.00000e+00,0.00000e+00,0.00000e+00
1.65850e+03,-3.19003e+00,-2.39294e+01,0.00000e+00,0.00000e+00,0.00000e+00
1.65850e+03,-2.58890e+00,-2.15364e+01,0.00000e+00,0.00000e+00,0.00000e+00
1.65850e+03,-1.97988e+00,-1.91435e+01,0.00000e+00,0.00000e+00,0.00000e+00
1.65850e+03,-1.36954e+00,-1.67506e+01,0.00000e+00,0.00000e+00,0.00000e+00
1.65850e+03,-7.54494e-01,-1.43576e+01,0.00000e+00,0.00000e+00,0.00000e+00
1.65850e+03,-1.39508e-01,-1.19647e+01,0.00000e+00,0.00000e+00,0.00000e+00
1.65850e+03,4.73153e-01,-9.57176e+00,0.00000e+00,0.00000e+00,0.00000e+00
1.65850e+03,1.08581e+00,-7.17882e+00,0.00000e+00,0.00000e+00,0.00000e+00
1.65850e+03,1.68397e+00,-4.78588e+00,0.00000e+00,0.00000e+00,0.00000e+00
1.65850e+03,2.27942e+00,-2.39294e+00,0.00000e+00,0.00000e+00,0.00000e+00
1.71930e+03,2.94249e+01,0.00000e+00,0.00000e+00,0.00000e+00,0.00000e+00
1.71930e+03,2.92767e+01,-2.23598e+00,0.00000e+00,0.00000e+00,0.00000e+00
1.71930e+03,2.90795e+01,-4.47196e+00,0.00000e+00,0.00000e+00,0.00000e+00
1.71930e+03,2.88804e+01,-6.70794e+00,0.00000e+00,0.00000e+00,0.00000e+00
1.71930e+03,2.86381e+01,-8.94392e+00,0.00000e+00,0.00000e+00,0.00000e+00
1.71930e+03,2.83857e+01,-1.11799e+01,0.00000e+00,0.00000e+00,0.00000e+00
1.71930e+03,2.81002e+01,-1.34159e+01,0.00000e+00,0.00000e+00,0.00000e+00
1.71930e+03,2.77986e+01,-1.56519e+01,0.00000e+00,0.00000e+00,0.00000e+00
1.71930e+03,2.74703e+01,-1.78878e+01,0.00000e+00,0.00000e+00,0.00000e+00
1.71930e+03,2.71201e+01,-2.01238e+01,0.00000e+00,0.00000e+00,0.00000e+00
1.71930e+03,2.67458e+01,-2.23598e+01,0.00000e+00,0.00000e+00,0.00000e+00
1.71930e+03,2.63424e+01,-2.45958e+01,0.00000e+00,0.00000e+00,0.00000e+00
1.71930e+03,2.59091e+01,-2.68317e+01,0.00000e+00,0.00000e+00,0.00000e+00
1.71930e+03,2.54336e+01,-2.90677e+01,0.00000e+00,0.00000e+00,0.00000e+00
1.71930e+03,2.49169e+01,-3.13037e+01,0.00000e+00,0.00000e+00,0.00000e+00
1.71930e+03,2.43509e+01,-3.35397e+01,0.00000e+00,0.00000e+00,0.00000e+00
1.71930e+03,2.37183e+01,-3.57757e+01,0.00000e+00,0.00000e+00,0.00000e+00
1.71930e+03,2.30393e+01,-3.80116e+01,0.00000e+00,0.00000e+00,0.00000e+00
1.71930e+03,2.22560e+01,-4.02476e+01,0.00000e+00,0.00000e+00,0.00000e+00
1.71930e+03,2.14293e+01,-4.24836e+01,0.00000e+00,0.00000e+00,0.00000e+00
1.71930e+03,2.04822e+01,-4.47196e+01,0.00000e+00,0.00000e+00,0.00000e+00
1.71930e+03,1.94385e+01,-4.69556e+01,0.00000e+00,0.00000e+00,0.00000e+00
1.71930e+03,1.82964e+01,-4.91915e+01,0.00000e+00,0.00000e+00,0.00000e+00
1.71930e+03,1.69894e+01,-5.14275e+01,0.00000e+00,0.00000e+00,0.00000e+00
1.71930e+03,1.54913e+01,-5.36635e+01,0.00000e+00,0.00000e+00,0.00000e+00
1.71930e+03,1.37772e+01,-5.58995e+01,0.00000e+00,0.00000e+00,0.00000e+00
1.71930e+03,1.17498e+01,-5.81355e+01,0.00000e+00,0.00000e+00,0.00000e+00
1.71930e+03,9.14742e+00,-6.03714e+01,0.00000e+00,0.00000e+00,0.00000e+00
1.71930e+03,5.62782e+00,-6.26074e+01,0.00000e+00,0.00000e+00,0.00000e+00
1.71930e+03,-2.28035e+00,-6.48434e+01,0.00000e+00,0.00000e+00,0.00000e+00
1.71930e+03,-2.85109e+00,-6.48486e+01,0.00000e+00,0.00000e+00,0.00000e+00
1.71930e+03,-8.05090e+00,-6.25326e+01,0.00000e+00,0.00000e+00,0.00000e+00
1.71930e+03,-8.68047e+00,-6.02165e+01,0.00000e+00,0.00000e+00,0.00000e+00
1.71930e+03,-8.89772e+00,-5.79005e+01,0.00000e+00,0.00000e+00,0.00000e+00
1.71930e+03,-8.93068e+00,-5.55845e+01,0.00000e+00,0.00000e+00,0.00000e+00
1.71930e+03,-8.82481e+00,-5.32685e+01,0.00000e+00,0.00000e+00,0.00000e+00
1.71930e+03,-8.63181e+00,-5.09525e+01,0.00000e+00,0.00000e+00,0.00000e+00
1.71930e+03,-8.35132e+00,-4.86364e+01,0.00000e+00,0.00000e+00,0.00000e+00
1.71930e+03,-8.01747e+00,-4.63204e+01,0.00000e+00,0.00000e+00,0.00000e+00
1.71930e+03,-7.65266e+00,-4.40044e+01,0.00000e+00,0.00000e+00,0.00000e+00
1.71930e+03,-7.24122e+00,-4.16884e+01,0.00000e+00,0.00000e+00,0.00000e+00
1.71930e+03,-6.80064e+00,-3.93724e+01,0.00000e+00,0.00000e+00,0.00000e+00
1.71930e+03,-6.33168e+00,-3.70563e+01,0.00000e+00,0.00000e+00,0.00000e+00
1.71930e+03,-5.83445e+00,-3.47403e+01,0.00000e+00,0.00000e+00,0.00000e+00
1.71930e+03,-5.31949e+00,-3.24243e+01,0.00000e+00,0.00000e+00,0.00000e+00
1.71930e+03,-4.78182e+00,-3.01083e+01,0.00000e+00,0.00000e+00,0.00000e+00
1.71930e+03,-4.22962e+00,-2.77922e+01,0.00000e+00,0.00000e+00,0.00000e+00
1.71930e+03,-3.66437e+00,-2.54762e+01,0.00000e+00,0.00000e+00,0.00000e+00
1.71930e+03,-3.08749e+00,-2.31602e+01,0.00000e+00,0.00000e+00,0.00000e+00
1.71930e+03,-2.50568e+00,-2.08442e+01,0.00000e+00,0.00000e+00,0.00000e+00
1.71930e+03,-1.91624e+00,-1.85282e+01,0.00000e+00,0.00000e+00,0.00000e+00
1.71930e+03,-1.32552e+00,-1.62121e+01,0.00000e+00,0.00000e+00,0.00000e+00
1.71930e+03,-7.30242e-01,-1.38961e+01,0.00000e+00,0.00000e+00,0.00000e+00
1.71930e+03,-1.35024e-01,-1.15801e+01,0.00000e+00,0.00000e+00,0.00000e+00
1.71930e+03,4.57944e-01,-9.26408e+00,0.00000e+00,0.00000e+00,0.00000e+00
1.71930e+03,1.05091e+00,-6.94806e+00,0.00000e+00,0.00000e+00,0.00000e+00
1.71930e+03,1.62984e+00,-4.63204e+00,0.00000e+00,0.00000e+00,0.00000e+00
1.71930e+03,2.20615e+00,-2.31602e+00,0.00000e+00,0.00000e+00,0.00000e+00
1.77540e+03,2.77303e+01,0.00000e+00,0.00000e+00,0.00000e+00,0.00000e+00
1.77540e+03,2.75906e+01,-2.10721e+00,0.00000e+00,0.00000e+00,0.00000e+00
1.77540e+03,2.74048e+01,-4.21442e+00,0.00000e+00,0.00000e+00,0.00000e+00
1.77540e+03,2.72172e+01,-6.32163e+00,0.00000e+00,0.00000e+00,0.00000e+00
1.77540e+03,2.69888e+01,-8.42884e+00,0.00000e+00,0.00000e+00,0.00000e+00
1.77540e+03,2.67510e+01,-1.05361e+01,0.00000e+00,0.00000e+00,0.00000e+00
1.77540e+03,2.64819e+01,-1.26433e+01,0.00000e+00,0.00000e+00,0.00000e+00
1.77540e+03,2.61977e+01,-1.47505e+01,0.00000e+00,0.00000e+00,0.00000e+00
1.77540e+03,2.58883e+01,-1.68577e+01,0.00000e+00,0.00000e+00,0.00000e+00
1.77540e+03,2.55583e+01,-1.89649e+01,0.00000e+00,0.00000e+00,0.00000e+00
1.77540e+03,2.52056e+01,-2.10721e+01,0.00000e+00,0.00000e+00,0.00000e+00
1.77540e+03,2.48254e+01,-2.31793e+01,0.00000e+00,0.00000e+00,0.00000e+00
1.77540e+03,2.44171e+01,-2.52865e+01,0.00000e+00,0.00000e+00,0.00000e+00
1.77540e+03,2.39689e+01,-2.73937e+01,0.00000e+00,0.00000e+00,0.00000e+00
1.77540e+03,2.34819e+01,-2.95009e+01,0.00000e+00,0.00000e+00,0.00000e+00
1.77540e+03,2.29486e+01,-3.16082e+01,0.00000e+00,0.00000e+00,0.00000e+00
1.77540e+03,2.23524e+01,-3.37154e+01,0.00000e+00,0.00000e+00,0.00000e+00
1.77540e+03,2.17125e+01,-3.58226e+01,0.00000e+00,0.00000e+00,0.00000e+00
1.77540e+03,2.09743e+01,-3.79298e+01,0.00000e+00,0.00000e+00,0.00000e+00
1.77540e+03,2.01952e+01,-4.00370e+01,0.00000e+00,0.00000e+00,0.00000e+00
1.77540e+03,1.93026e+01,-4.21442e+01,0.00000e+00,0.00000e+00,0.00000e+00
1.77540e+03,1.83190e+01,-4.42514e+01,0.00000e+00,0.00000e+00,0.00000e+00
1.77540e+03,1.72428e+01,-4.63586e+01,0.00000e+00,0.00000e+00,0.00000e+00
1.77540e+03,1.60110e+01,-4.84658e+01,0.00000e+00,0.00000e+00,0.00000e+00
1.77540e+03,1.45992e+01,-5.05731e+01,0.00000e+00,0.00000e+00,0.00000e+00
1.77540e+03,1.29838e+01,-5.26803e+01,0.00000e+00,0.00000e+00,0.00000e+00
1.77540e+03,1.10731e+01,-5.47875e+01,0.00000e+00,0.00000e+00,0.00000e+00
1.77540e+03,8.62063e+00,-5.68947e+01,0.00000e+00,0.00000e+00,0.00000e+00
1.77540e+03,5.30372e+00,-5.90019e+01,0.00000e+00,0.00000e+00,0.00000e+00
1.77540e+03,-2.14903e+00,-6.11091e+01,0.00000e+00,0.00000e+00,0.00000e+00
1.77540e+03,-2.68689e+00,-6.11140e+01,0.00000e+00,0.00000e+00,0.00000e+00
1.77540e+03,-7.58725e+00,-5.89314e+01,0.00000e+00,0.00000e+00,0.00000e+00
1.77540e+03,-8.18057e+00,-5.67487e+01,0.00000e+00,0.00000e+00,0.00000e+00
1.77540e+03,-8.38530e+00,-5.45661e+01,0.00000e+00,0.00000e+00,0.00000e+00
1.77540e+03,-8.41637e+00,-5.23834e+01,0.00000e+00,0.00000e+00,0.00000e+00
1.77540e+03,-8.31659e+00,-5.02008e+01,0.00000e+00,0.00000e+00,0.00000e+00
1.77540e+03,-8.13471e+00,-4.80181e+01,0.00000e+00,0.00000e+00,0.00000e+00
1.77540e+03,-7.87037e+00,-4.58355e+01,0.00000e+00,0.00000e+00,0.00000e+00
1.77540e+03,-7.55575e+00,-4.36529e+01,0.00000e+00,0.00000e+00,0.00000e+00
1.77540e+03,-7.21195e+00,-4.14702e+01,0.00000e+00,0.00000e+00,0.00000e+00
1.77540e+03,-6.82421e+00,-3.92876e+01,0.00000e+00,0.00000e+00,0.00000e+00
1.77540e+03,-6.40900e+00,-3.71049e+01,0.00000e+00,0.00000e+00,0.00000e+00
1.77540e+03,-5.96704e+00,-3.49223e+01,0.00000e+00,0.00000e+00,0.00000e+00
1.77540e+03,-5.49844e+00,-3.27396e+01,0.00000e+00,0.00000e+00,0.00000e+00
1.77540e+03,-5.01314e+00,-3.05570e+01,0.00000e+00,0.00000e+00,0.00000e+00
1.77540e+03,-4.50644e+00,-2.83744e+01,0.00000e+00,0.00000e+00,0.00000e+00
1.77540e+03,-3.98604e+00,-2.61917e+01,0.00000e+00,0.00000e+00,0.00000e+00
1.77540e+03,-3.45334e+00,-2.40091e+01,0.00000e+00,0.00000e+00,0.00000e+00
1.77540e+03,-2.90969e+00,-2.18264e+01,0.00000e+00,0.00000e+00,0.00000e+00
1.77540e+03,-2.36138e+00,-1.96438e+01,0.00000e+00,0.00000e+00,0.00000e+00
1.77540e+03,-1.80588e+00,-1.74611e+01,0.00000e+00,0.00000e+00,0.00000e+00
1.77540e+03,-1.24918e+00,-1.52785e+01,0.00000e+00,0.00000e+00,0.00000e+00
1.77540e+03,-6.88187e-01,-1.30959e+01,0.00000e+00,0.00000e+00,0.00000e+00
1.77540e+03,-1.27248e-01,-1.09132e+01,0.00000e+00,0.00000e+00,0.00000e+00
1.77540e+03,4.31571e-01,-8.73057e+00,0.00000e+00,0.00000e+00,0.00000e+00
1.77540e+03,9.90390e-01,-6.54793e+00,0.00000e+00,0.00000e+00,0.00000e+00
1.77540e+03,1.53598e+00,-4.36529e+00,0.00000e+00,0.00000e+00,0.00000e+00
1.77540e+03,2.07910e+00,-2.18264e+00,0.00000e+00,0.00000e+00,0.00000e+00
1.82660e+03,2.53092e+01,0.00000e+00,0.00000e+00,0.00000e+00,0.00000e+00
1.82660e+03,2.51817e+01,-1.92323e+00,0.00000e+00,0.00000e+00,0.00000e+00
1.82660e+03,2.50121e+01,-3.84646e+00,0.00000e+00,0.00000e+00,0.00000e+00
1.82660e+03,2.48409e+01,-5.76969e+00,0.00000e+00,0.00000e+00,0.00000e+00
1.82660e+03,2.46324e+01,-7.69292e+00,0.00000e+00,0.00000e+00,0.00000e+00
1.82660e+03,2.44154e+01,-9.61614e+00,0.00000e+00,0.00000e+00,0.00000e+00
1.82660e+03,2.41698e+01,-1.15394e+01,0.00000e+00,0.00000e+00,0.00000e+00
1.82660e+03,2.39103e+01,-1.34626e+01,0.00000e+00,0.00000e+00,0.00000e+00
1.82660e+03,2.36280e+01,-1.53858e+01,0.00000e+00,0.00000e+00,0.00000e+00
1.82660e+03,2.33268e+01,-1.73091e+01,0.00000e+00,0.00000e+00,0.00000e+00
1.82660e+03,2.30049e+01,-1.92323e+01,0.00000e+00,0.00000e+00,0.00000e+00
1.82660e+03,2.26579e+01,-2.11555e+01,0.00000e+00,0.00000e+00,0.00000e+00
1.82660e+03,2.22852e+01,-2.30787e+01,0.00000e+00,0.00000e+00,0.00000e+00
1.82660e+03,2.18762e+01,-2.50020e+01,0.00000e+00,0.00000e+00,0.00000e+00
1.82660e+03,2.14317e+01,-2.69252e+01,0.00000e+00,0.00000e+00,0.00000e+00
1.82660e+03,2.09449e+01,-2.88484e+01,0.00000e+00,0.00000e+00,0.00000e+00
1.82660e+03,2.04008e+01,-3.07717e+01,0.00000e+00,0.00000e+00,0.00000e+00
1.82660e+03,1.98168e+01,-3.26949e+01,0.00000e+00,0.00000e+00,0.00000e+00
1.82660e+03,1.91430e+01,-3.46181e+01,0.00000e+00,0.00000e+00,0.00000e+00
1.82660e+03,1.84320e+01,-3.65413e+01,0.00000e+00,0.00000e+00,0.00000e+00
1.82660e+03,1.76173e+01,-3.84646e+01,0.00000e+00,0.00000e+00,0.00000e+00
1.82660e+03,1.67196e+01,-4.03878e+01,0.00000e+00,0.00000e+00,0.00000e+00
1.82660e+03,1.57373e+01,-4.23110e+01,0.00000e+00,0.00000e+00,0.00000e+00
1.82660e+03,1.46131e+01,-4.42343e+01,0.00000e+00,0.00000e+00,0.00000e+00
1.82660e+03,1.33245e+01,-4.61575e+01,0.00000e+00,0.00000e+00,0.00000e+00
1.82660e+03,1.18502e+01,-4.80807e+01,0.00000e+00,0.00000e+00,0.00000e+00
1.82660e+03,1.01063e+01,-5.00040e+01,0.00000e+00,0.00000e+00,0.00000e+00
1.82660e+03,7.86795e+00,-5.19272e+01,0.00000e+00,0.00000e+00,0.00000e+00
1.82660e+03,4.84065e+00,-5.38504e+01,0.00000e+00,0.00000e+00,0.00000e+00
1.82660e+03,-1.96139e+00,-5.57736e+01,0.00000e+00,0.00000e+00,0.00000e+00
1.82660e+03,-2.45230e+00,-5.57781e+01,0.00000e+00,0.00000e+00,0.00000e+00
1.82660e+03,-6.92480e+00,-5.37860e+01,0.00000e+00,0.00000e+00,0.00000e+00
1.82660e+03,-7.46632e+00,-5.17940e+01,0.00000e+00,0.00000e+00,0.00000e+00
1.82660e+03,-7.65318e+00,-4.98019e+01,0.00000e+00,0.00000e+00,0.00000e+00
1.82660e+03,-7.68153e+00,-4.78098e+01,0.00000e+00,0.00000e+00,0.00000e+00
1.82660e+03,-7.59047e+00,-4.58177e+01,0.00000e+00,0.00000e+00,0.00000e+00
1.82660e+03,-7.42446e+00,-4.38257e+01,0.00000e+00,0.00000e+00,0.00000e+00
1.82660e+03,-7.18321e+00,-4.18336e+01,0.00000e+00,0.00000e+00,0.00000e+00
1.82660e+03,-6.89605e+00,-3.98415e+01,0.00000e+00,0.00000e+00,0.00000e+00
1.82660e+03,-6.58227e+00,-3.78494e+01,0.00000e+00,0.00000e+00,0.00000e+00
1.82660e+03,-6.22838e+00,-3.58574e+01,0.00000e+00,0.00000e+00,0.00000e+00
1.82660e+03,-5.84943e+00,-3.38653e+01,0.00000e+00,0.00000e+00,0.00000e+00
1.82660e+03,-5.44606e+00,-3.18732e+01,0.00000e+00,0.00000e+00,0.00000e+00
1.82660e+03,-5.01837e+00,-2.98811e+01,0.00000e+00,0.00000e+00,0.00000e+00
1.82660e+03,-4.57544e+00,-2.78891e+01,0.00000e+00,0.00000e+00,0.00000e+00
1.82660e+03,-4.11298e+00,-2.58970e+01,0.00000e+00,0.00000e+00,0.00000e+00
1.82660e+03,-3.63801e+00,-2.39049e+01,0.00000e+00,0.00000e+00,0.00000e+00
1.82660e+03,-3.15183e+00,-2.19128e+01,0.00000e+00,0.00000e+00,0.00000e+00
1.82660e+03,-2.65564e+00,-1.99208e+01,0.00000e+00,0.00000e+00,0.00000e+00
1.82660e+03,-2.15521e+00,-1.79287e+01,0.00000e+00,0.00000e+00,0.00000e+00
1.82660e+03,-1.64821e+00,-1.59366e+01,0.00000e+00,0.00000e+00,0.00000e+00
1.82660e+03,-1.14012e+00,-1.39445e+01,0.00000e+00,0.00000e+00,0.00000e+00
1.82660e+03,-6.28101e-01,-1.19525e+01,0.00000e+00,0.00000e+00,0.00000e+00
1.82660e+03,-1.16138e-01,-9.96038e+00,0.00000e+00,0.00000e+00,0.00000e+00
1.82660e+03,3.93890e-01,-7.96830e+00,0.00000e+00,0.00000e+00,0.00000e+00
1.82660e+03,9.03919e-01,-5.97623e+00,0.00000e+00,0.00000e+00,0.00000e+00
1.82660e+03,1.40187e+00,-3.98415e+00,0.00000e+00,0.00000e+00,0.00000e+00
1.82660e+03,1.89757e+00,-1.99208e+00,0.00000e+00,0.00000e+00,0.00000e+00
1.87280e+03,2.31244e+01,0.00000e+00,0.00000e+00,0.00000e+00,0.00000e+00
1.87280e+03,2.30080e+01,-1.75721e+00,0.00000e+00,0.00000e+00,0.00000e+00
1.87280e+03,2.28531e+01,-3.51443e+00,0.00000e+00,0.00000e+00,0.00000e+00
1.87280e+03,2.26966e+01,-5.27164e+00,0.00000e+00,0.00000e+00,0.00000e+00
1.87280e+03,2.25061e+01,-7.02886e+00,0.00000e+00,0.00000e+00,0.00000e+00
1.87280e+03,2.23078e+01,-8.78607e+00,0.00000e+00,0.00000e+00,0.00000e+00
1.87280e+03,2.20834e+01,-1.05433e+01,0.00000e+00,0.00000e+00,0.00000e+00
1.87280e+03,2.18464e+01,-1.23005e+01,0.00000e+00,0.00000e+00,0.00000e+00
1.87280e+03,2.15884e+01,-1.40577e+01,0.00000e+00,0.00000e+00,0.00000e+00
1.87280e+03,2.13132e+01,-1.58149e+01,0.00000e+00,0.00000e+00,0.00000e+00
1.87280e+03,2.10191e+01,-1.75721e+01,0.00000e+00,0.00000e+00,0.00000e+00
1.87280e+03,2.07020e+01,-1.93294e+01,0.00000e+00,0.00000e+00,0.00000e+00
1.87280e+03,2.03615e+01,-2.10866e+01,0.00000e+00,0.00000e+00,0.00000e+00
1.87280e+03,1.99878e+01,-2.28438e+01,0.00000e+00,0.00000e+00,0.00000e+00
1.87280e+03,1.95817e+01,-2.46010e+01,0.00000e+00,0.00000e+00,0.00000e+00
1.87280e+03,1.91369e+01,-2.63582e+01,0.00000e+00,0.00000e+00,0.00000e+00
1.87280e+03,1.86398e+01,-2.81154e+01,0.00000e+00,0.00000e+00,0.00000e+00
1.87280e+03,1.81062e+01,-2.98726e+01,0.00000e+00,0.00000e+00,0.00000e+00
1.87280e+03,1.74905e+01,-3.16299e+01,0.00000e+00,0.00000e+00,0.00000e+00
1.87280e+03,1.68409e+01,-3.33871e+01,0.00000e+00,0.00000e+00,0.00000e+00
1.87280e+03,1.60966e+01,-3.51443e+01,0.00000e+00,0.00000e+00,0.00000e+00
1.87280e+03,1.52763e+01,-3.69015e+01,0.00000e+00,0.00000e+00,0.00000e+00
1.87280e+03,1.43788e+01,-3.86587e+01,0.00000e+00,0.00000e+00,0.00000e+00
1.87280e+03,1.33517e+01,-4.04159e+01,0.00000e+00,0.00000e+00,0.00000e+00
1.87280e+03,1.21743e+01,-4.21731e+01,0.00000e+00,0.00000e+00,0.00000e+00
1.87280e+03,1.08272e+01,-4.39304e+01,0.00000e+00,0.00000e+00,0.00000e+00
1.87280e+03,9.23393e+00,-4.56876e+01,0.00000e+00,0.00000e+00,0.00000e+00
1.87280e+03,7.18879e+00,-4.74448e+01,0.00000e+00,0.00000e+00,0.00000e+00
1.87280e+03,4.42280e+00,-4.92020e+01,0.00000e+00,0.00000e+00,0.00000e+00
1.87280e+03,-1.79208e+00,-5.09592e+01,0.00000e+00,0.00000e+00,0.00000e+00
1.87280e+03,-2.24062e+00,-5.09633e+01,0.00000e+00,0.00000e+00,0.00000e+00
1.87280e+03,-6.32705e+00,-4.91432e+01,0.00000e+00,0.00000e+00,0.00000e+00
1.87280e+03,-6.82182e+00,-4.73231e+01,0.00000e+00,0.00000e+00,0.00000e+00
1.87280e+03,-6.99255e+00,-4.55029e+01,0.00000e+00,0.00000e+00,0.00000e+00
1.87280e+03,-7.01846e+00,-4.36828e+01,0.00000e+00,0.00000e+00,0.00000e+00
1.87280e+03,-6.93525e+00,-4.18627e+01,0.00000e+00,0.00000e+00,0.00000e+00
1.87280e+03,-6.78358e+00,-4.00426e+01,0.00000e+00,0.00000e+00,0.00000e+00
1.87280e+03,-6.56315e+00,-3.82225e+01,0.00000e+00,0.00000e+00,0.00000e+00
1.87280e+03,-6.30078e+00,-3.64024e+01,0.00000e+00,0.00000e+00,0.00000e+00
1.87280e+03,-6.01408e+00,-3.45822e+01,0.00000e+00,0.00000e+00,0.00000e+00
1.87280e+03,-5.69074e+00,-3.27621e+01,0.00000e+00,0.00000e+00,0.00000e+00
1.87280e+03,-5.34450e+00,-3.09420e+01,0.00000e+00,0.00000e+00,0.00000e+00
1.87280e+03,-4.97595e+00,-2.91219e+01,0.00000e+00,0.00000e+00,0.00000e+00
1.87280e+03,-4.58518e+00,-2.73018e+01,0.00000e+00,0.00000e+00,0.00000e+00
1.87280e+03,-4.18049e+00,-2.54816e+01,0.00000e+00,0.00000e+00,0.00000e+00
1.87280e+03,-3.75794e+00,-2.36615e+01,0.00000e+00,0.00000e+00,0.00000e+00
1.87280e+03,-3.32398e+00,-2.18414e+01,0.00000e+00,0.00000e+00,0.00000e+00
1.87280e+03,-2.87976e+00,-2.00213e+01,0.00000e+00,0.00000e+00,0.00000e+00
1.87280e+03,-2.42640e+00,-1.82012e+01,0.00000e+00,0.00000e+00,0.00000e+00
1.87280e+03,-1.96917e+00,-1.63811e+01,0.00000e+00,0.00000e+00,0.00000e+00
1.87280e+03,-1.50594e+00,-1.45609e+01,0.00000e+00,0.00000e+00,0.00000e+00
1.87280e+03,-1.04170e+00,-1.27408e+01,0.00000e+00,0.00000e+00,0.00000e+00
1.87280e+03,-5.73883e-01,-1.09207e+01,0.00000e+00,0.00000e+00,0.00000e+00
1.87280e+03,-1.06113e-01,-9.10059e+00,0.00000e+00,0.00000e+00,0.00000e+00
1.87280e+03,3.59890e-01,-7.28047e+00,0.00000e+00,0.00000e+00,0.00000e+00
1.87280e+03,8.25892e-01,-5.46035e+00,0.00000e+00,0.00000e+00,0.00000e+00
1.87280e+03,1.28086e+00,-3.64024e+00,0.00000e+00,0.00000e+00,0.00000e+00
1.87280e+03,1.73377e+00,-1.82012e+00,0.00000e+00,0.00000e+00,0.00000e+00
1.91380e+03,2.11856e+01,0.00000e+00,0.00000e+00,0.00000e+00,0.00000e+00
1.91380e+03,2.10789e+01,-1.60989e+00,0.00000e+00,0.00000e+00,0.00000e+00
1.91380e+03,2.09370e+01,-3.21977e+00,0.00000e+00,0.00000e+00,0.00000e+00
1.91380e+03,2.07936e+01,-4.82966e+00,0.00000e+00,0.00000e+00,0.00000e+00
1.91380e+03,2.06192e+01,-6.43954e+00,0.00000e+00,0.00000e+00,0.00000e+00
1.91380e+03,2.04375e+01,-8.04943e+00,0.00000e+00,0.00000e+00,0.00000e+00
1.91380e+03,2.02319e+01,-9.65931e+00,0.00000e+00,0.00000e+00,0.00000e+00
1.91380e+03,2.00147e+01,-1.12692e+01,0.00000e+00,0.00000e+00,0.00000e+00
1.91380e+03,1.97784e+01,-1.28791e+01,0.00000e+00,0.00000e+00,0.00000e+00
1.91380e+03,1.95262e+01,-1.44890e+01,0.00000e+00,0.00000e+00,0.00000e+00
1.91380e+03,1.92568e+01,-1.60989e+01,0.00000e+00,0.00000e+00,0.00000e+00
1.91380e+03,1.89663e+01,-1.77087e+01,0.00000e+00,0.00000e+00,0.00000e+00
1.91380e+03,1.86544e+01,-1.93186e+01,0.00000e+00,0.00000e+00,0.00000e+00
1.91380e+03,1.83120e+01,-2.09285e+01,0.00000e+00,0.00000e+00,0.00000e+00
1.91380e+03,1.79399e+01,-2.25384e+01,0.00000e+00,0.00000e+00,0.00000e+00
1.91380e+03,1.75325e+01,-2.41483e+01,0.00000e+00,0.00000e+00,0.00000e+00
1.91380e+03,1.70770e+01,-2.57582e+01,0.00000e+00,0.00000e+00,0.00000e+00
1.91380e+03,1.65881e+01,-2.73680e+01,0.00000e+00,0.00000e+00,0.00000e+00
1.91380e+03,1.60241e+01,-2.89779e+01,0.00000e+00,0.00000e+00,0.00000e+00
1.91380e+03,1.54289e+01,-3.05878e+01,0.00000e+00,0.00000e+00,0.00000e+00
1.91380e+03,1.47470e+01,-3.21977e+01,0.00000e+00,0.00000e+00,0.00000e+00
1.91380e+03,1.39955e+01,-3.38076e+01,0.00000e+00,0.00000e+00,0.00000e+00
1.91380e+03,1.31733e+01,-3.54175e+01,0.00000e+00,0.00000e+00,0.00000e+00
1.91380e+03,1.22322e+01,-3.70274e+01,0.00000e+00,0.00000e+00,0.00000e+00
1.91380e+03,1.11536e+01,-3.86372e+01,0.00000e+00,0.00000e+00,0.00000e+00
1.91380e+03,9.91946e+00,-4.02471e+01,0.00000e+00,0.00000e+00,0.00000e+00
1.91380e+03,8.45973e+00,-4.18570e+01,0.00000e+00,0.00000e+00,0.00000e+00
1.91380e+03,6.58606e+00,-4.34669e+01,0.00000e+00,0.00000e+00,0.00000e+00
1.91380e+03,4.05198e+00,-4.50768e+01,0.00000e+00,0.00000e+00,0.00000e+00
1.91380e+03,-1.64183e+00,-4.66867e+01,0.00000e+00,0.00000e+00,0.00000e+00
1.91380e+03,-2.05276e+00,-4.66904e+01,0.00000e+00,0.00000e+00,0.00000e+00
1.91380e+03,-5.79657e+00,-4.50229e+01,0.00000e+00,0.00000e+00,0.00000e+00
1.91380e+03,-6.24986e+00,-4.33554e+01,0.00000e+00,0.00000e+00,0.00000e+00
1.91380e+03,-6.40628e+00,-4.16879e+01,0.00000e+00,0.00000e+00,0.00000e+00
1.91380e+03,-6.43001e+00,-4.00204e+01,0.00000e+00,0.00000e+00,0.00000e+00
1.91380e+03,-6.35378e+00,-3.83528e+01,0.00000e+00,0.00000e+00,0.00000e+00
1.91380e+03,-6.21483e+00,-3.66853e+01,0.00000e+00,0.00000e+00,0.00000e+00
1.91380e+03,-6.01288e+00,-3.50178e+01,0.00000e+00,0.00000e+00,0.00000e+00
1.91380e+03,-5.77251e+00,-3.33503e+01,0.00000e+00,0.00000e+00,0.00000e+00
1.91380e+03,-5.50985e+00,-3.16828e+01,0.00000e+00,0.00000e+00,0.00000e+00
1.91380e+03,-5.21362e+00,-3.00153e+01,0.00000e+00,0.00000e+00,0.00000e+00
1.91380e+03,-4.89640e+00,-2.83477e+01,0.00000e+00,0.00000e+00,0.00000e+00
1.91380e+03,-4.55876e+00,-2.66802e+01,0.00000e+00,0.00000e+00,0.00000e+00
1.91380e+03,-4.20075e+00,-2.50127e+01,0.00000e+00,0.00000e+00,0.00000e+00
1.91380e+03,-3.82998e+00,-2.33452e+01,0.00000e+00,0.00000e+00,0.00000e+00
1.91380e+03,-3.44287e+00,-2.16777e+01,0.00000e+00,0.00000e+00,0.00000e+00
1.91380e+03,-3.04529e+00,-2.00102e+01,0.00000e+00,0.00000e+00,0.00000e+00
1.91380e+03,-2.63832e+00,-1.83427e+01,0.00000e+00,0.00000e+00,0.00000e+00
1.91380e+03,-2.22297e+00,-1.66751e+01,0.00000e+00,0.00000e+00,0.00000e+00
1.91380e+03,-1.80407e+00,-1.50076e+01,0.00000e+00,0.00000e+00,0.00000e+00
1.91380e+03,-1.37967e+00,-1.33401e+01,0.00000e+00,0.00000e+00,0.00000e+00
1.91380e+03,-9.54362e-01,-1.16726e+01,0.00000e+00,0.00000e+00,0.00000e+00
1.91380e+03,-5.25768e-01,-1.00051e+01,0.00000e+00,0.00000e+00,0.00000e+00
1.91380e+03,-9.72161e-02,-8.33757e+00,0.00000e+00,0.00000e+00,0.00000e+00
1.91380e+03,3.29716e-01,-6.67006e+00,0.00000e+00,0.00000e+00,0.00000e+00
1.91380e+03,7.56647e-01,-5.00254e+00,0.00000e+00,0.00000e+00,0.00000e+00
1.91380e+03,1.17347e+00,-3.33503e+00,0.00000e+00,0.00000e+00,0.00000e+00
1.91380e+03,1.58841e+00,-1.66751e+00,0.00000e+00,0.00000e+00,0.00000e+00
1.94970e+03,1.94880e+01,0.00000e+00,0.00000e+00,0.00000e+00,0.00000e+00
1.94970e+03,1.93899e+01,-1.48088e+00,0.00000e+00,0.00000e+00,0.00000e+00
1.94970e+03,1.92593e+01,-2.96177e+00,0.00000e+00,0.00000e+00,0.00000e+00
1.94970e+03,1.91274e+01,-4.44265e+00,0.00000e+00,0.00000e+00,0.00000e+00
1.94970e+03,1.89669e+01,-5.92353e+00,0.00000e+00,0.00000e+00,0.00000e+00
1.94970e+03,1.87998e+01,-7.40441e+00,0.00000e+00,0.00000e+00,0.00000e+00
1.94970e+03,1.86107e+01,-8.88530e+00,0.00000e+00,0.00000e+00,0.00000e+00
1.94970e+03,1.84109e+01,-1.03662e+01,0.00000e+00,0.00000e+00,0.00000e+00
1.94970e+03,1.81935e+01,-1.18471e+01,0.00000e+00,0.00000e+00,0.00000e+00
1.94970e+03,1.79616e+01,-1.33279e+01,0.00000e+00,0.00000e+00,0.00000e+00
1.94970e+03,1.77137e+01,-1.48088e+01,0.00000e+00,0.00000e+00,0.00000e+00
1.94970e+03,1.74465e+01,-1.62897e+01,0.00000e+00,0.00000e+00,0.00000e+00
1.94970e+03,1.71596e+01,-1.77706e+01,0.00000e+00,0.00000e+00,0.00000e+00
1.94970e+03,1.68446e+01,-1.92515e+01,0.00000e+00,0.00000e+00,0.00000e+00
1.94970e+03,1.65024e+01,-2.07324e+01,0.00000e+00,0.00000e+00,0.00000e+00
1.94970e+03,1.61276e+01,-2.22132e+01,0.00000e+00,0.00000e+00,0.00000e+00
1.94970e+03,1.57086e+01,-2.36941e+01,0.00000e+00,0.00000e+00,0.00000e+00
1.94970e+03,1.52589e+01,-2.51750e+01,0.00000e+00,0.00000e+00,0.00000e+00
1.94970e+03,1.47401e+01,-2.66559e+01,0.00000e+00,0.00000e+00,0.00000e+00
1.94970e+03,1.41926e+01,-2.81368e+01,0.00000e+00,0.00000e+00,0.00000e+00
1.94970e+03,1.35653e+01,-2.96177e+01,0.00000e+00,0.00000e+00,0.00000e+00
1.94970e+03,1.28740e+01,-3.10985e+01,0.00000e+00,0.00000e+00,0.00000e+00
1.94970e+03,1.21177e+01,-3.25794e+01,0.00000e+00,0.00000e+00,0.00000e+00
1.94970e+03,1.12521e+01,-3.40603e+01,0.00000e+00,0.00000e+00,0.00000e+00
1.94970e+03,1.02599e+01,-3.55412e+01,0.00000e+00,0.00000e+00,0.00000e+00
1.94970e+03,9.12460e+00,-3.70221e+01,0.00000e+00,0.00000e+00,0.00000e+00
1.94970e+03,7.78184e+00,-3.85029e+01,0.00000e+00,0.00000e+00,0.00000e+00
1.94970e+03,6.05831e+00,-3.99838e+01,0.00000e+00,0.00000e+00,0.00000e+00
1.94970e+03,3.72729e+00,-4.14647e+01,0.00000e+00,0.00000e+00,0.00000e+00
1.94970e+03,-1.51027e+00,-4.29456e+01,0.00000e+00,0.00000e+00,0.00000e+00
1.94970e+03,-1.88827e+00,-4.29490e+01,0.00000e+00,0.00000e+00,0.00000e+00
1.94970e+03,-5.33209e+00,-4.14151e+01,0.00000e+00,0.00000e+00,0.00000e+00
1.94970e+03,-5.74905e+00,-3.98812e+01,0.00000e+00,0.00000e+00,0.00000e+00
1.94970e+03,-5.89293e+00,-3.83473e+01,0.00000e+00,0.00000e+00,0.00000e+00
1.94970e+03,-5.91477e+00,-3.68135e+01,0.00000e+00,0.00000e+00,0.00000e+00
1.94970e+03,-5.84465e+00,-3.52796e+01,0.00000e+00,0.00000e+00,0.00000e+00
1.94970e+03,-5.71682e+00,-3.37457e+01,0.00000e+00,0.00000e+00,0.00000e+00
1.94970e+03,-5.53106e+00,-3.22118e+01,0.00000e+00,0.00000e+00,0.00000e+00
1.94970e+03,-5.30995e+00,-3.06779e+01,0.00000e+00,0.00000e+00,0.00000e+00
1.94970e+03,-5.06834e+00,-2.91440e+01,0.00000e+00,0.00000e+00,0.00000e+00
1.94970e+03,-4.79584e+00,-2.76101e+01,0.00000e+00,0.00000e+00,0.00000e+00
1.94970e+03,-4.50405e+00,-2.60762e+01,0.00000e+00,0.00000e+00,0.00000e+00
1.94970e+03,-4.19345e+00,-2.45423e+01,0.00000e+00,0.00000e+00,0.00000e+00
1.94970e+03,-3.86414e+00,-2.30084e+01,0.00000e+00,0.00000e+00,0.00000e+00
1.94970e+03,-3.52308e+00,-2.14745e+01,0.00000e+00,0.00000e+00,0.00000e+00
1.94970e+03,-3.16699e+00,-1.99406e+01,0.00000e+00,0.00000e+00,0.00000e+00
1.94970e+03,-2.80126e+00,-1.84067e+01,0.00000e+00,0.00000e+00,0.00000e+00
1.94970e+03,-2.42690e+00,-1.68728e+01,0.00000e+00,0.00000e+00,0.00000e+00
1.94970e+03,-2.04484e+00,-1.53389e+01,0.00000e+00,0.00000e+00,0.00000e+00
1.94970e+03,-1.65951e+00,-1.38050e+01,0.00000e+00,0.00000e+00,0.00000e+00
1.94970e+03,-1.26912e+00,-1.22712e+01,0.00000e+00,0.00000e+00,0.00000e+00
1.94970e+03,-8.77888e-01,-1.07373e+01,0.00000e+00,0.00000e+00,0.00000e+00
1.94970e+03,-4.83637e-01,-9.20336e+00,0.00000e+00,0.00000e+00,0.00000e+00
1.94970e+03,-8.94260e-02,-7.66947e+00,0.00000e+00,0.00000e+00,0.00000e+00
1.94970e+03,3.03295e-01,-6.13558e+00,0.00000e+00,0.00000e+00,0.00000e+00
1.94970e+03,6.96016e-01,-4.60168e+00,0.00000e+00,0.00000e+00,0.00000e+00
1.94970e+03,1.07944e+00,-3.06779e+00,0.00000e+00,0.00000e+00,0.00000e+00
1.94970e+03,1.46113e+00,-1.53389e+00,0.00000e+00,0.00000e+00,0.00000e+00
1.98010e+03,1.80504e+01,0.00000e+00,0.00000e+00,0.00000e+00,0.00000e+00
1.98010e+03,1.79595e+01,-1.37164e+00,0.00000e+00,0.00000e+00,0.00000e+00
1.98010e+03,1.78386e+01,-2.74329e+00,0.00000e+00,0.00000e+00,0.00000e+00
1.98010e+03,1.77165e+01,-4.11493e+00,0.00000e+00,0.00000e+00,0.00000e+00
1.98010e+03,1.75678e+01,-5.48657e+00,0.00000e+00,0.00000e+00,0.00000e+00
1.98010e+03,1.74130e+01,-6.85822e+00,0.00000e+00,0.00000e+00,0.00000e+00
1.98010e+03,1.72378e+01,-8.22986e+00,0.00000e+00,0.00000e+00,0.00000e+00
1.98010e+03,1.70528e+01,-9.60150e+00,0.00000e+00,0.00000e+00,0.00000e+00
1.98010e+03,1.68514e+01,-1.09731e+01,0.00000e+00,0.00000e+00,0.00000e+00
1.98010e+03,1.66366e+01,-1.23448e+01,0.00000e+00,0.00000e+00,0.00000e+00
1.98010e+03,1.64070e+01,-1.37164e+01,0.00000e+00,0.00000e+00,0.00000e+00
1.98010e+03,1.61595e+01,-1.50881e+01,0.00000e+00,0.00000e+00,0.00000e+00
1.98010e+03,1.58938e+01,-1.64597e+01,0.00000e+00,0.00000e+00,0.00000e+00
1.98010e+03,1.56020e+01,-1.78314e+01,0.00000e+00,0.00000e+00,0.00000e+00
1.98010e+03,1.52851e+01,-1.92030e+01,0.00000e+00,0.00000e+00,0.00000e+00
1.98010e+03,1.49379e+01,-2.05747e+01,0.00000e+00,0.00000e+00,0.00000e+00
1.98010e+03,1.45498e+01,-2.19463e+01,0.00000e+00,0.00000e+00,0.00000e+00
1.98010e+03,1.41333e+01,-2.33179e+01,0.00000e+00,0.00000e+00,0.00000e+00
1.98010e+03,1.36527e+01,-2.46896e+01,0.00000e+00,0.00000e+00,0.00000e+00
1.98010e+03,1.31457e+01,-2.60612e+01,0.00000e+00,0.00000e+00,0.00000e+00
1.98010e+03,1.25646e+01,-2.74329e+01,0.00000e+00,0.00000e+00,0.00000e+00
1.98010e+03,1.19244e+01,-2.88045e+01,0.00000e+00,0.00000e+00,0.00000e+00
1.98010e+03,1.12238e+01,-3.01762e+01,0.00000e+00,0.00000e+00,0.00000e+00
1.98010e+03,1.04220e+01,-3.15478e+01,0.00000e+00,0.00000e+00,0.00000e+00
1.98010e+03,9.50303e+00,-3.29194e+01,0.00000e+00,0.00000e+00,0.00000e+00
1.98010e+03,8.45151e+00,-3.42911e+01,0.00000e+00,0.00000e+00,0.00000e+00
1.98010e+03,7.20780e+00,-3.56627e+01,0.00000e+00,0.00000e+00,0.00000e+00
1.98010e+03,5.61141e+00,-3.70344e+01,0.00000e+00,0.00000e+00,0.00000e+00
1.98010e+03,3.45234e+00,-3.84060e+01,0.00000e+00,0.00000e+00,0.00000e+00
1.98010e+03,-1.39886e+00,-3.97777e+01,0.00000e+00,0.00000e+00,0.00000e+00
1.98010e+03,-1.74898e+00,-3.97808e+01,0.00000e+00,0.00000e+00,0.00000e+00
1.98010e+03,-4.93876e+00,-3.83601e+01,0.00000e+00,0.00000e+00,0.00000e+00
1.98010e+03,-5.32496e+00,-3.69394e+01,0.00000e+00,0.00000e+00,0.00000e+00
1.98010e+03,-5.45823e+00,-3.55186e+01,0.00000e+00,0.00000e+00,0.00000e+00
1.98010e+03,-5.47846e+00,-3.40979e+01,0.00000e+00,0.00000e+00,0.00000e+00
1.98010e+03,-5.41351e+00,-3.26771e+01,0.00000e+00,0.00000e+00,0.00000e+00
1.98010e+03,-5.29511e+00,-3.12564e+01,0.00000e+00,0.00000e+00,0.00000e+00
1.98010e+03,-5.12305e+00,-2.98356e+01,0.00000e+00,0.00000e+00,0.00000e+00
1.98010e+03,-4.91825e+00,-2.84149e+01,0.00000e+00,0.00000e+00,0.00000e+00
1.98010e+03,-4.69446e+00,-2.69941e+01,0.00000e+00,0.00000e+00,0.00000e+00
1.98010e+03,-4.44207e+00,-2.55734e+01,0.00000e+00,0.00000e+00,0.00000e+00
1.98010e+03,-4.17180e+00,-2.41527e+01,0.00000e+00,0.00000e+00,0.00000e+00
1.98010e+03,-3.88412e+00,-2.27319e+01,0.00000e+00,0.00000e+00,0.00000e+00
1.98010e+03,-3.57909e+00,-2.13112e+01,0.00000e+00,0.00000e+00,0.00000e+00
1.98010e+03,-3.26320e+00,-1.98904e+01,0.00000e+00,0.00000e+00,0.00000e+00
1.98010e+03,-2.93337e+00,-1.84697e+01,0.00000e+00,0.00000e+00,0.00000e+00
1.98010e+03,-2.59462e+00,-1.70489e+01,0.00000e+00,0.00000e+00,0.00000e+00
1.98010e+03,-2.24788e+00,-1.56282e+01,0.00000e+00,0.00000e+00,0.00000e+00
1.98010e+03,-1.89400e+00,-1.42074e+01,0.00000e+00,0.00000e+00,0.00000e+00
1.98010e+03,-1.53709e+00,-1.27867e+01,0.00000e+00,0.00000e+00,0.00000e+00
1.98010e+03,-1.17550e+00,-1.13660e+01,0.00000e+00,0.00000e+00,0.00000e+00
1.98010e+03,-8.13129e-01,-9.94521e+00,0.00000e+00,0.00000e+00,0.00000e+00
1.98010e+03,-4.47961e-01,-8.52447e+00,0.00000e+00,0.00000e+00,0.00000e+00
1.98010e+03,-8.28294e-02,-7.10372e+00,0.00000e+00,0.00000e+00,0.00000e+00
1.98010e+03,2.80922e-01,-5.68298e+00,0.00000e+00,0.00000e+00,0.00000e+00
1.98010e+03,6.44673e-01,-4.26223e+00,0.00000e+00,0.00000e+00,0.00000e+00
1.98010e+03,9.99811e-01,-2.84149e+00,0.00000e+00,0.00000e+00,0.00000e+00
1.98010e+03,1.35334e+00,-1.42074e+00,0.00000e+00,0.00000e+00,0.00000e+00
2.00520e+03,1.68635e+01,0.00000e+00,0.00000e+00,0.00000e+00,0.00000e+00
2.00520e+03,1.67786e+01,-1.28145e+00,0.00000e+00,0.00000e+00,0.00000e+00
2.00520e+03,1.66656e+01,-2.56290e+00,0.00000e+00,0.00000e+00,0.00000e+00
2.00520e+03,1.65515e+01,-3.84435e+00,0.00000e+00,0.00000e+00,0.00000e+00
2.00520e+03,1.64126e+01,-5.12580e+00,0.00000e+00,0.00000e+00,0.00000e+00
2.00520e+03,1.62680e+01,-6.40725e+00,0.00000e+00,0.00000e+00,0.00000e+00
2.00520e+03,1.61044e+01,-7.68870e+00,0.00000e+00,0.00000e+00,0.00000e+00
2.00520e+03,1.59315e+01,-8.97015e+00,0.00000e+00,0.00000e+00,0.00000e+00
2.00520e+03,1.57433e+01,-1.02516e+01,0.00000e+00,0.00000e+00,0.00000e+00
2.00520e+03,1.55427e+01,-1.15330e+01,0.00000e+00,0.00000e+00,0.00000e+00
2.00520e+03,1.53282e+01,-1.28145e+01,0.00000e+00,0.00000e+00,0.00000e+00
2.00520e+03,1.50970e+01,-1.40959e+01,0.00000e+00,0.00000e+00,0.00000e+00
2.00520e+03,1.48486e+01,-1.53774e+01,0.00000e+00,0.00000e+00,0.00000e+00
2.00520e+03,1.45761e+01,-1.66588e+01,0.00000e+00,0.00000e+00,0.00000e+00
2.00520e+03,1.42800e+01,-1.79403e+01,0.00000e+00,0.00000e+00,0.00000e+00
2.00520e+03,1.39556e+01,-1.92217e+01,0.00000e+00,0.00000e+00,0.00000e+00
2.00520e+03,1.35931e+01,-2.05032e+01,0.00000e+00,0.00000e+00,0.00000e+00
2.00520e+03,1.32039e+01,-2.17846e+01,0.00000e+00,0.00000e+00,0.00000e+00
2.00520e+03,1.27550e+01,-2.30661e+01,0.00000e+00,0.00000e+00,0.00000e+00
2.00520e+03,1.22812e+01,-2.43475e+01,0.00000e+00,0.00000e+00,0.00000e+00
2.00520e+03,1.17384e+01,-2.56290e+01,0.00000e+00,0.00000e+00,0.00000e+00
2.00520e+03,1.11403e+01,-2.69104e+01,0.00000e+00,0.00000e+00,0.00000e+00
2.00520e+03,1.04858e+01,-2.81919e+01,0.00000e+00,0.00000e+00,0.00000e+00
2.00520e+03,9.73672e+00,-2.94733e+01,0.00000e+00,0.00000e+00,0.00000e+00
2.00520e+03,8.87814e+00,-3.07548e+01,0.00000e+00,0.00000e+00,0.00000e+00
2.00520e+03,7.89577e+00,-3.20362e+01,0.00000e+00,0.00000e+00,0.00000e+00
2.00520e+03,6.73385e+00,-3.33177e+01,0.00000e+00,0.00000e+00,0.00000e+00
2.00520e+03,5.24243e+00,-3.45991e+01,0.00000e+00,0.00000e+00,0.00000e+00
2.00520e+03,3.22533e+00,-3.58806e+01,0.00000e+00,0.00000e+00,0.00000e+00
2.00520e+03,-1.30688e+00,-3.71620e+01,0.00000e+00,0.00000e+00,0.00000e+00
2.00520e+03,-1.63397e+00,-3.71650e+01,0.00000e+00,0.00000e+00,0.00000e+00
2.00520e+03,-4.61400e+00,-3.58377e+01,0.00000e+00,0.00000e+00,0.00000e+00
2.00520e+03,-4.97481e+00,-3.45104e+01,0.00000e+00,0.00000e+00,0.00000e+00
2.00520e+03,-5.09932e+00,-3.31830e+01,0.00000e+00,0.00000e+00,0.00000e+00
2.00520e+03,-5.11821e+00,-3.18557e+01,0.00000e+00,0.00000e+00,0.00000e+00
2.00520e+03,-5.05754e+00,-3.05284e+01,0.00000e+00,0.00000e+00,0.00000e+00
2.00520e+03,-4.94693e+00,-2.92011e+01,0.00000e+00,0.00000e+00,0.00000e+00
2.00520e+03,-4.78618e+00,-2.78738e+01,0.00000e+00,0.00000e+00,0.00000e+00
2.00520e+03,-4.59485e+00,-2.65464e+01,0.00000e+00,0.00000e+00,0.00000e+00
2.00520e+03,-4.38577e+00,-2.52191e+01,0.00000e+00,0.00000e+00,0.00000e+00
2.00520e+03,-4.14998e+00,-2.38918e+01,0.00000e+00,0.00000e+00,0.00000e+00
2.00520e+03,-3.89748e+00,-2.25645e+01,0.00000e+00,0.00000e+00,0.00000e+00
2.00520e+03,-3.62871e+00,-2.12371e+01,0.00000e+00,0.00000e+00,0.00000e+00
2.00520e+03,-3.34375e+00,-1.99098e+01,0.00000e+00,0.00000e+00,0.00000e+00
2.00520e+03,-3.04862e+00,-1.85825e+01,0.00000e+00,0.00000e+00,0.00000e+00
2.00520e+03,-2.74048e+00,-1.72552e+01,0.00000e+00,0.00000e+00,0.00000e+00
2.00520e+03,-2.42401e+00,-1.59279e+01,0.00000e+00,0.00000e+00,0.00000e+00
2.00520e+03,-2.10007e+00,-1.46005e+01,0.00000e+00,0.00000e+00,0.00000e+00
2.00520e+03,-1.76946e+00,-1.32732e+01,0.00000e+00,0.00000e+00,0.00000e+00
2.00520e+03,-1.43602e+00,-1.19459e+01,0.00000e+00,0.00000e+00,0.00000e+00
2.00520e+03,-1.09820e+00,-1.06186e+01,0.00000e+00,0.00000e+00,0.00000e+00
2.00520e+03,-7.59661e-01,-9.29125e+00,0.00000e+00,0.00000e+00,0.00000e+00
2.00520e+03,-4.18505e-01,-7.96393e+00,0.00000e+00,0.00000e+00,0.00000e+00
2.00520e+03,-7.73829e-02,-6.63661e+00,0.00000e+00,0.00000e+00,0.00000e+00
2.00520e+03,2.62450e-01,-5.30929e+00,0.00000e+00,0.00000e+00,0.00000e+00
2.00520e+03,6.02282e-01,-3.98196e+00,0.00000e+00,0.00000e+00,0.00000e+00
2.00520e+03,9.34067e-01,-2.65464e+00,0.00000e+00,0.00000e+00,0.00000e+00
2.00520e+03,1.26435e+00,-1.32732e+00,0.00000e+00,0.00000e+00,0.00000e+00
2.02480e+03,1.59367e+01,0.00000e+00,0.00000e+00,0.00000e+00,0.00000e+00
2.02480e+03,1.58564e+01,-1.21102e+00,0.00000e+00,0.00000e+00,0.00000e+00
2.02480e+03,1.57496e+01,-2.42204e+00,0.00000e+00,0.00000e+00,0.00000e+00
2.02480e+03,1.56418e+01,-3.63306e+00,0.00000e+00,0.00000e+00,0.00000e+00
2.02480e+03,1.55106e+01,-4.84408e+00,0.00000e+00,0.00000e+00,0.00000e+00
2.02480e+03,1.53739e+01,-6.05509e+00,0.00000e+00,0.00000e+00,0.00000e+00
2.02480e+03,1.52192e+01,-7.26611e+00,0.00000e+00,0.00000e+00,0.00000e+00
2.02480e+03,1.50559e+01,-8.47713e+00,0.00000e+00,0.00000e+00,0.00000e+00
2.02480e+03,1.48781e+01,-9.68815e+00,0.00000e+00,0.00000e+00,0.00000e+00
2.02480e+03,1.46884e+01,-1.08992e+01,0.00000e+00,0.00000e+00,0.00000e+00
2.02480e+03,1.44857e+01,-1.21102e+01,0.00000e+00,0.00000e+00,0.00000e+00
2.02480e+03,1.42672e+01,-1.33212e+01,0.00000e+00,0.00000e+00,0.00000e+00
2.02480e+03,1.40325e+01,-1.45322e+01,0.00000e+00,0.00000e+00,0.00000e+00
2.02480e+03,1.37750e+01,-1.57432e+01,0.00000e+00,0.00000e+00,0.00000e+00
2.02480e+03,1.34951e+01,-1.69543e+01,0.00000e+00,0.00000e+00,0.00000e+00
2.02480e+03,1.31886e+01,-1.81653e+01,0.00000e+00,0.00000e+00,0.00000e+00
2.02480e+03,1.28460e+01,-1.93763e+01,0.00000e+00,0.00000e+00,0.00000e+00
2.02480e+03,1.24782e+01,-2.05873e+01,0.00000e+00,0.00000e+00,0.00000e+00
2.02480e+03,1.20540e+01,-2.17983e+01,0.00000e+00,0.00000e+00,0.00000e+00
2.02480e+03,1.16063e+01,-2.30094e+01,0.00000e+00,0.00000e+00,0.00000e+00
2.02480e+03,1.10933e+01,-2.42204e+01,0.00000e+00,0.00000e+00,0.00000e+00
2.02480e+03,1.05280e+01,-2.54314e+01,0.00000e+00,0.00000e+00,0.00000e+00
2.02480e+03,9.90946e+00,-2.66424e+01,0.00000e+00,0.00000e+00,0.00000e+00
2.02480e+03,9.20158e+00,-2.78534e+01,0.00000e+00,0.00000e+00,0.00000e+00
2.02480e+03,8.39019e+00,-2.90645e+01,0.00000e+00,0.00000e+00,0.00000e+00
2.02480e+03,7.46181e+00,-3.02755e+01,0.00000e+00,0.00000e+00,0.00000e+00
2.02480e+03,6.36374e+00,-3.14865e+01,0.00000e+00,0.00000e+00,0.00000e+00
2.02480e+03,4.95429e+00,-3.26975e+01,0.00000e+00,0.00000e+00,0.00000e+00
2.02480e+03,3.04806e+00,-3.39085e+01,0.00000e+00,0.00000e+00,0.00000e+00
2.02480e+03,-1.23505e+00,-3.51195e+01,0.00000e+00,0.00000e+00,0.00000e+00
2.02480e+03,-1.54416e+00,-3.51224e+01,0.00000e+00,0.00000e+00,0.00000e+00
2.02480e+03,-4.36041e+00,-3.38680e+01,0.00000e+00,0.00000e+00,0.00000e+00
2.02480e+03,-4.70139e+00,-3.26136e+01,0.00000e+00,0.00000e+00,0.00000e+00
2.02480e+03,-4.81905e+00,-3.13592e+01,0.00000e+00,0.00000e+00,0.00000e+00
2.02480e+03,-4.83691e+00,-3.01049e+01,0.00000e+00,0.00000e+00,0.00000e+00
2.02480e+03,-4.77957e+00,-2.88505e+01,0.00000e+00,0.00000e+00,0.00000e+00
2.02480e+03,-4.67504e+00,-2.75961e+01,0.00000e+00,0.00000e+00,0.00000e+00
2.02480e+03,-4.52312e+00,-2.63418e+01,0.00000e+00,0.00000e+00,0.00000e+00
2.02480e+03,-4.34231e+00,-2.50874e+01,0.00000e+00,0.00000e+00,0.00000e+00
2.02480e+03,-4.14473e+00,-2.38330e+01,0.00000e+00,0.00000e+00,0.00000e+00
2.02480e+03,-3.92189e+00,-2.25787e+01,0.00000e+00,0.00000e+00,0.00000e+00
2.02480e+03,-3.68327e+00,-2.13243e+01,0.00000e+00,0.00000e+00,0.00000e+00
2.02480e+03,-3.42927e+00,-2.00699e+01,0.00000e+00,0.00000e+00,0.00000e+00
2.02480e+03,-3.15997e+00,-1.88155e+01,0.00000e+00,0.00000e+00,0.00000e+00
2.02480e+03,-2.88106e+00,-1.75612e+01,0.00000e+00,0.00000e+00,0.00000e+00
2.02480e+03,-2.58986e+00,-1.63068e+01,0.00000e+00,0.00000e+00,0.00000e+00
2.02480e+03,-2.29078e+00,-1.50524e+01,0.00000e+00,0.00000e+00,0.00000e+00
2.02480e+03,-1.98465e+00,-1.37981e+01,0.00000e+00,0.00000e+00,0.00000e+00
2.02480e+03,-1.67220e+00,-1.25437e+01,0.00000e+00,0.00000e+00,0.00000e+00
2.02480e+03,-1.35709e+00,-1.12893e+01,0.00000e+00,0.00000e+00,0.00000e+00
2.02480e+03,-1.03784e+00,-1.00350e+01,0.00000e+00,0.00000e+00,0.00000e+00
2.02480e+03,-7.17909e-01,-8.78059e+00,0.00000e+00,0.00000e+00,0.00000e+00
2.02480e+03,-3.95503e-01,-7.52622e+00,0.00000e+00,0.00000e+00,0.00000e+00
2.02480e+03,-7.31298e-02,-6.27185e+00,0.00000e+00,0.00000e+00,0.00000e+00
2.02480e+03,2.48025e-01,-5.01748e+00,0.00000e+00,0.00000e+00,0.00000e+00
2.02480e+03,5.69180e-01,-3.76311e+00,0.00000e+00,0.00000e+00,0.00000e+00
2.02480e+03,8.82730e-01,-2.50874e+00,0.00000e+00,0.00000e+00,0.00000e+00
2.02480e+03,1.19486e+00,-1.25437e+00,0.00000e+00,0.00000e+00,0.00000e+00
2.03880e+03,1.52746e+01,0.00000e+00,0.00000e+00,0.00000e+00,0.00000e+00
2.03880e+03,1.51977e+01,-1.16071e+00,0.00000e+00,0.00000e+00,0.00000e+00
2.03880e+03,1.50954e+01,-2.32142e+00,0.00000e+00,0.00000e+00,0.00000e+00
2.03880e+03,1.49920e+01,-3.48213e+00,0.00000e+00,0.00000e+00,0.00000e+00
2.03880e+03,1.48662e+01,-4.64285e+00,0.00000e+00,0.00000e+00,0.00000e+00
2.03880e+03,1.47352e+01,-5.80356e+00,0.00000e+00,0.00000e+00,0.00000e+00
2.03880e+03,1.45870e+01,-6.96427e+00,0.00000e+00,0.00000e+00,0.00000e+00
2.03880e+03,1.44304e+01,-8.12498e+00,0.00000e+00,0.00000e+00,0.00000e+00
2.03880e+03,1.42600e+01,-9.28569e+00,0.00000e+00,0.00000e+00,0.00000e+00
2.03880e+03,1.40782e+01,-1.04464e+01,0.00000e+00,0.00000e+00,0.00000e+00
2.03880e+03,1.38839e+01,-1.16071e+01,0.00000e+00,0.00000e+00,0.00000e+00
2.03880e+03,1.36745e+01,-1.27678e+01,0.00000e+00,0.00000e+00,0.00000e+00
2.03880e+03,1.34496e+01,-1.39285e+01,0.00000e+00,0.00000e+00,0.00000e+00
2.03880e+03,1.32028e+01,-1.50892e+01,0.00000e+00,0.00000e+00,0.00000e+00
2.03880e+03,1.29345e+01,-1.62500e+01,0.00000e+00,0.00000e+00,0.00000e+00
2.03880e+03,1.26407e+01,-1.74107e+01,0.00000e+00,0.00000e+00,0.00000e+00
2.03880e+03,1.23123e+01,-1.85714e+01,0.00000e+00,0.00000e+00,0.00000e+00
2.03880e+03,1.19599e+01,-1.97321e+01,0.00000e+00,0.00000e+00,0.00000e+00
2.03880e+03,1.15532e+01,-2.08928e+01,0.00000e+00,0.00000e+00,0.00000e+00
2.03880e+03,1.11241e+01,-2.20535e+01,0.00000e+00,0.00000e+00,0.00000e+00
2.03880e+03,1.06324e+01,-2.32142e+01,0.00000e+00,0.00000e+00,0.00000e+00
2.03880e+03,1.00906e+01,-2.43749e+01,0.00000e+00,0.00000e+00,0.00000e+00
2.03880e+03,9.49781e+00,-2.55357e+01,0.00000e+00,0.00000e+00,0.00000e+00
2.03880e+03,8.81933e+00,-2.66964e+01,0.00000e+00,0.00000e+00,0.00000e+00
2.03880e+03,8.04165e+00,-2.78571e+01,0.00000e+00,0.00000e+00,0.00000e+00
2.03880e+03,7.15183e+00,-2.90178e+01,0.00000e+00,0.00000e+00,0.00000e+00
2.03880e+03,6.09938e+00,-3.01785e+01,0.00000e+00,0.00000e+00,0.00000e+00
2.03880e+03,4.74849e+00,-3.13392e+01,0.00000e+00,0.00000e+00,0.00000e+00
2.03880e+03,2.92144e+00,-3.24999e+01,0.00000e+00,0.00000e+00,0.00000e+00
2.03880e+03,-1.18374e+00,-3.36606e+01,0.00000e+00,0.00000e+00,0.00000e+00
2.03880e+03,-1.48002e+00,-3.36633e+01,0.00000e+00,0.00000e+00,0.00000e+00
2.03880e+03,-4.17927e+00,-3.24611e+01,0.00000e+00,0.00000e+00,0.00000e+00
2.03880e+03,-4.50609e+00,-3.12588e+01,0.00000e+00,0.00000e+00,0.00000e+00
2.03880e+03,-4.61886e+00,-3.00565e+01,0.00000e+00,0.00000e+00,0.00000e+00
2.03880e+03,-4.63598e+00,-2.88543e+01,0.00000e+00,0.00000e+00,0.00000e+00
2.03880e+03,-4.58102e+00,-2.76520e+01,0.00000e+00,0.00000e+00,0.00000e+00
2.03880e+03,-4.48083e+00,-2.64498e+01,0.00000e+00,0.00000e+00,0.00000e+00
2.03880e+03,-4.33523e+00,-2.52475e+01,0.00000e+00,0.00000e+00,0.00000e+00
2.03880e+03,-4.16192e+00,-2.40452e+01,0.00000e+00,0.00000e+00,0.00000e+00
2.03880e+03,-3.97255e+00,-2.28430e+01,0.00000e+00,0.00000e+00,0.00000e+00
2.03880e+03,-3.75897e+00,-2.16407e+01,0.00000e+00,0.00000e+00,0.00000e+00
2.03880e+03,-3.53026e+00,-2.04384e+01,0.00000e+00,0.00000e+00,0.00000e+00
2.03880e+03,-3.28682e+00,-1.92362e+01,0.00000e+00,0.00000e+00,0.00000e+00
2.03880e+03,-3.02870e+00,-1.80339e+01,0.00000e+00,0.00000e+00,0.00000e+00
2.03880e+03,-2.76138e+00,-1.68317e+01,0.00000e+00,0.00000e+00,0.00000e+00
2.03880e+03,-2.48228e+00,-1.56294e+01,0.00000e+00,0.00000e+00,0.00000e+00
2.03880e+03,-2.19562e+00,-1.44271e+01,0.00000e+00,0.00000e+00,0.00000e+00
2.03880e+03,-1.90220e+00,-1.32249e+01,0.00000e+00,0.00000e+00,0.00000e+00
2.03880e+03,-1.60274e+00,-1.20226e+01,0.00000e+00,0.00000e+00,0.00000e+00
2.03880e+03,-1.30072e+00,-1.08204e+01,0.00000e+00,0.00000e+00,0.00000e+00
2.03880e+03,-9.94731e-01,-9.61809e+00,0.00000e+00,0.00000e+00,0.00000e+00
2.03880e+03,-6.88086e-01,-8.41583e+00,0.00000e+00,0.00000e+00,0.00000e+00
2.03880e+03,-3.79073e-01,-7.21357e+00,0.00000e+00,0.00000e+00,0.00000e+00
2.03880e+03,-7.00919e-02,-6.01131e+00,0.00000e+00,0.00000e+00,0.00000e+00
2.03880e+03,2.37722e-01,-4.80905e+00,0.00000e+00,0.00000e+00,0.00000e+00
2.03880e+03,5.45535e-01,-3.60678e+00,0.00000e+00,0.00000e+00,0.00000e+00
2.03880e+03,8.46060e-01,-2.40452e+00,0.00000e+00,0.00000e+00,0.00000e+00
2.03880e+03,1.14523e+00,-1.20226e+00,0.00000e+00,0.00000e+00,0.00000e+00
2.04720e+03,1.48774e+01,0.00000e+00,0.00000e+00,0.00000e+00,0.00000e+00
2.04720e+03,1.48025e+01,-1.13053e+00,0.00000e+00,0.00000e+00,0.00000e+00
2.04720e+03,1.47028e+01,-2.26105e+00,0.00000e+00,0.00000e+00,0.00000e+00
2.04720e+03,1.46021e+01,-3.39158e+00,0.00000e+00,0.00000e+00,0.00000e+00
2.04720e+03,1.44796e+01,-4.52211e+00,0.00000e+00,0.00000e+00,0.00000e+00
2.04720e+03,1.43520e+01,-5.65264e+00,0.00000e+00,0.00000e+00,0.00000e+00
2.04720e+03,1.42077e+01,-6.78316e+00,0.00000e+00,0.00000e+00,0.00000e+00
2.04720e+03,1.40552e+01,-7.91369e+00,0.00000e+00,0.00000e+00,0.00000e+00
2.04720e+03,1.38892e+01,-9.04422e+00,0.00000e+00,0.00000e+00,0.00000e+00
2.04720e+03,1.37121e+01,-1.01747e+01,0.00000e+00,0.00000e+00,0.00000e+00
2.04720e+03,1.35229e+01,-1.13053e+01,0.00000e+00,0.00000e+00,0.00000e+00
2.04720e+03,1.33189e+01,-1.24358e+01,0.00000e+00,0.00000e+00,0.00000e+00
2.04720e+03,1.30998e+01,-1.35663e+01,0.00000e+00,0.00000e+00,0.00000e+00
2.04720e+03,1.28594e+01,-1.46969e+01,0.00000e+00,0.00000e+00,0.00000e+00
2.04720e+03,1.25982e+01,-1.58274e+01,0.00000e+00,0.00000e+00,0.00000e+00
2.04720e+03,1.23120e+01,-1.69579e+01,0.00000e+00,0.00000e+00,0.00000e+00
2.04720e+03,1.19922e+01,-1.80884e+01,0.00000e+00,0.00000e+00,0.00000e+00
2.04720e+03,1.16489e+01,-1.92190e+01,0.00000e+00,0.00000e+00,0.00000e+00
2.04720e+03,1.12528e+01,-2.03495e+01,0.00000e+00,0.00000e+00,0.00000e+00
2.04720e+03,1.08348e+01,-2.14800e+01,0.00000e+00,0.00000e+00,0.00000e+00
2.04720e+03,1.03559e+01,-2.26105e+01,0.00000e+00,0.00000e+00,0.00000e+00
2.04720e+03,9.82823e+00,-2.37411e+01,0.00000e+00,0.00000e+00,0.00000e+00
2.04720e+03,9.25081e+00,-2.48716e+01,0.00000e+00,0.00000e+00,0.00000e+00
2.04720e+03,8.58998e+00,-2.60021e+01,0.00000e+00,0.00000e+00,0.00000e+00
2.04720e+03,7.83252e+00,-2.71326e+01,0.00000e+00,0.00000e+00,0.00000e+00
2.04720e+03,6.96585e+00,-2.82632e+01,0.00000e+00,0.00000e+00,0.00000e+00
2.04720e+03,5.94077e+00,-2.93937e+01,0.00000e+00,0.00000e+00,0.00000e+00
2.04720e+03,4.62500e+00,-3.05242e+01,0.00000e+00,0.00000e+00,0.00000e+00
2.04720e+03,2.84547e+00,-3.16548e+01,0.00000e+00,0.00000e+00,0.00000e+00
2.04720e+03,-1.15296e+00,-3.27853e+01,0.00000e+00,0.00000e+00,0.00000e+00
2.04720e+03,-1.44153e+00,-3.27879e+01,0.00000e+00,0.00000e+00,0.00000e+00
2.04720e+03,-4.07059e+00,-3.16169e+01,0.00000e+00,0.00000e+00,0.00000e+00
2.04720e+03,-4.38891e+00,-3.04459e+01,0.00000e+00,0.00000e+00,0.00000e+00
2.04720e+03,-4.49875e+00,-2.92749e+01,0.00000e+00,0.00000e+00,0.00000e+00
2.04720e+03,-4.51542e+00,-2.81039e+01,0.00000e+00,0.00000e+00,0.00000e+00
2.04720e+03,-4.46189e+00,-2.69329e+01,0.00000e+00,0.00000e+00,0.00000e+00
2.04720e+03,-4.36430e+00,-2.57619e+01,0.00000e+00,0.00000e+00,0.00000e+00
2.04720e+03,-4.22249e+00,-2.45909e+01,0.00000e+00,0.00000e+00,0.00000e+00
2.04720e+03,-4.05369e+00,-2.34199e+01,0.00000e+00,0.00000e+00,0.00000e+00
2.04720e+03,-3.86924e+00,-2.22489e+01,0.00000e+00,0.00000e+00,0.00000e+00
2.04720e+03,-3.66121e+00,-2.10779e+01,0.00000e+00,0.00000e+00,0.00000e+00
2.04720e+03,-3.43845e+00,-1.99069e+01,0.00000e+00,0.00000e+00,0.00000e+00
2.04720e+03,-3.20134e+00,-1.87359e+01,0.00000e+00,0.00000e+00,0.00000e+00
2.04720e+03,-2.94994e+00,-1.75649e+01,0.00000e+00,0.00000e+00,0.00000e+00
2.04720e+03,-2.68957e+00,-1.63940e+01,0.00000e+00,0.00000e+00,0.00000e+00
2.04720e+03,-2.41772e+00,-1.52230e+01,0.00000e+00,0.00000e+00,0.00000e+00
2.04720e+03,-2.13852e+00,-1.40520e+01,0.00000e+00,0.00000e+00,0.00000e+00
2.04720e+03,-1.85273e+00,-1.28810e+01,0.00000e+00,0.00000e+00,0.00000e+00
2.04720e+03,-1.56106e+00,-1.17100e+01,0.00000e+00,0.00000e+00,0.00000e+00
2.04720e+03,-1.26689e+00,-1.05390e+01,0.00000e+00,0.00000e+00,0.00000e+00
2.04720e+03,-9.68863e-01,-9.36797e+00,0.00000e+00,0.00000e+00,0.00000e+00
2.04720e+03,-6.70192e-01,-8.19698e+00,0.00000e+00,0.00000e+00,0.00000e+00
2.04720e+03,-3.69215e-01,-7.02598e+00,0.00000e+00,0.00000e+00,0.00000e+00
2.04720e+03,-6.82691e-02,-5.85498e+00,0.00000e+00,0.00000e+00,0.00000e+00
2.04720e+03,2.31540e-01,-4.68399e+00,0.00000e+00,0.00000e+00,0.00000e+00
2.04720e+03,5.31348e-01,-3.51299e+00,0.00000e+00,0.00000e+00,0.00000e+00
2.04720e+03,8.24058e-01,-2.34199e+00,0.00000e+00,0.00000e+00,0.00000e+00
2.04720e+03,1.11544e+00,-1.17100e+00,0.00000e+00,0.00000e+00,0.00000e+00
2.05000e+03,1.47450e+01,0.00000e+00,0.00000e+00,0.00000e+00,0.00000e+00
2.05000e+03,1.46708e+01,-1.12047e+00,0.00000e+00,0.00000e+00,0.00000e+00
2.05000e+03,1.45720e+01,-2.24093e+00,0.00000e+00,0.00000e+00,0.00000e+00
2.05000e+03,1.44722e+01,-3.36140e+00,0.00000e+00,0.00000e+00,0.00000e+00
2.05000e+03,1.43508e+01,-4.48186e+00,0.00000e+00,0.00000e+00,0.00000e+00
2.05000e+03,1.42243e+01,-5.60233e+00,0.00000e+00,0.00000e+00,0.00000e+00
2.05000e+03,1.40812e+01,-6.72279e+00,0.00000e+00,0.00000e+00,0.00000e+00
2.05000e+03,1.39301e+01,-7.84326e+00,0.00000e+00,0.00000e+00,0.00000e+00
2.05000e+03,1.37656e+01,-8.96372e+00,0.00000e+00,0.00000e+00,0.00000e+00
2.05000e+03,1.35901e+01,-1.00842e+01,0.00000e+00,0.00000e+00,0.00000e+00
2.05000e+03,1.34025e+01,-1.12047e+01,0.00000e+00,0.00000e+00,0.00000e+00
2.05000e+03,1.32004e+01,-1.23251e+01,0.00000e+00,0.00000e+00,0.00000e+00
2.05000e+03,1.29833e+01,-1.34456e+01,0.00000e+00,0.00000e+00,0.00000e+00
2.05000e+03,1.27450e+01,-1.45661e+01,0.00000e+00,0.00000e+00,0.00000e+00
2.05000e+03,1.24860e+01,-1.56865e+01,0.00000e+00,0.00000e+00,0.00000e+00
2.05000e+03,1.22024e+01,-1.68070e+01,0.00000e+00,0.00000e+00,0.00000e+00
2.05000e+03,1.18854e+01,-1.79274e+01,0.00000e+00,0.00000e+00,0.00000e+00
2.05000e+03,1.15452e+01,-1.90479e+01,0.00000e+00,0.00000e+00,0.00000e+00
2.05000e+03,1.11526e+01,-2.01684e+01,0.00000e+00,0.00000e+00,0.00000e+00
2.05000e+03,1.07384e+01,-2.12888e+01,0.00000e+00,0.00000e+00,0.00000e+00
2.05000e+03,1.02638e+01,-2.24093e+01,0.00000e+00,0.00000e+00,0.00000e+00
2.05000e+03,9.74076e+00,-2.35298e+01,0.00000e+00,0.00000e+00,0.00000e+00
2.05000e+03,9.16848e+00,-2.46502e+01,0.00000e+00,0.00000e+00,0.00000e+00
2.05000e+03,8.51353e+00,-2.57707e+01,0.00000e+00,0.00000e+00,0.00000e+00
2.05000e+03,7.76281e+00,-2.68912e+01,0.00000e+00,0.00000e+00,0.00000e+00
2.05000e+03,6.90385e+00,-2.80116e+01,0.00000e+00,0.00000e+00,0.00000e+00
2.05000e+03,5.88790e+00,-2.91321e+01,0.00000e+00,0.00000e+00,0.00000e+00
2.05000e+03,4.58384e+00,-3.02526e+01,0.00000e+00,0.00000e+00,0.00000e+00
2.05000e+03,2.82014e+00,-3.13730e+01,0.00000e+00,0.00000e+00,0.00000e+00
2.05000e+03,-1.14270e+00,-3.24935e+01,0.00000e+00,0.00000e+00,0.00000e+00
2.05000e+03,-1.42870e+00,-3.24961e+01,0.00000e+00,0.00000e+00,0.00000e+00
2.05000e+03,-4.03436e+00,-3.13355e+01,0.00000e+00,0.00000e+00,0.00000e+00
2.05000e+03,-4.34985e+00,-3.01749e+01,0.00000e+00,0.00000e+00,0.00000e+00
2.05000e+03,-4.45871e+00,-2.90144e+01,0.00000e+00,0.00000e+00,0.00000e+00
2.05000e+03,-4.47523e+00,-2.78538e+01,0.00000e+00,0.00000e+00,0.00000e+00
2.05000e+03,-4.42218e+00,-2.66932e+01,0.00000e+00,0.00000e+00,0.00000e+00
2.05000e+03,-4.32546e+00,-2.55327e+01,0.00000e+00,0.00000e+00,0.00000e+00
2.05000e+03,-4.18491e+00,-2.43721e+01,0.00000e+00,0.00000e+00,0.00000e+00
2.05000e+03,-4.01761e+00,-2.32115e+01,0.00000e+00,0.00000e+00,0.00000e+00
2.05000e+03,-3.83480e+00,-2.20509e+01,0.00000e+00,0.00000e+00,0.00000e+00
2.05000e+03,-3.62863e+00,-2.08903e+01,0.00000e+00,0.00000e+00,0.00000e+00
2.05000e+03,-3.40785e+00,-1.97298e+01,0.00000e+00,0.00000e+00,0.00000e+00
2.05000e+03,-3.17285e+00,-1.85692e+01,0.00000e+00,0.00000e+00,0.00000e+00
2.05000e+03,-2.92368e+00,-1.74086e+01,0.00000e+00,0.00000e+00,0.00000e+00
2.05000e+03,-2.66563e+00,-1.62480e+01,0.00000e+00,0.00000e+00,0.00000e+00
2.05000e+03,-2.39621e+00,-1.50875e+01,0.00000e+00,0.00000e+00,0.00000e+00
2.05000e+03,-2.11949e+00,-1.39269e+01,0.00000e+00,0.00000e+00,0.00000e+00
2.05000e+03,-1.83624e+00,-1.27663e+01,0.00000e+00,0.00000e+00,0.00000e+00
2.05000e+03,-1.54717e+00,-1.16057e+01,0.00000e+00,0.00000e+00,0.00000e+00
2.05000e+03,-1.25562e+00,-1.04452e+01,0.00000e+00,0.00000e+00,0.00000e+00
2.05000e+03,-9.60241e-01,-9.28460e+00,0.00000e+00,0.00000e+00,0.00000e+00
2.05000e+03,-6.64227e-01,-8.12402e+00,0.00000e+00,0.00000e+00,0.00000e+00
2.05000e+03,-3.65929e-01,-6.96345e+00,0.00000e+00,0.00000e+00,0.00000e+00
2.05000e+03,-6.76615e-02,-5.80287e+00,0.00000e+00,0.00000e+00,0.00000e+00
2.05000e+03,2.29479e-01,-4.64230e+00,0.00000e+00,0.00000e+00,0.00000e+00
2.05000e+03,5.26620e-01,-3.48173e+00,0.00000e+00,0.00000e+00,0.00000e+00
2.05000e+03,8.16724e-01,-2.32115e+00,0.00000e+00,0.00000e+00,0.00000e+00
2.05000e+03,1.10552e+00,-1.16058e+00,0.00000e+00,0.00000e+00,0.00000e+00
--------------------------------------------------------------------------------------------------------------------------------------------------------------------------------------------------------------------------------------------------------------------------------------------------------------------------------------------------------------------------------

ALMA 
--------------------------------------------------------------------------------------------------------------------------------------------------------------------------------------------------------------------------------------------------------------------------------------------------------------------------------------------------------------------------------
X,Y,Z,Sigma,Tau,Von Mises
0.00000e+00,4.05613e+00,0.00000e+00,1.72697e-01,6.96166e-01,1.21810e+00
0.00000e+00,1.70710e+01,0.00000e+00,5.20455e-02,6.97101e-01,1.20854e+00
0.00000e+00,3.00859e+01,0.00000e+00,-6.86056e-02,6.97101e-01,1.20936e+00
0.00000e+00,4.31008e+01,0.00000e+00,-1.89257e-01,6.96186e-01,1.22059e+00
1.07300e+02,4.01639e+00,0.00000e+00,1.54211e-01,6.58062e-01,1.15018e+00
1.07300e+02,1.69038e+01,0.00000e+00,4.65540e-02,6.58938e-01,1.14226e+00
1.07300e+02,2.97912e+01,0.00000e+00,-6.11029e-02,6.58938e-01,1.14295e+00
1.07300e+02,4.26785e+01,0.00000e+00,-1.68760e-01,6.58080e-01,1.15225e+00
2.14300e+02,3.97676e+00,0.00000e+00,1.36703e-01,6.20051e-01,1.08263e+00
2.14300e+02,1.67370e+01,0.00000e+00,4.13480e-02,6.20869e-01,1.07617e+00
2.14300e+02,2.94972e+01,0.00000e+00,-5.40067e-02,6.20869e-01,1.07673e+00
2.14300e+02,4.22575e+01,0.00000e+00,-1.49361e-01,6.20068e-01,1.08433e+00
3.20700e+02,3.93736e+00,0.00000e+00,1.20235e-01,5.81078e-01,1.01361e+00
3.20700e+02,1.65712e+01,0.00000e+00,3.64452e-02,5.81837e-01,1.00843e+00
3.20700e+02,2.92050e+01,0.00000e+00,-4.73447e-02,5.81837e-01,1.00888e+00
3.20700e+02,4.18388e+01,0.00000e+00,-1.31135e-01,5.81094e-01,1.01499e+00
4.26200e+02,3.89829e+00,0.00000e+00,1.04870e-01,5.41946e-01,9.44518e-01
4.26200e+02,1.64067e+01,0.00000e+00,3.18633e-02,5.42647e-01,9.40431e-01
4.26200e+02,2.89151e+01,0.00000e+00,-4.11433e-02,5.42647e-01,9.40791e-01
4.26200e+02,4.14236e+01,0.00000e+00,-1.14150e-01,5.41960e-01,9.45617e-01
5.30600e+02,3.85963e+00,0.00000e+00,9.06315e-02,5.02770e-01,8.75528e-01
5.30600e+02,1.62440e+01,0.00000e+00,2.76094e-02,5.03414e-01,8.72376e-01
5.30600e+02,2.86284e+01,0.00000e+00,-3.54126e-02,5.03414e-01,8.72658e-01
5.30600e+02,4.10127e+01,0.00000e+00,-9.84347e-02,5.02783e-01,8.76392e-01
6.33500e+02,3.82152e+00,0.00000e+00,7.75595e-02,4.63819e-01,8.07093e-01
6.33500e+02,1.60836e+01,0.00000e+00,2.36955e-02,4.64407e-01,8.04725e-01
6.33500e+02,2.83457e+01,0.00000e+00,-3.01685e-02,4.64407e-01,8.04942e-01
6.33500e+02,4.06078e+01,0.00000e+00,-8.40325e-02,4.63830e-01,8.07761e-01
7.34700e+02,3.78404e+00,0.00000e+00,6.56542e-02,4.25180e-01,7.39355e-01
7.34700e+02,1.59259e+01,0.00000e+00,2.01218e-02,4.25714e-01,7.37633e-01
7.34700e+02,2.80677e+01,0.00000e+00,-2.54106e-02,4.25714e-01,7.37796e-01
7.34700e+02,4.02095e+01,0.00000e+00,-7.09430e-02,4.25191e-01,7.39861e-01
8.33800e+02,3.74734e+00,0.00000e+00,5.49281e-02,3.87027e-01,6.72597e-01
8.33800e+02,1.57714e+01,0.00000e+00,1.68925e-02,3.87508e-01,6.71396e-01
8.33800e+02,2.77955e+01,0.00000e+00,-2.11430e-02,3.87508e-01,6.71517e-01
8.33800e+02,3.98196e+01,0.00000e+00,-5.91785e-02,3.87036e-01,6.72974e-01
9.30700e+02,3.71145e+00,0.00000e+00,4.53511e-02,3.49316e-01,6.06730e-01
9.30700e+02,1.56204e+01,0.00000e+00,1.39998e-02,3.49746e-01,6.05939e-01
9.30700e+02,2.75293e+01,0.00000e+00,-1.73516e-02,3.49746e-01,6.06026e-01
9.30700e+02,3.94382e+01,0.00000e+00,-4.87029e-02,3.49324e-01,6.07004e-01
1.02500e+03,3.67653e+00,0.00000e+00,3.69094e-02,3.12622e-01,5.42735e-01
1.02500e+03,1.54734e+01,0.00000e+00,1.14410e-02,3.13004e-01,5.42259e-01
1.02500e+03,2.72703e+01,0.00000e+00,-1.40274e-02,3.13004e-01,5.42320e-01
1.02500e+03,3.90671e+01,0.00000e+00,-3.94958e-02,3.12630e-01,5.42929e-01
1.11650e+03,3.64264e+00,0.00000e+00,2.95658e-02,2.76149e-01,4.79217e-01
1.11650e+03,1.53308e+01,0.00000e+00,9.20693e-03,2.76483e-01,4.78971e-01
1.11650e+03,2.70189e+01,0.00000e+00,-1.11519e-02,2.76483e-01,4.79012e-01
1.11650e+03,3.87070e+01,0.00000e+00,-3.15107e-02,2.76155e-01,4.79351e-01
1.20500e+03,3.54704e+00,0.00000e+00,3.32661e-02,2.42596e-01,4.21504e-01
1.20500e+03,1.49284e+01,0.00000e+00,1.04119e-02,2.43004e-01,4.21025e-01
1.20500e+03,2.63098e+01,0.00000e+00,-1.24423e-02,2.43004e-01,4.21080e-01
1.20500e+03,3.76912e+01,0.00000e+00,-3.52965e-02,2.42607e-01,4.21688e-01
1.29010e+03,3.41832e+00,0.00000e+00,2.65929e-02,2.16599e-01,3.76102e-01
1.29010e+03,1.43867e+01,0.00000e+00,8.37632e-03,2.16950e-01,3.75862e-01
1.29010e+03,2.53550e+01,0.00000e+00,-9.84028e-03,2.16950e-01,3.75898e-01
1.29010e+03,3.63234e+01,0.00000e+00,-2.80569e-02,2.16608e-01,3.76224e-01
1.37170e+03,3.29489e+00,0.00000e+00,2.07950e-02,1.90912e-01,3.31323e-01
1.37170e+03,1.38672e+01,0.00000e+00,6.59737e-03,1.91211e-01,3.31252e-01
1.37170e+03,2.44395e+01,0.00000e+00,-7.60028e-03,1.91211e-01,3.31274e-01
1.37170e+03,3.50118e+01,0.00000e+00,-2.17979e-02,1.90920e-01,3.31401e-01
1.44960e+03,3.17706e+00,0.00000e+00,1.58457e-02,1.65956e-01,2.87881e-01
1.44960e+03,1.33713e+01,0.00000e+00,5.06747e-03,1.66206e-01,2.87922e-01
1.44960e+03,2.35655e+01,0.00000e+00,-5.71077e-03,1.66206e-01,2.87934e-01
1.44960e+03,3.37597e+01,0.00000e+00,-1.64890e-02,1.65963e-01,2.87928e-01
1.52340e+03,3.06543e+00,0.00000e+00,1.17254e-02,1.41240e-01,2.44916e-01
1.52340e+03,1.29015e+01,0.00000e+00,3.78235e-03,1.41444e-01,2.45018e-01
1.52340e+03,2.27375e+01,0.00000e+00,-4.16067e-03,1.41444e-01,2.45024e-01
1.52340e+03,3.25736e+01,0.00000e+00,-1.21037e-02,1.41245e-01,2.44943e-01
1.59310e+03,2.96000e+00,0.00000e+00,8.38763e-03,1.17083e-01,2.02968e-01
1.59310e+03,1.24578e+01,0.00000e+00,2.73013e-03,1.17246e-01,2.03095e-01
1.59310e+03,2.19555e+01,0.00000e+00,-2.92737e-03,1.17246e-01,2.03097e-01
1.59310e+03,3.14533e+01,0.00000e+00,-8.58486e-03,1.17087e-01,2.02982e-01
1.65850e+03,2.86108e+00,0.00000e+00,5.78248e-03,9.37594e-02,1.62499e-01
1.65850e+03,1.20414e+01,0.00000e+00,1.89870e-03,9.38848e-02,1.62624e-01
1.65850e+03,2.12218e+01,0.00000e+00,-1.98507e-03,9.38848e-02,1.62625e-01
1.65850e+03,3.04021e+01,0.00000e+00,-5.86884e-03,9.37622e-02,1.62507e-01
1.71930e+03,2.76911e+00,0.00000e+00,3.84917e-03,7.15293e-02,1.23952e-01
1.71930e+03,1.16544e+01,0.00000e+00,1.27326e-03,7.16215e-02,1.24059e-01
1.71930e+03,2.05396e+01,0.00000e+00,-1.30265e-03,7.16215e-02,1.24059e-01
1.71930e+03,2.94249e+01,0.00000e+00,-3.87856e-03,7.15313e-02,1.23957e-01
1.77540e+03,2.60964e+00,0.00000e+00,4.49449e-03,8.62991e-02,1.49542e-01
1.77540e+03,1.09832e+01,0.00000e+00,1.50131e-03,8.64120e-02,1.49677e-01
1.77540e+03,1.93567e+01,0.00000e+00,-1.49186e-03,8.64120e-02,1.49677e-01
1.77540e+03,2.77303e+01,0.00000e+00,-4.48504e-03,8.63034e-02,1.49549e-01
1.82660e+03,2.38179e+00,0.00000e+00,3.16481e-03,6.26663e-02,1.08587e-01
1.82660e+03,1.00242e+01,0.00000e+00,1.05726e-03,6.27416e-02,1.08677e-01
1.82660e+03,1.76667e+01,0.00000e+00,-1.05029e-03,6.27416e-02,1.08677e-01
1.82660e+03,2.53092e+01,0.00000e+00,-3.15785e-03,6.26690e-02,1.08592e-01
1.87280e+03,2.17619e+00,0.00000e+00,2.28606e-03,4.57129e-02,7.92100e-02
1.87280e+03,9.15894e+00,0.00000e+00,7.61890e-04,4.57643e-02,7.92698e-02
1.87280e+03,1.61417e+01,0.00000e+00,-7.62283e-04,4.57643e-02,7.92698e-02
1.87280e+03,2.31244e+01,0.00000e+00,-2.28646e-03,4.57146e-02,7.92130e-02
1.91380e+03,1.99374e+00,0.00000e+00,1.55377e-03,5.11774e-02,8.86555e-02
1.91380e+03,8.39104e+00,0.00000e+00,5.16768e-04,5.12299e-02,8.87342e-02
1.91380e+03,1.47883e+01,0.00000e+00,-5.20229e-04,5.12299e-02,8.87342e-02
1.91380e+03,2.11856e+01,0.00000e+00,-1.55723e-03,5.11790e-02,8.86583e-02
1.94970e+03,1.83398e+00,0.00000e+00,8.84785e-04,4.14767e-02,7.18452e-02
1.94970e+03,7.71865e+00,0.00000e+00,2.94181e-04,4.15163e-02,7.19090e-02
1.94970e+03,1.36033e+01,0.00000e+00,-2.96424e-04,4.15163e-02,7.19090e-02
1.94970e+03,1.94880e+01,0.00000e+00,-8.87028e-04,4.14778e-02,7.18471e-02
1.98010e+03,1.69869e+00,0.00000e+00,4.30080e-04,2.90440e-02,5.03075e-02
1.98010e+03,7.14927e+00,0.00000e+00,1.43777e-04,2.90697e-02,5.03505e-02
1.98010e+03,1.25999e+01,0.00000e+00,-1.42525e-04,2.90697e-02,5.03505e-02
1.98010e+03,1.80504e+01,0.00000e+00,-4.28828e-04,2.90447e-02,5.03086e-02
2.00520e+03,1.58699e+00,0.00000e+00,1.69756e-04,1.79886e-02,3.11577e-02
2.00520e+03,6.67917e+00,0.00000e+00,5.73443e-05,1.80034e-02,3.11828e-02
2.00520e+03,1.17713e+01,0.00000e+00,-5.50670e-05,1.80034e-02,3.11828e-02
2.00520e+03,1.68635e+01,0.00000e+00,-1.67478e-04,1.79890e-02,3.11583e-02
2.02480e+03,1.49977e+00,0.00000e+00,4.90204e-05,9.18018e-03,1.59006e-02
2.02480e+03,6.31207e+00,0.00000e+00,1.68256e-05,9.18714e-03,1.59126e-02
2.02480e+03,1.11244e+01,0.00000e+00,-1.53691e-05,9.18714e-03,1.59126e-02
2.02480e+03,1.59367e+01,0.00000e+00,-4.75639e-05,9.18034e-03,1.59009e-02
2.03880e+03,1.43746e+00,0.00000e+00,8.61405e-06,3.33009e-03,5.76788e-03
2.03880e+03,6.04986e+00,0.00000e+00,3.02820e-06,3.33244e-03,5.77196e-03
2.03880e+03,1.06622e+01,0.00000e+00,-2.55766e-06,3.33244e-03,5.77196e-03
2.03880e+03,1.52746e+01,0.00000e+00,-8.14351e-06,3.33014e-03,5.76797e-03
2.04720e+03,1.40008e+00,0.00000e+00,1.04862e-06,5.49106e-04,9.51080e-04
2.04720e+03,5.89253e+00,0.00000e+00,3.82467e-07,5.49455e-04,9.51683e-04
2.04720e+03,1.03850e+01,0.00000e+00,-2.83682e-07,5.49455e-04,9.51683e-04
2.04720e+03,1.48774e+01,0.00000e+00,-9.49832e-07,5.49113e-04,9.51093e-04
2.05000e+03,1.38762e+00,0.00000e+00,0.00000e+00,0.00000e+00,0.00000e+00
2.05000e+03,5.84009e+00,0.00000e+00,0.00000e+00,0.00000e+00,0.00000e+00
2.05000e+03,1.02925e+01,0.00000e+00,0.00000e+00,0.00000e+00,0.00000e+00
2.05000e+03,1.47450e+01,0.00000e+00,0.00000e+00,0.00000e+00,0.00000e+00
MESA INFERIOR 
--------------------------------------------------------------------------------------------------------------------------------------------------------------------------------------------------------------------------------------------------------------------------------------------------------------------------------------------------------------------------------
X,Y,Z,Sigma,Von Mises
0.00000e+00,4.05613e+00,0.00000e+00,0.00000e+00,0.00000e+00
1.07300e+02,4.01639e+00,0.00000e+00,0.00000e+00,0.00000e+00
2.14300e+02,3.97676e+00,0.00000e+00,0.00000e+00,0.00000e+00
3.20700e+02,3.93736e+00,0.00000e+00,0.00000e+00,0.00000e+00
4.26200e+02,3.89829e+00,0.00000e+00,0.00000e+00,0.00000e+00
5.30600e+02,3.85963e+00,0.00000e+00,0.00000e+00,0.00000e+00
6.33500e+02,3.82152e+00,0.00000e+00,0.00000e+00,0.00000e+00
7.34700e+02,3.78404e+00,0.00000e+00,0.00000e+00,0.00000e+00
8.33800e+02,3.74734e+00,0.00000e+00,0.00000e+00,0.00000e+00
9.30700e+02,3.71145e+00,0.00000e+00,0.00000e+00,0.00000e+00
1.02500e+03,3.67653e+00,0.00000e+00,0.00000e+00,0.00000e+00
1.11650e+03,3.64264e+00,0.00000e+00,0.00000e+00,0.00000e+00
1.20500e+03,3.54704e+00,0.00000e+00,0.00000e+00,0.00000e+00
1.29010e+03,3.41832e+00,0.00000e+00,0.00000e+00,0.00000e+00
1.37170e+03,3.29489e+00,0.00000e+00,0.00000e+00,0.00000e+00
1.44960e+03,3.17706e+00,0.00000e+00,0.00000e+00,0.00000e+00
1.52340e+03,3.06543e+00,0.00000e+00,0.00000e+00,0.00000e+00
1.59310e+03,2.96000e+00,0.00000e+00,0.00000e+00,0.00000e+00
1.65850e+03,2.86108e+00,0.00000e+00,0.00000e+00,0.00000e+00
1.71930e+03,2.76911e+00,0.00000e+00,0.00000e+00,0.00000e+00
1.77540e+03,2.60964e+00,0.00000e+00,0.00000e+00,0.00000e+00
1.82660e+03,2.38179e+00,0.00000e+00,0.00000e+00,0.00000e+00
1.87280e+03,2.17619e+00,0.00000e+00,0.00000e+00,0.00000e+00
1.91380e+03,1.99374e+00,0.00000e+00,0.00000e+00,0.00000e+00
1.94970e+03,1.83398e+00,0.00000e+00,0.00000e+00,0.00000e+00
1.98010e+03,1.69869e+00,0.00000e+00,0.00000e+00,0.00000e+00
2.00520e+03,1.58699e+00,0.00000e+00,0.00000e+00,0.00000e+00
2.02480e+03,1.49977e+00,0.00000e+00,0.00000e+00,0.00000e+00
2.03880e+03,1.43746e+00,0.00000e+00,0.00000e+00,0.00000e+00
2.04720e+03,1.40008e+00,0.00000e+00,0.00000e+00,0.00000e+00
2.05000e+03,1.38762e+00,0.00000e+00,0.00000e+00,0.00000e+00
--------------------------------------------------------------------------------------------------------------------------------------------------------------------------------------------------------------------------------------------------------------------------------------------------------------------------------------------------------------------------------

MESA SUPERIOR 
--------------------------------------------------------------------------------------------------------------------------------------------------------------------------------------------------------------------------------------------------------------------------------------------------------------------------------------------------------------------------------
X,Y,Z,Sigma,Von Mises
0.00000e+00,4.31008e+01,0.00000e+00,0.00000e+00,0.00000e+00
1.07300e+02,4.26785e+01,0.00000e+00,0.00000e+00,0.00000e+00
2.14300e+02,4.22575e+01,0.00000e+00,0.00000e+00,0.00000e+00
3.20700e+02,4.18388e+01,0.00000e+00,0.00000e+00,0.00000e+00
4.26200e+02,4.14236e+01,0.00000e+00,0.00000e+00,0.00000e+00
5.30600e+02,4.10127e+01,0.00000e+00,0.00000e+00,0.00000e+00
6.33500e+02,4.06078e+01,0.00000e+00,0.00000e+00,0.00000e+00
7.34700e+02,4.02095e+01,0.00000e+00,0.00000e+00,0.00000e+00
8.33800e+02,3.98196e+01,0.00000e+00,0.00000e+00,0.00000e+00
9.30700e+02,3.94382e+01,0.00000e+00,0.00000e+00,0.00000e+00
1.02500e+03,3.90671e+01,0.00000e+00,0.00000e+00,0.00000e+00
1.11650e+03,3.87070e+01,0.00000e+00,0.00000e+00,0.00000e+00
1.20500e+03,3.76912e+01,0.00000e+00,0.00000e+00,0.00000e+00
1.29010e+03,3.63234e+01,0.00000e+00,0.00000e+00,0.00000e+00
1.37170e+03,3.50118e+01,0.00000e+00,0.00000e+00,0.00000e+00
1.44960e+03,3.37597e+01,0.00000e+00,0.00000e+00,0.00000e+00
1.52340e+03,3.25736e+01,0.00000e+00,0.00000e+00,0.00000e+00
1.59310e+03,3.14533e+01,0.00000e+00,0.00000e+00,0.00000e+00
1.65850e+03,3.04021e+01,0.00000e+00,0.00000e+00,0.00000e+00
1.71930e+03,2.94249e+01,0.00000e+00,0.00000e+00,0.00000e+00
1.77540e+03,2.77303e+01,0.00000e+00,0.00000e+00,0.00000e+00
1.82660e+03,2.53092e+01,0.00000e+00,0.00000e+00,0.00000e+00
1.87280e+03,2.31244e+01,0.00000e+00,0.00000e+00,0.00000e+00
1.91380e+03,2.11856e+01,0.00000e+00,0.00000e+00,0.00000e+00
1.94970e+03,1.94880e+01,0.00000e+00,0.00000e+00,0.00000e+00
1.98010e+03,1.80504e+01,0.00000e+00,0.00000e+00,0.00000e+00
2.00520e+03,1.68635e+01,0.00000e+00,0.00000e+00,0.00000e+00
2.02480e+03,1.59367e+01,0.00000e+00,0.00000e+00,0.00000e+00
2.03880e+03,1.52746e+01,0.00000e+00,0.00000e+00,0.00000e+00
2.04720e+03,1.48774e+01,0.00000e+00,0.00000e+00,0.00000e+00
2.05000e+03,1.47450e+01,0.00000e+00,0.00000e+00,0.00000e+00
--------------------------------------------------------------------------------------------------------------------------------------------------------------------------------------------------------------------------------------------------------------------------------------------------------------------------------------------------------------------------------

